17
Coordinates from ORCA-job freq E -421.392042195622
  C          -2.37841528063227     -0.37316351154996      0.60630336963631
  C           0.15767977650632     -0.26703691325533      0.52388915728729
  C           2.73575947893764     -0.04807354911798     -0.21327411007884
  C           1.30612709845485      0.19597861489306     -0.31845705414082
  C          -1.16977758938482      0.25637088680063     -0.04679237306456
  O          -0.28203800836071      0.66175168560841     -2.10633189390615
  O           2.13109493269348      1.22208983263443      0.08322289537998
  O          -1.20808687065387     -0.10456166752032     -1.42112355808559
  H           0.71461985680658      0.40866992877062     -1.50343853707656
  H          -3.29464223349339      0.02059674522012      0.17114096271438
  H          -2.36060429020531     -1.45398144568872      0.46584939999865
  H          -2.37754999287727     -0.16141639666490      1.67483857659447
  H           0.11901101700599     -1.35724423806250      0.52361666801841
  H           0.29554873859627      0.08827600572225      1.54781036107453
  H           3.13229364468169     -0.56589031188352      0.65287632126763
  H           3.34466562953187     -0.06760803430462     -1.10752264245801
  H          -1.19990490760708      1.34710836839834      0.02004445683887
