17
Coordinates from ORCA-job freq E -421.373065442963
  C          -1.26771065732925      1.21899416369434     -0.38016369581319
  C          -1.30973583831511     -0.28044703496645     -0.37775975601881
  C           2.15630727981418      0.42159298758247      0.12916095336010
  C          -0.02104883381904     -1.00383905324686      0.02740081088287
  C           1.22947159249251     -0.44875098203169     -0.59770885896291
  O          -1.28582958153759     -1.13969279061278      1.81952506715752
  O           2.45966331173866     -0.94240350515566     -0.12098072016671
  O           0.01312864135775     -0.82489015306458      1.43682611873687
  H          -1.81082819019645     -0.67598670823789      0.78948441294062
  H          -2.26758877622247      1.64313321315914     -0.45364481118392
  H          -0.78989497057755      1.59121185063388      0.52635369349022
  H          -0.69022856678922      1.58647007734411     -1.23508659519460
  H          -1.88448582417006     -0.74152614470042     -1.17627320762457
  H           2.75501508314635      1.13478076918225     -0.42457078669204
  H           1.94638849131069      0.65979902800457      1.16380440899683
  H          -0.11055060562257     -2.07083468022187     -0.19873157416005
  H           1.16900544471914     -0.35511803736254     -1.67948445974823
