15
Coordinates from ORCA-job freq E -271.038645766312
  C          -1.44703867811783      1.16580574941578      2.53348038841700
  C           2.30979298162005     -0.28669876493654      0.34112803198078
  C           1.16278901898043      0.17509017589314      1.09616881388876
  C          -1.13152530179303     -0.25291805592765      2.07329251790847
  C          -0.25263557983583     -0.28565892695149      0.82418419077489
  O           1.80291385965410      0.93476338867314      0.03535836974655
  H          -1.99769384017442      1.70498680823659      1.76146764845596
  H          -0.53906483428532      1.73234305975456      2.74377998727453
  H          -2.05212626165962      1.16342020285929      3.43933841481024
  H           2.40051322177685     -1.06442771864157     -0.40971928217739
  H           1.35395902487612      0.59262161872011      2.07987318772277
  H          -2.06236133034811     -0.78249473515070      1.86566038272433
  H          -0.63747653834200     -0.80540456341144      2.87703037066956
  H          -0.23352242361890     -1.29213549181277      0.40256327101147
  H          -0.67464331873248      0.36952425327950      0.05740270679196
