17
Coordinates from ORCA-job freq E -421.370439885570
  C           0.78577909834146     -0.12848607590318     -0.44456172504448
  C          -0.33138374114750     -0.03746268449865      0.54894667994150
  C           2.20180889573363     -0.39752079171085      0.04856959093778
  C          -2.59143714617552     -0.44417251048742     -0.64418821744849
  C          -1.60354611497032      0.47350858795696     -0.07237169950276
  O           2.37587072098120      1.54449248103030     -0.95409050747947
  O          -2.80251609484516      0.17674671473016      0.61234524689539
  O           3.01503392888856      0.31214742456475     -0.86879262483415
  H           1.23332345568871      1.06315561277704     -0.85753765821389
  H           0.53590818523253     -0.63587255828654     -1.37644965046038
  H          -0.53776225968060     -1.02702440555178      0.97602727007892
  H          -0.03957075056743      0.60687828898388      1.38260975462960
  H           2.32758338643978     -0.00058230645929      1.06018978077055
  H           2.50977311283421     -1.44284312644300      0.01111154448581
  H          -3.24312289067038     -0.10802789969873     -1.44126766633333
  H          -2.40145687985887     -1.51141730755153     -0.60282819292482
  H          -1.55822590622429      1.48218455654790     -0.47368592549775
