17
Coordinates from ORCA-job freq E -421.419366875086
  C           2.18552176128756      1.37212690950990     -0.26058605314761
  C          -2.52985541460792     -0.47092477782677     -0.27584908523026
  C          -1.15811453377658     -0.55629587888148      0.38707129215092
  C          -0.25605853033289      0.53769772194208     -0.10410212631322
  C           1.17873554460621      0.32674657129897     -0.37505966225199
  O           1.85630970520395     -1.18954470729557      1.15860205603435
  O           0.25353761636717      0.40746101887263     -1.43098172972751
  O           1.66276076709726     -0.97926280311782     -0.23466443468706
  H           3.23065285024408      1.11389458586269     -0.20512022084123
  H           1.88907458976526      2.40595211243606     -0.33239402229259
  H          -3.18256432776808     -1.26873709474054      0.07536560749008
  H          -2.43408299619353     -0.56011331225047     -1.35768953251513
  H          -3.01490461067525      0.48138792617988     -0.05670870881749
  H          -0.69051860372193     -1.51729433551378      0.17913042888656
  H          -1.24811870222253     -0.46226954742672      1.47108133782777
  H          -0.56043829961415      1.55429247977299      0.13643500478260
  H           2.81806218434133     -1.19511686882205      1.22546884865183
