15
* (null), Energy   -1000.0000000
C     1.183911   -0.888611    0.961041   -0.134533   -0.032942   -0.018393
C    -1.346584   -0.739502    0.328740   -0.117650    0.044719   -0.048561
C    -1.018891    0.356099   -0.656402    0.012199   -0.015176    0.007994
C     1.282488    0.532663    0.533546    0.016667    0.012536   -0.003144
C     0.197685    1.153943   -0.245041    0.008635   -0.000165    0.003109
O     0.355527    1.427010    1.136264   -0.001352    0.000527    0.000668
H    -0.128606   -1.112922    0.732813    1.885292   -0.099453    0.462511
H     1.324391   -1.054266    2.025678    0.229115    0.070734   -0.031933
H     1.739980   -1.587504    0.342394    0.134640    0.088426    0.055749
H    -1.803175   -0.398279    1.252113    0.185926   -0.062312    0.121090
H    -1.830650   -1.618308   -0.084874    0.153751   -0.124574    0.039738
H    -0.822525   -0.060065   -1.647199   -0.007929   -0.002380    0.000069
H    -1.862827    1.044441   -0.770821    0.000482    0.003118    0.028262
H     2.278851    0.954338    0.417712    0.002021    0.015227    0.023620
H     0.450424    1.990963   -0.889172   -0.003764   -0.004053   -0.006735
15
* Frequency(6) -1557.5471
C     1.168622   -0.892354    0.958951   -0.134533   -0.032942   -0.018393
C    -1.359954   -0.734420    0.323222   -0.117650    0.044719   -0.048561
C    -1.017505    0.354374   -0.655493    0.012199   -0.015176    0.007994
C     1.284382    0.534088    0.533188    0.016667    0.012536   -0.003144
C     0.198666    1.153925   -0.244688    0.008635   -0.000165    0.003109
O     0.355373    1.427070    1.136340   -0.001352    0.000527    0.000668
H     0.085648   -1.124224    0.785375    1.885292   -0.099453    0.462511
H     1.350429   -1.046227    2.022049    0.229115    0.070734   -0.031933
H     1.755281   -1.577455    0.348730    0.134640    0.088426    0.055749
H    -1.782046   -0.405361    1.265874    0.185926   -0.062312    0.121090
H    -1.813177   -1.632465   -0.080358    0.153751   -0.124574    0.039738
H    -0.823426   -0.060336   -1.647191   -0.007929   -0.002380    0.000069
H    -1.862773    1.044796   -0.767610    0.000482    0.003118    0.028262
H     2.279081    0.956068    0.420396    0.002021    0.015227    0.023620
H     0.449996    1.990503   -0.889937   -0.003764   -0.004053   -0.006735
15
* Frequency(6) -1557.5471
C     1.154990   -0.895692    0.957087   -0.134533   -0.032942   -0.018393
C    -1.371876   -0.729888    0.318301   -0.117650    0.044719   -0.048561
C    -1.016268    0.352837   -0.654683    0.012199   -0.015176    0.007994
C     1.286071    0.535358    0.532870    0.016667    0.012536   -0.003144
C     0.199541    1.153908   -0.244373    0.008635   -0.000165    0.003109
O     0.355236    1.427123    1.136407   -0.001352    0.000527    0.000668
H     0.276684   -1.134302    0.832241    1.885292   -0.099453    0.462511
H     1.373645   -1.039060    2.018813    0.229115    0.070734   -0.031933
H     1.768924   -1.568494    0.354379    0.134640    0.088426    0.055749
H    -1.763206   -0.411675    1.278144    0.185926   -0.062312    0.121090
H    -1.797598   -1.645088   -0.076331    0.153751   -0.124574    0.039738
H    -0.824229   -0.060577   -1.647184   -0.007929   -0.002380    0.000069
H    -1.862724    1.045112   -0.764746    0.000482    0.003118    0.028262
H     2.279286    0.957611    0.422790    0.002021    0.015227    0.023620
H     0.449614    1.990092   -0.890619   -0.003764   -0.004053   -0.006735
15
* Frequency(6) -1557.5471
C     1.144492   -0.898263    0.955651   -0.134533   -0.032942   -0.018393
C    -1.381057   -0.726399    0.314512   -0.117650    0.044719   -0.048561
C    -1.015317    0.351652   -0.654059    0.012199   -0.015176    0.007994
C     1.287372    0.536337    0.532624    0.016667    0.012536   -0.003144
C     0.200215    1.153895   -0.244130    0.008635   -0.000165    0.003109
O     0.355131    1.427164    1.136459   -0.001352    0.000527    0.000668
H     0.423800   -1.142062    0.868333    1.885292   -0.099453    0.462511
H     1.391524   -1.033540    2.016322    0.229115    0.070734   -0.031933
H     1.779431   -1.561594    0.358729    0.134640    0.088426    0.055749
H    -1.748697   -0.416537    1.287593    0.185926   -0.062312    0.121090
H    -1.785600   -1.654809   -0.073230    0.153751   -0.124574    0.039738
H    -0.824848   -0.060763   -1.647178   -0.007929   -0.002380    0.000069
H    -1.862686    1.045355   -0.762540    0.000482    0.003118    0.028262
H     2.279443    0.958800    0.424633    0.002021    0.015227    0.023620
H     0.449321    1.989776   -0.891145   -0.003764   -0.004053   -0.006735
15
* Frequency(6) -1557.5471
C     1.138265   -0.899787    0.954800   -0.134533   -0.032942   -0.018393
C    -1.386502   -0.724329    0.312264   -0.117650    0.044719   -0.048561
C    -1.014752    0.350950   -0.653690    0.012199   -0.015176    0.007994
C     1.288143    0.536917    0.532479    0.016667    0.012536   -0.003144
C     0.200615    1.153887   -0.243986    0.008635   -0.000165    0.003109
O     0.355068    1.427189    1.136490   -0.001352    0.000527    0.000668
H     0.511055   -1.146665    0.889739    1.885292   -0.099453    0.462511
H     1.402128   -1.030266    2.014844    0.229115    0.070734   -0.031933
H     1.785662   -1.557502    0.361309    0.134640    0.088426    0.055749
H    -1.740092   -0.419421    1.293198    0.185926   -0.062312    0.121090
H    -1.778484   -1.660575   -0.071391    0.153751   -0.124574    0.039738
H    -0.825215   -0.060873   -1.647175   -0.007929   -0.002380    0.000069
H    -1.862664    1.045499   -0.761232    0.000482    0.003118    0.028262
H     2.279537    0.959504    0.425726    0.002021    0.015227    0.023620
H     0.449147    1.989588   -0.891457   -0.003764   -0.004053   -0.006735
15
* Frequency(6) -1557.5471
C     1.136985   -0.900101    0.954625   -0.134533   -0.032942   -0.018393
C    -1.387621   -0.723904    0.311802   -0.117650    0.044719   -0.048561
C    -1.014636    0.350806   -0.653613    0.012199   -0.015176    0.007994
C     1.288302    0.537036    0.532449    0.016667    0.012536   -0.003144
C     0.200697    1.153886   -0.243957    0.008635   -0.000165    0.003109
O     0.355056    1.427194    1.136497   -0.001352    0.000527    0.000668
H     0.528993   -1.147611    0.894139    1.885292   -0.099453    0.462511
H     1.404308   -1.029593    2.014540    0.229115    0.070734   -0.031933
H     1.786943   -1.556660    0.361840    0.134640    0.088426    0.055749
H    -1.738323   -0.420014    1.294350    0.185926   -0.062312    0.121090
H    -1.777022   -1.661760   -0.071013    0.153751   -0.124574    0.039738
H    -0.825290   -0.060895   -1.647174   -0.007929   -0.002380    0.000069
H    -1.862659    1.045529   -0.760964    0.000482    0.003118    0.028262
H     2.279556    0.959649    0.425951    0.002021    0.015227    0.023620
H     0.449111    1.989550   -0.891521   -0.003764   -0.004053   -0.006735
15
* Frequency(6) -1557.5471
C     1.140790   -0.899169    0.955145   -0.134533   -0.032942   -0.018393
C    -1.384293   -0.725169    0.313176   -0.117650    0.044719   -0.048561
C    -1.014981    0.351235   -0.653840    0.012199   -0.015176    0.007994
C     1.287830    0.536681    0.532538    0.016667    0.012536   -0.003144
C     0.200453    1.153890   -0.244045    0.008635   -0.000165    0.003109
O     0.355094    1.427179    1.136478   -0.001352    0.000527    0.000668
H     0.475669   -1.144799    0.881058    1.885292   -0.099453    0.462511
H     1.397828   -1.031594    2.015443    0.229115    0.070734   -0.031933
H     1.783135   -1.559161    0.360263    0.134640    0.088426    0.055749
H    -1.743582   -0.418251    1.290925    0.185926   -0.062312    0.121090
H    -1.781370   -1.658237   -0.072137    0.153751   -0.124574    0.039738
H    -0.825066   -0.060828   -1.647176   -0.007929   -0.002380    0.000069
H    -1.862673    1.045441   -0.761763    0.000482    0.003118    0.028262
H     2.279499    0.959219    0.425283    0.002021    0.015227    0.023620
H     0.449217    1.989664   -0.891330   -0.003764   -0.004053   -0.006735
15
* Frequency(6) -1557.5471
C     1.149268   -0.897093    0.956305   -0.134533   -0.032942   -0.018393
C    -1.376879   -0.727987    0.316236   -0.117650    0.044719   -0.048561
C    -1.015750    0.352191   -0.654343    0.012199   -0.015176    0.007994
C     1.286780    0.535891    0.532736    0.016667    0.012536   -0.003144
C     0.199909    1.153901   -0.244241    0.008635   -0.000165    0.003109
O     0.355179    1.427146    1.136436   -0.001352    0.000527    0.000668
H     0.356863   -1.138531    0.851911    1.885292   -0.099453    0.462511
H     1.383389   -1.036051    2.017455    0.229115    0.070734   -0.031933
H     1.774650   -1.564734    0.356750    0.134640    0.088426    0.055749
H    -1.755299   -0.414325    1.283294    0.185926   -0.062312    0.121090
H    -1.791059   -1.650386   -0.074641    0.153751   -0.124574    0.039738
H    -0.824566   -0.060678   -1.647181   -0.007929   -0.002380    0.000069
H    -1.862703    1.045244   -0.763544    0.000482    0.003118    0.028262
H     2.279372    0.958259    0.423794    0.002021    0.015227    0.023620
H     0.449454    1.989920   -0.890906   -0.003764   -0.004053   -0.006735
15
* Frequency(6) -1557.5471
C     1.161500   -0.894098    0.957977   -0.134533   -0.032942   -0.018393
C    -1.366182   -0.732053    0.320651   -0.117650    0.044719   -0.048561
C    -1.016859    0.353571   -0.655070    0.012199   -0.015176    0.007994
C     1.285265    0.534752    0.533022    0.016667    0.012536   -0.003144
C     0.199123    1.153916   -0.244523    0.008635   -0.000165    0.003109
O     0.355302    1.427098    1.136375   -0.001352    0.000527    0.000668
H     0.185449   -1.129489    0.809859    1.885292   -0.099453    0.462511
H     1.362558   -1.042483    2.020359    0.229115    0.070734   -0.031933
H     1.762408   -1.572774    0.351681    0.134640    0.088426    0.055749
H    -1.772203   -0.408659    1.272284    0.185926   -0.062312    0.121090
H    -1.805038   -1.639060   -0.078254    0.153751   -0.124574    0.039738
H    -0.823845   -0.060462   -1.647187   -0.007929   -0.002380    0.000069
H    -1.862747    1.044961   -0.766113    0.000482    0.003118    0.028262
H     2.279188    0.956875    0.421647    0.002021    0.015227    0.023620
H     0.449797    1.990288   -0.890294   -0.003764   -0.004053   -0.006735
15
* Frequency(6) -1557.5471
C     1.176161   -0.890508    0.959981   -0.134533   -0.032942   -0.018393
C    -1.353362   -0.736926    0.325943   -0.117650    0.044719   -0.048561
C    -1.018188    0.355225   -0.655941    0.012199   -0.015176    0.007994
C     1.283448    0.533386    0.533364    0.016667    0.012536   -0.003144
C     0.198182    1.153934   -0.244862    0.008635   -0.000165    0.003109
O     0.355449    1.427040    1.136302   -0.001352    0.000527    0.000668
H    -0.019998   -1.118651    0.759458    1.885292   -0.099453    0.462511
H     1.337590   -1.050191    2.023839    0.229115    0.070734   -0.031933
H     1.747736   -1.582410    0.345606    0.134640    0.088426    0.055749
H    -1.792464   -0.401869    1.259089    0.185926   -0.062312    0.121090
H    -1.821793   -1.625485   -0.082585    0.153751   -0.124574    0.039738
H    -0.822981   -0.060203   -1.647195   -0.007929   -0.002380    0.000069
H    -1.862800    1.044621   -0.769193    0.000482    0.003118    0.028262
H     2.278968    0.955215    0.419073    0.002021    0.015227    0.023620
H     0.450207    1.990730   -0.889560   -0.003764   -0.004053   -0.006735
15
* Frequency(6) -1557.5471
C     1.191661   -0.886713    0.962100   -0.134533   -0.032942   -0.018393
C    -1.339806   -0.742078    0.331538   -0.117650    0.044719   -0.048561
C    -1.019594    0.356973   -0.656862    0.012199   -0.015176    0.007994
C     1.281528    0.531941    0.533727    0.016667    0.012536   -0.003144
C     0.197188    1.153953   -0.245220    0.008635   -0.000165    0.003109
O     0.355605    1.426980    1.136225   -0.001352    0.000527    0.000668
H    -0.237214   -1.107193    0.706169    1.885292   -0.099453    0.462511
H     1.311192   -1.058340    2.027518    0.229115    0.070734   -0.031933
H     1.732224   -1.592598    0.339183    0.134640    0.088426    0.055749
H    -1.813886   -0.394689    1.245137    0.185926   -0.062312    0.121090
H    -1.839508   -1.611132   -0.087163    0.153751   -0.124574    0.039738
H    -0.822068   -0.059928   -1.647202   -0.007929   -0.002380    0.000069
H    -1.862855    1.044262   -0.772450    0.000482    0.003118    0.028262
H     2.278735    0.953461    0.416351    0.002021    0.015227    0.023620
H     0.450641    1.991197   -0.888784   -0.003764   -0.004053   -0.006735
15
* Frequency(6) -1557.5471
C     1.206322   -0.883123    0.964105   -0.134533   -0.032942   -0.018393
C    -1.326986   -0.746951    0.336830   -0.117650    0.044719   -0.048561
C    -1.020923    0.358627   -0.657733    0.012199   -0.015176    0.007994
C     1.279712    0.530575    0.534069    0.016667    0.012536   -0.003144
C     0.196246    1.153971   -0.245559    0.008635   -0.000165    0.003109
O     0.355752    1.426922    1.136153   -0.001352    0.000527    0.000668
H    -0.442661   -1.096355    0.655768    1.885292   -0.099453    0.462511
H     1.286225   -1.066049    2.030998    0.229115    0.070734   -0.031933
H     1.717551   -1.602234    0.333107    0.134640    0.088426    0.055749
H    -1.834147   -0.387899    1.231942    0.185926   -0.062312    0.121090
H    -1.856262   -1.597556   -0.091493    0.153751   -0.124574    0.039738
H    -0.821204   -0.059669   -1.647210   -0.007929   -0.002380    0.000069
H    -1.862908    1.043922   -0.775529    0.000482    0.003118    0.028262
H     2.278515    0.951801    0.413778    0.002021    0.015227    0.023620
H     0.451051    1.991639   -0.888050   -0.003764   -0.004053   -0.006735
15
* Frequency(6) -1557.5471
C     1.218554   -0.880128    0.965777   -0.134533   -0.032942   -0.018393
C    -1.316289   -0.751017    0.341245   -0.117650    0.044719   -0.048561
C    -1.022032    0.360007   -0.658460    0.012199   -0.015176    0.007994
C     1.278196    0.529435    0.534355    0.016667    0.012536   -0.003144
C     0.195461    1.153986   -0.245842    0.008635   -0.000165    0.003109
O     0.355875    1.426874    1.136092   -0.001352    0.000527    0.000668
H    -0.614075   -1.087313    0.613715    1.885292   -0.099453    0.462511
H     1.265393   -1.072480    2.033901    0.229115    0.070734   -0.031933
H     1.705310   -1.610274    0.328039    0.134640    0.088426    0.055749
H    -1.851052   -0.382234    1.220932    0.185926   -0.062312    0.121090
H    -1.870242   -1.586230   -0.095106    0.153751   -0.124574    0.039738
H    -0.820483   -0.059453   -1.647216   -0.007929   -0.002380    0.000069
H    -1.862951    1.043638   -0.778099    0.000482    0.003118    0.028262
H     2.278331    0.950417    0.411630    0.002021    0.015227    0.023620
H     0.451393    1.992007   -0.887437   -0.003764   -0.004053   -0.006735
15
* Frequency(6) -1557.5471
C     1.227032   -0.878052    0.966936   -0.134533   -0.032942   -0.018393
C    -1.308875   -0.753835    0.344305   -0.117650    0.044719   -0.048561
C    -1.022801    0.360963   -0.658964    0.012199   -0.015176    0.007994
C     1.277146    0.528645    0.534553    0.016667    0.012536   -0.003144
C     0.194917    1.153996   -0.246038    0.008635   -0.000165    0.003109
O     0.355960    1.426841    1.136050   -0.001352    0.000527    0.000668
H    -0.732881   -1.081045    0.584569    1.885292   -0.099453    0.462511
H     1.250955   -1.076937    2.035913    0.229115    0.070734   -0.031933
H     1.696825   -1.615846    0.324525    0.134640    0.088426    0.055749
H    -1.862769   -0.378307    1.213301    0.185926   -0.062312    0.121090
H    -1.879931   -1.578380   -0.097611    0.153751   -0.124574    0.039738
H    -0.819983   -0.059303   -1.647221   -0.007929   -0.002380    0.000069
H    -1.862982    1.043442   -0.779880    0.000482    0.003118    0.028262
H     2.278204    0.949457    0.410142    0.002021    0.015227    0.023620
H     0.451630    1.992263   -0.887013   -0.003764   -0.004053   -0.006735
15
* Frequency(6) -1557.5471
C     1.230837   -0.877120    0.967456   -0.134533   -0.032942   -0.018393
C    -1.305547   -0.755100    0.345679   -0.117650    0.044719   -0.048561
C    -1.023146    0.361393   -0.659190    0.012199   -0.015176    0.007994
C     1.276675    0.528291    0.534642    0.016667    0.012536   -0.003144
C     0.194673    1.154001   -0.246126    0.008635   -0.000165    0.003109
O     0.355999    1.426826    1.136031   -0.001352    0.000527    0.000668
H    -0.786204   -1.078232    0.571487    1.885292   -0.099453    0.462511
H     1.244475   -1.078938    2.036817    0.229115    0.070734   -0.031933
H     1.693017   -1.618347    0.322949    0.134640    0.088426    0.055749
H    -1.868027   -0.376544    1.209876    0.185926   -0.062312    0.121090
H    -1.884279   -1.574856   -0.098735    0.153751   -0.124574    0.039738
H    -0.819759   -0.059235   -1.647223   -0.007929   -0.002380    0.000069
H    -1.862995    1.043354   -0.780679    0.000482    0.003118    0.028262
H     2.278146    0.949027    0.409473    0.002021    0.015227    0.023620
H     0.451737    1.992377   -0.886823   -0.003764   -0.004053   -0.006735
15
* Frequency(6) -1557.5471
C     1.229557   -0.877434    0.967281   -0.134533   -0.032942   -0.018393
C    -1.306667   -0.754675    0.345216   -0.117650    0.044719   -0.048561
C    -1.023030    0.361248   -0.659114    0.012199   -0.015176    0.007994
C     1.276833    0.528410    0.534612    0.016667    0.012536   -0.003144
C     0.194755    1.153999   -0.246096    0.008635   -0.000165    0.003109
O     0.355986    1.426831    1.136037   -0.001352    0.000527    0.000668
H    -0.768267   -1.079179    0.575888    1.885292   -0.099453    0.462511
H     1.246655   -1.078265    2.036513    0.229115    0.070734   -0.031933
H     1.694298   -1.617506    0.323479    0.134640    0.088426    0.055749
H    -1.866258   -0.377137    1.211028    0.185926   -0.062312    0.121090
H    -1.882817   -1.576042   -0.098356    0.153751   -0.124574    0.039738
H    -0.819834   -0.059258   -1.647222   -0.007929   -0.002380    0.000069
H    -1.862991    1.043383   -0.780410    0.000482    0.003118    0.028262
H     2.278166    0.949171    0.409698    0.002021    0.015227    0.023620
H     0.451701    1.992339   -0.886887   -0.003764   -0.004053   -0.006735
15
* Frequency(6) -1557.5471
C     1.223330   -0.878958    0.966430   -0.134533   -0.032942   -0.018393
C    -1.312112   -0.752605    0.342969   -0.117650    0.044719   -0.048561
C    -1.022465    0.360546   -0.658744    0.012199   -0.015176    0.007994
C     1.277605    0.528990    0.534467    0.016667    0.012536   -0.003144
C     0.195155    1.153992   -0.245952    0.008635   -0.000165    0.003109
O     0.355923    1.426856    1.136068   -0.001352    0.000527    0.000668
H    -0.681012   -1.083782    0.597294    1.885292   -0.099453    0.462511
H     1.257259   -1.074991    2.035035    0.229115    0.070734   -0.031933
H     1.700529   -1.613413    0.326059    0.134640    0.088426    0.055749
H    -1.857653   -0.380021    1.216633    0.185926   -0.062312    0.121090
H    -1.875701   -1.581807   -0.096517    0.153751   -0.124574    0.039738
H    -0.820201   -0.059368   -1.647219   -0.007929   -0.002380    0.000069
H    -1.862969    1.043528   -0.779102    0.000482    0.003118    0.028262
H     2.278259    0.949876    0.410791    0.002021    0.015227    0.023620
H     0.451527    1.992151   -0.887198   -0.003764   -0.004053   -0.006735
15
* Frequency(6) -1557.5471
C     1.212832   -0.881529    0.964995   -0.134533   -0.032942   -0.018393
C    -1.321292   -0.749115    0.339180   -0.117650    0.044719   -0.048561
C    -1.021513    0.359362   -0.658120    0.012199   -0.015176    0.007994
C     1.278905    0.529969    0.534222    0.016667    0.012536   -0.003144
C     0.195829    1.153979   -0.245710    0.008635   -0.000165    0.003109
O     0.355818    1.426897    1.136120   -0.001352    0.000527    0.000668
H    -0.533895   -1.091542    0.633385    1.885292   -0.099453    0.462511
H     1.275137   -1.069472    2.032543    0.229115    0.070734   -0.031933
H     1.711036   -1.606513    0.330410    0.134640    0.088426    0.055749
H    -1.843145   -0.384884    1.226082    0.185926   -0.062312    0.121090
H    -1.863703   -1.591528   -0.093416    0.153751   -0.124574    0.039738
H    -0.820820   -0.059554   -1.647213   -0.007929   -0.002380    0.000069
H    -1.862931    1.043771   -0.776897    0.000482    0.003118    0.028262
H     2.278417    0.951064    0.412634    0.002021    0.015227    0.023620
H     0.451233    1.991835   -0.887724   -0.003764   -0.004053   -0.006735
15
* Frequency(6) -1557.5471
C     1.199200   -0.884867    0.963131   -0.134533   -0.032942   -0.018393
C    -1.333214   -0.744584    0.334259   -0.117650    0.044719   -0.048561
C    -1.020277    0.357824   -0.657310    0.012199   -0.015176    0.007994
C     1.280594    0.531239    0.533903    0.016667    0.012536   -0.003144
C     0.196704    1.153962   -0.245395    0.008635   -0.000165    0.003109
O     0.355681    1.426950    1.136188   -0.001352    0.000527    0.000668
H    -0.342859   -1.101620    0.680251    1.885292   -0.099453    0.462511
H     1.298354   -1.062304    2.029307    0.229115    0.070734   -0.031933
H     1.724679   -1.597553    0.336059    0.134640    0.088426    0.055749
H    -1.824305   -0.391198    1.238352    0.185926   -0.062312    0.121090
H    -1.848123   -1.604151   -0.089390    0.153751   -0.124574    0.039738
H    -0.821623   -0.059795   -1.647206   -0.007929   -0.002380    0.000069
H    -1.862882    1.044087   -0.774033    0.000482    0.003118    0.028262
H     2.278622    0.952607    0.415028    0.002021    0.015227    0.023620
H     0.450851    1.991424   -0.888406   -0.003764   -0.004053   -0.006735
15
* Frequency(6) -1557.5471
C     1.183911   -0.888611    0.961041   -0.134533   -0.032942   -0.018393
C    -1.346584   -0.739502    0.328740   -0.117650    0.044719   -0.048561
C    -1.018891    0.356099   -0.656402    0.012199   -0.015176    0.007994
C     1.282488    0.532663    0.533546    0.016667    0.012536   -0.003144
C     0.197685    1.153943   -0.245041    0.008635   -0.000165    0.003109
O     0.355527    1.427010    1.136264   -0.001352    0.000527    0.000668
H    -0.128606   -1.112922    0.732813    1.885292   -0.099453    0.462511
H     1.324391   -1.054266    2.025678    0.229115    0.070734   -0.031933
H     1.739980   -1.587504    0.342394    0.134640    0.088426    0.055749
H    -1.803175   -0.398279    1.252113    0.185926   -0.062312    0.121090
H    -1.830650   -1.618308   -0.084874    0.153751   -0.124574    0.039738
H    -0.822525   -0.060065   -1.647199   -0.007929   -0.002380    0.000069
H    -1.862827    1.044441   -0.770821    0.000482    0.003118    0.028262
H     2.278851    0.954338    0.417712    0.002021    0.015227    0.023620
H     0.450424    1.990963   -0.889172   -0.003764   -0.004053   -0.006735
