15
Coordinates from ORCA-job freq E -271.102573323976
  C           2.06627167977978      1.04200486270707      0.11261935689908
  C          -2.17818953205524     -0.46858479933510      0.37028427593869
  C           0.33230567751464     -0.77504384369624      0.17673122313797
  C           0.58777004438682      0.68888328744360      0.21861220146786
  C          -0.97399857740218     -1.37628510135940      0.24752513085240
  O          -1.10022867965293     -2.59458936075277      0.20797121147954
  H           2.21748967376412      2.11952192808241      0.14706770093361
  H           2.48490437226472      0.67111322225171     -0.82288952169066
  H           2.62921034288183      0.59476887351878      0.93180919460273
  H          -3.07777949778928     -1.07501588241915      0.41452264549976
  H          -2.23625732232875      0.21050005579962     -0.48199332695142
  H          -2.10683592690042      0.14688462458379      1.26860474731113
  H           1.16232075668794     -1.46592045375308      0.08898414696867
  H           0.16747253660311      1.10368192060970      1.14283959943058
  H           0.02554345224587      1.17808166631909     -0.58589858587993
