17
Coordinates from ORCA-job freq E -421.458107774215
  C          -2.12732936164184     -0.44767164183549      0.14699163801071
  C           1.60397556452836     -0.26185775830130     -0.78701574479252
  C           2.73876705649419     -0.18841117198485      0.07704912190351
  C           0.31351634264474     -0.87252034520099     -0.38610978043061
  C          -0.77910995028848      0.17597791032129     -0.15001243589011
  O           3.79485925587454      0.33614534419538     -0.24400003422597
  O          -1.16611965150550      2.03312719720318      1.14250847689362
  O          -0.29868737564124      0.92633633301912      0.95874788709996
  H          -2.04363349329389     -1.13422920293814      0.98989532292599
  H          -2.85124422571375      0.32499500074314      0.39604504175119
  H          -2.48965350266227     -0.99795613878898     -0.72131161437912
  H           1.70323597161945      0.19562279661157     -1.76436923729357
  H           2.61634285003398     -0.63731858382075      1.07823484741645
  H          -0.04667106162768     -1.54904301197678     -1.16530112536613
  H           0.43103496254679     -1.45278359540361      0.53216566907112
  H          -0.84559820833551      0.84310792359926     -1.01629032165048
  H          -0.58262417303187      2.76862194455795      0.92349928895597
