17
* (null), Energy   -1000.0000000
C    -2.574334    0.460136    2.166862    0.280429    0.161678   -0.402689
C    -1.177705    0.368165    1.992971    0.284253   -0.217528    0.460972
C    -0.502396   -0.524486    0.998961   -0.003161    0.064120   -0.015183
C     0.383323    0.235896    0.013437    0.004039    0.003260   -0.012405
C     1.118622   -0.716363   -0.907606    0.000281    0.002574   -0.000949
O    -2.527314    1.050941    1.014875   -0.466793   -0.010125   -0.095047
O     2.657817   -0.813114   -2.585125    0.001380   -0.000614   -0.001879
O     1.920947    0.075842   -1.760287    0.001147   -0.000614   -0.001044
H    -3.417769    0.079521    2.721351    0.258072    0.892162    0.315511
H    -0.510407    0.997166    2.585464    0.374415   -0.953254    1.059221
H    -1.253206   -1.113935    0.472686   -0.027409    0.094414   -0.031020
H     0.118325   -1.221718    1.575984    0.010414   -0.030927   -0.125939
H    -0.237547    0.914133   -0.572496    0.010896    0.009259   -0.012755
H     1.113077    0.842384    0.554630    0.000574   -0.000085   -0.001400
H     0.415620   -1.308636   -1.502756    0.001146    0.000363   -0.002888
H     1.757334   -1.401204   -0.342408   -0.001098    0.001429   -0.000025
H     2.251687   -0.661323   -3.445977   -0.000566   -0.001231   -0.000167
17
* Frequency(6) -1242.3427
C    -2.542464    0.478510    2.121099    0.280429    0.161678   -0.402689
C    -1.145401    0.343445    2.045358    0.284253   -0.217528    0.460972
C    -0.502755   -0.517200    0.997235   -0.003161    0.064120   -0.015183
C     0.383782    0.236266    0.012027    0.004039    0.003260   -0.012405
C     1.118654   -0.716071   -0.907714    0.000281    0.002574   -0.000949
O    -2.580362    1.049790    1.004073   -0.466793   -0.010125   -0.095047
O     2.657973   -0.813184   -2.585339    0.001380   -0.000614   -0.001879
O     1.921077    0.075772   -1.760405    0.001147   -0.000614   -0.001044
H    -3.388440    0.180910    2.757207    0.258072    0.892162    0.315511
H    -0.467856    0.888834    2.705839    0.374415   -0.953254    1.059221
H    -1.256321   -1.103206    0.469161   -0.027409    0.094414   -0.031020
H     0.119509   -1.225233    1.561672    0.010414   -0.030927   -0.125939
H    -0.236308    0.915186   -0.573945    0.010896    0.009259   -0.012755
H     1.113143    0.842375    0.554471    0.000574   -0.000085   -0.001400
H     0.415750   -1.308595   -1.503084    0.001146    0.000363   -0.002888
H     1.757210   -1.401042   -0.342411   -0.001098    0.001429   -0.000025
H     2.251623   -0.661463   -3.445996   -0.000566   -0.001231   -0.000167
17
* Frequency(6) -1242.3427
C    -2.514049    0.494893    2.080294    0.280429    0.161678   -0.402689
C    -1.116598    0.321402    2.092068    0.284253   -0.217528    0.460972
C    -0.503076   -0.510702    0.995697   -0.003161    0.064120   -0.015183
C     0.384191    0.236596    0.010770    0.004039    0.003260   -0.012405
C     1.118683   -0.715810   -0.907810    0.000281    0.002574   -0.000949
O    -2.627662    1.048764    0.994442   -0.466793   -0.010125   -0.095047
O     2.658113   -0.813246   -2.585529    0.001380   -0.000614   -0.001879
O     1.921193    0.075710   -1.760511    0.001147   -0.000614   -0.001044
H    -3.362290    0.271313    2.789178    0.258072    0.892162    0.315511
H    -0.429917    0.792241    2.813169    0.374415   -0.953254    1.059221
H    -1.259098   -1.093639    0.466018   -0.027409    0.094414   -0.031020
H     0.120564   -1.228367    1.548910    0.010414   -0.030927   -0.125939
H    -0.235204    0.916124   -0.575238    0.010896    0.009259   -0.012755
H     1.113201    0.842366    0.554329    0.000574   -0.000085   -0.001400
H     0.415866   -1.308558   -1.503376    0.001146    0.000363   -0.002888
H     1.757098   -1.400897   -0.342414   -0.001098    0.001429   -0.000025
H     2.251566   -0.661587   -3.446013   -0.000566   -0.001231   -0.000167
17
* Frequency(6) -1242.3427
C    -2.492166    0.507509    2.048871    0.280429    0.161678   -0.402689
C    -1.094417    0.304428    2.128039    0.284253   -0.217528    0.460972
C    -0.503322   -0.505699    0.994512   -0.003161    0.064120   -0.015183
C     0.384506    0.236851    0.009802    0.004039    0.003260   -0.012405
C     1.118705   -0.715609   -0.907884    0.000281    0.002574   -0.000949
O    -2.664088    1.047974    0.987025   -0.466793   -0.010125   -0.095047
O     2.658221   -0.813294   -2.585676    0.001380   -0.000614   -0.001879
O     1.921283    0.075662   -1.760592    0.001147   -0.000614   -0.001044
H    -3.342152    0.340932    2.813798    0.258072    0.892162    0.315511
H    -0.400700    0.717855    2.895824    0.374415   -0.953254    1.059221
H    -1.261237   -1.086271    0.463597   -0.027409    0.094414   -0.031020
H     0.121377   -1.230780    1.539083    0.010414   -0.030927   -0.125939
H    -0.234354    0.916846   -0.576233    0.010896    0.009259   -0.012755
H     1.113246    0.842360    0.554220    0.000574   -0.000085   -0.001400
H     0.415956   -1.308530   -1.503602    0.001146    0.000363   -0.002888
H     1.757013   -1.400785   -0.342416   -0.001098    0.001429   -0.000025
H     2.251521   -0.661684   -3.446026   -0.000566   -0.001231   -0.000167
17
* Frequency(6) -1242.3427
C    -2.479187    0.514992    2.030234    0.280429    0.161678   -0.402689
C    -1.081261    0.294360    2.149374    0.284253   -0.217528    0.460972
C    -0.503468   -0.502731    0.993809   -0.003161    0.064120   -0.015183
C     0.384693    0.237002    0.009228    0.004039    0.003260   -0.012405
C     1.118718   -0.715490   -0.907928    0.000281    0.002574   -0.000949
O    -2.685692    1.047505    0.982627   -0.466793   -0.010125   -0.095047
O     2.658285   -0.813322   -2.585763    0.001380   -0.000614   -0.001879
O     1.921336    0.075633   -1.760641    0.001147   -0.000614   -0.001044
H    -3.330208    0.382223    2.828401    0.258072    0.892162    0.315511
H    -0.383371    0.673737    2.944847    0.374415   -0.953254    1.059221
H    -1.262506   -1.081902    0.462162   -0.027409    0.094414   -0.031020
H     0.121859   -1.232212    1.533254    0.010414   -0.030927   -0.125939
H    -0.233850    0.917275   -0.576823    0.010896    0.009259   -0.012755
H     1.113272    0.842356    0.554155    0.000574   -0.000085   -0.001400
H     0.416009   -1.308513   -1.503735    0.001146    0.000363   -0.002888
H     1.756962   -1.400719   -0.342417   -0.001098    0.001429   -0.000025
H     2.251495   -0.661741   -3.446033   -0.000566   -0.001231   -0.000167
17
* Frequency(6) -1242.3427
C    -2.476519    0.516530    2.026403    0.280429    0.161678   -0.402689
C    -1.078556    0.292291    2.153760    0.284253   -0.217528    0.460972
C    -0.503499   -0.502121    0.993665   -0.003161    0.064120   -0.015183
C     0.384732    0.237033    0.009110    0.004039    0.003260   -0.012405
C     1.118720   -0.715465   -0.907937    0.000281    0.002574   -0.000949
O    -2.690133    1.047409    0.981722   -0.466793   -0.010125   -0.095047
O     2.658298   -0.813328   -2.585781    0.001380   -0.000614   -0.001879
O     1.921347    0.075627   -1.760651    0.001147   -0.000614   -0.001044
H    -3.327752    0.390711    2.831403    0.258072    0.892162    0.315511
H    -0.379809    0.664667    2.954925    0.374415   -0.953254    1.059221
H    -1.262766   -1.081003    0.461867   -0.027409    0.094414   -0.031020
H     0.121958   -1.232506    1.532056    0.010414   -0.030927   -0.125939
H    -0.233746    0.917363   -0.576945    0.010896    0.009259   -0.012755
H     1.113278    0.842355    0.554142    0.000574   -0.000085   -0.001400
H     0.416019   -1.308510   -1.503763    0.001146    0.000363   -0.002888
H     1.756951   -1.400706   -0.342417   -0.001098    0.001429   -0.000025
H     2.251490   -0.661752   -3.446035   -0.000566   -0.001231   -0.000167
17
* Frequency(6) -1242.3427
C    -2.484450    0.511957    2.037792    0.280429    0.161678   -0.402689
C    -1.086596    0.298443    2.140722    0.284253   -0.217528    0.460972
C    -0.503409   -0.503935    0.994094   -0.003161    0.064120   -0.015183
C     0.384618    0.236940    0.009461    0.004039    0.003260   -0.012405
C     1.118712   -0.715538   -0.907910    0.000281    0.002574   -0.000949
O    -2.676930    1.047695    0.984411   -0.466793   -0.010125   -0.095047
O     2.658259   -0.813311   -2.585728    0.001380   -0.000614   -0.001879
O     1.921314    0.075645   -1.760621    0.001147   -0.000614   -0.001044
H    -3.335052    0.365477    2.822479    0.258072    0.892162    0.315511
H    -0.390399    0.691629    2.924966    0.374415   -0.953254    1.059221
H    -1.261991   -1.083674    0.462744   -0.027409    0.094414   -0.031020
H     0.121663   -1.231631    1.535618    0.010414   -0.030927   -0.125939
H    -0.234054    0.917101   -0.576584    0.010896    0.009259   -0.012755
H     1.113261    0.842357    0.554181    0.000574   -0.000085   -0.001400
H     0.415987   -1.308520   -1.503681    0.001146    0.000363   -0.002888
H     1.756982   -1.400746   -0.342417   -0.001098    0.001429   -0.000025
H     2.251506   -0.661717   -3.446030   -0.000566   -0.001231   -0.000167
17
* Frequency(6) -1242.3427
C    -2.502122    0.501769    2.063169    0.280429    0.161678   -0.402689
C    -1.104509    0.312151    2.111673    0.284253   -0.217528    0.460972
C    -0.503210   -0.507975    0.995051   -0.003161    0.064120   -0.015183
C     0.384363    0.236735    0.010242    0.004039    0.003260   -0.012405
C     1.118695   -0.715700   -0.907850    0.000281    0.002574   -0.000949
O    -2.647514    1.048333    0.990400   -0.466793   -0.010125   -0.095047
O     2.658172   -0.813272   -2.585609    0.001380   -0.000614   -0.001879
O     1.921242    0.075683   -1.760555    0.001147   -0.000614   -0.001044
H    -3.351315    0.309256    2.802596    0.258072    0.892162    0.315511
H    -0.413994    0.751700    2.858217    0.374415   -0.953254    1.059221
H    -1.260264   -1.089624    0.464699   -0.027409    0.094414   -0.031020
H     0.121007   -1.229682    1.543554    0.010414   -0.030927   -0.125939
H    -0.234741    0.916517   -0.575780    0.010896    0.009259   -0.012755
H     1.113225    0.842363    0.554269    0.000574   -0.000085   -0.001400
H     0.415915   -1.308543   -1.503499    0.001146    0.000363   -0.002888
H     1.757052   -1.400836   -0.342415   -0.001098    0.001429   -0.000025
H     2.251542   -0.661640   -3.446020   -0.000566   -0.001231   -0.000167
17
* Frequency(6) -1242.3427
C    -2.527619    0.487069    2.099782    0.280429    0.161678   -0.402689
C    -1.130354    0.331929    2.069760    0.284253   -0.217528    0.460972
C    -0.502923   -0.513805    0.996431   -0.003161    0.064120   -0.015183
C     0.383996    0.236439    0.011370    0.004039    0.003260   -0.012405
C     1.118669   -0.715935   -0.907764    0.000281    0.002574   -0.000949
O    -2.605073    1.049254    0.999042   -0.466793   -0.010125   -0.095047
O     2.658047   -0.813216   -2.585438    0.001380   -0.000614   -0.001879
O     1.921138    0.075739   -1.760460    0.001147   -0.000614   -0.001044
H    -3.374779    0.228139    2.773909    0.258072    0.892162    0.315511
H    -0.448036    0.838372    2.761911    0.374415   -0.953254    1.059221
H    -1.257772   -1.098208    0.467519   -0.027409    0.094414   -0.031020
H     0.120060   -1.226870    1.555005    0.010414   -0.030927   -0.125939
H    -0.235732    0.915676   -0.574621    0.010896    0.009259   -0.012755
H     1.113173    0.842370    0.554397    0.000574   -0.000085   -0.001400
H     0.415811   -1.308576   -1.503237    0.001146    0.000363   -0.002888
H     1.757151   -1.400966   -0.342413   -0.001098    0.001429   -0.000025
H     2.251593   -0.661528   -3.446004   -0.000566   -0.001231   -0.000167
17
* Frequency(6) -1242.3427
C    -2.558179    0.469450    2.143664    0.280429    0.161678   -0.402689
C    -1.161330    0.355634    2.019526    0.284253   -0.217528    0.460972
C    -0.502578   -0.520793    0.998086   -0.003161    0.064120   -0.015183
C     0.383556    0.236084    0.012722    0.004039    0.003260   -0.012405
C     1.118638   -0.716215   -0.907660    0.000281    0.002574   -0.000949
O    -2.554205    1.050357    1.009400   -0.466793   -0.010125   -0.095047
O     2.657896   -0.813149   -2.585234    0.001380   -0.000614   -0.001879
O     1.921013    0.075806   -1.760347    0.001147   -0.000614   -0.001044
H    -3.402902    0.130917    2.739527    0.258072    0.892162    0.315511
H    -0.488837    0.942251    2.646484    0.374415   -0.953254    1.059221
H    -1.254785   -1.108496    0.470899   -0.027409    0.094414   -0.031020
H     0.118925   -1.223500    1.568729    0.010414   -0.030927   -0.125939
H    -0.236919    0.914667   -0.573231    0.010896    0.009259   -0.012755
H     1.113110    0.842380    0.554549    0.000574   -0.000085   -0.001400
H     0.415686   -1.308615   -1.502922    0.001146    0.000363   -0.002888
H     1.757271   -1.401122   -0.342410   -0.001098    0.001429   -0.000025
H     2.251655   -0.661394   -3.445986   -0.000566   -0.001231   -0.000167
17
* Frequency(6) -1242.3427
C    -2.590489    0.450822    2.190060    0.280429    0.161678   -0.402689
C    -1.194080    0.380697    1.966415    0.284253   -0.217528    0.460972
C    -0.502214   -0.528180    0.999835   -0.003161    0.064120   -0.015183
C     0.383090    0.235708    0.014151    0.004039    0.003260   -0.012405
C     1.118606   -0.716512   -0.907551    0.000281    0.002574   -0.000949
O    -2.500423    1.051524    1.020351   -0.466793   -0.010125   -0.095047
O     2.657737   -0.813079   -2.585017    0.001380   -0.000614   -0.001879
O     1.920881    0.075877   -1.760226    0.001147   -0.000614   -0.001044
H    -3.432636    0.028125    2.703175    0.258072    0.892162    0.315511
H    -0.531976    1.052082    2.524444    0.374415   -0.953254    1.059221
H    -1.251627   -1.119374    0.474473   -0.027409    0.094414   -0.031020
H     0.117725   -1.219937    1.583239    0.010414   -0.030927   -0.125939
H    -0.238174    0.913600   -0.571761    0.010896    0.009259   -0.012755
H     1.113044    0.842389    0.554710    0.000574   -0.000085   -0.001400
H     0.415554   -1.308657   -1.502589    0.001146    0.000363   -0.002888
H     1.757398   -1.401286   -0.342407   -0.001098    0.001429   -0.000025
H     2.251720   -0.661252   -3.445967   -0.000566   -0.001231   -0.000167
17
* Frequency(6) -1242.3427
C    -2.621048    0.433203    2.233943    0.280429    0.161678   -0.402689
C    -1.225057    0.404402    1.916181    0.284253   -0.217528    0.460972
C    -0.501870   -0.535168    1.001490   -0.003161    0.064120   -0.015183
C     0.382650    0.235353    0.015503    0.004039    0.003260   -0.012405
C     1.118575   -0.716792   -0.907448    0.000281    0.002574   -0.000949
O    -2.449555    1.052627    1.030708   -0.466793   -0.010125   -0.095047
O     2.657587   -0.813012   -2.584812    0.001380   -0.000614   -0.001879
O     1.920756    0.075944   -1.760113    0.001147   -0.000614   -0.001044
H    -3.460759   -0.069097    2.668793    0.258072    0.892162    0.315511
H    -0.572777    1.155961    2.409017    0.374415   -0.953254    1.059221
H    -1.248640   -1.129663    0.477854   -0.027409    0.094414   -0.031020
H     0.116591   -1.216567    1.596963    0.010414   -0.030927   -0.125939
H    -0.239362    0.912591   -0.570371    0.010896    0.009259   -0.012755
H     1.112982    0.842398    0.554863    0.000574   -0.000085   -0.001400
H     0.415429   -1.308697   -1.502275    0.001146    0.000363   -0.002888
H     1.757517   -1.401442   -0.342404   -0.001098    0.001429   -0.000025
H     2.251781   -0.661118   -3.445949   -0.000566   -0.001231   -0.000167
17
* Frequency(6) -1242.3427
C    -2.646545    0.418503    2.270556    0.280429    0.161678   -0.402689
C    -1.250901    0.424180    1.874269    0.284253   -0.217528    0.460972
C    -0.501582   -0.540997    1.002870   -0.003161    0.064120   -0.015183
C     0.382283    0.235056    0.016631    0.004039    0.003260   -0.012405
C     1.118550   -0.717026   -0.907361    0.000281    0.002574   -0.000949
O    -2.407113    1.053548    1.039350   -0.466793   -0.010125   -0.095047
O     2.657461   -0.812956   -2.584641    0.001380   -0.000614   -0.001879
O     1.920651    0.076000   -1.760018    0.001147   -0.000614   -0.001044
H    -3.484223   -0.150214    2.640106    0.258072    0.892162    0.315511
H    -0.606820    1.242633    2.312711    0.374415   -0.953254    1.059221
H    -1.246148   -1.138247    0.480674   -0.027409    0.094414   -0.031020
H     0.115644   -1.213755    1.608414    0.010414   -0.030927   -0.125939
H    -0.240352    0.911749   -0.569211    0.010896    0.009259   -0.012755
H     1.112930    0.842406    0.554990    0.000574   -0.000085   -0.001400
H     0.415325   -1.308730   -1.502012    0.001146    0.000363   -0.002888
H     1.757617   -1.401572   -0.342402   -0.001098    0.001429   -0.000025
H     2.251833   -0.661006   -3.445933   -0.000566   -0.001231   -0.000167
17
* Frequency(6) -1242.3427
C    -2.664217    0.408315    2.295932    0.280429    0.161678   -0.402689
C    -1.268814    0.437888    1.845219    0.284253   -0.217528    0.460972
C    -0.501383   -0.545038    1.003827   -0.003161    0.064120   -0.015183
C     0.382028    0.234851    0.017413    0.004039    0.003260   -0.012405
C     1.118532   -0.717188   -0.907301    0.000281    0.002574   -0.000949
O    -2.377697    1.054186    1.045340   -0.466793   -0.010125   -0.095047
O     2.657374   -0.812917   -2.584523    0.001380   -0.000614   -0.001879
O     1.920579    0.076038   -1.759952    0.001147   -0.000614   -0.001044
H    -3.500486   -0.206435    2.620224    0.258072    0.892162    0.315511
H    -0.630415    1.302704    2.245962    0.374415   -0.953254    1.059221
H    -1.244421   -1.144197    0.482629   -0.027409    0.094414   -0.031020
H     0.114988   -1.211806    1.616350    0.010414   -0.030927   -0.125939
H    -0.241039    0.911166   -0.568407    0.010896    0.009259   -0.012755
H     1.112894    0.842411    0.555078    0.000574   -0.000085   -0.001400
H     0.415253   -1.308753   -1.501830    0.001146    0.000363   -0.002888
H     1.757686   -1.401662   -0.342400   -0.001098    0.001429   -0.000025
H     2.251869   -0.660928   -3.445923   -0.000566   -0.001231   -0.000167
17
* Frequency(6) -1242.3427
C    -2.672149    0.403742    2.307322    0.280429    0.161678   -0.402689
C    -1.276854    0.444040    1.832181    0.284253   -0.217528    0.460972
C    -0.501294   -0.546852    1.004257   -0.003161    0.064120   -0.015183
C     0.381914    0.234759    0.017764    0.004039    0.003260   -0.012405
C     1.118524   -0.717261   -0.907275    0.000281    0.002574   -0.000949
O    -2.364494    1.054472    1.048028   -0.466793   -0.010125   -0.095047
O     2.657335   -0.812900   -2.584470    0.001380   -0.000614   -0.001879
O     1.920547    0.076056   -1.759922    0.001147   -0.000614   -0.001044
H    -3.507786   -0.231669    2.611300    0.258072    0.892162    0.315511
H    -0.641005    1.329666    2.216003    0.374415   -0.953254    1.059221
H    -1.243646   -1.146867    0.483506   -0.027409    0.094414   -0.031020
H     0.114693   -1.210931    1.619912    0.010414   -0.030927   -0.125939
H    -0.241347    0.910904   -0.568047    0.010896    0.009259   -0.012755
H     1.112877    0.842414    0.555118    0.000574   -0.000085   -0.001400
H     0.415220   -1.308763   -1.501748    0.001146    0.000363   -0.002888
H     1.757717   -1.401703   -0.342400   -0.001098    0.001429   -0.000025
H     2.251885   -0.660894   -3.445918   -0.000566   -0.001231   -0.000167
17
* Frequency(6) -1242.3427
C    -2.669480    0.405280    2.303491    0.280429    0.161678   -0.402689
C    -1.274150    0.441971    1.836567    0.284253   -0.217528    0.460972
C    -0.501324   -0.546242    1.004112   -0.003161    0.064120   -0.015183
C     0.381953    0.234790    0.017646    0.004039    0.003260   -0.012405
C     1.118527   -0.717237   -0.907284    0.000281    0.002574   -0.000949
O    -2.368936    1.054376    1.047124   -0.466793   -0.010125   -0.095047
O     2.657348   -0.812906   -2.584488    0.001380   -0.000614   -0.001879
O     1.920558    0.076050   -1.759932    0.001147   -0.000614   -0.001044
H    -3.505330   -0.223181    2.614302    0.258072    0.892162    0.315511
H    -0.637442    1.320596    2.226081    0.374415   -0.953254    1.059221
H    -1.243906   -1.145969    0.483211   -0.027409    0.094414   -0.031020
H     0.114792   -1.211225    1.618714    0.010414   -0.030927   -0.125939
H    -0.241244    0.910992   -0.568168    0.010896    0.009259   -0.012755
H     1.112883    0.842413    0.555105    0.000574   -0.000085   -0.001400
H     0.415231   -1.308760   -1.501776    0.001146    0.000363   -0.002888
H     1.757707   -1.401689   -0.342400   -0.001098    0.001429   -0.000025
H     2.251879   -0.660905   -3.445920   -0.000566   -0.001231   -0.000167
17
* Frequency(6) -1242.3427
C    -2.656502    0.412763    2.284853    0.280429    0.161678   -0.402689
C    -1.260994    0.431903    1.857902    0.284253   -0.217528    0.460972
C    -0.501470   -0.543274    1.003409   -0.003161    0.064120   -0.015183
C     0.382140    0.234941    0.017072    0.004039    0.003260   -0.012405
C     1.118540   -0.717118   -0.907328    0.000281    0.002574   -0.000949
O    -2.390540    1.053907    1.042725   -0.466793   -0.010125   -0.095047
O     2.657412   -0.812934   -2.584575    0.001380   -0.000614   -0.001879
O     1.920611    0.076021   -1.759981    0.001147   -0.000614   -0.001044
H    -3.493386   -0.181890    2.628904    0.258072    0.892162    0.315511
H    -0.620114    1.276478    2.275103    0.374415   -0.953254    1.059221
H    -1.245175   -1.141599    0.481775   -0.027409    0.094414   -0.031020
H     0.115274   -1.212657    1.612885    0.010414   -0.030927   -0.125939
H    -0.240739    0.911420   -0.568758    0.010896    0.009259   -0.012755
H     1.112909    0.842409    0.555040    0.000574   -0.000085   -0.001400
H     0.415284   -1.308743   -1.501910    0.001146    0.000363   -0.002888
H     1.757656   -1.401623   -0.342401   -0.001098    0.001429   -0.000025
H     2.251853   -0.660962   -3.445928   -0.000566   -0.001231   -0.000167
17
* Frequency(6) -1242.3427
C    -2.634619    0.425379    2.253430    0.280429    0.161678   -0.402689
C    -1.238812    0.414929    1.893873    0.284253   -0.217528    0.460972
C    -0.501717   -0.538271    1.002225   -0.003161    0.064120   -0.015183
C     0.382455    0.235195    0.016104    0.004039    0.003260   -0.012405
C     1.118562   -0.716917   -0.907402    0.000281    0.002574   -0.000949
O    -2.426965    1.053117    1.035308   -0.466793   -0.010125   -0.095047
O     2.657520   -0.812982   -2.584721    0.001380   -0.000614   -0.001879
O     1.920700    0.075973   -1.760062    0.001147   -0.000614   -0.001044
H    -3.473248   -0.112271    2.653524    0.258072    0.892162    0.315511
H    -0.590896    1.202092    2.357759    0.374415   -0.953254    1.059221
H    -1.247314   -1.134232    0.479355   -0.027409    0.094414   -0.031020
H     0.116087   -1.215070    1.603058    0.010414   -0.030927   -0.125939
H    -0.239889    0.912143   -0.569754    0.010896    0.009259   -0.012755
H     1.112954    0.842403    0.554931    0.000574   -0.000085   -0.001400
H     0.415374   -1.308714   -1.502135    0.001146    0.000363   -0.002888
H     1.757570   -1.401511   -0.342403   -0.001098    0.001429   -0.000025
H     2.251809   -0.661058   -3.445941   -0.000566   -0.001231   -0.000167
17
* Frequency(6) -1242.3427
C    -2.606203    0.441762    2.212626    0.280429    0.161678   -0.402689
C    -1.210009    0.392886    1.940583    0.284253   -0.217528    0.460972
C    -0.502037   -0.531773    1.000686   -0.003161    0.064120   -0.015183
C     0.382864    0.235525    0.014847    0.004039    0.003260   -0.012405
C     1.118590   -0.716656   -0.907498    0.000281    0.002574   -0.000949
O    -2.474265    1.052091    1.025677   -0.466793   -0.010125   -0.095047
O     2.657660   -0.813044   -2.584912    0.001380   -0.000614   -0.001879
O     1.920816    0.075911   -1.760168    0.001147   -0.000614   -0.001044
H    -3.447098   -0.021869    2.685495    0.258072    0.892162    0.315511
H    -0.552957    1.105499    2.465089    0.374415   -0.953254    1.059221
H    -1.250091   -1.124665    0.476212   -0.027409    0.094414   -0.031020
H     0.117142   -1.218204    1.590296    0.010414   -0.030927   -0.125939
H    -0.238785    0.913081   -0.571046    0.010896    0.009259   -0.012755
H     1.113012    0.842394    0.554789    0.000574   -0.000085   -0.001400
H     0.415490   -1.308678   -1.502428    0.001146    0.000363   -0.002888
H     1.757459   -1.401367   -0.342406   -0.001098    0.001429   -0.000025
H     2.251752   -0.661183   -3.445958   -0.000566   -0.001231   -0.000167
17
* Frequency(6) -1242.3427
C    -2.574334    0.460136    2.166862    0.280429    0.161678   -0.402689
C    -1.177705    0.368165    1.992971    0.284253   -0.217528    0.460972
C    -0.502396   -0.524486    0.998961   -0.003161    0.064120   -0.015183
C     0.383323    0.235896    0.013437    0.004039    0.003260   -0.012405
C     1.118622   -0.716363   -0.907606    0.000281    0.002574   -0.000949
O    -2.527314    1.050941    1.014875   -0.466793   -0.010125   -0.095047
O     2.657817   -0.813114   -2.585125    0.001380   -0.000614   -0.001879
O     1.920947    0.075842   -1.760287    0.001147   -0.000614   -0.001044
H    -3.417769    0.079521    2.721351    0.258072    0.892162    0.315511
H    -0.510407    0.997166    2.585464    0.374415   -0.953254    1.059221
H    -1.253206   -1.113935    0.472686   -0.027409    0.094414   -0.031020
H     0.118325   -1.221718    1.575984    0.010414   -0.030927   -0.125939
H    -0.237547    0.914133   -0.572496    0.010896    0.009259   -0.012755
H     1.113077    0.842384    0.554630    0.000574   -0.000085   -0.001400
H     0.415620   -1.308636   -1.502756    0.001146    0.000363   -0.002888
H     1.757334   -1.401204   -0.342408   -0.001098    0.001429   -0.000025
H     2.251687   -0.661323   -3.445977   -0.000566   -0.001231   -0.000167
