17
Coordinates from ORCA-job freq E -421.408663826691
  C           2.24112240664226     -0.43621400758625     -0.11782417063223
  C           1.40053107882935      0.73375749232853     -0.48167913337135
  C           0.13756213428510      0.87406298673157      0.37868386741807
  C          -2.42256437213167      0.49175920212793      0.20632329638729
  C          -1.05083504630824      0.05525148012396     -0.05685629228067
  O          -0.14616124739974     -1.63518786645778     -1.25995188909572
  O          -1.83795661040498      0.58273139344347     -1.08648865929591
  O          -0.91698202564100     -1.32347449824653     -0.08969165377469
  H          -0.21269604014310     -2.59554826924901     -1.24128201133388
  H           2.86913434391815     -0.91993702619419     -0.84886015437232
  H           2.34127820066937     -0.73255602177524      0.91662870998234
  H           1.98208102035646      1.65707039785660     -0.35565118147300
  H           1.12618387991931      0.69630621418548     -1.53731189119922
  H          -0.19696701083685      1.91188838295346      0.37384789892522
  H           0.37040856079456      0.61140646326157      1.41338515814275
  H          -3.19364924401163     -0.26115364197425      0.30775679642327
  H          -2.58672502853734      1.43623731847068      0.71211930955004
