17
Coordinates from ORCA-job freq E -421.460758922832
  C           0.87047313537810     -3.32248278879987     -0.86390580482451
  C           1.48734146956038      0.44066246394724      1.77463195343091
  C           0.55673329508831     -1.97598313217758     -0.22693769147777
  C           1.75441559416032     -1.01872642632855     -0.33020217275949
  C           1.48352697141479      0.29055177095027      0.31462804106496
  O           1.90357749068175     -0.42188270429975      2.51337524801861
  O           0.07464548701150      1.04205985195026     -1.43697562674959
  O           1.21485095230038      1.35641662312897     -0.34146762736796
  H           1.11712613752434     -3.20556918037905     -1.92007740001815
  H           0.01952620100809     -3.99845345228356     -0.79144947700329
  H           1.72030224315634     -3.79713881613944     -0.37178513983616
  H           1.10991901707277      1.40818195125591      2.14213065602878
  H          -0.30362598924107     -1.51604021376878     -0.71390115312627
  H           0.30533340858382     -2.10971475705083      0.82648920142509
  H           2.01096050138782     -0.84919706403711     -1.37582298293997
  H           2.60760072558425     -1.47008114979509      0.18238977820912
  H           0.39427635932805      1.65312102382703     -2.11334880207429
