17
Coordinates from ORCA-job freq E -421.383701111825
  C       0.822110     -3.402490     -0.895533
  C       1.565852      0.470835      1.867124
  C       0.423143     -2.044358     -0.336996
  C       1.667529     -1.168828     -0.129456
  C       1.244944      0.115532      0.490308
  O       2.698186      0.824902      1.374507
  O       0.843143      1.177214     -1.711334
  O       0.609463      1.026986     -0.101029
  H       1.271395     -3.305089     -1.881099
  H      -0.051986     -4.041988     -0.979150
  H       1.539911     -3.880779     -0.234413
  H       1.016276      1.012634      2.621963
  H      -0.257878     -1.536642     -1.020875
  H      -0.088724     -2.181577      0.618216
  H       2.121833     -0.960862     -1.099840
  H       2.388024     -1.671994      0.513334
  H       0.513762      2.072228     -1.827956
17
Coordinates from ORCA-job freq E -421.385935250865
  C       0.815699     -3.337808     -0.954523
  C       1.592340      0.518903      1.905874
  C       0.411638     -2.010271     -0.325451
  C       1.651471     -1.140283     -0.093223
  C       1.253413      0.141445      0.546590
  O       2.723475      0.849387      1.403622
  O       0.795072      0.855906     -1.668262
  O       0.604789      1.037547     -0.064051
  H       1.261271     -3.176913     -1.935732
  H      -0.049251     -3.985717     -1.077889
  H       1.544532     -3.853537     -0.331463
  H       1.050989      1.067769      2.668397
  H      -0.273126     -1.477402     -0.986054
  H      -0.101391     -2.185473      0.622587
  H       2.102285     -0.908814     -1.058464
  H       2.376047     -1.645788      0.541334
  H       0.567730      1.756772     -1.925522
17
Coordinates from ORCA-job freq E -421.385734874828
  C       0.821781     -3.355981     -0.946806
  C       1.611355      0.533225      1.879152
  C       0.420546     -2.010823     -0.354762
  C       1.669780     -1.168198     -0.074068
  C       1.290697      0.136507      0.533489
  O       2.768463      0.814311      1.388167
  O       0.580481      0.910008     -1.675415
  O       0.645869      1.054044     -0.066307
  H       1.332321     -3.219605     -1.900175
  H      -0.049985     -3.984702     -1.118188
  H       1.497919     -3.887570     -0.277031
  H       1.063026      1.101917      2.624074
  H      -0.215103     -1.465952     -1.053512
  H      -0.143765     -2.158835      0.567862
  H       2.179829     -0.975950     -1.017180
  H       2.349574     -1.670779      0.609934
  H       0.504197      1.854105     -1.851463
17
Coordinates from ORCA-job freq E -421.386859870074
  C       0.819939     -3.335048     -0.966274
  C       1.621795      0.554702      1.884913
  C       0.418692     -1.996472     -0.360160
  C       1.665833     -1.151348     -0.071333
  C       1.285247      0.144671      0.551599
  O       2.791975      0.813708      1.413732
  O       0.518961      0.804225     -1.632051
  O       0.633747      1.055919     -0.053879
  H       1.336015     -3.188935     -1.915401
  H      -0.052760     -3.959414     -1.149516
  H       1.491007     -3.877635     -0.299922
  H       1.076329      1.120546      2.633447
  H      -0.224360     -1.447444     -1.048108
  H      -0.140453     -2.155361      0.564157
  H       2.185551     -0.949678     -1.007796
  H       2.340873     -1.659719      0.613241
  H       0.558593      1.733007     -1.888878
17
Coordinates from ORCA-job freq E -421.387567537419
  C       0.823197     -3.335027     -0.965522
  C       1.623763      0.555935      1.877822
  C       0.416211     -1.997490     -0.360807
  C       1.660464     -1.144815     -0.077716
  C       1.277783      0.148344      0.548867
  O       2.810306      0.793685      1.441157
  O       0.481528      0.806271     -1.616007
  O       0.640949      1.068860     -0.063430
  H       1.338134     -3.187826     -1.915169
  H      -0.046887     -3.963440     -1.147666
  H       1.496982     -3.874134     -0.299007
  H       1.071099      1.120634      2.622164
  H      -0.235786     -1.456102     -1.045659
  H      -0.136309     -2.158282      0.567219
  H       2.180878     -0.944207     -1.014037
  H       2.335314     -1.650546      0.608771
  H       0.589355      1.723865     -1.893209
17
Coordinates from ORCA-job freq E -421.390084954261
  C       0.823463     -3.323433     -0.969807
  C       1.633180      0.559037      1.868961
  C       0.419280     -1.983484     -0.368877
  C       1.666449     -1.135425     -0.077487
  C       1.280364      0.155715      0.550188
  O       2.846157      0.758376      1.499541
  O       0.425780      0.767010     -1.584197
  O       0.650887      1.075740     -0.078685
  H       1.348275     -3.180018     -1.914657
  H      -0.049405     -3.945779     -1.160015
  H       1.487071     -3.867485     -0.297127
  H       1.068770      1.127191      2.602348
  H      -0.227622     -1.440882     -1.057433
  H      -0.138367     -2.140616      0.556672
  H       2.197592     -0.942247     -1.009570
  H       2.331075     -1.643043      0.617199
  H       0.564034      1.665067     -1.909282
17
Coordinates from ORCA-job freq E -421.393200721006
  C       0.824804     -3.319452     -0.969372
  C       1.641904      0.558595      1.858201
  C       0.420545     -1.976769     -0.374393
  C       1.668923     -1.130817     -0.078971
  C       1.283438      0.160715      0.547430
  O       2.865154      0.730274      1.547687
  O       0.397526      0.755766     -1.572600
  O       0.653174      1.082806     -0.089045
  H       1.353770     -3.180205     -1.912527
  H      -0.048622     -3.940614     -1.161116
  H       1.484543     -3.862869     -0.292333
  H       1.070724      1.131764      2.584211
  H      -0.222982     -1.436077     -1.066838
  H      -0.140648     -2.129751      0.549771
  H       2.207382     -0.943563     -1.008915
  H       2.326751     -1.641182      0.620245
  H       0.540596      1.647105     -1.913664
17
Coordinates from ORCA-job freq E -421.396247975794
  C       0.825641     -3.316992     -0.969431
  C       1.650462      0.559504      1.850357
  C       0.421644     -1.972227     -0.378738
  C       1.670786     -1.128107     -0.079388
  C       1.286213      0.164130      0.545463
  O       2.877516      0.712255      1.584678
  O       0.375477      0.747659     -1.565311
  O       0.654693      1.088149     -0.095059
  H       1.358512     -3.180806     -1.910854
  H      -0.048389     -3.936710     -1.163320
  H       1.481640     -3.860619     -0.288900
  H       1.074108      1.136238      2.571099
  H      -0.218399     -1.432438     -1.074550
  H      -0.143242     -2.122102      0.543714
  H       2.214738     -0.945530     -1.007729
  H       2.323626     -1.640851      0.622946
  H       0.521958      1.634172     -1.917205
17
Coordinates from ORCA-job freq E -421.399502807895
  C       0.826440     -3.315868     -0.969586
  C       1.661123      0.561878      1.844005
  C       0.422448     -1.969266     -0.382803
  C       1.671713     -1.126302     -0.079872
  C       1.288541      0.166837      0.543191
  O       2.886645      0.697978      1.622496
  O       0.354370      0.742222     -1.563656
  O       0.657330      1.094010     -0.096989
  H       1.362882     -3.182293     -1.909379
  H      -0.047953     -3.934499     -1.165575
  H       1.479118     -3.859637     -0.285898
  H       1.079264      1.141514      2.560258
  H      -0.214345     -1.430214     -1.081642
  H      -0.145989     -2.116545      0.537932
  H       2.220311     -0.947711     -1.006851
  H       2.320619     -1.641622      0.624579
  H       0.504467      1.625241     -1.922438
17
Coordinates from ORCA-job freq E -421.402289125798
  C       0.828131     -3.315916     -0.969001
  C       1.671555      0.564605      1.839306
  C       0.422312     -1.968326     -0.385494
  C       1.670444     -1.124110     -0.080578
  C       1.288584      0.169451      0.541035
  O       2.890664      0.680819      1.654464
  O       0.335553      0.741264     -1.567780
  O       0.663542      1.102357     -0.096316
  H       1.366772     -3.183738     -1.907751
  H      -0.045677     -3.935053     -1.166188
  H       1.479310     -3.858737     -0.283054
  H       1.085222      1.146348      2.553287
  H      -0.212865     -1.430832     -1.086425
  H      -0.148417     -2.114315      0.534087
  H       2.221882     -0.948500     -1.007032
  H       2.317686     -1.641465      0.624506
  H       0.492283      1.621873     -1.929295
17
Coordinates from ORCA-job freq E -421.405466010903
  C       0.829460     -3.316007     -0.968477
  C       1.680530      0.567632      1.835993
  C       0.422561     -1.967277     -0.388246
  C       1.669961     -1.121986     -0.082106
  C       1.289726      0.172121      0.538219
  O       2.896466      0.663790      1.687223
  O       0.314809      0.740196     -1.569957
  O       0.673378      1.111237     -0.096378
  H       1.369735     -3.185564     -1.906560
  H      -0.044137     -3.935320     -1.166234
  H       1.479355     -3.858059     -0.280626
  H       1.087140      1.151097      2.545388
  H      -0.211443     -1.431313     -1.090878
  H      -0.149868     -2.111794      0.530595
  H       2.224143     -0.949222     -1.007867
  H       2.315454     -1.641151      0.623753
  H       0.479712      1.617344     -1.936070
17
Coordinates from ORCA-job freq E -421.408927553669
  C       0.832172     -3.316570     -0.965836
  C       1.686146      0.566697      1.832579
  C       0.421883     -1.966586     -0.390596
  C       1.667631     -1.118791     -0.086510
  C       1.290766      0.176723      0.532914
  O       2.901301      0.634129      1.721932
  O       0.298068      0.745765     -1.571115
  O       0.685488      1.122825     -0.100774
  H       1.371233     -3.188273     -1.904917
  H      -0.039462     -3.939706     -1.160190
  H       1.484584     -3.853841     -0.276475
  H       1.087654      1.155416      2.534928
  H      -0.214439     -1.434837     -1.094007
  H      -0.149157     -2.109532      0.529464
  H       2.224613     -0.948299     -1.011266
  H       2.311165     -1.638946      0.620638
  H       0.467336      1.619550     -1.942999
17
Coordinates from ORCA-job freq E -421.412526709166
  C       0.830861     -3.316868     -0.967714
  C       1.692006      0.572270      1.830309
  C       0.424555     -1.966161     -0.391619
  C       1.670929     -1.117780     -0.088376
  C       1.294819      0.178022      0.530400
  O       2.905092      0.625708      1.760138
  O       0.279465      0.742028     -1.567337
  O       0.698167      1.129169     -0.104369
  H       1.367787     -3.189566     -1.908191
  H      -0.043010     -3.937511     -1.160427
  H       1.483425     -3.856446     -0.280347
  H       1.082146      1.162738      2.522881
  H      -0.212408     -1.434240     -1.093917
  H      -0.145593     -2.108066      0.529203
  H       2.228989     -0.948797     -1.012953
  H       2.313871     -1.639046      0.618894
  H       0.455884      1.610270     -1.948804
17
Coordinates from ORCA-job freq E -421.416128235585
  C       0.834824     -3.317816     -0.964583
  C       1.699830      0.571668      1.828197
  C       0.422495     -1.965331     -0.396593
  C       1.666259     -1.114218     -0.092596
  C       1.294907      0.183422      0.525375
  O       2.912761      0.595970      1.791019
  O       0.256576      0.747868     -1.561973
  O       0.711885      1.142860     -0.108223
  H       1.375754     -3.193724     -1.903226
  H      -0.036136     -3.942251     -1.158123
  H       1.486005     -3.852099     -0.271648
  H       1.087537      1.168052      2.514735
  H      -0.213783     -1.438186     -1.102826
  H      -0.150153     -2.104985      0.523070
  H       2.227748     -0.948122     -1.015775
  H       2.307203     -1.636022      0.616316
  H       0.443271      1.608637     -1.955377
17
Coordinates from ORCA-job freq E -421.419651052084
  C       0.833595     -3.318211     -0.965892
  C       1.703944      0.576133      1.827437
  C       0.425392     -1.964696     -0.397731
  C       1.669952     -1.113022     -0.095717
  C       1.299977      0.185252      0.521599
  O       2.915411      0.584172      1.829992
  O       0.238547      0.745615     -1.556971
  O       0.726602      1.149235     -0.113498
  H       1.371770     -3.195722     -1.906357
  H      -0.039609     -3.940463     -1.156738
  H       1.485479     -3.854123     -0.274929
  H       1.080912      1.175745      2.502512
  H      -0.212205     -1.437820     -1.102667
  H      -0.145598     -2.102867      0.523234
  H       2.232281     -0.948293     -1.018711
  H       2.310350     -1.635471      0.613500
  H       0.430184      1.600260     -1.961293
17
Coordinates from ORCA-job freq E -421.423006897992
  C       0.837319     -3.319419     -0.962865
  C       1.710098      0.575699      1.826143
  C       0.423721     -1.964309     -0.402132
  C       1.665954     -1.109975     -0.100305
  C       1.300944      0.190285      0.516191
  O       2.920620      0.553643      1.861013
  O       0.216756      0.752970     -1.550427
  O       0.742261      1.161841     -0.118690
  H       1.378634     -3.199900     -1.901947
  H      -0.033206     -3.945332     -1.153873
  H       1.488415     -3.850197     -0.267109
  H       1.085165      1.183248      2.493176
  H      -0.213809     -1.442003     -1.110346
  H      -0.148942     -2.100338      0.518148
  H       2.230876     -0.947573     -1.022220
  H       2.304996     -1.632520      0.610240
  H       0.417181      1.599604     -1.967227
17
Coordinates from ORCA-job freq E -421.426019360231
  C       0.840354     -3.320117     -0.959486
  C       1.713238      0.573294      1.824861
  C       0.423350     -1.963562     -0.404557
  C       1.664114     -1.106729     -0.105856
  C       1.303254      0.195407      0.509710
  O       2.920617      0.518689      1.893817
  O       0.200509      0.760825     -1.547867
  O       0.757162      1.172257     -0.125648
  H       1.380407     -3.203410     -1.899653
  H      -0.028118     -3.950056     -1.146457
  H       1.494078     -3.845358     -0.261887
  H       1.086128      1.190518      2.481758
  H      -0.216693     -1.445689     -1.113655
  H      -0.147703     -2.097633      0.517086
  H       2.230754     -0.946226     -1.027108
  H       2.302129     -1.629126      0.605808
  H       0.403404      1.602639     -1.973097
17
Coordinates from ORCA-job freq E -421.429032945880
  C       0.839571     -3.320961     -0.961011
  C       1.716278      0.578334      1.824719
  C       0.425797     -1.963968     -0.405022
  C       1.667133     -1.106479     -0.108670
  C       1.308763      0.196831      0.505788
  O       2.919870      0.505059      1.931222
  O       0.182828      0.761580     -1.540588
  O       0.774446      1.177934     -0.132217
  H       1.377057     -3.204792     -1.902769
  H      -0.030587     -3.949237     -1.146013
  H       1.494271     -3.847772     -0.265570
  H       1.080851      1.202131      2.467944
  H      -0.215735     -1.446050     -1.112584
  H      -0.143501     -2.097257      0.517842
  H       2.233421     -0.946890     -1.030322
  H       2.305724     -1.628804      0.602790
  H       0.390796      1.596065     -1.977768
17
Coordinates from ORCA-job freq E -421.431741996692
  C       0.843277     -3.322274     -0.957182
  C       1.721289      0.576814      1.823524
  C       0.425041     -1.963067     -0.409821
  C       1.664379     -1.103141     -0.113943
  C       1.310930      0.202134      0.499776
  O       2.919372      0.471144      1.960016
  O       0.161066      0.770155     -1.531400
  O       0.790315      1.189542     -0.138167
  H       1.384546     -3.210319     -1.897298
  H      -0.024729     -3.953467     -1.142282
  H       1.496224     -3.844005     -0.256207
  H       1.086424      1.210440      2.458244
  H      -0.215698     -1.449598     -1.121239
  H      -0.146450     -2.093184      0.512162
  H       2.232772     -0.945845     -1.034750
  H       2.302133     -1.625142      0.598666
  H       0.376093      1.595537     -1.982329
17
Coordinates from ORCA-job freq E -421.434308154368
  C       0.842595     -3.323034     -0.958004
  C       1.722809      0.580256      1.823306
  C       0.428001     -1.963164     -0.409885
  C       1.668131     -1.102563     -0.117593
  C       1.317420      0.203983      0.495009
  O       2.914059      0.453829      1.996610
  O       0.145227      0.772134     -1.523754
  O       0.807919      1.194950     -0.145534
  H       1.380412     -3.212148     -1.900266
  H      -0.027239     -3.952691     -1.139950
  H       1.497192     -3.845895     -0.259475
  H       1.081219      1.221936      2.443603
  H      -0.214889     -1.449880     -1.119392
  H      -0.140899     -2.092116      0.513890
  H       2.235579     -0.946146     -1.039135
  H       2.306845     -1.624196      0.594664
  H       0.362602      1.590470     -1.986322
17
Coordinates from ORCA-job freq E -421.436630192387
  C       0.845772     -3.324371     -0.954485
  C       1.726382      0.578916      1.822026
  C       0.428039     -1.962498     -0.413647
  C       1.666725     -1.099809     -0.122799
  C       1.320801      0.208674      0.488893
  O       2.909091      0.420510      2.025071
  O       0.125466      0.781033     -1.514077
  O       0.824481      1.204886     -0.152277
  H       1.386310     -3.217307     -1.895662
  H      -0.022521     -3.956260     -1.135984
  H       1.499116     -3.842990     -0.251569
  H       1.086011      1.231849      2.432250
  H      -0.214555     -1.452958     -1.126093
  H      -0.142147     -2.088472      0.509752
  H       2.235149     -0.945262     -1.044082
  H       2.305379     -1.620906      0.590074
  H       0.347483      1.590690     -1.989620
17
Coordinates from ORCA-job freq E -421.438724455216
  C       0.847448     -3.325201     -0.951714
  C       1.727008      0.576969      1.820977
  C       0.429822     -1.961820     -0.414650
  C       1.668315     -1.097438     -0.128479
  C       1.325915      0.212597      0.482324
  O       2.898997      0.388697      2.056139
  O       0.111511      0.788463     -1.508658
  O       0.840133      1.211996     -0.160048
  H       1.385421     -3.221111     -1.894699
  H      -0.020607     -3.958744     -1.128546
  H       1.503218     -3.840551     -0.248619
  H       1.085788      1.241232      2.418593
  H      -0.215333     -1.454991     -1.126726
  H      -0.137870     -2.085514      0.510632
  H       2.235998     -0.944216     -1.050412
  H       2.307804     -1.617769      0.584333
  H       0.333416      1.593127     -1.992675
17
Coordinates from ORCA-job freq E -421.441689253488
  C       0.848351     -3.326823     -0.950650
  C       1.728741      0.579307      1.819772
  C       0.433390     -1.961954     -0.415637
  C       1.672338     -1.096260     -0.134600
  C       1.335343      0.216132      0.474282
  O       2.883206      0.353809      2.104028
  O       0.087843      0.796642     -1.494382
  O       0.866595      1.220325     -0.171634
  H       1.384354     -3.225330     -1.895073
  H      -0.020975     -3.959450     -1.124582
  H       1.504867     -3.841830     -0.248058
  H       1.084963      1.260187      2.396139
  H      -0.213636     -1.456369     -1.126910
  H      -0.132106     -2.083086      0.511314
  H       2.237724     -0.944471     -1.058140
  H       2.314105     -1.615400      0.577349
  H       0.311880      1.590293     -1.995448
17
Coordinates from ORCA-job freq E -421.443443106023
  C       0.849807     -3.327776     -0.948232
  C       1.729115      0.578170      1.818811
  C       0.435493     -1.961355     -0.416801
  C       1.674450     -1.094334     -0.139926
  C       1.341224      0.219486      0.468154
  O       2.869827      0.324375      2.133053
  O       0.073534      0.803316     -1.485498
  O       0.882688      1.226757     -0.179147
  H       1.384992     -3.229209     -1.893454
  H      -0.019733     -3.960849     -1.119523
  H       1.506896     -3.840793     -0.244706
  H       1.086764      1.271382      2.382271
  H      -0.212916     -1.457760     -1.128282
  H      -0.128589     -2.079954      0.511350
  H       2.238086     -0.943567     -1.064657
  H       2.317906     -1.612544      0.571347
  H       0.297439      1.590379     -1.996989
17
Coordinates from ORCA-job freq E -421.445054526110
  C       0.850847     -3.328671     -0.946672
  C       1.728850      0.578028      1.817879
  C       0.437877     -1.961271     -0.416913
  C       1.677090     -1.093131     -0.144586
  C       1.347545      0.222151      0.462391
  O       2.854554      0.297428      2.161950
  O       0.059961      0.809778     -1.476349
  O       0.899268      1.232027     -0.187025
  H       1.384426     -3.231907     -1.893018
  H      -0.019185     -3.961760     -1.115476
  H       1.508973     -3.840728     -0.243440
  H       1.088180      1.284088      2.367446
  H      -0.212347     -1.458863     -1.127638
  H      -0.124091     -2.078078      0.512726
  H       2.238195     -0.943098     -1.070929
  H       2.322775     -1.610288      0.565608
  H       0.284067      1.590021     -1.998183
17
Coordinates from ORCA-job freq E -421.447227471960
  C       0.852450     -3.329935     -0.943765
  C       1.727560      0.576570      1.816446
  C       0.441803     -1.960853     -0.416772
  C       1.681496     -1.090937     -0.152163
  C       1.357151      0.226303      0.453438
  O       2.828410      0.255927      2.203422
  O       0.041048      0.819791     -1.462937
  O       0.922895      1.239572     -0.198771
  H       1.383323     -3.236332     -1.891979
  H      -0.018460     -3.962968     -1.108256
  H       1.512281     -3.840359     -0.240953
  H       1.091088      1.302012      2.345714
  H      -0.211414     -1.460326     -1.126209
  H      -0.116570     -2.074669      0.515395
  H       2.237970     -0.941907     -1.081357
  H       2.331078     -1.606293      0.556042
  H       0.264874      1.590128     -1.999525
17
Coordinates from ORCA-job freq E -421.449969347559
  C       0.854748     -3.330900     -0.937863
  C       1.721708      0.569879      1.814022
  C       0.448631     -1.959529     -0.413608
  C       1.689570     -1.086485     -0.165369
  C       1.371697      0.233070      0.438875
  O       2.778981      0.189112      2.261073
  O       0.021325      0.835107     -1.450478
  O       0.953834      1.249520     -0.216394
  H       1.375537     -3.242011     -1.892116
  H      -0.017306     -3.965532     -1.089752
  H       1.522345     -3.837010     -0.239272
  H       1.094469      1.323906      2.314475
  H      -0.213021     -1.462530     -1.117961
  H      -0.099604     -2.069395      0.525050
  H       2.236807     -0.938830     -1.100011
  H       2.346112     -1.598944      0.538782
  H       0.241149      1.596298     -2.001681
17
Coordinates from ORCA-job freq E -421.453278823541
  C       0.857665     -3.332531     -0.930769
  C       1.708889      0.562032      1.810830
  C       0.458984     -1.959989     -0.404403
  C       1.701181     -1.080874     -0.184125
  C       1.392307      0.240828      0.419394
  O       2.693303      0.098200      2.339829
  O      -0.002405      0.858254     -1.428595
  O       1.001152      1.262495     -0.242227
  H       1.363317     -3.246291     -1.893415
  H      -0.016286     -3.968143     -1.067097
  H       1.536453     -3.835975     -0.241141
  H       1.103347      1.359542      2.269442
  H      -0.216882     -1.466210     -1.098020
  H      -0.071533     -2.066830      0.544641
  H       2.226913     -0.932411     -1.130513
  H       2.374372     -1.587426      0.509013
  H       0.216209      1.601054     -2.005073
17
Coordinates from ORCA-job freq E -421.456674226539
  C       0.861049     -3.330906     -0.917705
  C       1.675266      0.539649      1.806698
  C       0.477570     -1.959090     -0.379072
  C       1.720488     -1.067955     -0.216162
  C       1.420899      0.253338      0.391238
  O       2.534313     -0.041043      2.432102
  O      -0.011510      0.886700     -1.414757
  O       1.059912      1.280655     -0.276787
  H       1.328366     -3.245088     -1.899621
  H      -0.014865     -3.970514     -1.018269
  H       1.568208     -3.829401     -0.253564
  H       1.116419      1.396133      2.216085
  H      -0.230738     -1.470541     -1.044505
  H      -0.010882     -2.065378      0.592264
  H       2.201089     -0.915624     -1.184834
  H       2.426063     -1.564081      0.452525
  H       0.205338      1.608869     -2.017863
17
Coordinates from ORCA-job freq E -421.459382116379
  C       0.862319     -3.323179     -0.900186
  C       1.602327      0.499683      1.799817
  C       0.509813     -1.961182     -0.318077
  C       1.745092     -1.045868     -0.263429
  C       1.451859      0.268883      0.358003
  O       2.278744     -0.214168      2.507095
  O       0.018995      0.926290     -1.426018
  O       1.128004      1.306250     -0.314121
  H       1.241337     -3.223684     -1.918196
  H      -0.010653     -3.973928     -0.929632
  H       1.630537     -3.816267     -0.303352
  H       1.113224      1.414050      2.171713
  H      -0.263698     -1.478800     -0.913671
  H       0.114542     -2.080059      0.693264
  H       2.135831     -0.884109     -1.268903
  H       2.509927     -1.523910      0.351889
  H       0.258783      1.615721     -2.058426
17
Coordinates from ORCA-job freq E -421.460526469995
  C       0.861128     -3.313126     -0.884068
  C       1.519851      0.458980      1.787678
  C       0.545534     -1.966326     -0.248624
  C       1.759307     -1.024214     -0.304373
  C       1.470145      0.283856      0.332000
  O       2.036520     -0.353957      2.521250
  O       0.065426      0.975229     -1.447781
  O       1.179683      1.335091     -0.336263
  H       1.134167     -3.192710     -1.933259
  H       0.001878     -3.980610     -0.835581
  H       1.694131     -3.798641     -0.374215
  H       1.092459      1.405599      2.154852
  H      -0.292605     -1.490305     -0.757798
  H       0.258156     -2.104902      0.795857
  H       2.059351     -0.856913     -1.338615
  H       2.581795     -1.482343      0.249290
  H       0.360057      1.611016     -2.112579
17
Coordinates from ORCA-job freq E -421.460744389319
  C       0.868253     -3.320249     -0.867796
  C       1.495706      0.444230      1.777372
  C       0.554350     -1.972875     -0.232804
  C       1.756481     -1.019818     -0.324517
  C       1.481675      0.289532      0.318053
  O       1.937073     -0.407004      2.514760
  O       0.069168      1.027885     -1.437281
  O       1.204558      1.352148     -0.339266
  H       1.124113     -3.203451     -1.921777
  H       0.013941     -3.992760     -0.802998
  H       1.712009     -3.798662     -0.368960
  H       1.104531      1.406129      2.145266
  H      -0.299779     -1.509121     -0.726888
  H       0.292789     -2.106492      0.818353
  H       2.023502     -0.851233     -1.367693
  H       2.602673     -1.473336      0.197238
  H       0.385940      1.640801     -2.113291
17
Coordinates from ORCA-job freq E -421.460760161794
  C       0.870470     -3.322331     -0.863918
  C       1.486558      0.440318      1.774690
  C       0.556946     -1.976133     -0.226171
  C       1.754171     -1.018418     -0.330418
  C       1.483263      0.290763      0.314620
  O       1.902038     -0.422736      2.513320
  O       0.075159      1.042957     -1.437414
  O       1.215260      1.356795     -0.341427
  H       1.115590     -3.205012     -1.920398
  H       0.020004     -3.998793     -0.790402
  H       1.721258     -3.796606     -0.373094
  H       1.109554      1.407926      2.142341
  H      -0.304222     -1.516480     -0.712026
  H       0.306686     -2.110438      0.827454
  H       2.009786     -0.848712     -1.376226
  H       2.607896     -1.469559      0.181446
  H       0.396565      1.652182     -2.114605
17
Coordinates from ORCA-job freq E -421.460757854702
  C       0.870436     -3.322470     -0.863912
  C       1.486988      0.440549      1.774636
  C       0.556841     -1.976060     -0.226663
  C       1.754368     -1.018647     -0.330318
  C       1.483455      0.290587      0.314612
  O       1.903126     -0.422055      2.513363
  O       0.074880      1.042445     -1.437115
  O       1.215028      1.356545     -0.341418
  H       1.116380     -3.205437     -1.920233
  H       0.019677     -3.998629     -0.790920
  H       1.720683     -3.796988     -0.372371
  H       1.109447      1.408010      2.142172
  H      -0.303792     -1.516158     -0.713218
  H       0.305913     -2.109912      0.826868
  H       2.010597     -0.849074     -1.376009
  H       2.607779     -1.469889      0.182011
  H       0.395176      1.652908     -2.113716
17
Coordinates from ORCA-job freq E -421.460758922832
  C       0.870473     -3.322483     -0.863906
  C       1.487341      0.440662      1.774632
  C       0.556733     -1.975983     -0.226938
  C       1.754416     -1.018726     -0.330202
  C       1.483527      0.290552      0.314628
  O       1.903577     -0.421883      2.513375
  O       0.074645      1.042060     -1.436976
  O       1.214851      1.356417     -0.341468
  H       1.117126     -3.205569     -1.920077
  H       0.019526     -3.998453     -0.791449
  H       1.720302     -3.797139     -0.371785
  H       1.109919      1.408182      2.142131
  H      -0.303626     -1.516040     -0.713901
  H       0.305333     -2.109715      0.826489
  H       2.010961     -0.849197     -1.375823
  H       2.607601     -1.470081      0.182390
  H       0.394276      1.653121     -2.113349
