17
Coordinates from ORCA-job freq E -421.389329816502
  C          -2.07636604655979      0.90286896225807     -0.84617460729878
  C           1.85920515261267     -0.69510138174444      0.80926556932663
  C           0.12214551839954     -0.27205372420261     -1.13011546060644
  C          -0.70163561720747      0.66919634749759     -0.25087452540647
  C           1.41126965956032     -0.83323501087214     -0.57417710716042
  O           0.05667153751036      0.59091366341377      1.91566468274724
  O           1.29470680221696     -1.87404810083797      0.41681188401297
  O          -0.90743452982065      0.11526894020522      1.04986057571818
  H           1.00158311835837      0.02387187536735      1.57692066141992
  H          -2.62926285652092      1.62726553333721     -0.25211298103478
  H          -2.63621641459936     -0.03256383079091     -0.86467485146489
  H          -1.99024820697376      1.27302532936439     -1.86760750925904
  H           2.87869909928830     -0.67909085205934      1.18479934588224
  H          -0.50098542864013     -1.12506086973398     -1.41427750829503
  H           0.36038769590726      0.26114945419499     -2.05341905122728
  H          -0.17612509600929      1.61577108097884     -0.11235023502725
  H           2.15724661247760     -1.07798841637605     -1.32351388232678
