15
Coordinates from ORCA-job freq E -271.034838422938
  C       2.529887     -0.251799      0.706615
  C      -2.166614      0.631381      1.718417
  C       1.855076      0.728011      0.099832
  C      -0.115600      0.975555      0.344696
  C      -0.844472      0.027970      1.217084
  O       1.023835      1.615610      0.772763
  H       2.466076     -0.403200      1.768824
  H       3.163485     -0.910260      0.142931
  H      -2.806886      0.890091      0.878742
  H      -2.688342     -0.085412      2.347629
  H      -1.972154      1.530810      2.296163
  H       1.944071      0.912897     -0.966862
  H      -0.518947      1.273497     -0.613880
  H      -0.215802     -0.225727      2.071554
  H      -1.073854     -0.890384      0.664693
15
Coordinates from ORCA-job freq E -271.033315167666
  C       2.504896     -0.236636      0.732824
  C      -2.132790      0.637241      1.723943
  C       1.828635      0.735404      0.109228
  C      -0.105508      0.925958      0.298956
  C      -0.841020     -0.001005      1.188151
  O       0.990230      1.623809      0.767427
  H       2.419863     -0.387158      1.795178
  H       3.151364     -0.891188      0.176214
  H      -2.791861      0.914338      0.904039
  H      -2.658941     -0.060647      2.371938
  H      -1.898806      1.532688      2.295570
  H       1.954551      0.935826     -0.950204
  H      -0.542240      1.273588     -0.628744
  H      -0.198429     -0.272109      2.026436
  H      -1.100181     -0.911069      0.638243
15
Coordinates from ORCA-job freq E -271.032573687706
  C       2.473858     -0.213925      0.781580
  C      -2.084519      0.640334      1.742300
  C       1.794757      0.733025      0.116398
  C      -0.105435      0.892131      0.237552
  C      -0.841375     -0.028374      1.135058
  O       0.946542      1.637095      0.743058
  H       2.365549     -0.335164      1.846811
  H       3.139462     -0.874758      0.253249
  H      -2.773236      0.957151      0.961227
  H      -2.605453     -0.051813      2.401892
  H      -1.795941      1.515822      2.321460
  H       1.959112      0.928088     -0.938097
  H      -0.570336      1.277391     -0.662750
  H      -0.173908     -0.344639      1.937220
  H      -1.149316     -0.913324      0.572242
15
Coordinates from ORCA-job freq E -271.032539205375
  C       2.472033     -0.193156      0.797922
  C      -2.063413      0.651994      1.754849
  C       1.781939      0.741686      0.122007
  C      -0.107647      0.854869      0.213614
  C      -0.857370     -0.052467      1.114115
  O       0.912670      1.630278      0.742070
  H       2.344717     -0.323365      1.860532
  H       3.162293     -0.835364      0.277109
  H      -2.757834      1.001698      0.992634
  H      -2.595106     -0.027046      2.419910
  H      -1.731679      1.511376      2.335763
  H       1.968965      0.952268     -0.925457
  H      -0.559624      1.227343     -0.699516
  H      -0.186022     -0.403138      1.898681
  H      -1.204160     -0.917937      0.544968
15
Coordinates from ORCA-job freq E -271.032692339620
  C       2.462315     -0.177870      0.823082
  C      -2.041079      0.653164      1.769094
  C       1.770265      0.740916      0.125224
  C      -0.115955      0.846922      0.188109
  C      -0.865754     -0.062907      1.086347
  O       0.890666      1.633609      0.726690
  H       2.323806     -0.291371      1.886521
  H       3.164023     -0.822034      0.319585
  H      -2.747990      1.030133      1.031538
  H      -2.569512     -0.027078      2.435863
  H      -1.677850      1.495400      2.356535
  H       1.969956      0.941590     -0.921792
  H      -0.557402      1.212325     -0.733174
  H      -0.184354     -0.444232      1.847846
  H      -1.241372     -0.909524      0.507733
15
Coordinates from ORCA-job freq E -271.032799899742
  C       2.467506     -0.166264      0.828561
  C      -2.033046      0.660270      1.774838
  C       1.767827      0.745339      0.127608
  C      -0.118076      0.826301      0.179998
  C      -0.877712     -0.075004      1.078160
  O       0.873977      1.625088      0.727491
  H       2.320730     -0.287316      1.890244
  H       3.182767     -0.797704      0.327632
  H      -2.738713      1.054783      1.045085
  H      -2.569512     -0.012387      2.442941
  H      -1.648113      1.492510      2.362789
  H       1.975491      0.955271     -0.915958
  H      -0.551235      1.183686     -0.748506
  H      -0.198648     -0.475774      1.832087
  H      -1.273481     -0.909760      0.496231
15
Coordinates from ORCA-job freq E -271.032903841658
  C       2.457097     -0.149198      0.849752
  C      -2.008404      0.664324      1.787256
  C       1.756252      0.749976      0.131619
  C      -0.123712      0.807299      0.155913
  C      -0.888269     -0.089472      1.054641
  O       0.846309      1.625074      0.715435
  H       2.293214     -0.266556      1.909577
  H       3.188614     -0.773915      0.363553
  H      -2.721104      1.086571      1.079957
  H      -2.546250     -0.003389      2.459330
  H      -1.588913      1.478793      2.376619
  H       1.981468      0.960659     -0.908084
  H      -0.546635      1.154504     -0.781296
  H      -0.204836     -0.521124      1.787680
  H      -1.315069     -0.904506      0.467249
15
Coordinates from ORCA-job freq E -271.032975988790
  C       2.450717     -0.137520      0.863795
  C      -1.992055      0.666653      1.795518
  C       1.748609      0.752357      0.133820
  C      -0.126983      0.795081      0.140890
  C      -0.895908     -0.098450      1.039358
  O       0.828365      1.625410      0.706982
  H       2.276860     -0.251053      1.922611
  H       3.192349     -0.758202      0.387481
  H      -2.708394      1.107369      1.103111
  H      -2.531120      0.001728      2.469475
  H      -1.550440      1.468662      2.385819
  H       1.984403      0.962410     -0.903598
  H      -0.542552      1.135649     -0.802122
  H      -0.210725     -0.551776      1.757924
  H      -1.343363     -0.899278      0.448138
15
Coordinates from ORCA-job freq E -271.033035889617
  C       2.443157     -0.126130      0.877866
  C      -1.975160      0.668467      1.803744
  C       1.740753      0.754829      0.135801
  C      -0.130115      0.783611      0.125966
  C      -0.903221     -0.106809      1.024368
  O       0.810655      1.626321      0.697948
  H       2.258537     -0.236057      1.935418
  H       3.194805     -0.742871      0.411857
  H      -2.695137      1.126661      1.126395
  H      -2.514723      0.006249      2.480051
  H      -1.512051      1.458321      2.393972
  H       1.987714      0.964392     -0.899047
  H      -0.537919      1.117059     -0.823046
  H      -0.216684     -0.581646      1.728030
  H      -1.370847     -0.893358      0.429879
15
Coordinates from ORCA-job freq E -271.033102795928
  C       2.430521     -0.109016      0.899047
  C      -1.949076      0.670357      1.816137
  C       1.728875      0.758516      0.138196
  C      -0.134610      0.767346      0.103850
  C      -0.914000     -0.118403      1.002373
  O       0.784667      1.628374      0.683110
  H       2.229039     -0.212935      1.954409
  H       3.196867     -0.720299      0.449481
  H      -2.673526      1.154601      1.161741
  H      -2.489183      0.011700      2.495585
  H      -1.454375      1.441246      2.405780
  H       1.992731      0.966826     -0.892621
  H      -0.530208      1.089180     -0.854395
  H      -0.226681     -0.625581      1.682990
  H      -1.411281     -0.882870      0.403517
15
Coordinates from ORCA-job freq E -271.033149295644
  C       2.409797     -0.085549      0.928985
  C      -1.911584      0.670895      1.833829
  C       1.712620      0.763447      0.140278
  C      -0.140615      0.747899      0.073019
  C      -0.928016     -0.131609      0.972503
  O       0.750503      1.633437      0.658556
  H       2.183333     -0.179861      1.980559
  H       3.195297     -0.690894      0.504294
  H      -2.641464      1.190181      1.212695
  H      -2.450978      0.015148      2.516822
  H      -1.375591      1.414703      2.422066
  H       2.000867      0.967964     -0.884582
  H      -0.518160      1.051034     -0.898577
  H      -0.241481     -0.682929      1.619707
  H      -1.464766     -0.864827      0.369046
15
Coordinates from ORCA-job freq E -271.033153220131
  C       2.406979     -0.083564      0.932166
  C      -1.908363      0.669971      1.836060
  C       1.711914      0.763700      0.139619
  C      -0.141414      0.748462      0.069981
  C      -0.928514     -0.131491      0.969866
  O       0.749173      1.635431      0.653846
  H       2.177737     -0.175246      1.983390
  H       3.193293     -0.690262      0.510939
  H      -2.638968      1.192558      1.218541
  H      -2.447174      0.012937      2.518248
  H      -1.369876      1.411176      2.425260
  H       2.002353      0.965380     -0.885175
  H      -0.517746      1.048748     -0.902936
  H      -0.241612     -0.686549      1.613612
  H      -1.468019     -0.862212      0.365785
15
Coordinates from ORCA-job freq E -271.033153728245
  C       2.407040     -0.083530      0.932141
  C      -1.908400      0.669986      1.836073
  C       1.711925      0.763696      0.139606
  C      -0.141406      0.748432      0.070009
  C      -0.928538     -0.131488      0.969906
  O       0.749186      1.635429      0.653814
  H       2.177883     -0.175199      1.983386
  H       3.193347     -0.690210      0.510874
  H      -2.638859      1.192718      1.218508
  H      -2.447374      0.012919      2.518091
  H      -1.369934      1.411057      2.425454
  H       2.002314      0.965339     -0.885204
  H      -0.517716      1.048648     -0.902939
  H      -0.241657     -0.686562      1.613670
  H      -1.468049     -0.862194      0.365811
