17
Coordinates from ORCA-job freq E -421.371075807771
  C           0.81911101889535      0.49780648073798     -0.27248652036545
  C          -0.25389346656481     -0.53405874431607     -0.44784870155693
  C           2.23015720593864      0.18993164276196     -0.75729655488419
  C          -2.84258912638502     -0.41058113720100     -0.32199421461836
  C          -1.52513377259277     -0.14384889665720      0.25578267345183
  O           2.48998130270865      0.49850562303441      1.39860910201353
  O          -2.27334778012872      0.88704659294473     -0.36273945947870
  O           3.06021746549247      0.85236387039978      0.17963551123658
  H           1.32347819431429      0.52513294196030      0.96493416672704
  H           0.49554765151896      1.52376940362956     -0.44338257741994
  H          -0.47566031813417     -0.65359730511096     -1.51576319567570
  H           0.09452142098445     -1.50413740040085     -0.08272922068155
  H           2.40804418437541     -0.88956167183067     -0.73053448886669
  H           2.47328910232644      0.58875935429731     -1.74251005957733
  H          -2.90346576900951     -0.91664535369522     -1.27902916177741
  H          -3.70352268686593     -0.51624887840076      0.32674828959738
  H          -1.45284262687371     -0.04639652215329      1.33558141187590
