15
Coordinates from ORCA-job freq E -270.931637752398
  C           2.14767360894042      0.10140774989737      0.68144068371361
  C          -2.55391605543050      0.49241431744458      0.20313912251393
  C           1.30030532668997     -0.92089081294065     -0.08065888098243
  C          -1.11590007000177      0.91057568340972      0.40704695992947
  C          -0.12442751115431     -0.47308320842801     -0.21010871870275
  O          -0.40956594856198      0.63832096737954     -0.86402738249444
  H          -0.55115271586701     -0.20205058903255      0.93405405072842
  H           3.19103348347518     -0.21021811653808      0.69346936977944
  H           2.07540507283727      1.07864167656357      0.20751953309850
  H           1.80633548113228      0.20147800410915      1.71100365945655
  H          -2.69946351804785     -0.36378823921264     -0.45915152426760
  H          -3.03788989819911      0.32181011045384      1.16345507731893
  H          -3.03127459665515      1.36353243020614     -0.25336586339738
  H           1.32974732752741     -1.89611433414743      0.40298534929386
  H           1.67308801331517     -1.04203663916456     -1.10000843598815
