15
Coordinates from ORCA-job freq E -271.055021838332
  C           2.27625786724854      0.53517117360191      0.62014528008337
  C          -2.09031202017672      0.30042535618013     -0.29569509146836
  C          -0.85076346805296      0.33578441006802      0.59339434028927
  C           1.56490410849254     -0.68103518170730      0.27914041042934
  C           0.08089838307794     -0.79310888114091      0.25956809374802
  O           0.81262525326761     -0.68799597489679     -0.94143134476266
  H           3.16614766421208      0.49021191391718      1.22668851943602
  H           1.93614331106159      1.49044309767870      0.25463204970295
  H          -1.80459754549125      0.37650003669540     -1.34455714799593
  H          -2.76501697721964      1.12350988755447     -0.06437157600450
  H          -2.63997809389600     -0.63245486814722     -0.16327276714288
  H          -1.13406328512405      0.25419788390675      1.64528436251895
  H          -0.32950595567831      1.28499829780178      0.47217865061539
  H           2.10064898646671     -1.60753377139011      0.46049011748037
  H          -0.32338922818805     -1.78911538012202      0.43459910307067
