9
Coordinates from ORCA-job freq E -117.886453591339
  C          -1.11164363986429      0.21019511521166      0.08244306176114
  C           0.19329650493160     -0.39721305183219     -0.32484594380615
  C           1.37929491532037     -0.00713223387001      0.11580347062801
  H          -1.64540145758563      0.60353668871709     -0.78467125171927
  H          -1.76166124721718     -0.53632413603205      0.54260532000777
  H          -0.96296031459102      1.02220627715303      0.79292631310553
  H           0.14169121191497     -1.21713579386238     -1.03490329120741
  H           1.47579203676852      0.80664124077959      0.82490821736461
  H           2.29159299032266     -0.48477310626473     -0.21426589613421
