15
Coordinates from ORCA-job freq E -271.023292865055
  C          -1.19397631670574     -2.02787215816741     -0.87847399632784
  C          -1.47342196193212      2.26343248159709      0.63614721125847
  C          -0.74859779313294      0.40533819559866     -1.25281853976294
  C          -1.58190794218016     -0.76629230749440     -1.65776546625180
  C          -0.89810421027570      1.06308102066107     -0.00310776821602
  O           0.21669931237879      0.45634150880856      0.25010079342301
  H          -1.30313872410644     -1.85562145182625      0.19132541892638
  H          -1.82920217697897     -2.86359031853046     -1.16815418669475
  H          -0.15509269224299     -2.29355726916734     -1.06891179940095
  H          -2.46159811325886      2.47197571806604      0.23078026542652
  H          -0.83580048071510      3.13753974277897      0.46161604177805
  H          -1.55278580532267      2.11962166858157      1.71343624976018
  H           0.07371326012041      0.70264177891634     -1.89622145316984
  H          -1.46463551522213     -0.94508847658420     -2.72803796266614
  H          -2.63107484042535     -0.53193413323827     -1.45730980808229
