17
Coordinates from ORCA-job freq E -421.415454533294
  C          -1.16700795650252     -0.66262086881430      1.40004509396019
  C           0.38240269728304      0.90296929259543      0.20100766458286
  C           2.25068011033953     -0.16091349770054     -1.20965066321591
  C          -0.67413452379334     -0.13322017187269      0.06591020274612
  C           1.46846225137827      1.01693233263769     -0.76487467410585
  O          -2.67324324844125     -0.47879554699873     -1.03221181105085
  O           1.26918749977639      0.40983443383573     -2.04056791603062
  O          -1.73858962993599      0.51874664730240     -0.64406890604937
  H          -1.99810127115486     -1.34773631687489      1.24509616191429
  H          -0.36603006449715     -1.19053521250165      1.91785305919567
  H          -1.50460532971414      0.16412262544874      2.02535728843366
  H           0.28320936913245      1.65724210536802      0.96864307748691
  H           3.27701877281510     -0.02161673344807     -1.52967754837474
  H           2.00558548990285     -1.13493152653664     -0.79943014449105
  H          -0.31505272857944     -0.95035562001704     -0.56751559634161
  H           1.97795952608687      1.97343464333777     -0.80694630621960
  H          -2.47774096409579     -0.56255558576126     -1.97278498244010
