15
Coordinates from ORCA-job freq E -271.055638024143
  C           3.33199328037623     -0.16630452311713      0.47559930332535
  C          -2.33992517614501      0.66854814968067     -0.27399228423374
  C          -0.19803134982105     -0.00349174052572      0.85164815829057
  C           1.01049804214810     -0.29195082384023      0.39728514502010
  C          -1.45872623189812     -0.48534581379002      0.20503000457195
  O           2.13664273694557      0.17995372301075      1.00551680466946
  H           3.35500570603363     -0.49241599415373     -0.55524756821158
  H           4.16850978796422      0.33500413358864      0.93152054723518
  H          -3.26827401035781      0.30003566458428     -0.70967130691974
  H          -2.59546359954214      1.32853229790209      0.55578190512250
  H          -1.81904624741630      1.26332593904764     -1.02402888529301
  H          -0.28058803657735      0.62918338739436      1.72928159159738
  H           1.18388944816267     -0.91841419135749     -0.47243157177188
  H          -2.02325961900909     -1.09232603382096      0.91773821291085
  H          -1.21193173086354     -1.13857517460315     -0.63432305631340
