15
Coordinates from ORCA-job freq E -271.055987611287
  C           2.69027840254032     -0.14504627411909      0.86277841585050
  C          -2.25238726087199     -0.30929607382658     -0.18183648486497
  C          -0.95423439521819      0.46325881417801     -0.39650992367338
  C           1.35694416820717      0.42012419725773      0.82499783212260
  C           0.21893150140101     -0.27786328163113      0.17907529345992
  O           0.34196229378865     -0.25988588007591      1.58350915168713
  H           2.81327907223845     -1.21304596789386      0.95767740020504
  H           3.56157760628034      0.48573427944395      0.79751084653244
  H          -3.10694567003726      0.23712875056951     -0.57847025947900
  H          -2.41823952694263     -0.47956614939248      0.88162778110634
  H          -2.21400691276822     -1.28018907362300     -0.67746093994165
  H          -1.01530402339112      1.44142109131939      0.08397940421342
  H          -0.78099672351514      0.63023018881183     -1.46186785069947
  H           1.28126195358745      1.50145521219313      0.87653538238034
  H           0.43170451470114     -1.24863383321152     -0.26541604889926
