17
Coordinates from ORCA-job freq E -421.411226473094
  C          -2.44778262712626      0.36664937400047     -0.41954982545965
  C           1.64408244101364     -1.21863517691153      0.91396599750151
  C          -0.14914720496718     -0.79959115334119     -0.75213038489251
  C          -1.52478532061559     -0.56762488476065     -1.14025071887033
  C           0.76919024758847     -0.17628307733527      0.24338547552685
  O           2.22677192114435      1.57467050913601      0.42399994258202
  O          -1.07210054346720     -1.72603285798978     -0.38016081392233
  O           1.51836118928262      0.77250201157782     -0.50606519006454
  H          -2.11873148123633      0.52387750983775      0.60577345274598
  H          -3.46107160151199     -0.03472543275580     -0.40262759134836
  H          -2.47066385475565      1.32944351552631     -0.93023825980767
  H           2.25627374274951     -1.72391247030338      0.16701824850910
  H           1.01709529073659     -1.95834798744128      1.41038576106145
  H           2.28597032172314     -0.75297942514655      1.65907045957411
  H          -1.79596258247475     -0.81947757337638     -2.15969422123332
  H           0.18602541698515      0.37067196575144      0.99661910425595
  H           3.13647364493150      1.29598015353201      0.27049956384172
