15
* (null), Energy   -1000.0000000
C     2.488832    0.322280    0.007657   -0.057861   -0.037130   -0.142441
C     1.025651    0.504897   -0.155661   -0.086513    0.052692    0.116641
C     0.076059   -0.488932    0.432800   -0.001121    0.004263   -0.003101
C    -2.349351    0.381664    0.221029    0.000440    0.000160    0.000163
C    -1.261480   -0.475590   -0.255138   -0.001205   -0.000511    0.000407
O    -2.353139   -1.014778    0.464249   -0.001238   -0.000337   -0.000023
H     1.822084    0.077957   -1.074336    1.947854   -0.251455    0.246493
H     2.852407   -0.576052    0.482672   -0.053340    0.056941    0.065499
H     3.150681    1.165686   -0.105854   -0.061386    0.015373    0.085036
H     0.672736    1.505559   -0.368226   -0.053152    0.006468   -0.072545
H     0.505531   -1.493223    0.369258    0.004892   -0.003395   -0.012135
H    -0.082688   -0.290720    1.500808   -0.020549   -0.044971    0.022942
H    -3.106451    0.731929   -0.470172    0.000268    0.000447    0.000494
H    -2.182232    0.999417    1.096995    0.002076    0.000074   -0.000016
H    -1.250152   -0.737136   -1.309727   -0.004227   -0.006167    0.002193
15
* Frequency(6) -1795.0757
C     2.482256    0.318060   -0.008531   -0.057861   -0.037130   -0.142441
C     1.015820    0.510885   -0.142406   -0.086513    0.052692    0.116641
C     0.075932   -0.488447    0.432448   -0.001121    0.004263   -0.003101
C    -2.349301    0.381683    0.221047    0.000440    0.000160    0.000163
C    -1.261617   -0.475648   -0.255092   -0.001205   -0.000511    0.000407
O    -2.353279   -1.014816    0.464246   -0.001238   -0.000337   -0.000023
H     2.043448    0.049381   -1.046323    1.947854   -0.251455    0.246493
H     2.846346   -0.569581    0.490116   -0.053340    0.056941    0.065499
H     3.143705    1.167433   -0.096190   -0.061386    0.015373    0.085036
H     0.666695    1.506294   -0.376470   -0.053152    0.006468   -0.072545
H     0.506087   -1.493609    0.367879    0.004892   -0.003395   -0.012135
H    -0.085023   -0.295831    1.503415   -0.020549   -0.044971    0.022942
H    -3.106421    0.731980   -0.470116    0.000268    0.000447    0.000494
H    -2.181996    0.999425    1.096993    0.002076    0.000074   -0.000016
H    -1.250632   -0.737837   -1.309477   -0.004227   -0.006167    0.002193
15
* Frequency(6) -1795.0757
C     2.476393    0.314297   -0.022965   -0.057861   -0.037130   -0.142441
C     1.007053    0.516224   -0.130587   -0.086513    0.052692    0.116641
C     0.075818   -0.488015    0.432133   -0.001121    0.004263   -0.003101
C    -2.349256    0.381699    0.221064    0.000440    0.000160    0.000163
C    -1.261739   -0.475700   -0.255051   -0.001205   -0.000511    0.000407
O    -2.353405   -1.014850    0.464244   -0.001238   -0.000337   -0.000023
H     2.240823    0.023901   -1.021346    1.947854   -0.251455    0.246493
H     2.840941   -0.563811    0.496753   -0.053340    0.056941    0.065499
H     3.137485    1.168991   -0.087574   -0.061386    0.015373    0.085036
H     0.661309    1.506949   -0.383821   -0.053152    0.006468   -0.072545
H     0.506582   -1.493953    0.366650    0.004892   -0.003395   -0.012135
H    -0.087105   -0.300388    1.505740   -0.020549   -0.044971    0.022942
H    -3.106394    0.732025   -0.470066    0.000268    0.000447    0.000494
H    -2.181786    0.999433    1.096991    0.002076    0.000074   -0.000016
H    -1.251060   -0.738461   -1.309255   -0.004227   -0.006167    0.002193
15
* Frequency(6) -1795.0757
C     2.471878    0.311400   -0.034080   -0.057861   -0.037130   -0.142441
C     1.000302    0.520336   -0.121485   -0.086513    0.052692    0.116641
C     0.075731   -0.487683    0.431891   -0.001121    0.004263   -0.003101
C    -2.349222    0.381711    0.221077    0.000440    0.000160    0.000163
C    -1.261834   -0.475740   -0.255019   -0.001205   -0.000511    0.000407
O    -2.353501   -1.014876    0.464242   -0.001238   -0.000337   -0.000023
H     2.392822    0.004279   -1.002112    1.947854   -0.251455    0.246493
H     2.836778   -0.559368    0.501864   -0.053340    0.056941    0.065499
H     3.132695    1.170190   -0.080938   -0.061386    0.015373    0.085036
H     0.657162    1.507454   -0.389482   -0.053152    0.006468   -0.072545
H     0.506964   -1.494218    0.365703    0.004892   -0.003395   -0.012135
H    -0.088709   -0.303897    1.507530   -0.020549   -0.044971    0.022942
H    -3.106373    0.732060   -0.470027    0.000268    0.000447    0.000494
H    -2.181624    0.999438    1.096990    0.002076    0.000074   -0.000016
H    -1.251390   -0.738943   -1.309084   -0.004227   -0.006167    0.002193
15
* Frequency(6) -1795.0757
C     2.469200    0.309682   -0.040672   -0.057861   -0.037130   -0.142441
C     0.996298    0.522774   -0.116086   -0.086513    0.052692    0.116641
C     0.075679   -0.487485    0.431748   -0.001121    0.004263   -0.003101
C    -2.349202    0.381719    0.221084    0.000440    0.000160    0.000163
C    -1.261889   -0.475763   -0.255000   -0.001205   -0.000511    0.000407
O    -2.353559   -1.014892    0.464241   -0.001238   -0.000337   -0.000023
H     2.482972   -0.007359   -0.990703    1.947854   -0.251455    0.246493
H     2.834310   -0.556732    0.504895   -0.053340    0.056941    0.065499
H     3.129854    1.170902   -0.077003   -0.061386    0.015373    0.085036
H     0.654702    1.507753   -0.392840   -0.053152    0.006468   -0.072545
H     0.507191   -1.494375    0.365141    0.004892   -0.003395   -0.012135
H    -0.089660   -0.305979    1.508592   -0.020549   -0.044971    0.022942
H    -3.106361    0.732081   -0.470004    0.000268    0.000447    0.000494
H    -2.181528    0.999442    1.096989    0.002076    0.000074   -0.000016
H    -1.251586   -0.739228   -1.308983   -0.004227   -0.006167    0.002193
15
* Frequency(6) -1795.0757
C     2.468650    0.309328   -0.042028   -0.057861   -0.037130   -0.142441
C     0.995475    0.523276   -0.114977   -0.086513    0.052692    0.116641
C     0.075668   -0.487445    0.431718   -0.001121    0.004263   -0.003101
C    -2.349198    0.381720    0.221086    0.000440    0.000160    0.000163
C    -1.261901   -0.475768   -0.254997   -0.001205   -0.000511    0.000407
O    -2.353570   -1.014895    0.464241   -0.001238   -0.000337   -0.000023
H     2.501505   -0.009751   -0.988358    1.947854   -0.251455    0.246493
H     2.833802   -0.556191    0.505519   -0.053340    0.056941    0.065499
H     3.129270    1.171048   -0.076193   -0.061386    0.015373    0.085036
H     0.654196    1.507815   -0.393530   -0.053152    0.006468   -0.072545
H     0.507237   -1.494407    0.365026    0.004892   -0.003395   -0.012135
H    -0.089855   -0.306406    1.508810   -0.020549   -0.044971    0.022942
H    -3.106358    0.732085   -0.469999    0.000268    0.000447    0.000494
H    -2.181508    0.999443    1.096989    0.002076    0.000074   -0.000016
H    -1.251626   -0.739287   -1.308962   -0.004227   -0.006167    0.002193
15
* Frequency(6) -1795.0757
C     2.470286    0.310378   -0.037999   -0.057861   -0.037130   -0.142441
C     0.997922    0.521785   -0.118276   -0.086513    0.052692    0.116641
C     0.075700   -0.487565    0.431806   -0.001121    0.004263   -0.003101
C    -2.349210    0.381716    0.221081    0.000440    0.000160    0.000163
C    -1.261867   -0.475754   -0.255008   -0.001205   -0.000511    0.000407
O    -2.353535   -1.014886    0.464241   -0.001238   -0.000337   -0.000023
H     2.446412   -0.002639   -0.995330    1.947854   -0.251455    0.246493
H     2.835311   -0.557801    0.503666   -0.053340    0.056941    0.065499
H     3.131006    1.170613   -0.078599   -0.061386    0.015373    0.085036
H     0.655699    1.507632   -0.391478   -0.053152    0.006468   -0.072545
H     0.507099   -1.494311    0.365369    0.004892   -0.003395   -0.012135
H    -0.089274   -0.305134    1.508161   -0.020549   -0.044971    0.022942
H    -3.106366    0.732073   -0.470013    0.000268    0.000447    0.000494
H    -2.181567    0.999440    1.096989    0.002076    0.000074   -0.000016
H    -1.251507   -0.739112   -1.309024   -0.004227   -0.006167    0.002193
15
* Frequency(6) -1795.0757
C     2.473933    0.312718   -0.029023   -0.057861   -0.037130   -0.142441
C     1.003374    0.518465   -0.125626   -0.086513    0.052692    0.116641
C     0.075770   -0.487834    0.432002   -0.001121    0.004263   -0.003101
C    -2.349238    0.381705    0.221071    0.000440    0.000160    0.000163
C    -1.261791   -0.475722   -0.255034   -0.001205   -0.000511    0.000407
O    -2.353457   -1.014864    0.464243   -0.001238   -0.000337   -0.000023
H     2.323663    0.013207   -1.010863    1.947854   -0.251455    0.246493
H     2.838672   -0.561390    0.499539   -0.053340    0.056941    0.065499
H     3.134874    1.169644   -0.083957   -0.061386    0.015373    0.085036
H     0.659049    1.507224   -0.386906   -0.053152    0.006468   -0.072545
H     0.506790   -1.494097    0.366134    0.004892   -0.003395   -0.012135
H    -0.087979   -0.302300    1.506715   -0.020549   -0.044971    0.022942
H    -3.106382    0.732044   -0.470045    0.000268    0.000447    0.000494
H    -2.181698    0.999436    1.096990    0.002076    0.000074   -0.000016
H    -1.251240   -0.738724   -1.309162   -0.004227   -0.006167    0.002193
15
* Frequency(6) -1795.0757
C     2.479193    0.316094   -0.016072   -0.057861   -0.037130   -0.142441
C     1.011240    0.513674   -0.136231   -0.086513    0.052692    0.116641
C     0.075872   -0.488222    0.432283   -0.001121    0.004263   -0.003101
C    -2.349278    0.381691    0.221056    0.000440    0.000160    0.000163
C    -1.261681   -0.475675   -0.255071   -0.001205   -0.000511    0.000407
O    -2.353345   -1.014834    0.464245   -0.001238   -0.000337   -0.000023
H     2.146561    0.036070   -1.033275    1.947854   -0.251455    0.246493
H     2.843522   -0.566567    0.493583   -0.053340    0.056941    0.065499
H     3.140456    1.168247   -0.091689   -0.061386    0.015373    0.085036
H     0.663882    1.506636   -0.380310   -0.053152    0.006468   -0.072545
H     0.506346   -1.493788    0.367237    0.004892   -0.003395   -0.012135
H    -0.086111   -0.298212    1.504630   -0.020549   -0.044971    0.022942
H    -3.106407    0.732004   -0.470089    0.000268    0.000447    0.000494
H    -2.181886    0.999429    1.096992    0.002076    0.000074   -0.000016
H    -1.250856   -0.738163   -1.309361   -0.004227   -0.006167    0.002193
15
* Frequency(6) -1795.0757
C     2.485499    0.320141   -0.000549   -0.057861   -0.037130   -0.142441
C     1.020668    0.507932   -0.148942   -0.086513    0.052692    0.116641
C     0.075994   -0.488686    0.432621   -0.001121    0.004263   -0.003101
C    -2.349326    0.381674    0.221038    0.000440    0.000160    0.000163
C    -1.261550   -0.475619   -0.255115   -0.001205   -0.000511    0.000407
O    -2.353210   -1.014797    0.464247   -0.001238   -0.000337   -0.000023
H     1.934297    0.063472   -1.060136    1.947854   -0.251455    0.246493
H     2.849334   -0.572772    0.486446   -0.053340    0.056941    0.065499
H     3.147145    1.166571   -0.100956   -0.061386    0.015373    0.085036
H     0.669674    1.505931   -0.372405   -0.053152    0.006468   -0.072545
H     0.505813   -1.493418    0.368559    0.004892   -0.003395   -0.012135
H    -0.083871   -0.293311    1.502129   -0.020549   -0.044971    0.022942
H    -3.106436    0.731955   -0.470143    0.000268    0.000447    0.000494
H    -2.182113    0.999421    1.096994    0.002076    0.000074   -0.000016
H    -1.250395   -0.737491   -1.309600   -0.004227   -0.006167    0.002193
15
* Frequency(6) -1795.0757
C     2.492165    0.324419    0.015862   -0.057861   -0.037130   -0.142441
C     1.030635    0.501861   -0.162381   -0.086513    0.052692    0.116641
C     0.076123   -0.489177    0.432979   -0.001121    0.004263   -0.003101
C    -2.349376    0.381655    0.221019    0.000440    0.000160    0.000163
C    -1.261411   -0.475560   -0.255162   -0.001205   -0.000511    0.000407
O    -2.353067   -1.014758    0.464250   -0.001238   -0.000337   -0.000023
H     1.709872    0.092443   -1.088536    1.947854   -0.251455    0.246493
H     2.855480   -0.579332    0.478899   -0.053340    0.056941    0.065499
H     3.154218    1.164800   -0.110753   -0.061386    0.015373    0.085036
H     0.675798    1.505186   -0.364047   -0.053152    0.006468   -0.072545
H     0.505249   -1.493027    0.369958    0.004892   -0.003395   -0.012135
H    -0.081504   -0.288129    1.499486   -0.020549   -0.044971    0.022942
H    -3.106467    0.731904   -0.470200    0.000268    0.000447    0.000494
H    -2.182352    0.999412    1.096995    0.002076    0.000074   -0.000016
H    -1.249908   -0.736780   -1.309853   -0.004227   -0.006167    0.002193
15
* Frequency(6) -1795.0757
C     2.498471    0.328465    0.031385   -0.057861   -0.037130   -0.142441
C     1.040063    0.496119   -0.175092   -0.086513    0.052692    0.116641
C     0.076246   -0.489642    0.433317   -0.001121    0.004263   -0.003101
C    -2.349424    0.381638    0.221002    0.000440    0.000160    0.000163
C    -1.261280   -0.475505   -0.255206   -0.001205   -0.000511    0.000407
O    -2.352932   -1.014721    0.464253   -0.001238   -0.000337   -0.000023
H     1.497608    0.119845   -1.115397    1.947854   -0.251455    0.246493
H     2.861293   -0.585538    0.471761   -0.053340    0.056941    0.065499
H     3.160907    1.163125   -0.120020   -0.061386    0.015373    0.085036
H     0.681590    1.504481   -0.356141   -0.053152    0.006468   -0.072545
H     0.504716   -1.492657    0.371280    0.004892   -0.003395   -0.012135
H    -0.079264   -0.283229    1.496986   -0.020549   -0.044971    0.022942
H    -3.106496    0.731855   -0.470254    0.000268    0.000447    0.000494
H    -2.182578    0.999404    1.096997    0.002076    0.000074   -0.000016
H    -1.249448   -0.736108   -1.310092   -0.004227   -0.006167    0.002193
15
* Frequency(6) -1795.0757
C     2.503732    0.331841    0.044336   -0.057861   -0.037130   -0.142441
C     1.047929    0.491328   -0.185697   -0.086513    0.052692    0.116641
C     0.076347   -0.490030    0.433599   -0.001121    0.004263   -0.003101
C    -2.349464    0.381623    0.220987    0.000440    0.000160    0.000163
C    -1.261170   -0.475458   -0.255243   -0.001205   -0.000511    0.000407
O    -2.352820   -1.014691    0.464255   -0.001238   -0.000337   -0.000023
H     1.320505    0.142708   -1.137809    1.947854   -0.251455    0.246493
H     2.866142   -0.590715    0.465806   -0.053340    0.056941    0.065499
H     3.166488    1.161727   -0.127751   -0.061386    0.015373    0.085036
H     0.686423    1.503893   -0.349545   -0.053152    0.006468   -0.072545
H     0.504271   -1.492349    0.372383    0.004892   -0.003395   -0.012135
H    -0.077396   -0.279140    1.494900   -0.020549   -0.044971    0.022942
H    -3.106520    0.731814   -0.470299    0.000268    0.000447    0.000494
H    -2.182767    0.999397    1.096999    0.002076    0.000074   -0.000016
H    -1.249063   -0.735548   -1.310291   -0.004227   -0.006167    0.002193
15
* Frequency(6) -1795.0757
C     2.507378    0.334181    0.053312   -0.057861   -0.037130   -0.142441
C     1.053380    0.488008   -0.193047   -0.086513    0.052692    0.116641
C     0.076418   -0.490298    0.433794   -0.001121    0.004263   -0.003101
C    -2.349492    0.381613    0.220976    0.000440    0.000160    0.000163
C    -1.261094   -0.475426   -0.255269   -0.001205   -0.000511    0.000407
O    -2.352742   -1.014670    0.464256   -0.001238   -0.000337   -0.000023
H     1.197757    0.158554   -1.153342    1.947854   -0.251455    0.246493
H     2.869504   -0.594303    0.461679   -0.053340    0.056941    0.065499
H     3.170357    1.160759   -0.133110   -0.061386    0.015373    0.085036
H     0.689772    1.503486   -0.344974   -0.053152    0.006468   -0.072545
H     0.503963   -1.492135    0.373148    0.004892   -0.003395   -0.012135
H    -0.076101   -0.276306    1.493454   -0.020549   -0.044971    0.022942
H    -3.106537    0.731786   -0.470330    0.000268    0.000447    0.000494
H    -2.182897    0.999393    1.097000    0.002076    0.000074   -0.000016
H    -1.248797   -0.735159   -1.310430   -0.004227   -0.006167    0.002193
15
* Frequency(6) -1795.0757
C     2.509014    0.335231    0.057341   -0.057861   -0.037130   -0.142441
C     1.055827    0.486517   -0.196346   -0.086513    0.052692    0.116641
C     0.076450   -0.490419    0.433882   -0.001121    0.004263   -0.003101
C    -2.349505    0.381609    0.220972    0.000440    0.000160    0.000163
C    -1.261060   -0.475411   -0.255280   -0.001205   -0.000511    0.000407
O    -2.352707   -1.014660    0.464257   -0.001238   -0.000337   -0.000023
H     1.142664    0.165666   -1.160314    1.947854   -0.251455    0.246493
H     2.871012   -0.595914    0.459826   -0.053340    0.056941    0.065499
H     3.172093    1.160324   -0.135515   -0.061386    0.015373    0.085036
H     0.691275    1.503303   -0.342922   -0.053152    0.006468   -0.072545
H     0.503824   -1.492039    0.373491    0.004892   -0.003395   -0.012135
H    -0.075520   -0.275034    1.492805   -0.020549   -0.044971    0.022942
H    -3.106545    0.731773   -0.470344    0.000268    0.000447    0.000494
H    -2.182956    0.999391    1.097000    0.002076    0.000074   -0.000016
H    -1.248677   -0.734985   -1.310492   -0.004227   -0.006167    0.002193
15
* Frequency(6) -1795.0757
C     2.508464    0.334878    0.055985   -0.057861   -0.037130   -0.142441
C     1.055004    0.487019   -0.195236   -0.086513    0.052692    0.116641
C     0.076439   -0.490378    0.433852   -0.001121    0.004263   -0.003101
C    -2.349500    0.381610    0.220973    0.000440    0.000160    0.000163
C    -1.261071   -0.475416   -0.255276   -0.001205   -0.000511    0.000407
O    -2.352718   -1.014663    0.464257   -0.001238   -0.000337   -0.000023
H     1.161197    0.163273   -1.157969    1.947854   -0.251455    0.246493
H     2.870505   -0.595372    0.460449   -0.053340    0.056941    0.065499
H     3.171509    1.160470   -0.134706   -0.061386    0.015373    0.085036
H     0.690770    1.503364   -0.343612   -0.053152    0.006468   -0.072545
H     0.503871   -1.492071    0.373376    0.004892   -0.003395   -0.012135
H    -0.075715   -0.275462    1.493024   -0.020549   -0.044971    0.022942
H    -3.106542    0.731778   -0.470339    0.000268    0.000447    0.000494
H    -2.182936    0.999391    1.097000    0.002076    0.000074   -0.000016
H    -1.248718   -0.735043   -1.310471   -0.004227   -0.006167    0.002193
15
* Frequency(6) -1795.0757
C     2.505786    0.333159    0.049393   -0.057861   -0.037130   -0.142441
C     1.051000    0.489457   -0.189838   -0.086513    0.052692    0.116641
C     0.076387   -0.490181    0.433709   -0.001121    0.004263   -0.003101
C    -2.349480    0.381618    0.220981    0.000440    0.000160    0.000163
C    -1.261127   -0.475440   -0.255257   -0.001205   -0.000511    0.000407
O    -2.352776   -1.014679    0.464256   -0.001238   -0.000337   -0.000023
H     1.251347    0.151636   -1.146560    1.947854   -0.251455    0.246493
H     2.868036   -0.592736    0.463481   -0.053340    0.056941    0.065499
H     3.168668    1.161182   -0.130770   -0.061386    0.015373    0.085036
H     0.688310    1.503664   -0.346970   -0.053152    0.006468   -0.072545
H     0.504097   -1.492228    0.372814    0.004892   -0.003395   -0.012135
H    -0.076666   -0.277543    1.494085   -0.020549   -0.044971    0.022942
H    -3.106530    0.731798   -0.470317    0.000268    0.000447    0.000494
H    -2.182840    0.999395    1.096999    0.002076    0.000074   -0.000016
H    -1.248913   -0.735329   -1.310369   -0.004227   -0.006167    0.002193
15
* Frequency(6) -1795.0757
C     2.501271    0.330262    0.038278   -0.057861   -0.037130   -0.142441
C     1.044249    0.493569   -0.180736   -0.086513    0.052692    0.116641
C     0.076300   -0.489848    0.433467   -0.001121    0.004263   -0.003101
C    -2.349446    0.381630    0.220994    0.000440    0.000160    0.000163
C    -1.261221   -0.475480   -0.255226   -0.001205   -0.000511    0.000407
O    -2.352872   -1.014705    0.464254   -0.001238   -0.000337   -0.000023
H     1.403346    0.132014   -1.127326    1.947854   -0.251455    0.246493
H     2.863874   -0.588293    0.468592   -0.053340    0.056941    0.065499
H     3.163878    1.162381   -0.124135   -0.061386    0.015373    0.085036
H     0.684162    1.504168   -0.352631   -0.053152    0.006468   -0.072545
H     0.504479   -1.492493    0.371867    0.004892   -0.003395   -0.012135
H    -0.078270   -0.281052    1.495876   -0.020549   -0.044971    0.022942
H    -3.106509    0.731833   -0.470278    0.000268    0.000447    0.000494
H    -2.182678    0.999401    1.096998    0.002076    0.000074   -0.000016
H    -1.249243   -0.735810   -1.310198   -0.004227   -0.006167    0.002193
15
* Frequency(6) -1795.0757
C     2.495408    0.326499    0.023844   -0.057861   -0.037130   -0.142441
C     1.035483    0.498908   -0.168917   -0.086513    0.052692    0.116641
C     0.076186   -0.489416    0.433152   -0.001121    0.004263   -0.003101
C    -2.349401    0.381646    0.221010    0.000440    0.000160    0.000163
C    -1.261343   -0.475532   -0.255185   -0.001205   -0.000511    0.000407
O    -2.352998   -1.014739    0.464251   -0.001238   -0.000337   -0.000023
H     1.600721    0.106534   -1.102349    1.947854   -0.251455    0.246493
H     2.858469   -0.582523    0.475229   -0.053340    0.056941    0.065499
H     3.157658    1.163939   -0.115518   -0.061386    0.015373    0.085036
H     0.678776    1.504824   -0.359981   -0.053152    0.006468   -0.072545
H     0.504975   -1.492837    0.370638    0.004892   -0.003395   -0.012135
H    -0.080352   -0.285609    1.498200   -0.020549   -0.044971    0.022942
H    -3.106482    0.731879   -0.470228    0.000268    0.000447    0.000494
H    -2.182468    0.999408    1.096996    0.002076    0.000074   -0.000016
H    -1.249671   -0.736435   -1.309976   -0.004227   -0.006167    0.002193
15
* Frequency(6) -1795.0757
C     2.488832    0.322280    0.007657   -0.057861   -0.037130   -0.142441
C     1.025651    0.504897   -0.155661   -0.086513    0.052692    0.116641
C     0.076059   -0.488932    0.432800   -0.001121    0.004263   -0.003101
C    -2.349351    0.381664    0.221029    0.000440    0.000160    0.000163
C    -1.261480   -0.475590   -0.255138   -0.001205   -0.000511    0.000407
O    -2.353139   -1.014778    0.464249   -0.001238   -0.000337   -0.000023
H     1.822084    0.077957   -1.074336    1.947854   -0.251455    0.246493
H     2.852407   -0.576052    0.482672   -0.053340    0.056941    0.065499
H     3.150681    1.165686   -0.105854   -0.061386    0.015373    0.085036
H     0.672736    1.505559   -0.368226   -0.053152    0.006468   -0.072545
H     0.505531   -1.493223    0.369258    0.004892   -0.003395   -0.012135
H    -0.082688   -0.290720    1.500808   -0.020549   -0.044971    0.022942
H    -3.106451    0.731929   -0.470172    0.000268    0.000447    0.000494
H    -2.182232    0.999417    1.096995    0.002076    0.000074   -0.000016
H    -1.250152   -0.737136   -1.309727   -0.004227   -0.006167    0.002193
