17
Coordinates from ORCA-job freq E -421.372658391871
  C      -1.975579      1.021919     -0.530633
  C      -1.500811     -0.102530      0.384749
  C       1.753734      0.403421      0.543800
  C       0.972707     -0.710819     -0.127641
  C      -0.454156     -0.942988     -0.304247
  O       2.904315     -0.032706     -1.346817
  O       3.041052      0.357149     -0.029879
  O       0.386444     -1.758288      0.513253
  H       1.926994     -0.758332     -1.136018
  H      -2.725680      1.624014     -0.025725
  H      -1.146623      1.666536     -0.812462
  H      -2.414525      0.614381     -1.437893
  H      -1.083855      0.308725      1.306239
  H      -2.345294     -0.741375      0.653327
  H       1.895285      0.271786      1.618709
  H       1.253682      1.359290      0.326936
  H      -0.775564     -1.428334     -1.222401
17
Coordinates from ORCA-job freq E -421.374087590525
  C      -1.994386      1.015432     -0.527424
  C      -1.486811     -0.097860      0.384731
  C       1.761714      0.402287      0.543899
  C       0.974779     -0.703894     -0.148504
  C      -0.451463     -0.928249     -0.321035
  O       2.900693     -0.016899     -1.318872
  O       3.063987      0.284495      0.021773
  O       0.401332     -1.756165      0.493574
  H       1.911813     -0.743138     -1.127933
  H      -2.743369      1.617558     -0.018113
  H      -1.179541      1.669741     -0.834857
  H      -2.448831      0.600571     -1.426316
  H      -1.051476      0.318541      1.295287
  H      -2.316379     -0.741911      0.684183
  H       1.837739      0.281660      1.624093
  H       1.308219      1.366220      0.284157
  H      -0.775896     -1.416540     -1.235346
17
Coordinates from ORCA-job freq E -421.374481376390
  C      -2.011380      1.016179     -0.505657
  C      -1.479517     -0.103069      0.385203
  C       1.752082      0.416948      0.522270
  C       0.972161     -0.691404     -0.181034
  C      -0.452533     -0.921489     -0.343333
  O       2.956196     -0.057571     -1.267173
  O       3.075531      0.233063      0.083111
  O       0.416486     -1.751854      0.463392
  H       1.933677     -0.752689     -1.117829
  H      -2.759922      1.606336      0.019398
  H      -1.207220      1.684266     -0.814862
  H      -2.473837      0.612279     -1.406355
  H      -1.027842      0.307829      1.290228
  H      -2.297193     -0.754360      0.701011
  H       1.746853      0.338001      1.608216
  H       1.352552      1.380483      0.190542
  H      -0.783971     -1.411100     -1.253832
17
Coordinates from ORCA-job freq E -421.374571184371
  C      -2.043271      1.011675     -0.493376
  C      -1.480665     -0.100911      0.386588
  C       1.764269      0.424056      0.511472
  C       0.972628     -0.669906     -0.201806
  C      -0.452287     -0.902807     -0.357600
  O       3.012654     -0.108618     -1.224717
  O       3.095264      0.172493      0.130544
  O       0.424633     -1.738304      0.437855
  H       1.943961     -0.747166     -1.120497
  H      -2.800597      1.583059      0.040047
  H      -1.256497      1.698978     -0.805786
  H      -2.504596      0.602645     -1.392761
  H      -1.023961      0.313409      1.287282
  H      -2.283008     -0.766646      0.711535
  H       1.707459      0.373023      1.597552
  H       1.422783      1.393508      0.137044
  H      -0.786648     -1.386639     -1.270081
17
Coordinates from ORCA-job freq E -421.374552366687
  C      -2.041949      1.012393     -0.492197
  C      -1.481773     -0.103263      0.385366
  C       1.762700      0.427193      0.509649
  C       0.972603     -0.668093     -0.202417
  C      -0.452098     -0.904043     -0.358136
  O       3.014486     -0.115349     -1.223531
  O       3.094319      0.176048      0.129705
  O       0.425572     -1.735619      0.439542
  H       1.943305     -0.748206     -1.119897
  H      -2.795774      1.586180      0.043646
  H      -1.252802      1.696917     -0.804885
  H      -2.506640      0.606826     -1.391337
  H      -1.026297      0.308264      1.287957
  H      -2.284872     -0.769495      0.707403
  H       1.706382      0.375468      1.595706
  H       1.420150      1.396757      0.136565
  H      -0.785191     -1.390129     -1.269843
17
Coordinates from ORCA-job freq E -421.374553653309
  C      -2.042993      1.012124     -0.492569
  C      -1.482158     -0.102833      0.385407
  C       1.764051      0.426888      0.510099
  C       0.972885     -0.667771     -0.201799
  C      -0.451912     -0.903151     -0.357792
  O       3.014429     -0.115127     -1.224041
  O       3.095197      0.173950      0.129517
  O       0.425142     -1.735180      0.439852
  H       1.942811     -0.747650     -1.120433
  H      -2.797617      1.585261      0.042830
  H      -1.254422      1.697299     -0.805237
  H      -2.506981      0.605706     -1.391704
  H      -1.027373      0.309034      1.288203
  H      -2.284942     -0.769619      0.707127
  H       1.708568      0.374929      1.596187
  H       1.422199      1.396882      0.137443
  H      -0.784758     -1.388893     -1.269793
17
Coordinates from ORCA-job freq E -421.374556475341
  C      -2.043337      1.012119     -0.492595
  C      -1.482111     -0.102632      0.385379
  C       1.764267      0.426796      0.510135
  C       0.972936     -0.667746     -0.201786
  C      -0.451873     -0.902891     -0.357903
  O       3.014531     -0.115618     -1.224093
  O       3.095393      0.174048      0.129355
  O       0.425002     -1.735048      0.439823
  H       1.942938     -0.748050     -1.120158
  H      -2.798537      1.584661      0.042625
  H      -1.255086      1.697867     -0.804819
  H      -2.506702      0.605571     -1.391998
  H      -1.027185      0.309421      1.288008
  H      -2.284658     -0.769578      0.707346
  H       1.708926      0.374655      1.596221
  H       1.422363      1.396847      0.137691
  H      -0.784743     -1.388573     -1.269935
