15
Coordinates from ORCA-job freq E -271.061948405516
  C           2.21955372479788     -0.38206250673331      0.46375649479075
  C          -2.36175493894866     -0.09237850730010      0.47840449458893
  C           1.37855798118027      0.19709826301180     -0.61459261201829
  C          -0.86987168453628     -0.05680852704278      0.62701592463496
  C           0.00343495400202      0.60732985127251     -0.37085004777919
  O          -0.29055439092655      1.19803461461755      0.90675003980426
  H           1.90392873450769     -0.00855270934067      1.43847663159128
  H           3.27162786215863     -0.13462633608549      0.32370634382569
  H           2.15283724546312     -1.47687601954393      0.48991208344354
  H          -2.84237412617983     -0.03739123558795      1.45574595847400
  H          -2.67687862573295     -1.01687828880559     -0.00545465341330
  H          -2.70069126040024      0.75309855787591     -0.11876970577912
  H           1.74343741218103      0.22947265635737     -1.63056693419815
  H          -0.42555292270278     -0.87560238621477      1.18864236763435
  H          -0.50570096486334      1.09614357351944     -1.19538138559968
