15
* (null), Energy   -1000.0000000
C     1.606788   -0.434611   -0.732141    0.118219    0.018174    0.042522
C     1.350906   -0.011374    0.701471   -0.012711   -0.007199   -0.010271
C    -0.041057    0.651065    0.693898   -0.010491    0.009295    0.009695
C    -2.219338   -0.161819   -0.679095    0.010479   -0.007826    0.010898
C    -0.822583   -0.184873   -0.281126    0.094871   -0.025647   -0.065445
O    -1.669917   -1.194600    0.150790   -0.014623   -0.003203    0.001121
H     0.255983   -0.570261   -1.013543   -1.944941    0.238072    0.268750
H     2.122983   -1.372192   -0.904132   -0.113583   -0.073249   -0.054721
H     1.922940    0.357138   -1.407003   -0.156518   -0.004505   -0.089007
H     2.116501    0.660552    1.091486    0.001287    0.004541   -0.026450
H     1.325530   -0.890625    1.345940    0.003339   -0.001575   -0.002400
H     0.030807    1.668644    0.303786    0.013108    0.010879    0.013412
H    -0.516296    0.688064    1.674404    0.005277    0.012814    0.006447
H    -2.502619   -0.476975   -1.676141    0.000525   -0.001639    0.010816
H    -2.916019    0.497195   -0.171814    0.036098    0.022824    0.005499
15
* Frequency(6) -1824.6749
C     1.620223   -0.432546   -0.727309    0.118219    0.018174    0.042522
C     1.349461   -0.012193    0.700304   -0.012711   -0.007199   -0.010271
C    -0.042250    0.652121    0.695000   -0.010491    0.009295    0.009695
C    -2.218147   -0.162708   -0.677857    0.010479   -0.007826    0.010898
C    -0.811801   -0.187787   -0.288564    0.094871   -0.025647   -0.065445
O    -1.671579   -1.194964    0.150917   -0.014623   -0.003203    0.001121
H     0.034951   -0.543205   -0.983001   -1.944941    0.238072    0.268750
H     2.110075   -1.380516   -0.910351   -0.113583   -0.073249   -0.054721
H     1.905153    0.356626   -1.417119   -0.156518   -0.004505   -0.089007
H     2.116647    0.661068    1.088481    0.001287    0.004541   -0.026450
H     1.325909   -0.890804    1.345668    0.003339   -0.001575   -0.002400
H     0.032297    1.669880    0.305310    0.013108    0.010879    0.013412
H    -0.515696    0.689520    1.675137    0.005277    0.012814    0.006447
H    -2.502560   -0.477161   -1.674911    0.000525   -0.001639    0.010816
H    -2.911917    0.499789   -0.171189    0.036098    0.022824    0.005499
15
* Frequency(6) -1824.6749
C     1.632203   -0.430704   -0.723000    0.118219    0.018174    0.042522
C     1.348173   -0.012922    0.699263   -0.012711   -0.007199   -0.010271
C    -0.043313    0.653063    0.695982   -0.010491    0.009295    0.009695
C    -2.217085   -0.163501   -0.676753    0.010479   -0.007826    0.010898
C    -0.802188   -0.190386   -0.295195    0.094871   -0.025647   -0.065445
O    -1.673060   -1.195289    0.151031   -0.014623   -0.003203    0.001121
H    -0.162129   -0.519081   -0.955769   -1.944941    0.238072    0.268750
H     2.098565   -1.387938   -0.915896   -0.113583   -0.073249   -0.054721
H     1.889293    0.356170   -1.426138   -0.156518   -0.004505   -0.089007
H     2.116777    0.661528    1.085800    0.001287    0.004541   -0.026450
H     1.326248   -0.890964    1.345425    0.003339   -0.001575   -0.002400
H     0.033625    1.670982    0.306669    0.013108    0.010879    0.013412
H    -0.515162    0.690818    1.675790    0.005277    0.012814    0.006447
H    -2.502507   -0.477327   -1.673815    0.000525   -0.001639    0.010816
H    -2.908259    0.502102   -0.170632    0.036098    0.022824    0.005499
15
* Frequency(6) -1824.6749
C     1.641428   -0.429286   -0.719682    0.118219    0.018174    0.042522
C     1.347181   -0.013484    0.698462   -0.012711   -0.007199   -0.010271
C    -0.044131    0.653788    0.696739   -0.010491    0.009295    0.009695
C    -2.216268   -0.164112   -0.675902    0.010479   -0.007826    0.010898
C    -0.794785   -0.192388   -0.300302    0.094871   -0.025647   -0.065445
O    -1.674201   -1.195539    0.151118   -0.014623   -0.003203    0.001121
H    -0.313901   -0.500504   -0.934797   -1.944941    0.238072    0.268750
H     2.089702   -1.393654   -0.920166   -0.113583   -0.073249   -0.054721
H     1.877079    0.355818   -1.433083   -0.156518   -0.004505   -0.089007
H     2.116878    0.661883    1.083736    0.001287    0.004541   -0.026450
H     1.326508   -0.891087    1.345237    0.003339   -0.001575   -0.002400
H     0.034648    1.671831    0.307715    0.013108    0.010879    0.013412
H    -0.514750    0.691818    1.676293    0.005277    0.012814    0.006447
H    -2.502466   -0.477455   -1.672971    0.000525   -0.001639    0.010816
H    -2.905442    0.503883   -0.170203    0.036098    0.022824    0.005499
15
* Frequency(6) -1824.6749
C     1.646899   -0.428445   -0.717714    0.118219    0.018174    0.042522
C     1.346593   -0.013817    0.697986   -0.012711   -0.007199   -0.010271
C    -0.044617    0.654218    0.697188   -0.010491    0.009295    0.009695
C    -2.215783   -0.164474   -0.675398    0.010479   -0.007826    0.010898
C    -0.790394   -0.193575   -0.303331    0.094871   -0.025647   -0.065445
O    -1.674878   -1.195687    0.151170   -0.014623   -0.003203    0.001121
H    -0.403916   -0.489485   -0.922359   -1.944941    0.238072    0.268750
H     2.084445   -1.397044   -0.922699   -0.113583   -0.073249   -0.054721
H     1.869835    0.355610   -1.437203   -0.156518   -0.004505   -0.089007
H     2.116937    0.662093    1.082512    0.001287    0.004541   -0.026450
H     1.326663   -0.891160    1.345126    0.003339   -0.001575   -0.002400
H     0.035254    1.672335    0.308336    0.013108    0.010879    0.013412
H    -0.514506    0.692411    1.676591    0.005277    0.012814    0.006447
H    -2.502441   -0.477531   -1.672471    0.000525   -0.001639    0.010816
H    -2.903771    0.504939   -0.169948    0.036098    0.022824    0.005499
15
* Frequency(6) -1824.6749
C     1.648024   -0.428272   -0.717309    0.118219    0.018174    0.042522
C     1.346472   -0.013885    0.697889   -0.012711   -0.007199   -0.010271
C    -0.044717    0.654307    0.697280   -0.010491    0.009295    0.009695
C    -2.215683   -0.164549   -0.675294    0.010479   -0.007826    0.010898
C    -0.789492   -0.193819   -0.303954    0.094871   -0.025647   -0.065445
O    -1.675017   -1.195717    0.151181   -0.014623   -0.003203    0.001121
H    -0.422421   -0.487220   -0.919802   -1.944941    0.238072    0.268750
H     2.083365   -1.397741   -0.923219   -0.113583   -0.073249   -0.054721
H     1.868346    0.355567   -1.438049   -0.156518   -0.004505   -0.089007
H     2.116950    0.662136    1.082261    0.001287    0.004541   -0.026450
H     1.326695   -0.891175    1.345103    0.003339   -0.001575   -0.002400
H     0.035379    1.672438    0.308464    0.013108    0.010879    0.013412
H    -0.514456    0.692533    1.676653    0.005277    0.012814    0.006447
H    -2.502436   -0.477546   -1.672368    0.000525   -0.001639    0.010816
H    -2.903428    0.505156   -0.169896    0.036098    0.022824    0.005499
15
* Frequency(6) -1824.6749
C     1.644680   -0.428786   -0.718512    0.118219    0.018174    0.042522
C     1.346831   -0.013682    0.698179   -0.012711   -0.007199   -0.010271
C    -0.044420    0.654044    0.697006   -0.010491    0.009295    0.009695
C    -2.215979   -0.164327   -0.675602    0.010479   -0.007826    0.010898
C    -0.792175   -0.193093   -0.302103    0.094871   -0.025647   -0.065445
O    -1.674604   -1.195627    0.151149   -0.014623   -0.003203    0.001121
H    -0.367411   -0.493954   -0.927403   -1.944941    0.238072    0.268750
H     2.086577   -1.395670   -0.921671   -0.113583   -0.073249   -0.054721
H     1.872773    0.355694   -1.435532   -0.156518   -0.004505   -0.089007
H     2.116913    0.662008    1.083009    0.001287    0.004541   -0.026450
H     1.326600   -0.891130    1.345171    0.003339   -0.001575   -0.002400
H     0.035008    1.672131    0.308084    0.013108    0.010879    0.013412
H    -0.514605    0.692171    1.676470    0.005277    0.012814    0.006447
H    -2.502451   -0.477500   -1.672674    0.000525   -0.001639    0.010816
H    -2.904449    0.504511   -0.170051    0.036098    0.022824    0.005499
15
* Frequency(6) -1824.6749
C     1.637230   -0.429931   -0.721192    0.118219    0.018174    0.042522
C     1.347632   -0.013228    0.698826   -0.012711   -0.007199   -0.010271
C    -0.043759    0.653458    0.696395   -0.010491    0.009295    0.009695
C    -2.216640   -0.163834   -0.676289    0.010479   -0.007826    0.010898
C    -0.798153   -0.191477   -0.297979    0.094871   -0.025647   -0.065445
O    -1.673682   -1.195425    0.151078   -0.014623   -0.003203    0.001121
H    -0.244846   -0.508956   -0.944339   -1.944941    0.238072    0.268750
H     2.093735   -1.391054   -0.918223   -0.113583   -0.073249   -0.054721
H     1.882637    0.355978   -1.429923   -0.156518   -0.004505   -0.089007
H     2.116832    0.661722    1.084675    0.001287    0.004541   -0.026450
H     1.326390   -0.891031    1.345322    0.003339   -0.001575   -0.002400
H     0.034182    1.671445    0.307239    0.013108    0.010879    0.013412
H    -0.514937    0.691363    1.676064    0.005277    0.012814    0.006447
H    -2.502484   -0.477397   -1.673355    0.000525   -0.001639    0.010816
H    -2.906724    0.503073   -0.170398    0.036098    0.022824    0.005499
15
* Frequency(6) -1824.6749
C     1.626482   -0.431584   -0.725058    0.118219    0.018174    0.042522
C     1.348788   -0.012574    0.699760   -0.012711   -0.007199   -0.010271
C    -0.042805    0.652613    0.695513   -0.010491    0.009295    0.009695
C    -2.217592   -0.163122   -0.677280    0.010479   -0.007826    0.010898
C    -0.806779   -0.189145   -0.292028    0.094871   -0.025647   -0.065445
O    -1.672353   -1.195134    0.150976   -0.014623   -0.003203    0.001121
H    -0.068008   -0.530602   -0.968774   -1.944941    0.238072    0.268750
H     2.104062   -1.384394   -0.913248   -0.113583   -0.073249   -0.054721
H     1.896867    0.356388   -1.421830   -0.156518   -0.004505   -0.089007
H     2.116715    0.661309    1.087080    0.001287    0.004541   -0.026450
H     1.326086   -0.890888    1.345541    0.003339   -0.001575   -0.002400
H     0.032990    1.670456    0.306020    0.013108    0.010879    0.013412
H    -0.515417    0.690198    1.675478    0.005277    0.012814    0.006447
H    -2.502532   -0.477248   -1.674339    0.000525   -0.001639    0.010816
H    -2.910006    0.500997   -0.170898    0.036098    0.022824    0.005499
15
* Frequency(6) -1824.6749
C     1.613599   -0.433564   -0.729692    0.118219    0.018174    0.042522
C     1.350173   -0.011789    0.700879   -0.012711   -0.007199   -0.010271
C    -0.041662    0.651600    0.694457   -0.010491    0.009295    0.009695
C    -2.218734   -0.162270   -0.678468    0.010479   -0.007826    0.010898
C    -0.817118   -0.186350   -0.284896    0.094871   -0.025647   -0.065445
O    -1.670759   -1.194785    0.150854   -0.014623   -0.003203    0.001121
H     0.143939   -0.556546   -0.998061   -1.944941    0.238072    0.268750
H     2.116439   -1.376412   -0.907285   -0.113583   -0.073249   -0.054721
H     1.913924    0.356879   -1.412131   -0.156518   -0.004505   -0.089007
H     2.116575    0.660814    1.089963    0.001287    0.004541   -0.026450
H     1.325722   -0.890716    1.345802    0.003339   -0.001575   -0.002400
H     0.031562    1.669270    0.304558    0.013108    0.010879    0.013412
H    -0.515992    0.688802    1.674775    0.005277    0.012814    0.006447
H    -2.502589   -0.477069   -1.675518    0.000525   -0.001639    0.010816
H    -2.913939    0.498510   -0.171497    0.036098    0.022824    0.005499
15
* Frequency(6) -1824.6749
C     1.599978   -0.435658   -0.734591    0.118219    0.018174    0.042522
C     1.351638   -0.010960    0.702063   -0.012711   -0.007199   -0.010271
C    -0.040453    0.650529    0.693340   -0.010491    0.009295    0.009695
C    -2.219942   -0.161368   -0.679723    0.010479   -0.007826    0.010898
C    -0.828048   -0.183395   -0.277356    0.094871   -0.025647   -0.065445
O    -1.669074   -1.194416    0.150725   -0.014623   -0.003203    0.001121
H     0.368027   -0.583976   -1.029025   -1.944941    0.238072    0.268750
H     2.129526   -1.367972   -0.900980   -0.113583   -0.073249   -0.054721
H     1.931957    0.357398   -1.401876   -0.156518   -0.004505   -0.089007
H     2.116426    0.660291    1.093010    0.001287    0.004541   -0.026450
H     1.325337   -0.890535    1.346079    0.003339   -0.001575   -0.002400
H     0.030052    1.668017    0.303013    0.013108    0.010879    0.013412
H    -0.516600    0.687325    1.674033    0.005277    0.012814    0.006447
H    -2.502650   -0.476880   -1.676764    0.000525   -0.001639    0.010816
H    -2.918098    0.495881   -0.172131    0.036098    0.022824    0.005499
15
* Frequency(6) -1824.6749
C     1.587095   -0.437639   -0.739225    0.118219    0.018174    0.042522
C     1.353023   -0.010175    0.703182   -0.012711   -0.007199   -0.010271
C    -0.039310    0.649516    0.692283   -0.010491    0.009295    0.009695
C    -2.221084   -0.160515   -0.680911    0.010479   -0.007826    0.010898
C    -0.838387   -0.180600   -0.270224    0.094871   -0.025647   -0.065445
O    -1.667481   -1.194067    0.150603   -0.014623   -0.003203    0.001121
H     0.579974   -0.609919   -1.058312   -1.944941    0.238072    0.268750
H     2.141903   -1.359990   -0.895017   -0.113583   -0.073249   -0.054721
H     1.949013    0.357889   -1.392177   -0.156518   -0.004505   -0.089007
H     2.116286    0.659796    1.095893    0.001287    0.004541   -0.026450
H     1.324974   -0.890363    1.346340    0.003339   -0.001575   -0.002400
H     0.028623    1.666831    0.301551    0.013108    0.010879    0.013412
H    -0.517175    0.685929    1.673330    0.005277    0.012814    0.006447
H    -2.502707   -0.476702   -1.677943    0.000525   -0.001639    0.010816
H    -2.922032    0.493394   -0.172730    0.036098    0.022824    0.005499
15
* Frequency(6) -1824.6749
C     1.576347   -0.439291   -0.743091    0.118219    0.018174    0.042522
C     1.354179   -0.009521    0.704116   -0.012711   -0.007199   -0.010271
C    -0.038356    0.648671    0.691402   -0.010491    0.009295    0.009695
C    -2.222036   -0.159803   -0.681902    0.010479   -0.007826    0.010898
C    -0.847012   -0.178268   -0.264274    0.094871   -0.025647   -0.065445
O    -1.666151   -1.193775    0.150501   -0.014623   -0.003203    0.001121
H     0.756812   -0.631565   -1.082747   -1.944941    0.238072    0.268750
H     2.152231   -1.353330   -0.890041   -0.113583   -0.073249   -0.054721
H     1.963244    0.358298   -1.384084   -0.156518   -0.004505   -0.089007
H     2.116169    0.659383    1.098297    0.001287    0.004541   -0.026450
H     1.324670   -0.890220    1.346558    0.003339   -0.001575   -0.002400
H     0.027431    1.665842    0.300332    0.013108    0.010879    0.013412
H    -0.517655    0.684764    1.672744    0.005277    0.012814    0.006447
H    -2.502754   -0.476553   -1.678926    0.000525   -0.001639    0.010816
H    -2.925314    0.491318   -0.173230    0.036098    0.022824    0.005499
15
* Frequency(6) -1824.6749
C     1.568897   -0.440436   -0.745771    0.118219    0.018174    0.042522
C     1.354980   -0.009067    0.704763   -0.012711   -0.007199   -0.010271
C    -0.037695    0.648085    0.690791   -0.010491    0.009295    0.009695
C    -2.222697   -0.159310   -0.682588    0.010479   -0.007826    0.010898
C    -0.852991   -0.176652   -0.260150    0.094871   -0.025647   -0.065445
O    -1.665230   -1.193574    0.150431   -0.014623   -0.003203    0.001121
H     0.879377   -0.646568   -1.099683   -1.944941    0.238072    0.268750
H     2.159388   -1.348714   -0.886593   -0.113583   -0.073249   -0.054721
H     1.973107    0.358582   -1.378475   -0.156518   -0.004505   -0.089007
H     2.116088    0.659097    1.099964    0.001287    0.004541   -0.026450
H     1.324460   -0.890121    1.346710    0.003339   -0.001575   -0.002400
H     0.026605    1.665157    0.299487    0.013108    0.010879    0.013412
H    -0.517987    0.683956    1.672337    0.005277    0.012814    0.006447
H    -2.502787   -0.476449   -1.679608    0.000525   -0.001639    0.010816
H    -2.927589    0.489880   -0.173577    0.036098    0.022824    0.005499
15
* Frequency(6) -1824.6749
C     1.565553   -0.440950   -0.746974    0.118219    0.018174    0.042522
C     1.355339   -0.008864    0.705054   -0.012711   -0.007199   -0.010271
C    -0.037398    0.647823    0.690516   -0.010491    0.009295    0.009695
C    -2.222993   -0.159089   -0.682897    0.010479   -0.007826    0.010898
C    -0.855674   -0.175927   -0.258299    0.094871   -0.025647   -0.065445
O    -1.664816   -1.193483    0.150399   -0.014623   -0.003203    0.001121
H     0.934387   -0.653301   -1.107284   -1.944941    0.238072    0.268750
H     2.162601   -1.346642   -0.885045   -0.113583   -0.073249   -0.054721
H     1.977534    0.358709   -1.375957   -0.156518   -0.004505   -0.089007
H     2.116052    0.658968    1.100712    0.001287    0.004541   -0.026450
H     1.324365   -0.890076    1.346777    0.003339   -0.001575   -0.002400
H     0.026235    1.664849    0.299107    0.013108    0.010879    0.013412
H    -0.518137    0.683594    1.672155    0.005277    0.012814    0.006447
H    -2.502802   -0.476403   -1.679914    0.000525   -0.001639    0.010816
H    -2.928610    0.489235   -0.173732    0.036098    0.022824    0.005499
15
* Frequency(6) -1824.6749
C     1.566678   -0.440777   -0.746569    0.118219    0.018174    0.042522
C     1.355218   -0.008932    0.704956   -0.012711   -0.007199   -0.010271
C    -0.037498    0.647911    0.690609   -0.010491    0.009295    0.009695
C    -2.222893   -0.159163   -0.682793    0.010479   -0.007826    0.010898
C    -0.854772   -0.176171   -0.258921    0.094871   -0.025647   -0.065445
O    -1.664955   -1.193514    0.150410   -0.014623   -0.003203    0.001121
H     0.915882   -0.651036   -1.104727   -1.944941    0.238072    0.268750
H     2.161520   -1.347339   -0.885566   -0.113583   -0.073249   -0.054721
H     1.976045    0.358667   -1.376804   -0.156518   -0.004505   -0.089007
H     2.116064    0.659011    1.100461    0.001287    0.004541   -0.026450
H     1.324397   -0.890091    1.346755    0.003339   -0.001575   -0.002400
H     0.026359    1.664952    0.299235    0.013108    0.010879    0.013412
H    -0.518087    0.683716    1.672216    0.005277    0.012814    0.006447
H    -2.502797   -0.476419   -1.679811    0.000525   -0.001639    0.010816
H    -2.928267    0.489452   -0.173680    0.036098    0.022824    0.005499
15
* Frequency(6) -1824.6749
C     1.572149   -0.439936   -0.744601    0.118219    0.018174    0.042522
C     1.354630   -0.009265    0.704480   -0.012711   -0.007199   -0.010271
C    -0.037983    0.648341    0.691057   -0.010491    0.009295    0.009695
C    -2.222408   -0.159525   -0.682288    0.010479   -0.007826    0.010898
C    -0.850381   -0.177358   -0.261950    0.094871   -0.025647   -0.065445
O    -1.665632   -1.193662    0.150461   -0.014623   -0.003203    0.001121
H     0.825867   -0.640018   -1.092289   -1.944941    0.238072    0.268750
H     2.156263   -1.350729   -0.888098   -0.113583   -0.073249   -0.054721
H     1.968801    0.358458   -1.380924   -0.156518   -0.004505   -0.089007
H     2.116123    0.659222    1.099237    0.001287    0.004541   -0.026450
H     1.324551   -0.890164    1.346644    0.003339   -0.001575   -0.002400
H     0.026966    1.665456    0.299856    0.013108    0.010879    0.013412
H    -0.517842    0.684309    1.672515    0.005277    0.012814    0.006447
H    -2.502773   -0.476494   -1.679310    0.000525   -0.001639    0.010816
H    -2.926596    0.490508   -0.173425    0.036098    0.022824    0.005499
15
* Frequency(6) -1824.6749
C     1.581374   -0.438518   -0.741283    0.118219    0.018174    0.042522
C     1.353638   -0.009827    0.703679   -0.012711   -0.007199   -0.010271
C    -0.038802    0.649066    0.691814   -0.010491    0.009295    0.009695
C    -2.221591   -0.160136   -0.681438    0.010479   -0.007826    0.010898
C    -0.842978   -0.179359   -0.267057    0.094871   -0.025647   -0.065445
O    -1.666773   -1.193912    0.150549   -0.014623   -0.003203    0.001121
H     0.674096   -0.621440   -1.071317   -1.944941    0.238072    0.268750
H     2.147400   -1.356445   -0.892368   -0.113583   -0.073249   -0.054721
H     1.956588    0.358107   -1.387869   -0.156518   -0.004505   -0.089007
H     2.116224    0.659576    1.097173    0.001287    0.004541   -0.026450
H     1.324812   -0.890287    1.346456    0.003339   -0.001575   -0.002400
H     0.027989    1.666305    0.300902    0.013108    0.010879    0.013412
H    -0.517431    0.685309    1.673018    0.005277    0.012814    0.006447
H    -2.502732   -0.476622   -1.678466    0.000525   -0.001639    0.010816
H    -2.923779    0.492289   -0.172996    0.036098    0.022824    0.005499
15
* Frequency(6) -1824.6749
C     1.593353   -0.436677   -0.736974    0.118219    0.018174    0.042522
C     1.352350   -0.010556    0.702638   -0.012711   -0.007199   -0.010271
C    -0.039865    0.650008    0.692796   -0.010491    0.009295    0.009695
C    -2.220529   -0.160929   -0.680334    0.010479   -0.007826    0.010898
C    -0.833365   -0.181958   -0.273689    0.094871   -0.025647   -0.065445
O    -1.668255   -1.194236    0.150662   -0.014623   -0.003203    0.001121
H     0.477016   -0.597316   -1.044085   -1.944941    0.238072    0.268750
H     2.135891   -1.363867   -0.897913   -0.113583   -0.073249   -0.054721
H     1.940728    0.357650   -1.396888   -0.156518   -0.004505   -0.089007
H     2.116354    0.660036    1.094492    0.001287    0.004541   -0.026450
H     1.325150   -0.890446    1.346213    0.003339   -0.001575   -0.002400
H     0.029317    1.667407    0.302261    0.013108    0.010879    0.013412
H    -0.516896    0.686607    1.673671    0.005277    0.012814    0.006447
H    -2.502679   -0.476788   -1.677370    0.000525   -0.001639    0.010816
H    -2.920121    0.494602   -0.172439    0.036098    0.022824    0.005499
15
* Frequency(6) -1824.6749
C     1.606788   -0.434611   -0.732141    0.118219    0.018174    0.042522
C     1.350906   -0.011374    0.701471   -0.012711   -0.007199   -0.010271
C    -0.041057    0.651065    0.693898   -0.010491    0.009295    0.009695
C    -2.219338   -0.161819   -0.679095    0.010479   -0.007826    0.010898
C    -0.822583   -0.184873   -0.281126    0.094871   -0.025647   -0.065445
O    -1.669917   -1.194600    0.150790   -0.014623   -0.003203    0.001121
H     0.255983   -0.570261   -1.013543   -1.944941    0.238072    0.268750
H     2.122983   -1.372192   -0.904132   -0.113583   -0.073249   -0.054721
H     1.922940    0.357138   -1.407003   -0.156518   -0.004505   -0.089007
H     2.116501    0.660552    1.091486    0.001287    0.004541   -0.026450
H     1.325530   -0.890625    1.345940    0.003339   -0.001575   -0.002400
H     0.030807    1.668644    0.303786    0.013108    0.010879    0.013412
H    -0.516296    0.688064    1.674404    0.005277    0.012814    0.006447
H    -2.502619   -0.476975   -1.676141    0.000525   -0.001639    0.010816
H    -2.916019    0.497195   -0.171814    0.036098    0.022824    0.005499
