17
Coordinates from ORCA-job freq E -421.394177371732
  C      -2.168103     -0.298043     -0.938205
  C       2.539709      0.189180     -0.632724
  C       0.362207     -0.518138      0.334911
  C       1.127451     -0.316768     -0.927151
  C      -0.877273     -0.036293      0.564851
  O      -2.155894      0.806543      2.293579
  O      -1.579022      0.780791     -0.312008
  O      -1.521939     -0.333111      1.725073
  H      -1.719100     -0.677875     -1.835662
  H      -3.064628     -0.718382     -0.520087
  H       3.070922     -0.513153      0.004866
  H       3.096519      0.306642     -1.558893
  H       2.498422      1.150665     -0.127657
  H       0.814628     -1.103804      1.118419
  H       1.201395     -1.269178     -1.463549
  H       0.605290      0.396625     -1.566333
  H      -2.536275      1.275944      1.527960
17
Coordinates from ORCA-job freq E -421.393510152798
  C      -2.137569     -0.353350     -0.924988
  C       2.538987      0.188225     -0.634518
  C       0.359338     -0.509231      0.346878
  C       1.121324     -0.308596     -0.918371
  C      -0.889262     -0.051514      0.564683
  O      -2.111622      0.835091      2.298376
  O      -1.593123      0.760950     -0.308443
  O      -1.537435     -0.336382      1.727818
  H      -1.719438     -0.656845     -1.866705
  H      -3.081482     -0.724188     -0.566047
  H       3.074450     -0.521958     -0.007705
  H       3.090423      0.310664     -1.564065
  H       2.510325      1.145786     -0.119689
  H       0.810396     -1.089704      1.136561
  H       1.184418     -1.257767     -1.461645
  H       0.597758      0.407468     -1.553408
  H      -2.523180      1.282996      1.538660
17
Coordinates from ORCA-job freq E -421.392141641281
  C      -2.127610     -0.399052     -0.903110
  C       2.538308      0.195361     -0.625624
  C       0.354840     -0.511455      0.343228
  C       1.123343     -0.305486     -0.917319
  C      -0.905856     -0.077956      0.545700
  O      -2.038716      0.862131      2.294390
  O      -1.604418      0.748135     -0.319426
  O      -1.557946     -0.347412      1.713055
  H      -1.744561     -0.663343     -1.873662
  H      -3.112058     -0.703758     -0.589316
  H       3.074832     -0.515030      0.001182
  H       3.096140      0.325260     -1.550818
  H       2.504459      1.150339     -0.105037
  H       0.800658     -1.088433      1.139590
  H       1.189720     -1.251347     -1.465922
  H       0.599649      0.409692     -1.553252
  H      -2.496476      1.294000      1.553733
17
Coordinates from ORCA-job freq E -421.391917076393
  C      -2.101604     -0.411798     -0.915993
  C       2.527744      0.194872     -0.628752
  C       0.341278     -0.506604      0.350521
  C       1.109058     -0.300192     -0.910552
  C      -0.928759     -0.086869      0.539555
  O      -1.984717      0.875573      2.308647
  O      -1.616011      0.750517     -0.325625
  O      -1.592650     -0.353237      1.700887
  H      -1.677617     -0.675840     -1.871211
  H      -3.092169     -0.728450     -0.629614
  H       3.068442     -0.518353     -0.008254
  H       3.078833      0.324949     -1.558339
  H       2.502715      1.149200     -0.105951
  H       0.783241     -1.083720      1.149549
  H       1.167072     -1.244799     -1.462597
  H       0.584538      0.416997     -1.543559
  H      -2.475087      1.319399      1.598678
17
Coordinates from ORCA-job freq E -421.392288274776
  C      -2.134553     -0.411682     -0.915256
  C       2.530093      0.205638     -0.612531
  C       0.338491     -0.515937      0.333675
  C       1.120906     -0.304182     -0.917025
  C      -0.934428     -0.099972      0.514774
  O      -1.930412      0.879113      2.301210
  O      -1.616006      0.746262     -0.345608
  O      -1.603957     -0.361009      1.675978
  H      -1.730937     -0.696288     -1.874186
  H      -3.118508     -0.718183     -0.596685
  H       3.066568     -0.499991      0.020624
  H       3.097925      0.339293     -1.531522
  H       2.486013      1.160911     -0.092204
  H       0.773476     -1.092030      1.137731
  H       1.195713     -1.248613     -1.467044
  H       0.598305      0.406501     -1.558788
  H      -2.444382      1.331813      1.614248
17
Coordinates from ORCA-job freq E -421.392493090964
  C      -2.130396     -0.406908     -0.927769
  C       2.521428      0.213527     -0.611042
  C       0.332554     -0.525630      0.335429
  C       1.117991     -0.312967     -0.913344
  C      -0.941560     -0.108574      0.510672
  O      -1.893431      0.883397      2.308144
  O      -1.613093      0.746670     -0.349096
  O      -1.618629     -0.363057      1.669181
  H      -1.717988     -0.690867     -1.883192
  H      -3.114373     -0.717852     -0.613114
  H       3.064159     -0.479927      0.030360
  H       3.089795      0.343138     -1.530504
  H       2.467350      1.173866     -0.100911
  H       0.763352     -1.104569      1.139928
  H       1.203255     -1.260238     -1.456974
  H       0.589911      0.387320     -1.561906
  H      -2.426018      1.344316      1.641529
17
Coordinates from ORCA-job freq E -421.392603421443
  C      -2.135792     -0.409136     -0.932444
  C       2.519249      0.218152     -0.606683
  C       0.328530     -0.528866      0.331583
  C       1.119230     -0.314945     -0.913617
  C      -0.948360     -0.114762      0.500330
  O      -1.859217      0.886395      2.309787
  O      -1.613927      0.745241     -0.359347
  O      -1.629171     -0.363268      1.658747
  H      -1.719339     -0.702734     -1.883544
  H      -3.121916     -0.713956     -0.617916
  H       3.062078     -0.471214      0.039317
  H       3.091910      0.347519     -1.523656
  H       2.459362      1.179683     -0.099199
  H       0.755755     -1.107543      1.138469
  H       1.210630     -1.262663     -1.455459
  H       0.590741      0.381180     -1.566294
  H      -2.415455      1.352562      1.667318
17
Coordinates from ORCA-job freq E -421.392726914570
  C      -2.140140     -0.412543     -0.937434
  C       2.518269      0.221062     -0.603377
  C       0.324950     -0.529301      0.328927
  C       1.120075     -0.315113     -0.913410
  C      -0.954792     -0.118878      0.491033
  O      -1.828840      0.888600      2.311412
  O      -1.615529      0.743411     -0.369878
  O      -1.639268     -0.362441      1.649034
  H      -1.719249     -0.715039     -1.884093
  H      -3.128309     -0.712187     -0.623808
  H       3.060569     -0.466200      0.045568
  H       3.093993      0.349771     -1.518653
  H       2.455619      1.183377     -0.097510
  H       0.749354     -1.106870      1.138362
  H       1.214802     -1.263238     -1.454002
  H       0.591985      0.378364     -1.569210
  H      -2.409181      1.358872      1.694430
17
Coordinates from ORCA-job freq E -421.392861397264
  C      -2.148401     -0.415945     -0.945572
  C       2.515315      0.227566     -0.597309
  C       0.319439     -0.532806      0.323926
  C       1.122065     -0.318109     -0.913447
  C      -0.963562     -0.125789      0.476481
  O      -1.781151      0.889939      2.313246
  O      -1.615987      0.740517     -0.386444
  O      -1.653453     -0.360676      1.634028
  H      -1.722931     -0.732752     -1.885933
  H      -3.140150     -0.705117     -0.632673
  H       3.057349     -0.453184      0.059037
  H       3.097167      0.354682     -1.509114
  H       2.444483      1.192149     -0.096585
  H       0.738925     -1.109257      1.137066
  H       1.225544     -1.267454     -1.450257
  H       0.593663      0.368853     -1.575782
  H      -2.394007      1.369028      1.736725
17
Coordinates from ORCA-job freq E -421.393001942935
  C      -2.158452     -0.424016     -0.957783
  C       2.513986      0.232802     -0.590390
  C       0.312504     -0.531972      0.317752
  C       1.124625     -0.318717     -0.913697
  C      -0.974903     -0.130405      0.456918
  O      -1.722072      0.891848      2.315078
  O      -1.618060      0.735334     -0.412567
  O      -1.670909     -0.353446      1.614436
  H      -1.726818     -0.760845     -1.888874
  H      -3.154835     -0.699623     -0.646327
  H       3.053674     -0.443476      0.072932
  H       3.102921      0.357698     -1.498169
  H       2.437428      1.199286     -0.093844
  H       0.726493     -1.104314      1.137046
  H       1.235005     -1.269444     -1.446710
  H       0.598118      0.362674     -1.583240
  H      -2.384396      1.378262      1.804830
17
Coordinates from ORCA-job freq E -421.393058662313
  C      -2.164691     -0.425884     -0.969388
  C       2.512179      0.237913     -0.586657
  C       0.308157     -0.532752      0.312504
  C       1.128043     -0.324126     -0.914594
  C      -0.980045     -0.129289      0.442367
  O      -1.684443      0.889675      2.320845
  O      -1.614237      0.733631     -0.435762
  O      -1.680379     -0.345193      1.599384
  H      -1.731196     -0.779954     -1.893429
  H      -3.165333     -0.687440     -0.658984
  H       3.050599     -0.428772      0.087476
  H       3.107573      0.356960     -1.491111
  H       2.427034      1.208860     -0.100150
  H       0.716829     -1.102222      1.136625
  H       1.247393     -1.278333     -1.439354
  H       0.602099      0.348439     -1.593356
  H      -2.385275      1.380133      1.870974
17
Coordinates from ORCA-job freq E -421.393057717158
  C      -2.164771     -0.426182     -0.970907
  C       2.512091      0.238151     -0.586225
  C       0.307401     -0.532628      0.310803
  C       1.128751     -0.325186     -0.915464
  C      -0.980401     -0.127452      0.439666
  O      -1.678313      0.891601      2.320968
  O      -1.613279      0.734332     -0.440562
  O      -1.680813     -0.342011      1.597014
  H      -1.730707     -0.784071     -1.893213
  H      -3.165990     -0.685493     -0.660492
  H       3.050037     -0.427578      0.089233
  H       3.108571      0.356720     -1.490027
  H       2.425666      1.209494     -0.100749
  H       0.714836     -1.101904      1.135679
  H       1.249550     -1.280007     -1.438740
  H       0.603345      0.346183     -1.595800
  H      -2.391668      1.377676      1.886207
17
Coordinates from ORCA-job freq E -421.393058927607
  C      -2.164796     -0.426626     -0.970896
  C       2.512518      0.237733     -0.586321
  C       0.307436     -0.531931      0.310823
  C       1.128751     -0.324615     -0.915495
  C      -0.980515     -0.127155      0.439558
  O      -1.678584      0.891818      2.320914
  O      -1.613655      0.734210     -0.440889
  O      -1.680858     -0.341795      1.596946
  H      -1.730642     -0.784652     -1.893110
  H      -3.165937     -0.686153     -0.660403
  H       3.050157     -0.428592      0.088795
  H       3.108937      0.356242     -1.490174
  H       2.426816      1.208960     -0.100487
  H       0.715006     -1.100943      1.135819
  H       1.248856     -1.279376     -1.439057
  H       0.603622      0.347236     -1.595580
  H      -2.392808      1.377285      1.886949
