17
* (null), Energy   -1000.0000000
C    -1.857218    1.508203    0.377482    0.000323   -0.000135   -0.000106
C    -1.700328    0.239387   -0.453502   -0.005821   -0.005285    0.003550
C     1.326453    1.191613   -1.019329   -0.007595   -0.013029   -0.006695
C     0.876469   -0.040380   -0.389944    0.038798   -0.038725    0.091689
C    -0.506782   -0.609840   -0.059102   -0.015053    0.007031   -0.022138
O     0.810221   -1.299905    1.587529   -0.080279   -0.026221    0.048785
O     1.410041   -0.110014   -1.635858    0.005043    0.007192   -0.009287
O    -0.434922   -0.737931    1.345384    0.046238   -0.012612    0.011487
H     1.378713   -0.658483    0.680346    0.361885    1.094208   -1.626337
H    -2.680924    2.110090   -0.003444    0.000088   -0.000305    0.002272
H    -0.954692    2.118528    0.357216    0.001361   -0.002002   -0.002055
H    -2.062321    1.264187    1.417449   -0.004834    0.004623    0.001690
H    -1.585894    0.476496   -1.514814    0.014967   -0.003569    0.005770
H    -2.599817   -0.372764   -0.371995   -0.022347    0.018629   -0.011517
H     2.277324    1.619694   -0.731753   -0.008309   -0.006016    0.002403
H     0.612352    1.857061   -1.489624   -0.013572   -0.008359    0.018758
H    -0.541794   -1.598860   -0.527754    0.004106    0.002483    0.009761
17
* Frequency(6) -2178.6357
C    -1.857181    1.508188    0.377470    0.000323   -0.000135   -0.000106
C    -1.700990    0.238786   -0.453099   -0.005821   -0.005285    0.003550
C     1.325589    1.190132   -1.020090   -0.007595   -0.013029   -0.006695
C     0.880878   -0.044781   -0.379524    0.038798   -0.038725    0.091689
C    -0.508493   -0.609041   -0.061618   -0.015053    0.007031   -0.022138
O     0.801098   -1.302885    1.593073   -0.080279   -0.026221    0.048785
O     1.410615   -0.109196   -1.636913    0.005043    0.007192   -0.009287
O    -0.429667   -0.739364    1.346689    0.046238   -0.012612    0.011487
H     1.419839   -0.534132    0.495522    0.361885    1.094208   -1.626337
H    -2.680914    2.110056   -0.003186    0.000088   -0.000305    0.002272
H    -0.954537    2.118301    0.356983    0.001361   -0.002002   -0.002055
H    -2.062870    1.264712    1.417641   -0.004834    0.004623    0.001690
H    -1.584193    0.476090   -1.514159    0.014967   -0.003569    0.005770
H    -2.602357   -0.370647   -0.373304   -0.022347    0.018629   -0.011517
H     2.276380    1.619011   -0.731480   -0.008309   -0.006016    0.002403
H     0.610810    1.856111   -1.487492   -0.013572   -0.008359    0.018758
H    -0.541327   -1.598578   -0.526645    0.004106    0.002483    0.009761
17
* Frequency(6) -2178.6357
C    -1.857148    1.508174    0.377459    0.000323   -0.000135   -0.000106
C    -1.701580    0.238251   -0.452739   -0.005821   -0.005285    0.003550
C     1.324820    1.188812   -1.020768   -0.007595   -0.013029   -0.006695
C     0.884809   -0.048705   -0.370233    0.038798   -0.038725    0.091689
C    -0.510018   -0.608329   -0.063861   -0.015053    0.007031   -0.022138
O     0.792964   -1.305542    1.598017   -0.080279   -0.026221    0.048785
O     1.411126   -0.108467   -1.637854    0.005043    0.007192   -0.009287
O    -0.424982   -0.740642    1.347853    0.046238   -0.012612    0.011487
H     1.456509   -0.423256    0.330725    0.361885    1.094208   -1.626337
H    -2.680906    2.110025   -0.002955    0.000088   -0.000305    0.002272
H    -0.954399    2.118098    0.356775    0.001361   -0.002002   -0.002055
H    -2.063360    1.265181    1.417813   -0.004834    0.004623    0.001690
H    -1.582676    0.475729   -1.513574    0.014967   -0.003569    0.005770
H    -2.604621   -0.368759   -0.374471   -0.022347    0.018629   -0.011517
H     2.275538    1.618401   -0.731236   -0.008309   -0.006016    0.002403
H     0.609435    1.855264   -1.485592   -0.013572   -0.008359    0.018758
H    -0.540911   -1.598326   -0.525656    0.004106    0.002483    0.009761
17
* Frequency(6) -2178.6357
C    -1.857123    1.508164    0.377451    0.000323   -0.000135   -0.000106
C    -1.702034    0.237838   -0.452462   -0.005821   -0.005285    0.003550
C     1.324227    1.187795   -1.021291   -0.007595   -0.013029   -0.006695
C     0.887837   -0.051727   -0.363079    0.038798   -0.038725    0.091689
C    -0.511193   -0.607780   -0.065588   -0.015053    0.007031   -0.022138
O     0.786699   -1.307588    1.601824   -0.080279   -0.026221    0.048785
O     1.411519   -0.107906   -1.638579    0.005043    0.007192   -0.009287
O    -0.421374   -0.741626    1.348749    0.046238   -0.012612    0.011487
H     1.484748   -0.337871    0.203816    0.361885    1.094208   -1.626337
H    -2.680899    2.110001   -0.002778    0.000088   -0.000305    0.002272
H    -0.954293    2.117942    0.356614    0.001361   -0.002002   -0.002055
H    -2.063738    1.265541    1.417945   -0.004834    0.004623    0.001690
H    -1.581508    0.475450   -1.513124    0.014967   -0.003569    0.005770
H    -2.606365   -0.367306   -0.375370   -0.022347    0.018629   -0.011517
H     2.274890    1.617932   -0.731049   -0.008309   -0.006016    0.002403
H     0.608375    1.854612   -1.484128   -0.013572   -0.008359    0.018758
H    -0.540591   -1.598132   -0.524894    0.004106    0.002483    0.009761
17
* Frequency(6) -2178.6357
C    -1.857108    1.508158    0.377446    0.000323   -0.000135   -0.000106
C    -1.702304    0.237594   -0.452298   -0.005821   -0.005285    0.003550
C     1.323875    1.187192   -1.021601   -0.007595   -0.013029   -0.006695
C     0.889632   -0.053519   -0.358835    0.038798   -0.038725    0.091689
C    -0.511890   -0.607455   -0.066613   -0.015053    0.007031   -0.022138
O     0.782984   -1.308802    1.604081   -0.080279   -0.026221    0.048785
O     1.411753   -0.107573   -1.639008    0.005043    0.007192   -0.009287
O    -0.419234   -0.742210    1.349281    0.046238   -0.012612    0.011487
H     1.501497   -0.287229    0.128546    0.361885    1.094208   -1.626337
H    -2.680895    2.109987   -0.002673    0.000088   -0.000305    0.002272
H    -0.954230    2.117849    0.356519    0.001361   -0.002002   -0.002055
H    -2.063961    1.265755    1.418023   -0.004834    0.004623    0.001690
H    -1.580816    0.475285   -1.512857    0.014967   -0.003569    0.005770
H    -2.607399   -0.366444   -0.375903   -0.022347    0.018629   -0.011517
H     2.274505    1.617653   -0.730937   -0.008309   -0.006016    0.002403
H     0.607747    1.854225   -1.483260   -0.013572   -0.008359    0.018758
H    -0.540401   -1.598017   -0.524443    0.004106    0.002483    0.009761
17
* Frequency(6) -2178.6357
C    -1.857105    1.508156    0.377445    0.000323   -0.000135   -0.000106
C    -1.702359    0.237544   -0.452264   -0.005821   -0.005285    0.003550
C     1.323803    1.187068   -1.021664   -0.007595   -0.013029   -0.006695
C     0.890002   -0.053887   -0.357963    0.038798   -0.038725    0.091689
C    -0.512033   -0.607388   -0.066823   -0.015053    0.007031   -0.022138
O     0.782220   -1.309052    1.604546   -0.080279   -0.026221    0.048785
O     1.411800   -0.107505   -1.639097    0.005043    0.007192   -0.009287
O    -0.418794   -0.742330    1.349390    0.046238   -0.012612    0.011487
H     1.504940   -0.276818    0.113072    0.361885    1.094208   -1.626337
H    -2.680894    2.109984   -0.002651    0.000088   -0.000305    0.002272
H    -0.954217    2.117830    0.356500    0.001361   -0.002002   -0.002055
H    -2.064007    1.265799    1.418039   -0.004834    0.004623    0.001690
H    -1.580673    0.475251   -1.512802    0.014967   -0.003569    0.005770
H    -2.607612   -0.366266   -0.376013   -0.022347    0.018629   -0.011517
H     2.274426    1.617596   -0.730915   -0.008309   -0.006016    0.002403
H     0.607618    1.854145   -1.483081   -0.013572   -0.008359    0.018758
H    -0.540362   -1.597994   -0.524350    0.004106    0.002483    0.009761
17
* Frequency(6) -2178.6357
C    -1.857114    1.508160    0.377448    0.000323   -0.000135   -0.000106
C    -1.702194    0.237693   -0.452364   -0.005821   -0.005285    0.003550
C     1.324018    1.187436   -1.021475   -0.007595   -0.013029   -0.006695
C     0.888904   -0.052792   -0.360556    0.038798   -0.038725    0.091689
C    -0.511607   -0.607587   -0.066197   -0.015053    0.007031   -0.022138
O     0.784490   -1.308310    1.603166   -0.080279   -0.026221    0.048785
O     1.411658   -0.107708   -1.638834    0.005043    0.007192   -0.009287
O    -0.420102   -0.741973    1.349065    0.046238   -0.012612    0.011487
H     1.494704   -0.307767    0.159072    0.361885    1.094208   -1.626337
H    -2.680896    2.109993   -0.002715    0.000088   -0.000305    0.002272
H    -0.954256    2.117887    0.356558    0.001361   -0.002002   -0.002055
H    -2.063871    1.265668    1.417991   -0.004834    0.004623    0.001690
H    -1.581096    0.475352   -1.512965    0.014967   -0.003569    0.005770
H    -2.606980   -0.366793   -0.375687   -0.022347    0.018629   -0.011517
H     2.274661    1.617766   -0.730983   -0.008309   -0.006016    0.002403
H     0.608002    1.854382   -1.483612   -0.013572   -0.008359    0.018758
H    -0.540478   -1.598064   -0.524626    0.004106    0.002483    0.009761
17
* Frequency(6) -2178.6357
C    -1.857135    1.508169    0.377455    0.000323   -0.000135   -0.000106
C    -1.701827    0.238026   -0.452588   -0.005821   -0.005285    0.003550
C     1.324497    1.188258   -1.021053   -0.007595   -0.013029   -0.006695
C     0.886459   -0.050352   -0.366334    0.038798   -0.038725    0.091689
C    -0.510659   -0.608030   -0.064802   -0.015053    0.007031   -0.022138
O     0.789549   -1.306657    1.600091   -0.080279   -0.026221    0.048785
O     1.411340   -0.108162   -1.638249    0.005043    0.007192   -0.009287
O    -0.423015   -0.741179    1.348341    0.046238   -0.012612    0.011487
H     1.471899   -0.376721    0.261559    0.361885    1.094208   -1.626337
H    -2.680902    2.110012   -0.002859    0.000088   -0.000305    0.002272
H    -0.954341    2.118013    0.356687    0.001361   -0.002002   -0.002055
H    -2.063566    1.265377    1.417885   -0.004834    0.004623    0.001690
H    -1.582040    0.475577   -1.513329    0.014967   -0.003569    0.005770
H    -2.605571   -0.367967   -0.374961   -0.022347    0.018629   -0.011517
H     2.275185    1.618145   -0.731134   -0.008309   -0.006016    0.002403
H     0.608857    1.854909   -1.484794   -0.013572   -0.008359    0.018758
H    -0.540737   -1.598221   -0.525241    0.004106    0.002483    0.009761
17
* Frequency(6) -2178.6357
C    -1.857164    1.508181    0.377464    0.000323   -0.000135   -0.000106
C    -1.701298    0.238507   -0.452911   -0.005821   -0.005285    0.003550
C     1.325187    1.189442   -1.020445   -0.007595   -0.013029   -0.006695
C     0.882932   -0.046831   -0.374671    0.038798   -0.038725    0.091689
C    -0.509290   -0.608669   -0.062789   -0.015053    0.007031   -0.022138
O     0.796848   -1.304273    1.595656   -0.080279   -0.026221    0.048785
O     1.410881   -0.108815   -1.637405    0.005043    0.007192   -0.009287
O    -0.427219   -0.740032    1.347297    0.046238   -0.012612    0.011487
H     1.438996   -0.476208    0.409428    0.361885    1.094208   -1.626337
H    -2.680910    2.110040   -0.003065    0.000088   -0.000305    0.002272
H    -0.954465    2.118195    0.356874    0.001361   -0.002002   -0.002055
H    -2.063126    1.264957    1.417731   -0.004834    0.004623    0.001690
H    -1.583400    0.475901   -1.513853    0.014967   -0.003569    0.005770
H    -2.603540   -0.369661   -0.373914   -0.022347    0.018629   -0.011517
H     2.275940    1.618692   -0.731352   -0.008309   -0.006016    0.002403
H     0.610091    1.855669   -1.486499   -0.013572   -0.008359    0.018758
H    -0.541110   -1.598446   -0.526128    0.004106    0.002483    0.009761
17
* Frequency(6) -2178.6357
C    -1.857199    1.508196    0.377476    0.000323   -0.000135   -0.000106
C    -1.700664    0.239082   -0.453298   -0.005821   -0.005285    0.003550
C     1.326015    1.190862   -1.019715   -0.007595   -0.013029   -0.006695
C     0.878704   -0.042611   -0.384662    0.038798   -0.038725    0.091689
C    -0.507650   -0.609435   -0.060377   -0.015053    0.007031   -0.022138
O     0.805597   -1.301416    1.590339   -0.080279   -0.026221    0.048785
O     1.410332   -0.109599   -1.636393    0.005043    0.007192   -0.009287
O    -0.432258   -0.738657    1.346045    0.046238   -0.012612    0.011487
H     1.399560   -0.595448    0.586656    0.361885    1.094208   -1.626337
H    -2.680919    2.110073   -0.003313    0.000088   -0.000305    0.002272
H    -0.954613    2.118413    0.357098    0.001361   -0.002002   -0.002055
H    -2.062600    1.264453    1.417547   -0.004834    0.004623    0.001690
H    -1.585031    0.476290   -1.514482    0.014967   -0.003569    0.005770
H    -2.601104   -0.371691   -0.372659   -0.022347    0.018629   -0.011517
H     2.276846    1.619348   -0.731614   -0.008309   -0.006016    0.002403
H     0.611570    1.856579   -1.488544   -0.013572   -0.008359    0.018758
H    -0.541558   -1.598717   -0.527192    0.004106    0.002483    0.009761
17
* Frequency(6) -2178.6357
C    -1.857236    1.508211    0.377488    0.000323   -0.000135   -0.000106
C    -1.699993    0.239691   -0.453707   -0.005821   -0.005285    0.003550
C     1.326890    1.192363   -1.018944   -0.007595   -0.013029   -0.006695
C     0.874233   -0.038149   -0.395226    0.038798   -0.038725    0.091689
C    -0.505915   -0.610245   -0.057826   -0.015053    0.007031   -0.022138
O     0.814846   -1.298395    1.584719   -0.080279   -0.026221    0.048785
O     1.409751   -0.110428   -1.635323    0.005043    0.007192   -0.009287
O    -0.437585   -0.737204    1.344722    0.046238   -0.012612    0.011487
H     1.357865   -0.721518    0.774036    0.361885    1.094208   -1.626337
H    -2.680930    2.110108   -0.003575    0.000088   -0.000305    0.002272
H    -0.954770    2.118644    0.357335    0.001361   -0.002002   -0.002055
H    -2.062043    1.263921    1.417352   -0.004834    0.004623    0.001690
H    -1.586756    0.476702   -1.515147    0.014967   -0.003569    0.005770
H    -2.598530   -0.373837   -0.371332   -0.022347    0.018629   -0.011517
H     2.277803    1.620041   -0.731891   -0.008309   -0.006016    0.002403
H     0.613134    1.857542   -1.490705   -0.013572   -0.008359    0.018758
H    -0.542031   -1.599003   -0.528317    0.004106    0.002483    0.009761
17
* Frequency(6) -2178.6357
C    -1.857271    1.508226    0.377500    0.000323   -0.000135   -0.000106
C    -1.699359    0.240267   -0.454094   -0.005821   -0.005285    0.003550
C     1.327718    1.193783   -1.018214   -0.007595   -0.013029   -0.006695
C     0.870006   -0.033929   -0.405218    0.038798   -0.038725    0.091689
C    -0.504275   -0.611011   -0.055414   -0.015053    0.007031   -0.022138
O     0.823594   -1.295537    1.579402   -0.080279   -0.026221    0.048785
O     1.409201   -0.111212   -1.634311    0.005043    0.007192   -0.009287
O    -0.442624   -0.735830    1.343470    0.046238   -0.012612    0.011487
H     1.318429   -0.840758    0.951264    0.361885    1.094208   -1.626337
H    -2.680939    2.110141   -0.003822    0.000088   -0.000305    0.002272
H    -0.954918    2.118862    0.357558    0.001361   -0.002002   -0.002055
H    -2.061516    1.263417    1.417168   -0.004834    0.004623    0.001690
H    -1.588387    0.477091   -1.515775    0.014967   -0.003569    0.005770
H    -2.596094   -0.375868   -0.370077   -0.022347    0.018629   -0.011517
H     2.278709    1.620697   -0.732153   -0.008309   -0.006016    0.002403
H     0.614613    1.858453   -1.492749   -0.013572   -0.008359    0.018758
H    -0.542478   -1.599274   -0.529380    0.004106    0.002483    0.009761
17
* Frequency(6) -2178.6357
C    -1.857301    1.508238    0.377509    0.000323   -0.000135   -0.000106
C    -1.698829    0.240748   -0.454416   -0.005821   -0.005285    0.003550
C     1.328408    1.194968   -1.017605   -0.007595   -0.013029   -0.006695
C     0.866478   -0.030408   -0.413555    0.038798   -0.038725    0.091689
C    -0.502906   -0.611651   -0.053401   -0.015053    0.007031   -0.022138
O     0.830894   -1.293153    1.574967   -0.080279   -0.026221    0.048785
O     1.408743   -0.111866   -1.633466    0.005043    0.007192   -0.009287
O    -0.446828   -0.734683    1.342426    0.046238   -0.012612    0.011487
H     1.285526   -0.940245    1.099134    0.361885    1.094208   -1.626337
H    -2.680947    2.110169   -0.004029    0.000088   -0.000305    0.002272
H    -0.955042    2.119044    0.357745    0.001361   -0.002002   -0.002055
H    -2.061076    1.262996    1.417014   -0.004834    0.004623    0.001690
H    -1.589747    0.477415   -1.516300    0.014967   -0.003569    0.005770
H    -2.594062   -0.377561   -0.369030   -0.022347    0.018629   -0.011517
H     2.279464    1.621244   -0.732371   -0.008309   -0.006016    0.002403
H     0.615847    1.859213   -1.494455   -0.013572   -0.008359    0.018758
H    -0.542851   -1.599500   -0.530268    0.004106    0.002483    0.009761
17
* Frequency(6) -2178.6357
C    -1.857321    1.508247    0.377516    0.000323   -0.000135   -0.000106
C    -1.698463    0.241081   -0.454640   -0.005821   -0.005285    0.003550
C     1.328887    1.195789   -1.017184   -0.007595   -0.013029   -0.006695
C     0.864033   -0.027968   -0.419333    0.038798   -0.038725    0.091689
C    -0.501958   -0.612094   -0.052006   -0.015053    0.007031   -0.022138
O     0.835953   -1.291501    1.571892   -0.080279   -0.026221    0.048785
O     1.408425   -0.112319   -1.632881    0.005043    0.007192   -0.009287
O    -0.449742   -0.733888    1.341702    0.046238   -0.012612    0.011487
H     1.262721   -1.009199    1.201621    0.361885    1.094208   -1.626337
H    -2.680953    2.110188   -0.004172    0.000088   -0.000305    0.002272
H    -0.955128    2.119170    0.357875    0.001361   -0.002002   -0.002055
H    -2.060771    1.262705    1.416908   -0.004834    0.004623    0.001690
H    -1.590691    0.477640   -1.516664    0.014967   -0.003569    0.005770
H    -2.592654   -0.378735   -0.368304   -0.022347    0.018629   -0.011517
H     2.279988    1.621623   -0.732523   -0.008309   -0.006016    0.002403
H     0.616702    1.859740   -1.495637   -0.013572   -0.008359    0.018758
H    -0.543110   -1.599656   -0.530883    0.004106    0.002483    0.009761
17
* Frequency(6) -2178.6357
C    -1.857330    1.508250    0.377519    0.000323   -0.000135   -0.000106
C    -1.698298    0.241230   -0.454741   -0.005821   -0.005285    0.003550
C     1.329102    1.196157   -1.016994   -0.007595   -0.013029   -0.006695
C     0.862936   -0.026873   -0.421926    0.038798   -0.038725    0.091689
C    -0.501532   -0.612293   -0.051380   -0.015053    0.007031   -0.022138
O     0.838223   -1.290759    1.570513   -0.080279   -0.026221    0.048785
O     1.408282   -0.112522   -1.632618    0.005043    0.007192   -0.009287
O    -0.451050   -0.733532    1.341377    0.046238   -0.012612    0.011487
H     1.252486   -1.040148    1.247620    0.361885    1.094208   -1.626337
H    -2.680955    2.110197   -0.004236    0.000088   -0.000305    0.002272
H    -0.955166    2.119227    0.357933    0.001361   -0.002002   -0.002055
H    -2.060635    1.262574    1.416860   -0.004834    0.004623    0.001690
H    -1.591114    0.477741   -1.516827    0.014967   -0.003569    0.005770
H    -2.592022   -0.379262   -0.367978   -0.022347    0.018629   -0.011517
H     2.280223    1.621793   -0.732591   -0.008309   -0.006016    0.002403
H     0.617086    1.859977   -1.496167   -0.013572   -0.008359    0.018758
H    -0.543226   -1.599726   -0.531159    0.004106    0.002483    0.009761
17
* Frequency(6) -2178.6357
C    -1.857327    1.508249    0.377518    0.000323   -0.000135   -0.000106
C    -1.698353    0.241180   -0.454707   -0.005821   -0.005285    0.003550
C     1.329030    1.196033   -1.017058   -0.007595   -0.013029   -0.006695
C     0.863305   -0.027241   -0.421054    0.038798   -0.038725    0.091689
C    -0.501675   -0.612226   -0.051591   -0.015053    0.007031   -0.022138
O     0.837459   -1.291009    1.570977   -0.080279   -0.026221    0.048785
O     1.408330   -0.112454   -1.632707    0.005043    0.007192   -0.009287
O    -0.450610   -0.733652    1.341486    0.046238   -0.012612    0.011487
H     1.255929   -1.029737    1.232146    0.361885    1.094208   -1.626337
H    -2.680954    2.110194   -0.004215    0.000088   -0.000305    0.002272
H    -0.955153    2.119208    0.357913    0.001361   -0.002002   -0.002055
H    -2.060681    1.262618    1.416876   -0.004834    0.004623    0.001690
H    -1.590972    0.477707   -1.516772    0.014967   -0.003569    0.005770
H    -2.592235   -0.379085   -0.368088   -0.022347    0.018629   -0.011517
H     2.280144    1.621736   -0.732568   -0.008309   -0.006016    0.002403
H     0.616957    1.859897   -1.495989   -0.013572   -0.008359    0.018758
H    -0.543187   -1.599703   -0.531066    0.004106    0.002483    0.009761
17
* Frequency(6) -2178.6357
C    -1.857312    1.508243    0.377513    0.000323   -0.000135   -0.000106
C    -1.698623    0.240935   -0.454542   -0.005821   -0.005285    0.003550
C     1.328678    1.195430   -1.017368   -0.007595   -0.013029   -0.006695
C     0.865100   -0.029033   -0.416810    0.038798   -0.038725    0.091689
C    -0.502372   -0.611900   -0.052615   -0.015053    0.007031   -0.022138
O     0.833744   -1.292222    1.573235   -0.080279   -0.026221    0.048785
O     1.408564   -0.112121   -1.633136    0.005043    0.007192   -0.009287
O    -0.448470   -0.734235    1.342018    0.046238   -0.012612    0.011487
H     1.272678   -0.979095    1.156876    0.361885    1.094208   -1.626337
H    -2.680950    2.110180   -0.004110    0.000088   -0.000305    0.002272
H    -0.955090    2.119115    0.357818    0.001361   -0.002002   -0.002055
H    -2.060904    1.262832    1.416954   -0.004834    0.004623    0.001690
H    -1.590279    0.477542   -1.516505    0.014967   -0.003569    0.005770
H    -2.593269   -0.378223   -0.368621   -0.022347    0.018629   -0.011517
H     2.279759    1.621457   -0.732457   -0.008309   -0.006016    0.002403
H     0.616329    1.859510   -1.495121   -0.013572   -0.008359    0.018758
H    -0.542997   -1.599588   -0.530614    0.004106    0.002483    0.009761
17
* Frequency(6) -2178.6357
C    -1.857287    1.508232    0.377505    0.000323   -0.000135   -0.000106
C    -1.699077    0.240523   -0.454265   -0.005821   -0.005285    0.003550
C     1.328085    1.194414   -1.017890   -0.007595   -0.013029   -0.006695
C     0.868128   -0.032055   -0.409655    0.038798   -0.038725    0.091689
C    -0.503546   -0.611352   -0.054343   -0.015053    0.007031   -0.022138
O     0.827479   -1.294269    1.577042   -0.080279   -0.026221    0.048785
O     1.408957   -0.111560   -1.633861    0.005043    0.007192   -0.009287
O    -0.444862   -0.735220    1.342914    0.046238   -0.012612    0.011487
H     1.300917   -0.893710    1.029967    0.361885    1.094208   -1.626337
H    -2.680943    2.110156   -0.003932    0.000088   -0.000305    0.002272
H    -0.954984    2.118959    0.357658    0.001361   -0.002002   -0.002055
H    -2.061282    1.263193    1.417086   -0.004834    0.004623    0.001690
H    -1.589111    0.477263   -1.516055    0.014967   -0.003569    0.005770
H    -2.595013   -0.376769   -0.369519   -0.022347    0.018629   -0.011517
H     2.279111    1.620988   -0.732269   -0.008309   -0.006016    0.002403
H     0.615270    1.858858   -1.493657   -0.013572   -0.008359    0.018758
H    -0.542677   -1.599394   -0.529853    0.004106    0.002483    0.009761
17
* Frequency(6) -2178.6357
C    -1.857254    1.508219    0.377494    0.000323   -0.000135   -0.000106
C    -1.699667    0.239988   -0.453906   -0.005821   -0.005285    0.003550
C     1.327316    1.193093   -1.018569   -0.007595   -0.013029   -0.006695
C     0.872059   -0.035979   -0.400364    0.038798   -0.038725    0.091689
C    -0.505072   -0.610639   -0.056586   -0.015053    0.007031   -0.022138
O     0.819345   -1.296926    1.581985   -0.080279   -0.026221    0.048785
O     1.409468   -0.110831   -1.634802    0.005043    0.007192   -0.009287
O    -0.440176   -0.736498    1.344078    0.046238   -0.012612    0.011487
H     1.337586   -0.782834    0.865171    0.361885    1.094208   -1.626337
H    -2.680934    2.110125   -0.003702    0.000088   -0.000305    0.002272
H    -0.954846    2.118756    0.357450    0.001361   -0.002002   -0.002055
H    -2.061772    1.263661    1.417257   -0.004834    0.004623    0.001690
H    -1.587594    0.476902   -1.515470    0.014967   -0.003569    0.005770
H    -2.597277   -0.374881   -0.370686   -0.022347    0.018629   -0.011517
H     2.278269    1.620378   -0.732026   -0.008309   -0.006016    0.002403
H     0.613895    1.858011   -1.491756   -0.013572   -0.008359    0.018758
H    -0.542261   -1.599142   -0.528864    0.004106    0.002483    0.009761
17
* Frequency(6) -2178.6357
C    -1.857218    1.508203    0.377482    0.000323   -0.000135   -0.000106
C    -1.700328    0.239387   -0.453502   -0.005821   -0.005285    0.003550
C     1.326453    1.191613   -1.019329   -0.007595   -0.013029   -0.006695
C     0.876469   -0.040380   -0.389944    0.038798   -0.038725    0.091689
C    -0.506782   -0.609840   -0.059102   -0.015053    0.007031   -0.022138
O     0.810221   -1.299905    1.587529   -0.080279   -0.026221    0.048785
O     1.410041   -0.110014   -1.635858    0.005043    0.007192   -0.009287
O    -0.434922   -0.737931    1.345384    0.046238   -0.012612    0.011487
H     1.378713   -0.658483    0.680346    0.361885    1.094208   -1.626337
H    -2.680924    2.110090   -0.003444    0.000088   -0.000305    0.002272
H    -0.954692    2.118528    0.357216    0.001361   -0.002002   -0.002055
H    -2.062321    1.264187    1.417449   -0.004834    0.004623    0.001690
H    -1.585894    0.476496   -1.514814    0.014967   -0.003569    0.005770
H    -2.599817   -0.372764   -0.371995   -0.022347    0.018629   -0.011517
H     2.277324    1.619694   -0.731753   -0.008309   -0.006016    0.002403
H     0.612352    1.857061   -1.489624   -0.013572   -0.008359    0.018758
H    -0.541794   -1.598860   -0.527754    0.004106    0.002483    0.009761
