17
Coordinates from ORCA-job freq E -421.384360043958
  C          -1.97046469834515      0.03561184993515     -1.19754942736707
  C           2.36442032215458      0.22496668054563      0.21372692184974
  C          -1.34075133759730     -0.63793424335225      0.01601070217852
  C           1.05012580323770      0.08803171809471     -0.39175712140055
  C          -0.15067251578301      0.14288020334998      0.53988934296990
  O           1.20853025981493      0.33513535917850      2.34968903601769
  O           1.84798323062608      1.28882444313527     -0.48024068803228
  O           0.22174332484474     -0.44735598804300      1.78052320653252
  H           2.05505501098358      0.29363354609303      1.52393057864699
  H          -2.33442809018313      1.03129755717276     -0.94333343187293
  H          -2.81265909526478     -0.54617882101437     -1.56779747532595
  H          -1.25744246061457      0.14290908700303     -2.01583360703427
  H           3.31254871602458     -0.21508958648981     -0.07553598342450
  H          -1.01931861587503     -1.65287253973954     -0.22887934969078
  H          -2.06873267075792     -0.72068588791029      0.82306006648565
  H           0.93853901203400     -0.43842176055770     -1.33310469220233
  H          -0.40621319529933      1.19237538259891      0.71749892166968
