17
Coordinates from ORCA-job freq E -421.510093451870
  C          -2.64200217536549     -0.91730825317686     -0.80758402548084
  C          -0.66404036762510     -0.35279907554386      0.61799309265905
  C           0.63595520511403     -0.21440345560567      0.42861950970181
  C           2.40570628542128      0.71020364956374     -0.80475046579251
  C          -1.75449013637356      0.19495355083939     -0.24726268676254
  O           3.42234214362811     -1.21770826644028      2.36168943650179
  O           1.09873419947128      0.51366255486969     -0.66364293908954
  O           3.26933512626710      0.32878054705600     -0.06721291474459
  H          -2.06285561604373     -1.59255337420989     -1.43682923430347
  H          -3.08274175728546     -1.50635299133584     -0.00265717641042
  H          -3.45320388094973     -0.50356514410559     -1.40532256782105
  H          -0.95474962205963     -0.94085586586876      1.48081238370067
  H           1.40100672334752     -0.63335225914925      1.06443223765528
  H           2.59179288638614      1.28705957810514     -1.71525686165186
  H          -1.32575124683543      0.78107118345864     -1.05872440798852
  H          -2.36717573970618      0.87528801196769      0.34982149069261
  H           3.55255697260884     -0.67148039042431      1.56161212913412
