17
Coordinates from ORCA-job freq E -421.370064386183
  C      -2.014558     -0.068688      0.936296
  C       0.506234     -0.379994      0.783809
  C       1.863908      0.030783     -1.409540
  C      -0.778260      0.012042      0.058047
  C       1.655186     -0.694310     -0.155838
  O      -1.963558      1.878179     -0.434328
  O       1.367701     -1.280515     -1.389069
  O      -0.671765      1.391584     -0.325167
  H      -2.426505      1.130300      0.362882
  H      -1.860599      0.093301      1.994163
  H      -2.758102     -0.810622      0.691962
  H       0.805029      0.435808      1.445123
  H       0.299853     -1.266659      1.388410
  H       2.869484      0.142125     -1.798803
  H       1.159926      0.801413     -1.696339
  H      -0.914814     -0.613449     -0.836739
  H       2.530142     -1.103983      0.346269
17
Coordinates from ORCA-job freq E -421.371103737589
  C      -2.015400     -0.062214      0.950459
  C       0.503822     -0.397390      0.775021
  C       1.865377      0.030553     -1.416725
  C      -0.774830      0.022777      0.067138
  C       1.664388     -0.686826     -0.155416
  O      -1.953820      1.863823     -0.476781
  O       1.388125     -1.298653     -1.388363
  O      -0.649798      1.408029     -0.278445
  H      -2.454513      1.115584      0.343650
  H      -1.877020      0.136937      2.009084
  H      -2.751939     -0.821848      0.719940
  H       0.794144      0.394599      1.467549
  H       0.290882     -1.298057      1.356188
  H       2.870160      0.154147     -1.804375
  H       1.145566      0.782304     -1.717840
  H      -0.920359     -0.570784     -0.839493
  H       2.544516     -1.075665      0.349546
17
Coordinates from ORCA-job freq E -421.371731572518
  C      -2.014286     -0.051633      0.951160
  C       0.503919     -0.403500      0.770349
  C       1.864142      0.026693     -1.421763
  C      -0.768627      0.043153      0.074698
  C       1.667982     -0.676733     -0.152349
  O      -1.938525      1.846271     -0.515759
  O       1.388192     -1.312233     -1.381344
  O      -0.637613      1.433974     -0.225085
  H      -2.484638      1.068035      0.346008
  H      -1.891681      0.175584      2.006061
  H      -2.726975     -0.838331      0.734258
  H       0.789271      0.365560      1.491910
  H       0.284625     -1.315871      1.331505
  H       2.866982      0.145920     -1.813992
  H       1.137717      0.766431     -1.734253
  H      -0.922416     -0.517033     -0.851179
  H       2.551232     -1.058969      0.350911
17
Coordinates from ORCA-job freq E -421.375803379140
  C      -2.020565     -0.012706      0.935811
  C       0.505660     -0.423765      0.768282
  C       1.850225      0.018701     -1.430777
  C      -0.758153      0.066332      0.089932
  C       1.677853     -0.662247     -0.147224
  O      -1.908203      1.799325     -0.544351
  O       1.407335     -1.337875     -1.364902
  O      -0.639073      1.469213     -0.131888
  H      -2.496368      1.000143      0.328703
  H      -1.918512      0.257315      1.983582
  H      -2.688881     -0.846462      0.751189
  H       0.781837      0.301726      1.538293
  H       0.276362     -1.358160      1.287393
  H       2.847201      0.151025     -1.832050
  H       1.099508      0.725879     -1.760373
  H      -0.921851     -0.438308     -0.864436
  H       2.574927     -1.012820      0.353957
17
Coordinates from ORCA-job freq E -421.372986454729
  C      -2.025039      0.008365      0.915992
  C       0.505781     -0.443075      0.773846
  C       1.827647      0.010663     -1.435892
  C      -0.750057      0.060796      0.093089
  C       1.685871     -0.652906     -0.139451
  O      -1.907544      1.804540     -0.495504
  O       1.440243     -1.358214     -1.343483
  O      -0.637196      1.471092     -0.123846
  H      -2.459474      1.011201      0.298218
  H      -1.923442      0.284909      1.962973
  H      -2.686326     -0.834579      0.742971
  H       0.773507      0.261765      1.565377
  H       0.273285     -1.391486      1.264913
  H       2.817680      0.175796     -1.842635
  H       1.049098      0.682793     -1.775461
  H      -0.912128     -0.436159     -0.865360
  H       2.597398     -0.958185      0.365390
17
Coordinates from ORCA-job freq E -421.373374524720
  C      -2.023710      0.002153      0.923471
  C       0.509836     -0.428942      0.773004
  C       1.844596      0.019126     -1.430050
  C      -0.753274      0.064406      0.095507
  C       1.679288     -0.665432     -0.147473
  O      -1.919458      1.774172     -0.524788
  O       1.405891     -1.336409     -1.365266
  O      -0.652978      1.471785     -0.121167
  H      -2.472484      0.994605      0.310736
  H      -1.927244      0.279901      1.970399
  H      -2.684570     -0.839685      0.744850
  H       0.788962      0.294095      1.543969
  H       0.279980     -1.363819      1.290402
  H       2.839513      0.154783     -1.835699
  H       1.091025      0.726147     -1.754784
  H      -0.915342     -0.434697     -0.861333
  H       2.579270     -1.014871      0.349359
17
Coordinates from ORCA-job freq E -421.372960991952
  C      -2.022497     -0.008678      0.927192
  C       0.509334     -0.425642      0.773880
  C       1.845774      0.020046     -1.428469
  C      -0.754910      0.056644      0.090867
  C       1.678212     -0.667606     -0.147532
  O      -1.928972      1.792358     -0.511633
  O       1.405659     -1.333297     -1.366459
  O      -0.648590      1.462251     -0.147835
  H      -2.468345      1.021739      0.311212
  H      -1.919260      0.256591      1.976569
  H      -2.696365     -0.837855      0.739468
  H       0.788854      0.307115      1.535187
  H       0.282014     -1.356711      1.299363
  H       2.841562      0.156668     -1.832015
  H       1.094627      0.730861     -1.750527
  H      -0.914544     -0.458062     -0.858807
  H       2.576750     -1.019107      0.350677
17
Coordinates from ORCA-job freq E -421.372650212406
  C      -2.021944     -0.015192      0.928315
  C       0.507452     -0.426731      0.774295
  C       1.842561      0.018452     -1.429720
  C      -0.755334      0.050991      0.087224
  C       1.679304     -0.664216     -0.145395
  O      -1.931661      1.808680     -0.496162
  O       1.413592     -1.336978     -1.360936
  O      -0.641140      1.455721     -0.162202
  H      -2.461759      1.044762      0.306850
  H      -1.913751      0.244887      1.978441
  H      -2.704332     -0.836406      0.737834
  H       0.783287      0.306250      1.536489
  H       0.281093     -1.360151      1.296411
  H       2.837949      0.162076     -1.832048
  H       1.087018      0.723087     -1.754752
  H      -0.912948     -0.471675     -0.859290
  H       2.579916     -1.006238      0.355783
17
Coordinates from ORCA-job freq E -421.372797248623
  C      -2.021189     -0.019672      0.927174
  C       0.504800     -0.430551      0.774747
  C       1.835714      0.013688     -1.433015
  C      -0.754913      0.049115      0.084171
  C       1.681918     -0.656985     -0.141178
  O      -1.926662      1.831052     -0.481995
  O       1.427760     -1.346830     -1.349411
  O      -0.631667      1.453731     -0.168698
  H      -2.458358      1.061178      0.303359
  H      -1.909812      0.238588      1.977348
  H      -2.707023     -0.837723      0.736534
  H       0.774516      0.295520      1.545511
  H       0.278117     -1.370628      1.285071
  H       2.829413      0.168630     -1.835425
  H       1.070379      0.703995     -1.765573
  H      -0.910911     -0.475901     -0.861801
  H       2.587220     -0.979890      0.364319
17
Coordinates from ORCA-job freq E -421.372902828888
  C      -2.020601     -0.021933      0.925242
  C       0.502312     -0.435216      0.775275
  C       1.828643      0.008445     -1.436962
  C      -0.754010      0.049703      0.082918
  C       1.684641     -0.648492     -0.136964
  O      -1.919345      1.848307     -0.471546
  O       1.441205     -1.356594     -1.337073
  O      -0.623748      1.454791     -0.166826
  H      -2.456185      1.070453      0.297773
  H      -1.908648      0.240495      1.974354
  H      -2.705620     -0.841221      0.737817
  H       0.765738      0.280266      1.557842
  H       0.274826     -1.383597      1.269984
  H       2.820296      0.173528     -1.840427
  H       1.053771      0.683967     -1.777549
  H      -0.908570     -0.473333     -0.864779
  H       2.594597     -0.952250      0.372060
17
Coordinates from ORCA-job freq E -421.372989220924
  C      -2.020200     -0.022731      0.922043
  C       0.499445     -0.443006      0.776269
  C       1.818369      0.000982     -1.442613
  C      -0.751953      0.052983      0.083392
  C       1.688412     -0.636427     -0.131512
  O      -1.907164      1.866526     -0.462089
  O       1.459275     -1.369385     -1.320203
  O      -0.613819      1.459067     -0.155620
  H      -2.454980      1.075721      0.286832
  H      -1.910877      0.253527      1.967951
  H      -2.699485     -0.848478      0.743306
  H       0.754540      0.254028      1.577754
  H       0.270460     -1.404145      1.245380
  H       2.806733      0.179684     -1.848430
  H       1.030617      0.655885     -1.793788
  H      -0.904769     -0.463107     -0.868765
  H       2.604697     -0.913807      0.381231
17
Coordinates from ORCA-job freq E -421.373012501071
  C      -2.020454     -0.020900      0.921260
  C       0.498743     -0.447363      0.776683
  C       1.814956     -0.000572     -1.444406
  C      -0.750892      0.054973      0.085133
  C       1.689927     -0.632548     -0.130165
  O      -1.902142      1.867666     -0.463620
  O       1.464970     -1.372369     -1.315784
  O      -0.610952      1.461286     -0.146844
  H      -2.455823      1.072574      0.279697
  H      -1.914048      0.267801      1.964152
  H      -2.694847     -0.852201      0.750265
  H       0.751309      0.240723      1.586552
  H       0.268846     -1.413884      1.234119
  H       2.802090      0.182724     -1.851235
  H       1.023329      0.648199     -1.798272
  H      -0.903990     -0.456729     -0.869456
  H       2.608280     -0.902063      0.383059
17
Coordinates from ORCA-job freq E -421.373033054147
  C      -2.020517     -0.019439      0.921136
  C       0.498375     -0.451281      0.777049
  C       1.812609     -0.000887     -1.445327
  C      -0.749852      0.056526      0.086939
  C       1.690853     -0.630560     -0.129603
  O      -1.899027      1.866245     -0.467102
  O       1.468280     -1.373388     -1.313976
  O      -0.609101      1.462816     -0.138926
  H      -2.457085      1.069189      0.272128
  H      -1.917118      0.283053      1.960472
  H      -2.690233     -0.856128      0.758595
  H       0.749777      0.229759      1.593125
  H       0.267479     -1.421804      1.225389
  H       2.798953      0.185680     -1.852713
  H       1.018875      0.644828     -1.800119
  H      -0.903442     -0.451668     -0.869551
  H       2.610478     -0.895624      0.383623
17
Coordinates from ORCA-job freq E -421.373042988210
  C      -2.020335     -0.019950      0.921009
  C       0.498461     -0.452536      0.777368
  C       1.811796     -0.001084     -1.445532
  C      -0.749145      0.057886      0.087949
  C       1.690965     -0.630724     -0.129667
  O      -1.898537      1.865907     -0.469089
  O       1.468372     -1.373500     -1.314021
  O      -0.608895      1.464340     -0.134188
  H      -2.458793      1.067088      0.267630
  H      -1.919157      0.290684      1.958180
  H      -2.686687     -0.860149      0.763084
  H       0.750393      0.226150      1.595208
  H       0.266704     -1.424150      1.222855
  H       2.797912      0.186161     -1.853238
  H       1.017922      0.644638     -1.800004
  H      -0.902530     -0.448179     -0.869747
  H       2.610856     -0.895263      0.383339
17
Coordinates from ORCA-job freq E -421.373041848536
  C      -2.020200     -0.020925      0.920452
  C       0.499048     -0.452758      0.777906
  C       1.811445     -0.000812     -1.445174
  C      -0.748211      0.059740      0.089269
  C       1.690479     -0.632460     -0.130284
  O      -1.898563      1.864229     -0.471764
  O       1.465515     -1.372646     -1.315684
  O      -0.609734      1.466668     -0.128239
  H      -2.461182      1.062678      0.262599
  H      -1.922108      0.298212      1.955380
  H      -2.681738     -0.865758      0.767292
  H       0.752965      0.225603      1.595391
  H       0.266134     -1.423907      1.223695
  H       2.797551      0.185309     -1.853457
  H       1.018667      0.647268     -1.797981
  H      -0.900892     -0.443485     -0.870053
  H       2.610127     -0.899638      0.381787
17
Coordinates from ORCA-job freq E -421.373046706510
  C      -2.020253     -0.022074      0.919898
  C       0.499770     -0.451734      0.778288
  C       1.812150     -0.000146     -1.444457
  C      -0.747692      0.060949      0.090052
  C       1.689649     -0.634956     -0.131253
  O      -1.899860      1.862249     -0.473159
  O       1.461050     -1.371026     -1.318374
  O      -0.611443      1.468393     -0.124447
  H      -2.463178      1.058666      0.259225
  H      -1.924262      0.302089      1.953503
  H      -2.678044     -0.870359      0.769745
  H       0.756071      0.228674      1.593400
  H       0.266110     -1.421109      1.227478
  H       2.798586      0.183348     -1.853103
  H       1.021550      0.651831     -1.794966
  H      -0.899426     -0.440478     -0.870349
  H       2.608524     -0.906999      0.379657
17
Coordinates from ORCA-job freq E -421.373060975269
  C      -2.020337     -0.024378      0.919134
  C       0.500788     -0.449411      0.778771
  C       1.813513      0.000552     -1.443370
  C      -0.747255      0.062118      0.090469
  C       1.688380     -0.638598     -0.132556
  O      -1.902465      1.861243     -0.473240
  O       1.454623     -1.368831     -1.322094
  O      -0.613783      1.470180     -0.121662
  H      -2.465660      1.054854      0.256167
  H      -1.926374      0.303459      1.951782
  H      -2.674324     -0.875945      0.771128
  H       0.760210      0.235255      1.589360
  H       0.266598     -1.415672      1.234281
  H       2.800542      0.179956     -1.852384
  H       1.026151      0.658212     -1.790650
  H      -0.897326     -0.438055     -0.870812
  H       2.606021     -0.917622      0.376815
17
Coordinates from ORCA-job freq E -421.373062178070
  C      -2.020328     -0.025706      0.918664
  C       0.501426     -0.447602      0.779087
  C       1.814405      0.001320     -1.442358
  C      -0.747161      0.062205      0.090318
  C       1.687424     -0.641069     -0.133338
  O      -1.903938      1.860696     -0.473252
  O       1.450237     -1.367109     -1.324663
  O      -0.615030      1.470474     -0.121888
  H      -2.466571      1.053257      0.255793
  H      -1.926800      0.301867      1.951436
  H      -2.673209     -0.878104      0.770486
  H       0.762615      0.240816      1.585959
  H       0.267319     -1.411387      1.239801
  H       2.801817      0.178008     -1.851589
  H       1.029132      0.662756     -1.787264
  H      -0.896239     -0.438202     -0.870950
  H       2.604204     -0.924904      0.374896
17
Coordinates from ORCA-job freq E -421.373070301112
  C      -2.020412     -0.026616      0.918570
  C       0.501942     -0.445685      0.779112
  C       1.816029      0.002344     -1.441331
  C      -0.747450      0.061941      0.089952
  C       1.686559     -0.643379     -0.134220
  O      -1.905972      1.859334     -0.473572
  O       1.446010     -1.364981     -1.327464
  O      -0.616647      1.470248     -0.123290
  H      -2.467315      1.052063      0.256968
  H      -1.926607      0.299446      1.951811
  H      -2.673093     -0.879029      0.769599
  H       0.764631      0.246663      1.582139
  H       0.268148     -1.406923      1.245220
  H       2.803995      0.175927     -1.850482
  H       1.033231      0.667852     -1.784021
  H      -0.895979     -0.439395     -0.870865
  H       2.602233     -0.932494      0.373014
17
Coordinates from ORCA-job freq E -421.373061326327
  C      -2.020429     -0.027227      0.918402
  C       0.502150     -0.444710      0.779114
  C       1.816561      0.002277     -1.441144
  C      -0.747512      0.062032      0.089696
  C       1.686334     -0.644138     -0.134436
  O      -1.906987      1.859089     -0.473167
  O       1.444881     -1.364665     -1.328100
  O      -0.617267      1.470354     -0.123675
  H      -2.467461      1.052334      0.258346
  H      -1.926511      0.297268      1.952120
  H      -2.673471     -0.879131      0.768157
  H       0.765306      0.249208      1.580656
  H       0.268452     -1.404984      1.247250
  H       2.804707      0.174884     -1.850275
  H       1.034496      0.668878     -1.783378
  H      -0.895637     -0.439523     -0.871044
  H       2.601690     -0.934630      0.372616
17
Coordinates from ORCA-job freq E -421.373064309500
  C      -2.020350     -0.027231      0.918538
  C       0.502135     -0.444732      0.779113
  C       1.816619      0.002466     -1.441033
  C      -0.747571      0.061830      0.089592
  C       1.686311     -0.644148     -0.134428
  O      -1.907035      1.858834     -0.473682
  O       1.444801     -1.364436     -1.328210
  O      -0.617200      1.470023     -0.124356
  H      -2.467309      1.052844      0.258946
  H      -1.926210      0.296880      1.952357
  H      -2.673846     -0.878726      0.767998
  H       0.765238      0.249339      1.580544
  H       0.268529     -1.404970      1.247368
  H       2.804790      0.175039     -1.850125
  H       1.034638      0.669238     -1.783150
  H      -0.895850     -0.440116     -0.870923
  H       2.601613     -0.934817      0.372590
17
Coordinates from ORCA-job freq E -421.373065753442
  C      -2.020335     -0.027181      0.918662
  C       0.502096     -0.444682      0.779037
  C       1.816769      0.002474     -1.441051
  C      -0.747671      0.061737      0.089487
  C       1.686361     -0.644056     -0.134411
  O      -1.907188      1.858678     -0.473876
  O       1.444975     -1.364423     -1.328172
  O      -0.617245      1.469844     -0.124897
  H      -2.467202      1.053310      0.259775
  H      -1.925963      0.296240      1.952679
  H      -2.674289     -0.878226      0.767635
  H       0.765085      0.249427      1.580469
  H       0.268562     -1.404937      1.247288
  H       2.804985      0.175049     -1.850037
  H       1.034824      0.669211     -1.783295
  H      -0.896102     -0.440481     -0.870858
  H       2.601638     -0.934667      0.372701
17
Coordinates from ORCA-job freq E -421.373058435499
  C      -2.020325     -0.027157      0.918710
  C       0.502059     -0.444646      0.778989
  C       1.816819      0.002373     -1.441131
  C      -0.747720      0.061725      0.089407
  C       1.686430     -0.643887     -0.134353
  O      -1.907256      1.858666     -0.473935
  O       1.445257     -1.364551     -1.327975
  O      -0.617233      1.469778     -0.125199
  H      -2.467107      1.053752      0.260513
  H      -1.925800      0.295627      1.952913
  H      -2.674648     -0.877836      0.767198
  H       0.764933      0.249381      1.580536
  H       0.268557     -1.404989      1.247096
  H       2.805044      0.175030     -1.850068
  H       1.034811      0.668920     -1.783598
  H      -0.896243     -0.440641     -0.870852
  H       2.601726     -0.934229      0.372885
17
Coordinates from ORCA-job freq E -421.373054412998
  C      -2.020303     -0.027056      0.918716
  C       0.501997     -0.444729      0.778973
  C       1.816679      0.002250     -1.441232
  C      -0.747719      0.061676      0.089355
  C       1.686513     -0.643620     -0.134238
  O      -1.907080      1.858678     -0.473961
  O       1.445736     -1.364791     -1.327638
  O      -0.617039      1.469662     -0.125416
  H      -2.466856      1.054237      0.261129
  H      -1.925661      0.295097      1.953104
  H      -2.675035     -0.877319      0.766702
  H       0.764678      0.249078      1.580762
  H       0.268535     -1.405254      1.246727
  H       2.804861      0.175212     -1.850154
  H       1.034410      0.668346     -1.783989
  H      -0.896325     -0.440776     -0.870843
  H       2.601911     -0.933376      0.373140
17
Coordinates from ORCA-job freq E -421.373066743128
  C      -2.020311     -0.027047      0.918712
  C       0.501995     -0.444721      0.778983
  C       1.816658      0.002219     -1.441264
  C      -0.747721      0.061651      0.089339
  C       1.686552     -0.643539     -0.134204
  O      -1.907046      1.858582     -0.474114
  O       1.445856     -1.364841     -1.327537
  O      -0.616988      1.469592     -0.125526
  H      -2.466754      1.054542      0.261585
  H      -1.925633      0.294737      1.953215
  H      -2.675258     -0.877085      0.766376
  H       0.764622      0.249077      1.580791
  H       0.268560     -1.405267      1.246705
  H       2.804819      0.175236     -1.850216
  H       1.034330      0.668207     -1.784101
  H      -0.896354     -0.440863     -0.870818
  H       2.601973     -0.933164      0.373212
17
Coordinates from ORCA-job freq E -421.373065794474
  C      -2.020308     -0.027033      0.918729
  C       0.501987     -0.444695      0.778975
  C       1.816668      0.002190     -1.441292
  C      -0.747737      0.061623      0.089310
  C       1.686581     -0.643456     -0.134174
  O      -1.907063      1.858476     -0.474222
  O       1.445953     -1.364875     -1.327445
  O      -0.616968      1.469526     -0.125694
  H      -2.466645      1.054836      0.262024
  H      -1.925556      0.294349      1.953353
  H      -2.675491     -0.876830      0.766072
  H       0.764559      0.249093      1.580805
  H       0.268588     -1.405263      1.246661
  H       2.804825      0.175233     -1.850242
  H       1.034316      0.668101     -1.784218
  H      -0.896416     -0.440984     -0.870793
  H       2.602010     -0.932975      0.373289
17
Coordinates from ORCA-job freq E -421.373065815340
  C      -2.020299     -0.027014      0.918778
  C       0.501975     -0.444688      0.778964
  C       1.816706      0.002214     -1.441290
  C      -0.747769      0.061570      0.089273
  C       1.686596     -0.643421     -0.134168
  O      -1.907098      1.858376     -0.474401
  O       1.446006     -1.364852     -1.327439
  O      -0.616962      1.469424     -0.125939
  H      -2.466586      1.055092      0.262388
  H      -1.925468      0.294102      1.953478
  H      -2.675678     -0.876625      0.765927
  H       0.764513      0.249109      1.580808
  H       0.268614     -1.405279      1.246636
  H       2.804878      0.175268     -1.850212
  H       1.034364      0.668129     -1.784236
  H      -0.896511     -0.441171     -0.870748
  H       2.602021     -0.932917      0.373319
17
Coordinates from ORCA-job freq E -421.373065521818
  C      -2.020289     -0.026995      0.918856
  C       0.501963     -0.444642      0.778932
  C       1.816835      0.002295     -1.441257
  C      -0.747825      0.061504      0.089226
  C       1.686586     -0.643432     -0.134192
  O      -1.907218      1.858184     -0.474606
  O       1.445926     -1.364722     -1.327528
  O      -0.617024      1.469313     -0.126241
  H      -2.466559      1.055261      0.262755
  H      -1.925351      0.293883      1.953625
  H      -2.675842     -0.876448      0.765868
  H       0.764497      0.249237      1.580704
  H       0.268636     -1.405193      1.246708
  H       2.805048      0.175232     -1.850129
  H       1.034609      0.668357     -1.784185
  H      -0.896643     -0.441408     -0.870698
  H       2.601953     -0.933109      0.373301
17
Coordinates from ORCA-job freq E -421.373070897090
  C      -2.020275     -0.026993      0.918923
  C       0.501970     -0.444583      0.778924
  C       1.816937      0.002419     -1.441185
  C      -0.747857      0.061417      0.089188
  C       1.686548     -0.643501     -0.134231
  O      -1.907322      1.857972     -0.474841
  O       1.445753     -1.364540     -1.327688
  O      -0.617064      1.469175     -0.126584
  H      -2.466517      1.055395      0.263048
  H      -1.925256      0.293687      1.953747
  H      -2.675987     -0.876297      0.765815
  H       0.764531      0.249446      1.580554
  H       0.268680     -1.405049      1.246889
  H       2.805185      0.175220     -1.850029
  H       1.034845      0.668691     -1.784005
  H      -0.896714     -0.441691     -0.870614
  H       2.601844     -0.933451      0.373228
17
Coordinates from ORCA-job freq E -421.373061320367
  C      -2.020269     -0.027002      0.918933
  C       0.501977     -0.444530      0.778921
  C       1.816966      0.002390     -1.441200
  C      -0.747866      0.061419      0.089162
  C       1.686562     -0.643475     -0.134223
  O      -1.907393      1.857935     -0.474890
  O       1.445776     -1.364559     -1.327658
  O      -0.617097      1.469160     -0.126717
  H      -2.466486      1.055569      0.263346
  H      -1.925218      0.293405      1.953839
  H      -2.676110     -0.876166      0.765610
  H       0.764522      0.249514      1.580542
  H       0.268707     -1.405000      1.246899
  H       2.805221      0.175174     -1.850034
  H       1.034889      0.668656     -1.784050
  H      -0.896725     -0.441763     -0.870601
  H       2.601846     -0.933409      0.373261
17
Coordinates from ORCA-job freq E -421.373059265856
  C      -2.020277     -0.027025      0.918867
  C       0.501969     -0.444511      0.778933
  C       1.816860      0.002196     -1.441315
  C      -0.747839      0.061492      0.089153
  C       1.686630     -0.643319     -0.134145
  O      -1.907327      1.858106     -0.474717
  O       1.446060     -1.364814     -1.327375
  O      -0.617024      1.469237     -0.126627
  H      -2.466408      1.055821      0.263642
  H      -1.925248      0.292998      1.953895
  H      -2.676238     -0.876030      0.765200
  H       0.764426      0.249395      1.580701
  H       0.268690     -1.405075      1.246710
  H       2.805075      0.175143     -1.850177
  H       1.034608      0.668152     -1.784373
  H      -0.896655     -0.441611     -0.870660
  H       2.602000     -0.932838      0.373427
17
Coordinates from ORCA-job freq E -421.373062995610
  C      -2.020272     -0.026976      0.918862
  C       0.501944     -0.444586      0.778934
  C       1.816770      0.002152     -1.441357
  C      -0.747830      0.061490      0.089159
  C       1.686672     -0.643204     -0.134097
  O      -1.907202      1.858085     -0.474802
  O       1.446270     -1.364918     -1.327230
  O      -0.616932      1.469220     -0.126605
  H      -2.466313      1.055988      0.263795
  H      -1.925230      0.292941      1.953921
  H      -2.676324     -0.875891      0.765092
  H       0.764323      0.249173      1.580848
  H       0.268665     -1.405250      1.246506
  H       2.804953      0.175259     -1.850228
  H       1.034388      0.667898     -1.784531
  H      -0.896676     -0.441600     -0.870657
  H       2.602096     -0.932465      0.373527
17
Coordinates from ORCA-job freq E -421.373062993955
  C      -2.020262     -0.026896      0.918873
  C       0.501927     -0.444698      0.778955
  C       1.816653      0.002183     -1.441358
  C      -0.747813      0.061416      0.089162
  C       1.686700     -0.643117     -0.134056
  O      -1.907031      1.858030     -0.474962
  O       1.446428     -1.364949     -1.327147
  O      -0.616785      1.469104     -0.126709
  H      -2.466181      1.056165      0.263884
  H      -1.925198      0.292952      1.953950
  H      -2.676450     -0.875692      0.765039
  H       0.764236      0.248948      1.580995
  H       0.268666     -1.405450      1.246355
  H       2.804801      0.175467     -1.850248
  H       1.034143      0.667760     -1.784556
  H      -0.896711     -0.441736     -0.870616
  H       2.602179     -0.932169      0.373576
17
Coordinates from ORCA-job freq E -421.373067535826
  C      -2.020272     -0.026947      0.918814
  C       0.501941     -0.444635      0.778975
  C       1.816611      0.002076     -1.441408
  C      -0.747793      0.061461      0.089151
  C       1.686724     -0.643076     -0.134026
  O      -1.907032      1.858120     -0.474853
  O       1.446489     -1.365067     -1.327026
  O      -0.616771      1.469157     -0.126665
  H      -2.466141      1.056309      0.264097
  H      -1.925235      0.292618      1.953982
  H      -2.676528     -0.875645      0.764724
  H       0.764231      0.249036      1.581002
  H       0.268687     -1.405384      1.246394
  H       2.804736      0.175386     -1.850334
  H       1.034049      0.667561     -1.784663
  H      -0.896629     -0.441664     -0.870651
  H       2.602236     -0.931988      0.373625
17
Coordinates from ORCA-job freq E -421.373065037862
  C      -2.020289     -0.026962      0.918797
  C       0.501953     -0.444601      0.778990
  C       1.816610      0.002054     -1.441428
  C      -0.747794      0.061459      0.089153
  C       1.686734     -0.643051     -0.134019
  O      -1.907030      1.858098     -0.474851
  O       1.446494     -1.365087     -1.326989
  O      -0.616762      1.469147     -0.126684
  H      -2.466103      1.056405      0.264265
  H      -1.925263      0.292407      1.954028
  H      -2.676625     -0.875562      0.764533
  H       0.764242      0.249112      1.580980
  H       0.268727     -1.405335      1.246458
  H       2.804730      0.175343     -1.850370
  H       1.034049      0.667519     -1.784721
  H      -0.896623     -0.441681     -0.870641
  H       2.602252     -0.931947      0.373636
17
Coordinates from ORCA-job freq E -421.373066401204
  C      -2.020293     -0.027005      0.918787
  C       0.501960     -0.444525      0.778987
  C       1.816652      0.002017     -1.441445
  C      -0.747801      0.061470      0.089134
  C       1.686735     -0.643045     -0.134019
  O      -1.907099      1.858113     -0.474797
  O       1.446465     -1.365100     -1.326968
  O      -0.616798      1.469157     -0.126729
  H      -2.466102      1.056491      0.264464
  H      -1.925260      0.292140      1.954086
  H      -2.676697     -0.875516      0.764345
  H       0.764257      0.249261      1.580911
  H       0.268744     -1.405216      1.246543
  H       2.804785      0.175239     -1.850392
  H       1.034129      0.667510     -1.784770
  H      -0.896613     -0.441697     -0.870649
  H       2.602237     -0.931976      0.373648
17
Coordinates from ORCA-job freq E -421.373065106813
  C      -2.020293     -0.027041      0.918802
  C       0.501962     -0.444447      0.778963
  C       1.816741      0.002012     -1.441441
  C      -0.747830      0.061477      0.089106
  C       1.686724     -0.643070     -0.134038
  O      -1.907215      1.858077     -0.474782
  O       1.446393     -1.365066     -1.327008
  O      -0.616869      1.469154     -0.126817
  H      -2.466127      1.056539      0.264649
  H      -1.925228      0.291954      1.954144
  H      -2.676745     -0.875498      0.764258
  H       0.764285      0.249428      1.580802
  H       0.268760     -1.405083      1.246636
  H       2.804905      0.175129     -1.850364
  H       1.034307      0.667606     -1.784765
  H      -0.896651     -0.441740     -0.870647
  H       2.602183     -0.932114      0.373639
17
Coordinates from ORCA-job freq E -421.373064962246
  C      -2.020269     -0.027004      0.918825
  C       0.501976     -0.444487      0.778990
  C       1.816707      0.002123     -1.441372
  C      -0.747812      0.061411      0.089110
  C       1.686695     -0.643111     -0.134048
  O      -1.907164      1.857923     -0.475025
  O       1.446276     -1.364941     -1.327101
  O      -0.616823      1.469054     -0.126966
  H      -2.466076      1.056557      0.264645
  H      -1.925202      0.292060      1.954149
  H      -2.676761     -0.875440      0.764334
  H       0.764315      0.249416      1.580802
  H       0.268787     -1.405111      1.246689
  H       2.804866      0.175229     -1.850307
  H       1.034299      0.667815     -1.784573
  H      -0.896659     -0.441899     -0.870585
  H       2.602144     -0.932281      0.373569
17
Coordinates from ORCA-job freq E -421.373066671197
  C      -2.020248     -0.026878      0.918927
  C       0.501957     -0.444628      0.778986
  C       1.816710      0.002291     -1.441303
  C      -0.747832      0.061301      0.089126
  C       1.686695     -0.643107     -0.134060
  O      -1.907101      1.857702     -0.475387
  O       1.446270     -1.364784     -1.327208
  O      -0.616772      1.468889     -0.127196
  H      -2.466031      1.056591      0.264573
  H      -1.925122      0.292414      1.954175
  H      -2.676796     -0.875306      0.764646
  H       0.764258      0.249161      1.580905
  H       0.268791     -1.405328      1.246532
  H       2.804875      0.175453     -1.850212
  H       1.034309      0.668046     -1.784408
  H      -0.896801     -0.442152     -0.870481
  H       2.602140     -0.932348      0.373523
17
Coordinates from ORCA-job freq E -421.373068212932
  C      -2.020264     -0.026797      0.919011
  C       0.501924     -0.444710      0.778944
  C       1.816761      0.002337     -1.441310
  C      -0.747885      0.061246      0.089124
  C       1.686731     -0.643068     -0.134069
  O      -1.907094      1.857641     -0.475510
  O       1.446434     -1.364768     -1.327233
  O      -0.616766      1.468809     -0.127326
  H      -2.466020      1.056675      0.264634
  H      -1.925068      0.292533      1.954241
  H      -2.676885     -0.875181      0.764804
  H       0.764169      0.248974      1.580970
  H       0.268763     -1.405479      1.246358
  H       2.804932      0.175579     -1.850158
  H       1.034331      0.668026     -1.784464
  H      -0.896941     -0.442269     -0.870436
  H       2.602180     -0.932232      0.373558
17
Coordinates from ORCA-job freq E -421.373061369107
  C      -2.020262     -0.026807      0.918954
  C       0.501889     -0.444726      0.778935
  C       1.816655      0.002153     -1.441425
  C      -0.747863      0.061313      0.089110
  C       1.686781     -0.642900     -0.133991
  O      -1.907003      1.857867     -0.475257
  O       1.446752     -1.365029     -1.326952
  O      -0.616677      1.468890     -0.127205
  H      -2.465946      1.056842      0.264799
  H      -1.925070      0.292263      1.954266
  H      -2.676956     -0.875090      0.764524
  H       0.764032      0.248799      1.581124
  H       0.268711     -1.405612      1.246112
  H       2.804793      0.175582     -1.850276
  H       1.034045      0.667500     -1.784822
  H      -0.896886     -0.442109     -0.870505
  H       2.602305     -0.931616      0.373748
17
Coordinates from ORCA-job freq E -421.373068471785
  C      -2.020284     -0.026937      0.918835
  C       0.501920     -0.444568      0.778956
  C       1.816635      0.001958     -1.441508
  C      -0.747828      0.061446      0.089103
  C       1.686800     -0.642884     -0.133963
  O      -1.907067      1.858039     -0.474947
  O       1.446770     -1.365214     -1.326796
  O      -0.616729      1.469070     -0.126960
  H      -2.465962      1.056888      0.265000
  H      -1.925173      0.291795      1.954256
  H      -2.676959     -0.875179      0.764082
  H       0.764093      0.249045      1.581061
  H       0.268714     -1.405382      1.246258
  H       2.804755      0.175335     -1.850426
  H       1.033994      0.667213     -1.785012
  H      -0.896724     -0.441822     -0.870612
  H       2.602348     -0.931487      0.373812
17
Coordinates from ORCA-job freq E -421.373062194085
  C      -2.020278     -0.026971      0.918834
  C       0.501933     -0.444505      0.778951
  C       1.816679      0.001975     -1.441484
  C      -0.747837      0.061435      0.089079
  C       1.686779     -0.642920     -0.133977
  O      -1.907130      1.858006     -0.474952
  O       1.446655     -1.365162     -1.326836
  O      -0.616770      1.469058     -0.127022
  H      -2.465968      1.056910      0.265085
  H      -1.925145      0.291655      1.954288
  H      -2.676982     -0.875176      0.764009
  H       0.764142      0.249216      1.580958
  H       0.268745     -1.405260      1.246387
  H       2.804815      0.175264     -1.850396
  H       1.034104      0.667340     -1.784953
  H      -0.896730     -0.441883     -0.870613
  H       2.602290     -0.931665      0.373779
17
Coordinates from ORCA-job freq E -421.373065642510
  C      -2.020280     -0.027025      0.918861
  C       0.501963     -0.444390      0.778940
  C       1.816824      0.002044     -1.441427
  C      -0.747867      0.061433      0.089058
  C       1.686738     -0.643046     -0.134034
  O      -1.907321      1.857895     -0.475020
  O       1.446391     -1.365007     -1.327016
  O      -0.616910      1.469055     -0.127149
  H      -2.466045      1.056854      0.265181
  H      -1.925121      0.291547      1.954330
  H      -2.676969     -0.875239      0.764016
  H       0.764258      0.249523      1.580747
  H       0.268788     -1.405013      1.246652
  H       2.805005      0.175106     -1.850330
  H       1.034439      0.667693     -1.784764
  H      -0.896757     -0.441964     -0.870585
  H       2.602167     -0.932147      0.373676
17
Coordinates from ORCA-job freq E -421.373064472174
  C      -2.020258     -0.027029      0.918906
  C       0.501982     -0.444358      0.778947
  C       1.816890      0.002155     -1.441355
  C      -0.747874      0.061401      0.089057
  C       1.686696     -0.643132     -0.134076
  O      -1.907401      1.857726     -0.475217
  O       1.446159     -1.364834     -1.327175
  O      -0.616964      1.468995     -0.127286
  H      -2.466077      1.056783      0.265152
  H      -1.925094      0.291674      1.954332
  H      -2.676914     -0.875285      0.764168
  H       0.764326      0.249626      1.580681
  H       0.268809     -1.404923      1.246763
  H       2.805098      0.175072     -1.850251
  H       1.034641      0.668051     -1.784533
  H      -0.896785     -0.442085     -0.870538
  H       2.602067     -0.932521      0.373565
17
Coordinates from ORCA-job freq E -421.373069311202
  C      -2.020249     -0.026926      0.918991
  C       0.501950     -0.444471      0.778929
  C       1.816917      0.002253     -1.441330
  C      -0.747905      0.061335      0.089064
  C       1.686713     -0.643095     -0.134078
  O      -1.907368      1.857608     -0.475431
  O       1.446239     -1.364754     -1.327222
  O      -0.616945      1.468899     -0.127424
  H      -2.466067      1.056807      0.265104
  H      -1.925023      0.291942      1.954366
  H      -2.676943     -0.875193      0.764421
  H       0.764254      0.249389      1.580789
  H       0.268785     -1.405124      1.246569
  H       2.805133      0.175230     -1.850193
  H       1.034651      0.668131     -1.784517
  H      -0.896920     -0.442228     -0.870474
  H       2.602081     -0.932485      0.373574
17
Coordinates from ORCA-job freq E -421.373061080671
  C      -2.020241     -0.026755      0.919006
  C       0.501879     -0.444770      0.778925
  C       1.816648      0.002184     -1.441415
  C      -0.747873      0.061282      0.089090
  C       1.686811     -0.642847     -0.133971
  O      -1.906990      1.857739     -0.475473
  O       1.446832     -1.365014     -1.326922
  O      -0.616647      1.468817     -0.127377
  H      -2.465880      1.057017      0.265011
  H      -1.925012      0.292222      1.954347
  H      -2.677056     -0.874931      0.764499
  H       0.763976      0.248654      1.581220
  H       0.268706     -1.405718      1.245966
  H       2.804780      0.175672     -1.850262
  H       1.034007      0.667491     -1.784829
  H      -0.896985     -0.442228     -0.870468
  H       2.602347     -0.931499      0.373792
17
Coordinates from ORCA-job freq E -421.373070758309
  C      -2.020278     -0.026913      0.918890
  C       0.501914     -0.444545      0.778935
  C       1.816708      0.001988     -1.441501
  C      -0.747863      0.061414      0.089075
  C       1.686808     -0.642863     -0.133967
  O      -1.907145      1.857924     -0.475084
  O       1.446773     -1.365166     -1.326817
  O      -0.616769      1.469006     -0.127156
  H      -2.465935      1.057035      0.265258
  H      -1.925100      0.291643      1.954359
  H      -2.677080     -0.875038      0.764023
  H       0.764068      0.249064      1.581051
  H       0.268740     -1.405372      1.246228
  H       2.804850      0.175324     -1.850384
  H       1.034115      0.667296     -1.785022
  H      -0.896828     -0.441959     -0.870573
  H       2.602324     -0.931519      0.373824
17
Coordinates from ORCA-job freq E -421.373064334003
  C      -2.020276     -0.026957      0.918875
  C       0.501918     -0.444491      0.778928
  C       1.816736      0.001962     -1.441503
  C      -0.747869      0.061432      0.089054
  C       1.686799     -0.642881     -0.133971
  O      -1.907197      1.857956     -0.475022
  O       1.446734     -1.365174     -1.326817
  O      -0.616804      1.469032     -0.127155
  H      -2.465947      1.057058      0.265333
  H      -1.925081      0.291487      1.954381
  H      -2.677094     -0.875052      0.763930
  H       0.764089      0.249193      1.580973
  H       0.268751     -1.405274      1.246316
  H       2.804887      0.175251     -1.850383
  H       1.034170      0.667298     -1.785033
  H      -0.896815     -0.441940     -0.870598
  H       2.602301     -0.931582      0.373828
