17
Coordinates from ORCA-job freq E -421.391476264897
  C       2.733121      0.347015     -1.223924
  C       2.494363     -0.217656     -0.035198
  C       0.646069     -0.658651      0.517428
  C      -0.461540     -0.387232     -0.426276
  C      -1.059015     -1.693154     -0.978315
  O      -2.632351     -2.492119     -2.462481
  O       1.745160     -1.380446      0.116291
  O      -2.017320     -1.313705     -1.936571
  H       2.346191     -0.076417     -2.133081
  H       3.329994      1.236373     -1.296750
  H       2.917373      0.172770      0.885187
  H       0.574104     -0.414072      1.567135
  H      -0.104858      0.185375     -1.290579
  H      -1.241289      0.190379      0.068694
  H      -0.273743     -2.302699     -1.440686
  H      -1.534168     -2.273038     -0.177885
  H      -3.279180     -2.122819     -3.077255
17
Coordinates from ORCA-job freq E -421.389853114324
  C       2.707882      0.344082     -1.223173
  C       2.463758     -0.225883     -0.033854
  C       0.665721     -0.627650      0.500875
  C      -0.447749     -0.369880     -0.441864
  C      -1.049257     -1.675819     -0.975618
  O      -2.615281     -2.499273     -2.421685
  O       1.732855     -1.406460      0.104019
  O      -2.010014     -1.300642     -1.933846
  H       2.321112     -0.075786     -2.136261
  H       3.299477      1.240204     -1.282496
  H       2.908584      0.139488      0.885502
  H       0.555413     -0.471572      1.565174
  H      -0.091185      0.199093     -1.307629
  H      -1.221279      0.215967      0.053225
  H      -0.271497     -2.292362     -1.437688
  H      -1.526250     -2.247752     -0.172106
  H      -3.239379     -2.145850     -3.066840
17
Coordinates from ORCA-job freq E -421.389104932596
  C       2.689814      0.361281     -1.209103
  C       2.428985     -0.226024     -0.023364
  C       0.695276     -0.615053      0.470370
  C      -0.420906     -0.361815     -0.474961
  C      -1.049582     -1.663840     -0.971235
  O      -2.630722     -2.505030     -2.360020
  O       1.735092     -1.438575      0.077547
  O      -2.014501     -1.290834     -1.927105
  H       2.318318     -0.053588     -2.132629
  H       3.270362      1.267808     -1.243909
  H       2.884169      0.110122      0.900951
  H       0.546271     -0.535896      1.540347
  H      -0.057643      0.189900     -1.347729
  H      -1.178139      0.249439      0.014913
  H      -0.292364     -2.305354     -1.430010
  H      -1.531139     -2.209794     -0.153821
  H      -3.210378     -2.172843     -3.054508
17
Coordinates from ORCA-job freq E -421.389397227881
  C       2.707676      0.397176     -1.195537
  C       2.435622     -0.216324     -0.022331
  C       0.698178     -0.636884      0.453317
  C      -0.414742     -0.375526     -0.495241
  C      -1.074091     -1.669269     -0.964343
  O      -2.698565     -2.498951     -2.294351
  O       1.750156     -1.433549      0.038590
  O      -2.019108     -1.293261     -1.939830
  H       2.339448      0.004062     -2.130791
  H       3.291286      1.303560     -1.203425
  H       2.891752      0.092132      0.911019
  H       0.560136     -0.563631      1.525681
  H      -0.038308      0.157377     -1.373651
  H      -1.157369      0.261278     -0.015410
  H      -0.334589     -2.345899     -1.399651
  H      -1.581367     -2.177260     -0.139080
  H      -3.173204     -2.205126     -3.079230
17
Coordinates from ORCA-job freq E -421.389534135848
  C       2.726436      0.413969     -1.183450
  C       2.440516     -0.213133     -0.020206
  C       0.696339     -0.643666      0.439293
  C      -0.412467     -0.375950     -0.511636
  C      -1.085523     -1.668526     -0.964790
  O      -2.738467     -2.500098     -2.258035
  O       1.753366     -1.429523      0.016853
  O      -2.051115     -1.293662     -1.920841
  H       2.364236      0.032832     -2.126202
  H       3.315696      1.317008     -1.175542
  H       2.887946      0.082288      0.921720
  H       0.555955     -0.581702      1.512152
  H      -0.030659      0.144454     -1.394876
  H      -1.148412      0.272411     -0.036757
  H      -0.357277     -2.350647     -1.410035
  H      -1.578083     -2.170640     -0.127120
  H      -3.155576     -2.235511     -3.084795
17
Coordinates from ORCA-job freq E -421.389655957559
  C       2.731544      0.430947     -1.173791
  C       2.442456     -0.213019     -0.020505
  C       0.699151     -0.650878      0.428420
  C      -0.404288     -0.376036     -0.526415
  C      -1.092336     -1.665740     -0.964436
  O      -2.783343     -2.487404     -2.215925
  O       1.757935     -1.431625     -0.001019
  O      -2.058170     -1.292522     -1.921844
  H       2.371021      0.062671     -2.122382
  H       3.320336      1.334279     -1.151594
  H       2.887045      0.069583      0.926838
  H       0.548744     -0.613316      1.501247
  H      -0.012887      0.131103     -1.412810
  H      -1.133504      0.285937     -0.059806
  H      -0.373750     -2.362091     -1.403136
  H      -1.587854     -2.151141     -0.118920
  H      -3.129190     -2.270844     -3.088188
17
Coordinates from ORCA-job freq E -421.389806469968
  C       2.735057      0.438601     -1.172122
  C       2.444053     -0.212169     -0.023042
  C       0.701303     -0.653956      0.422921
  C      -0.403474     -0.376618     -0.529701
  C      -1.101798     -1.664019     -0.957257
  O      -2.807759     -2.475181     -2.202144
  O       1.760329     -1.431240     -0.013230
  O      -2.071063     -1.288535     -1.911696
  H       2.375813      0.075980     -2.123466
  H       3.323959      1.341765     -1.143443
  H       2.888849      0.063056      0.926311
  H       0.548713     -0.630504      1.495984
  H      -0.010991      0.122551     -1.419947
  H      -1.126732      0.293140     -0.064817
  H      -0.389774     -2.366685     -1.396411
  H      -1.595473     -2.142434     -0.106953
  H      -3.088100     -2.293847     -3.105253
17
Coordinates from ORCA-job freq E -421.389933730488
  C       2.737977      0.445956     -1.170627
  C       2.445554     -0.212115     -0.026013
  C       0.703417     -0.657489      0.417442
  C      -0.402940     -0.377056     -0.532461
  C      -1.111604     -1.661891     -0.950329
  O      -2.832028     -2.461413     -2.190622
  O       1.762358     -1.431454     -0.025694
  O      -2.083386     -1.283670     -1.902529
  H       2.379543      0.089409     -2.124637
  H       3.326971      1.348884     -1.135418
  H       2.890669      0.055654      0.925278
  H       0.549705     -0.646474      1.490721
  H      -0.009721      0.114644     -1.426378
  H      -1.120115      0.300134     -0.068785
  H      -0.405856     -2.370895     -1.389364
  H      -1.604135     -2.133281     -0.095696
  H      -3.043496     -2.319040     -3.119153
17
Coordinates from ORCA-job freq E -421.390129668118
  C       2.741864      0.454389     -1.168605
  C       2.447420     -0.213451     -0.030188
  C       0.705242     -0.662134      0.410011
  C      -0.403065     -0.376412     -0.536036
  C      -1.124727     -1.657457     -0.942655
  O      -2.866947     -2.438779     -2.176907
  O       1.763531     -1.432255     -0.042293
  O      -2.103321     -1.274296     -1.888147
  H       2.383954      0.106626     -2.126126
  H       3.331739      1.356427     -1.124668
  H       2.893060      0.044026      0.923714
  H       0.550568     -0.666577      1.483399
  H      -0.009455      0.106920     -1.434131
  H      -1.112730      0.309221     -0.073053
  H      -0.427509     -2.372603     -1.385408
  H      -1.612440     -2.122803     -0.082427
  H      -2.974270     -2.360936     -3.130745
17
Coordinates from ORCA-job freq E -421.390357081391
  C       2.741488      0.461236     -1.169806
  C       2.448241     -0.218514     -0.038159
  C       0.706843     -0.669593      0.403121
  C      -0.405057     -0.373508     -0.535481
  C      -1.142815     -1.647898     -0.933571
  O      -2.911198     -2.397344     -2.171062
  O       1.762274     -1.435877     -0.063274
  O      -2.126920     -1.254665     -1.872928
  H       2.380512      0.124495     -2.130167
  H       3.333096      1.361716     -1.117356
  H       2.897519      0.026207      0.917341
  H       0.554185     -0.692169      1.476662
  H      -0.012128      0.103747     -1.436951
  H      -1.105094      0.319955     -0.069401
  H      -0.454594     -2.369029     -1.381185
  H      -1.627465     -2.108462     -0.069721
  H      -2.855977     -2.430391     -3.132329
17
Coordinates from ORCA-job freq E -421.390592174656
  C       2.737613      0.465752     -1.172423
  C       2.446986     -0.229891     -0.049776
  C       0.706110     -0.680202      0.395129
  C      -0.409969     -0.365989     -0.532536
  C      -1.166598     -1.629513     -0.929401
  O      -2.952862     -2.341600     -2.180266
  O       1.755227     -1.443673     -0.090428
  O      -2.155153     -1.220051     -1.860150
  H       2.370237      0.145629     -2.136065
  H       3.333647      1.362655     -1.109288
  H       2.902950     -0.002638      0.906878
  H       0.557837     -0.723797      1.468723
  H      -0.018560      0.109467     -1.435327
  H      -1.098063      0.334014     -0.058413
  H      -0.487663     -2.353836     -1.387350
  H      -1.649102     -2.091567     -0.065756
  H      -2.689725     -2.534857     -3.087816
17
Coordinates from ORCA-job freq E -421.390717162881
  C       2.740065      0.471577     -1.169391
  C       2.446553     -0.231704     -0.052322
  C       0.705134     -0.686479      0.387277
  C      -0.409696     -0.364273     -0.538998
  C      -1.180165     -1.622040     -0.927828
  O      -2.945043     -2.353143     -2.171440
  O       1.754971     -1.445162     -0.103763
  O      -2.170671     -1.209703     -1.849470
  H       2.375372      0.157817     -2.136122
  H       3.336324      1.367775     -1.098588
  H       2.900324     -0.011470      0.906977
  H       0.553420     -0.743335      1.459821
  H      -0.014989      0.101604     -1.445110
  H      -1.088997      0.345094     -0.065943
  H      -0.511163     -2.352058     -1.391582
  H      -1.658165     -2.080056     -0.058650
  H      -2.650363     -2.544538     -3.069133
17
Coordinates from ORCA-job freq E -421.390706263970
  C       2.747425      0.492785     -1.156307
  C       2.451737     -0.228092     -0.051225
  C       0.710414     -0.699815      0.373466
  C      -0.401024     -0.370550     -0.554068
  C      -1.189907     -1.621126     -0.929288
  O      -2.975463     -2.333108     -2.158224
  O       1.767441     -1.444669     -0.123354
  O      -2.165688     -1.206681     -1.866051
  H       2.390424      0.191024     -2.129671
  H       3.337221      1.391799     -1.068854
  H       2.898263     -0.018446      0.913829
  H       0.552696     -0.774706      1.444093
  H       0.000179      0.080046     -1.464778
  H      -1.070504      0.352707     -0.087983
  H      -0.529642     -2.370069     -1.375707
  H      -1.683129     -2.056344     -0.057085
  H      -2.657530     -2.584850     -3.033058
17
Coordinates from ORCA-job freq E -421.390721753818
  C       2.741549      0.476257     -1.166639
  C       2.447691     -0.231418     -0.052472
  C       0.706223     -0.689618      0.384128
  C      -0.408020     -0.365163     -0.542026
  C      -1.182703     -1.621173     -0.928180
  O      -2.952269     -2.348021     -2.168785
  O       1.757303     -1.445339     -0.108846
  O      -2.169412     -1.208373     -1.853902
  H       2.378104      0.165802     -2.134898
  H       3.336592      1.372940     -1.091858
  H       2.900222     -0.014134      0.908088
  H       0.553443     -0.750938      1.456286
  H      -0.011980      0.097697     -1.449046
  H      -1.084985      0.347160     -0.070048
  H      -0.515371     -2.355555     -1.387607
  H      -1.664662     -2.074066     -0.058559
  H      -2.648813     -2.556151     -3.059902
17
Coordinates from ORCA-job freq E -421.390717501763
  C       2.741626      0.476257     -1.166562
  C       2.447654     -0.231424     -0.052412
  C       0.706215     -0.689524      0.384086
  C      -0.408029     -0.365087     -0.542074
  C      -1.182531     -1.621179     -0.928351
  O      -2.952364     -2.348134     -2.168445
  O       1.757242     -1.445334     -0.108869
  O      -2.169199     -1.208510     -1.854167
  H       2.378223      0.165816     -2.134843
  H       3.336716      1.372906     -1.091726
  H       2.900170     -0.014204      0.908165
  H       0.553406     -0.750843      1.456241
  H      -0.012008      0.097925     -1.449025
  H      -1.085088      0.347102     -0.070034
  H      -0.515035     -2.355474     -1.387686
  H      -1.664532     -2.074130     -0.058782
  H      -2.649556     -2.556257     -3.059781
