17
Coordinates from ORCA-job freq E -421.390717501763
  C           2.74162592914557      0.47625653745378     -1.16656204875004
  C           2.44765425494593     -0.23142440020619     -0.05241218619631
  C           0.70621510696239     -0.68952427990506      0.38408624511562
  C          -0.40802929190498     -0.36508742931654     -0.54207417584849
  C          -1.18253106095424     -1.62117876774498     -0.92835084152872
  O          -2.95236369000446     -2.34813446215035     -2.16844461252615
  O           1.75724157854528     -1.44533405203359     -0.10886935316443
  O          -2.16919929316416     -1.20851032730163     -1.85416722645084
  H           2.37822340990052      0.16581623799397     -2.13484292443847
  H           3.33671634082749      1.37290615597887     -1.09172632927803
  H           2.90017030189813     -0.01420378028752      0.90816480715169
  H           0.55340639902022     -0.75084289281201      1.45624092245778
  H          -0.01200793738333      0.09792520760118     -1.44902485623861
  H          -1.08508755462994      0.34710173630858     -0.07003419781731
  H          -0.51503528973354     -2.35547375996811     -1.38768626928530
  H          -1.66453162834755     -2.07413001839616     -0.05878156389900
  H          -2.64955557512336     -2.55625670521416     -3.05978138930336
