15
Coordinates from ORCA-job freq E -271.055989027857
  C           2.76508229026560      0.02607022857279      0.34830852607360
  C          -2.25272722996447     -0.41520141173396     -0.07331178738124
  C          -1.09861922011085      0.55247673311934      0.17068369194604
  C           1.40743648481978      0.19553652897005      0.82471940855969
  C           0.22785986303813     -0.12801474334829     -0.01406823151322
  O           0.63281859560971     -1.00055091626216      1.01684138636038
  H           2.99891111992912     -0.79531014526163     -0.31155382123302
  H           3.54423800032710      0.71092420179061      0.64025846025167
  H          -2.22933192696211     -0.79964057704954     -1.09382125521258
  H          -3.21491815130434      0.07131834642831      0.08058496340878
  H          -2.18469821654140     -1.26279655335267      0.60815676553015
  H          -1.14692293526674      0.94644841366961      1.18747854110151
  H          -1.16050306002980      1.40097430380158     -0.51422856789671
  H           1.24880200307453      0.94060121644787      1.59764098274584
  H           0.43061738311570     -0.50923462579193     -1.01343706274090
