17
Coordinates from ORCA-job freq E -421.393732077980
  C          -1.94315253458110      2.48418258751100     -1.84242316917080
  C           2.06741758172191     -0.54014436004179     -0.55534278012855
  C          -1.26193119118041      1.36969423363484     -1.06078539141910
  C           0.21451942162673      1.22719050312304     -1.43703425944313
  C           0.89246705156787      0.20938670341338     -0.60371186790085
  O           1.02891509887192      0.18041795633765      0.71130200809425
  O           4.30242351512729     -0.89614416262739     -0.65948033347672
  O           3.21895232429095     -0.01988766538082     -0.97013990452796
  H          -1.46431346207045      3.44497886206133     -1.64775455154811
  H          -2.99443667935206      2.57363985460483     -1.57143866389071
  H          -1.88862077153699      2.29805336247563     -2.91632159200052
  H           2.12765675441733     -1.55046881492308     -0.17328322413548
  H          -1.33130229385247      1.56310934437087      0.01111909878328
  H          -1.76623535770001      0.41825292189633     -1.24004113346528
  H           0.70695105695266      2.20090047260691     -1.31171104339661
  H           0.31534109295857      0.95092746379913     -2.48820104881058
  H           4.77355239273825     -0.37774226286189      0.00541385643693
