15
Coordinates from ORCA-job freq E -271.031246242480
  C       2.389347     -0.682117      1.014353
  C      -2.394285     -0.408147     -0.027666
  C      -0.043167      0.410829     -0.181182
  C       1.168794     -0.103869     -0.451681
  C      -1.058047     -0.241219      0.695970
  O       1.623507     -1.313468      0.067116
  H       1.932015     -0.380771      1.940085
  H       3.431429     -0.506746      0.810786
  H      -2.270050     -1.035682     -0.906773
  H      -3.124052     -0.873594      0.630425
  H      -2.780760      0.558036     -0.345055
  H      -0.314234      1.351377     -0.637094
  H       1.864880      0.392676     -1.120082
  H      -1.216122      0.376570      1.587044
  H      -0.684724     -1.215417      1.015062
15
Coordinates from ORCA-job freq E -271.033308561364
  C       2.408531     -0.692215      1.037098
  C      -2.401212     -0.409818     -0.025610
  C      -0.047493      0.410325     -0.201227
  C       1.161514     -0.106133     -0.462871
  C      -1.062762     -0.223731      0.691395
  O       1.621225     -1.304922      0.087140
  H       1.957635     -0.381561      1.964491
  H       3.454129     -0.537595      0.827372
  H      -2.258810     -0.959586     -0.953656
  H      -3.094511     -0.965429      0.602641
  H      -2.847282      0.554853     -0.262127
  H      -0.315941      1.344383     -0.674894
  H       1.857074      0.374928     -1.142160
  H      -1.219675      0.413247      1.568400
  H      -0.687889     -1.188291      1.035314
15
Coordinates from ORCA-job freq E -271.032111013007
  C       2.400693     -0.684312      1.021946
  C      -2.400236     -0.412152     -0.027483
  C      -0.045313      0.415165     -0.188710
  C       1.167941     -0.094128     -0.455747
  C      -1.060709     -0.237661      0.691183
  O       1.626137     -1.308014      0.065313
  H       1.944219     -0.399656      1.956077
  H       3.446586     -0.514213      0.819631
  H      -2.277709     -1.044743     -0.904689
  H      -3.129831     -0.875391      0.634834
  H      -2.790369      0.552381     -0.350352
  H      -0.310623      1.363657     -0.635962
  H       1.858667      0.394567     -1.134054
  H      -1.218672      0.380982      1.580983
  H      -0.686246     -1.208027      1.018338
15
Coordinates from ORCA-job freq E -271.031621146297
  C       2.395435     -0.681984      1.012924
  C      -2.397653     -0.417715     -0.028009
  C      -0.045062      0.423582     -0.182679
  C       1.169187     -0.079518     -0.455156
  C      -1.058972     -0.240416      0.691154
  O       1.627790     -1.304378      0.045368
  H       1.935836     -0.433452      1.956043
  H       3.442419     -0.507775      0.818977
  H      -2.288362     -1.106478     -0.863990
  H      -3.147493     -0.816364      0.653874
  H      -2.754855      0.536930     -0.413595
  H      -0.308084      1.380443     -0.613918
  H       1.856766      0.415573     -1.131394
  H      -1.220620      0.370453      1.585721
  H      -0.681800     -1.210445      1.015988
15
Coordinates from ORCA-job freq E -271.031507565681
  C       2.390647     -0.682123      1.006558
  C      -2.394228     -0.425165     -0.028152
  C      -0.045556      0.434020     -0.179364
  C       1.168170     -0.065078     -0.457435
  C      -1.057594     -0.235741      0.692185
  O       1.626848     -1.297221      0.028612
  H       1.930702     -0.473991      1.959342
  H       3.439758     -0.512523      0.820398
  H      -2.290419     -1.151117     -0.832862
  H      -3.155447     -0.782545      0.664044
  H      -2.735228      0.516600     -0.458028
  H      -0.306993      1.395454     -0.601770
  H       1.854150      0.434555     -1.131637
  H      -1.224827      0.374914      1.585883
  H      -0.675451     -1.201582      1.023533
15
Coordinates from ORCA-job freq E -271.031588626970
  C       2.385597     -0.684879      1.000898
  C      -2.389109     -0.434715     -0.028470
  C      -0.046621      0.446936     -0.176395
  C       1.165261     -0.050784     -0.461135
  C      -1.056901     -0.225099      0.694991
  O       1.622849     -1.288415      0.013154
  H       1.927271     -0.517281      1.962525
  H       3.437811     -0.527396      0.821852
  H      -2.282541     -1.186535     -0.808684
  H      -3.157191     -0.767340      0.668483
  H      -2.725075      0.493030     -0.491663
  H      -0.306267      1.411426     -0.593242
  H       1.850417      0.451920     -1.133730
  H      -1.232984      0.391184      1.583089
  H      -0.667983     -1.183596      1.039634
15
Coordinates from ORCA-job freq E -271.031783854830
  C       2.371418     -0.690877      1.000253
  C      -2.380773     -0.446304     -0.022934
  C      -0.044058      0.459493     -0.177890
  C       1.166289     -0.030991     -0.472004
  C      -1.049661     -0.212057      0.695754
  O       1.622412     -1.276208     -0.014759
  H       1.897501     -0.563716      1.961026
  H       3.428770     -0.548916      0.838341
  H      -2.274683     -1.217731     -0.783624
  H      -3.151704     -0.762596      0.678507
  H      -2.722092      0.465632     -0.513051
  H      -0.300780      1.425044     -0.594805
  H       1.850600      0.477316     -1.141110
  H      -1.230552      0.412738      1.576685
  H      -0.658155     -1.162371      1.060920
15
Coordinates from ORCA-job freq E -271.031258832717
  C       2.386622     -0.682411      0.997203
  C      -2.391053     -0.435893     -0.029638
  C      -0.046083      0.448920     -0.172862
  C       1.166090     -0.045040     -0.457468
  C      -1.057272     -0.228369      0.693863
  O       1.623267     -1.286617      0.008187
  H       1.932445     -0.528528      1.963820
  H       3.438496     -0.522226      0.816595
  H      -2.294514     -1.209055     -0.789672
  H      -3.168120     -0.737323      0.671508
  H      -2.710022      0.484405     -0.518754
  H      -0.306011      1.414537     -0.586814
  H       1.851269      0.461210     -1.127444
  H      -1.232357      0.382251      1.585588
  H      -0.668225     -1.187405      1.037196
15
Coordinates from ORCA-job freq E -271.030979419779
  C       2.395979     -0.667883      1.001030
  C      -2.400614     -0.426845     -0.029745
  C      -0.047025      0.437826     -0.175931
  C       1.169849     -0.048364     -0.452263
  C      -1.058840     -0.244393      0.686610
  O       1.632492     -1.285608      0.020047
  H       1.949047     -0.521222      1.972189
  H       3.445742     -0.499884      0.814898
  H      -2.325575     -1.207726     -0.784284
  H      -3.181827     -0.704646      0.676480
  H      -2.700229      0.496780     -0.524834
  H      -0.311108      1.400820     -0.593475
  H       1.854207      0.459574     -1.121778
  H      -1.221068      0.352247      1.590173
  H      -0.676497     -1.212222      1.012191
15
Coordinates from ORCA-job freq E -271.031037060422
  C       2.404913     -0.655073      1.007831
  C      -2.409201     -0.419741     -0.028067
  C      -0.049243      0.428873     -0.182568
  C       1.172899     -0.046832     -0.451234
  C      -1.059611     -0.256836      0.678517
  O       1.643466     -1.278853      0.028002
  H       1.963440     -0.529627      1.984480
  H       3.453869     -0.483887      0.819521
  H      -2.355759     -1.209779     -0.775001
  H      -3.192553     -0.673999      0.684570
  H      -2.693762      0.504098     -0.531759
  H      -0.318277      1.388057     -0.606147
  H       1.856643      0.464591     -1.118635
  H      -1.209476      0.328777      1.591613
  H      -0.682815     -1.231315      0.990185
15
Coordinates from ORCA-job freq E -271.030341735276
  C       2.385688     -0.655585      1.002465
  C      -2.396910     -0.421384     -0.027863
  C      -0.047287      0.436013     -0.174932
  C       1.170448     -0.053097     -0.456752
  C      -1.054048     -0.253189      0.687289
  O       1.633857     -1.289878      0.021853
  H       1.931989     -0.503389      1.968936
  H       3.437370     -0.493704      0.827490
  H      -2.322716     -1.202286     -0.782503
  H      -3.176305     -0.693686      0.683172
  H      -2.685743      0.507465     -0.519676
  H      -0.315239      1.398025     -0.591587
  H       1.849046      0.449702     -1.135518
  H      -1.209540      0.333533      1.597340
  H      -0.676078     -1.230085      0.991595
15
Coordinates from ORCA-job freq E -271.029881527038
  C       2.361250     -0.658270      0.996493
  C      -2.384278     -0.428122     -0.024833
  C      -0.041669      0.445555     -0.170643
  C       1.170628     -0.052059     -0.466473
  C      -1.045050     -0.243649      0.695244
  O       1.625634     -1.294689      0.004875
  H       1.887566     -0.495267      1.951575
  H       3.418792     -0.513264      0.843314
  H      -2.291723     -1.202318     -0.784177
  H      -3.158892     -0.718625      0.684182
  H      -2.686395      0.499789     -0.510201
  H      -0.305576      1.411716     -0.580130
  H       1.845307      0.445188     -1.152805
  H      -1.207713      0.349594      1.599604
  H      -0.663349     -1.217125      1.005283
15
Coordinates from ORCA-job freq E -271.029547150945
  C       2.339831     -0.662938      0.989914
  C      -2.372174     -0.436148     -0.022131
  C      -0.036679      0.455559     -0.166908
  C       1.170585     -0.049249     -0.474821
  C      -1.037629     -0.231865      0.703024
  O       1.617072     -1.297820     -0.011898
  H       1.848824     -0.491548      1.934840
  H       3.402707     -0.537099      0.857336
  H      -2.261232     -1.203084     -0.786327
  H      -3.142156     -0.746348      0.683514
  H      -2.690375      0.489303     -0.501759
  H      -0.296115      1.425754     -0.569807
  H       1.842073      0.443429     -1.167284
  H      -1.209748      0.370066      1.599821
  H      -0.650452     -1.199555      1.023795
15
Coordinates from ORCA-job freq E -271.029326853687
  C       2.322487     -0.668935      0.983271
  C      -2.360975     -0.444679     -0.020219
  C      -0.032799      0.465776     -0.163369
  C       1.169797     -0.045705     -0.481379
  C      -1.032280     -0.218914      0.710291
  O       1.607568     -1.299925     -0.026193
  H       1.818157     -0.488879      1.919684
  H       3.389886     -0.564684      0.868466
  H      -2.231328     -1.202641     -0.790450
  H      -3.125835     -0.776848      0.680964
  H      -2.697241      0.477864     -0.493026
  H      -0.287874      1.439355     -0.561034
  H       1.838795      0.442929     -1.178863
  H      -1.215244      0.392895      1.598157
  H      -0.638578     -1.179155      1.045007
15
Coordinates from ORCA-job freq E -271.029221956939
  C       2.309054     -0.675944      0.976915
  C      -2.350412     -0.453631     -0.019024
  C      -0.030239      0.476440     -0.159940
  C       1.168008     -0.041038     -0.486712
  C      -1.028705     -0.205292      0.717195
  O       1.597055     -1.300513     -0.038160
  H       1.794756     -0.485887      1.906089
  H       3.380342     -0.597352      0.877735
  H      -2.202019     -1.201978     -0.795356
  H      -3.109768     -0.808392      0.677089
  H      -2.705619      0.465289     -0.485017
  H      -0.281305      1.452863     -0.553372
  H       1.834842      0.444036     -1.188492
  H      -1.223479      0.416976      1.595167
  H      -0.627977     -1.157121      1.067190
15
Coordinates from ORCA-job freq E -271.029235875380
  C       2.299130     -0.683934      0.972233
  C      -2.340357     -0.462772     -0.018038
  C      -0.029045      0.487561     -0.157132
  C       1.165374     -0.034326     -0.491996
  C      -1.026026     -0.192121      0.723437
  O       1.585733     -1.298105     -0.048055
  H       1.776200     -0.478905      1.893612
  H       3.373720     -0.638186      0.887691
  H      -2.174334     -1.201892     -0.799753
  H      -3.093995     -0.838875      0.673139
  H      -2.714024      0.451845     -0.478074
  H      -0.277334      1.466153     -0.547191
  H       1.829788      0.447756     -1.197829
  H      -1.232504      0.439673      1.591733
  H      -0.617794     -1.135418      1.087530
15
Coordinates from ORCA-job freq E -271.029447412663
  C       2.311356     -0.677496      0.976950
  C      -2.350914     -0.455290     -0.018148
  C      -0.030833      0.477405     -0.161766
  C       1.167780     -0.038159     -0.487435
  C      -1.029390     -0.201871      0.716623
  O       1.599329     -1.296988     -0.041370
  H       1.795427     -0.500318      1.907884
  H       3.382999     -0.599441      0.879518
  H      -2.202983     -1.205027     -0.793387
  H      -3.109931     -0.810245      0.678163
  H      -2.709567      0.461135     -0.486583
  H      -0.281131      1.453409     -0.557241
  H       1.835990      0.448758     -1.186726
  H      -1.225473      0.423803      1.592156
  H      -0.628125     -1.151219      1.072667
15
Coordinates from ORCA-job freq E -271.029291371425
  C       2.292823     -0.686207      0.979661
  C      -2.335756     -0.461777     -0.016512
  C      -0.032254      0.491903     -0.159577
  C       1.164558     -0.029542     -0.499562
  C      -1.021913     -0.192344      0.727876
  O       1.582901     -1.295640     -0.045734
  H       1.765491     -0.486118      1.899652
  H       3.367248     -0.639166      0.891179
  H      -2.163844     -1.202698     -0.795364
  H      -3.091207     -0.835965      0.674283
  H      -2.705909      0.453291     -0.478270
  H      -0.286874      1.467391     -0.553978
  H       1.825125      0.446943     -1.210079
  H      -1.226475      0.436161      1.597722
  H      -0.609381     -1.137775      1.080010
15
Coordinates from ORCA-job freq E -271.029013047245
  C       2.312635     -0.675169      0.976187
  C      -2.350150     -0.452347     -0.022035
  C      -0.032435      0.478265     -0.155995
  C       1.167128     -0.043238     -0.483689
  C      -1.031700     -0.205825      0.720278
  O       1.593958     -1.304036     -0.030487
  H       1.807576     -0.476010      1.909047
  H       3.384146     -0.600131      0.870879
  H      -2.197209     -1.198801     -0.799645
  H      -3.111054     -0.809280      0.671644
  H      -2.702683      0.468412     -0.486471
  H      -0.285983      1.454165     -0.549608
  H       1.829449      0.437161     -1.191399
  H      -1.230068      0.414226      1.598488
  H      -0.629075     -1.158939      1.064114
15
Coordinates from ORCA-job freq E -271.028647696173
  C       2.328515     -0.662347      0.972869
  C      -2.362323     -0.443561     -0.026366
  C      -0.032394      0.465763     -0.152147
  C       1.171035     -0.053346     -0.468994
  C      -1.039471     -0.218942      0.713820
  O       1.603920     -1.310185     -0.016698
  H       1.842795     -0.472732      1.918032
  H       3.396439     -0.562186      0.851108
  H      -2.229000     -1.197891     -0.800093
  H      -3.130181     -0.779844      0.669879
  H      -2.696735      0.480796     -0.497311
  H      -0.284945      1.441147     -0.547659
  H       1.834219      0.429243     -1.175041
  H      -1.231227      0.391641      1.600607
  H      -0.646115     -1.179100      1.049302
15
Coordinates from ORCA-job freq E -271.028239355789
  C       2.339273     -0.648366      0.969499
  C      -2.372217     -0.435526     -0.029204
  C      -0.031913      0.454049     -0.149127
  C       1.176324     -0.060862     -0.455608
  C      -1.045066     -0.231300      0.708348
  O       1.612697     -1.314600     -0.004679
  H       1.869528     -0.473902      1.925738
  H       3.403381     -0.526454      0.832997
  H      -2.257992     -1.197817     -0.798289
  H      -3.146858     -0.750937      0.669238
  H      -2.689676      0.491117     -0.507615
  H      -0.283668      1.428204     -0.548358
  H       1.840307      0.422838     -1.160631
  H      -1.229836      0.369712      1.603589
  H      -0.659751     -1.197701      1.035410
15
Coordinates from ORCA-job freq E -271.027879013978
  C       2.345717     -0.633456      0.966567
  C      -2.380579     -0.428046     -0.030538
  C      -0.031178      0.442829     -0.147743
  C       1.183028     -0.066364     -0.443400
  C      -1.048840     -0.242870      0.703251
  O       1.621014     -1.317920      0.005633
  H       1.889108     -0.478510      1.932681
  H       3.406127     -0.492852      0.817579
  H      -2.284926     -1.197259     -0.795381
  H      -3.161001     -0.723882      0.669977
  H      -2.683036      0.500225     -0.515725
  H      -0.282438      1.415124     -0.552109
  H       1.847730      0.417547     -1.148017
  H      -1.225906      0.348682      1.606765
  H      -0.670289     -1.214792      1.021769
15
Coordinates from ORCA-job freq E -271.027622672942
  C       2.347311     -0.617739      0.964416
  C      -2.387462     -0.421302     -0.029914
  C      -0.030111      0.432139     -0.148981
  C       1.191387     -0.069596     -0.432786
  C      -1.050476     -0.253255      0.698144
  O       1.629230     -1.319918      0.013423
  H       1.900227     -0.486974      1.938773
  H       3.404765     -0.462539      0.806729
  H      -2.309701     -1.195578     -0.791814
  H      -3.172016     -0.700408      0.672800
  H      -2.678133      0.508280     -0.520021
  H      -0.281395      1.401784     -0.560068
  H       1.856826      0.413809     -1.137431
  H      -1.218763      0.329523      1.609464
  H      -0.677157     -1.229771      1.008573
15
Coordinates from ORCA-job freq E -271.027575272791
  C       2.343239     -0.602341      0.964181
  C      -2.392580     -0.416185     -0.026345
  C      -0.028912      0.422679     -0.155002
  C       1.201574     -0.068810     -0.425264
  C      -1.049274     -0.260901      0.692650
  O       1.637581     -1.318886      0.016756
  H       1.899727     -0.502100      1.944085
  H       3.399721     -0.440010      0.804388
  H      -2.331070     -1.192473     -0.787880
  H      -3.178435     -0.684515      0.679036
  H      -2.677778      0.514488     -0.517883
  H      -0.281260      1.388336     -0.575321
  H       1.868080      0.413810     -1.129777
  H      -1.207359      0.315556      1.610296
  H      -0.678721     -1.240193      0.997388
15
Coordinates from ORCA-job freq E -271.027747147881
  C       2.333747     -0.592091      0.968459
  C      -2.394769     -0.414463     -0.018814
  C      -0.028566      0.416575     -0.169004
  C       1.211748     -0.061855     -0.424612
  C      -1.044361     -0.262383      0.687010
  O       1.645066     -1.312488      0.013135
  H       1.883116     -0.524316      1.948246
  H       3.392912     -0.436011      0.817483
  H      -2.343251     -1.186074     -0.786047
  H      -3.176531     -0.686361      0.689683
  H      -2.686791      0.517922     -0.503360
  H      -0.284426      1.376119     -0.601751
  H       1.880166      0.420703     -1.127576
  H      -1.191503      0.314156      1.606879
  H      -0.672025     -1.240978      0.991579
15
Coordinates from ORCA-job freq E -271.027908975215
  C       2.325941     -0.591846      0.976423
  C      -2.394600     -0.414643     -0.010969
  C      -0.029803      0.413736     -0.186484
  C       1.216657     -0.055574     -0.430211
  C      -1.038708     -0.259310      0.682605
  O       1.648922     -1.306218      0.008606
  H       1.861727     -0.534965      1.950793
  H       3.389005     -0.448002      0.839577
  H      -2.342695     -1.171608     -0.792710
  H      -3.166509     -0.708156      0.699676
  H      -2.702697      0.522811     -0.475456
  H      -0.291452      1.366742     -0.630359
  H       1.887766      0.428176     -1.129663
  H      -1.177045      0.322913      1.600343
  H      -0.661978     -1.235600      0.989136
15
Coordinates from ORCA-job freq E -271.028013359735
  C       2.320637     -0.587956      0.982882
  C      -2.396491     -0.410909     -0.004903
  C      -0.030366      0.406223     -0.201797
  C       1.221326     -0.057020     -0.432317
  C      -1.034747     -0.261728      0.677635
  O       1.652547     -1.306479      0.012453
  H       1.847978     -0.527430      1.953173
  H       3.385713     -0.448863      0.855473
  H      -2.345367     -1.146063     -0.807256
  H      -3.157816     -0.730484      0.705892
  H      -2.717154      0.536403     -0.439926
  H      -0.297422      1.352988     -0.655623
  H       1.894764      0.426342     -1.129616
  H      -1.162193      0.322434      1.595699
  H      -0.656875     -1.239002      0.979540
15
Coordinates from ORCA-job freq E -271.028103144150
  C       2.316244     -0.583299      0.989637
  C      -2.398239     -0.406889      0.000727
  C      -0.030023      0.398262     -0.215449
  C       1.225018     -0.060503     -0.436316
  C      -1.030892     -0.264684      0.672612
  O       1.657003     -1.307099      0.017240
  H       1.834027     -0.515053      1.954718
  H       3.383196     -0.449237      0.873004
  H      -2.347877     -1.116634     -0.824240
  H      -3.148263     -0.755820      0.709696
  H      -2.732360      0.550480     -0.400913
  H      -0.301012      1.339932     -0.677446
  H       1.899665      0.421017     -1.133571
  H      -1.147659      0.321567      1.590779
  H      -0.654295     -1.243586      0.970829
15
Coordinates from ORCA-job freq E -271.028190757445
  C       2.312005     -0.573741      0.999059
  C      -2.401378     -0.399434      0.007856
  C      -0.028724      0.384600     -0.232522
  C       1.229760     -0.069538     -0.442454
  C      -1.026312     -0.271089      0.665326
  O       1.664354     -1.309680      0.028064
  H       1.817331     -0.489236      1.956590
  H       3.381122     -0.445383      0.896590
  H      -2.353498     -1.066149     -0.852442
  H      -3.134984     -0.794526      0.709713
  H      -2.754515      0.572385     -0.339214
  H      -0.303783      1.319547     -0.705669
  H       1.905215      0.407521     -1.141816
  H      -1.127406      0.316800      1.584452
  H      -0.654657     -1.253622      0.957777
15
Coordinates from ORCA-job freq E -271.028217322755
  C       2.312122     -0.565536      1.003657
  C      -2.403784     -0.393785      0.010521
  C      -0.027405      0.375330     -0.238750
  C       1.231877     -0.078110     -0.445428
  C      -1.025119     -0.276377      0.661717
  O       1.668666     -1.312664      0.038279
  H       1.812928     -0.467787      1.957599
  H       3.382004     -0.439661      0.906176
  H      -2.357637     -1.031257     -0.871829
  H      -3.128906     -0.818126      0.704104
  H      -2.767526      0.586032     -0.301422
  H      -0.302952      1.307104     -0.717965
  H       1.906768      0.394339     -1.148344
  H      -1.117824      0.310854      1.582316
  H      -0.658679     -1.261902      0.950675
15
Coordinates from ORCA-job freq E -271.028236427384
  C       2.314322     -0.561067      1.004972
  C      -2.404939     -0.390914      0.010330
  C      -0.026769      0.371261     -0.238468
  C       1.231846     -0.083616     -0.446096
  C      -1.025868     -0.278829      0.661143
  O       1.669700     -1.314789      0.045214
  H       1.815652     -0.455130      1.958293
  H       3.384203     -0.436290      0.906284
  H      -2.358344     -1.013818     -0.882427
  H      -3.127355     -0.829644      0.697792
  H      -2.773673      0.592077     -0.285303
  H      -0.301112      1.302192     -0.720149
  H       1.905855      0.385432     -1.152084
  H      -1.116473      0.307379      1.582709
  H      -0.662513     -1.265789      0.949098
15
Coordinates from ORCA-job freq E -271.028257023121
  C       2.316890     -0.558429      1.004853
  C      -2.405485     -0.389393      0.009118
  C      -0.026504      0.369465     -0.236030
  C       1.231145     -0.087467     -0.445430
  C      -1.027313     -0.279811      0.661846
  O       1.669149     -1.316648      0.050472
  H       1.820872     -0.447005      1.958900
  H       3.386463     -0.434155      0.902326
  H      -2.357164     -1.003978     -0.889363
  H      -3.127368     -0.836485      0.691763
  H      -2.777115      0.595035     -0.277971
  H      -0.299205      1.300250     -0.719026
  H       1.904342      0.378871     -1.153972
  H      -1.118497      0.305576      1.583939
  H      -0.665677     -1.267372      0.949882
15
Coordinates from ORCA-job freq E -271.028250639045
  C       2.319038     -0.557723      1.004038
  C      -2.405456     -0.389210      0.007584
  C      -0.026465      0.369631     -0.232986
  C       1.230088     -0.089564     -0.444318
  C      -1.028803     -0.279227      0.663237
  O       1.667536     -1.318012      0.053630
  H       1.826218     -0.443238      1.959333
  H       3.388208     -0.433910      0.897042
  H      -2.354406     -0.999964     -0.893389
  H      -3.127691     -0.840833      0.686894
  H      -2.779121      0.595401     -0.276244
  H      -0.297511      1.300719     -0.716412
  H       1.902690      0.374791     -1.154724
  H      -1.122222      0.306166      1.585107
  H      -0.667569     -1.266572      0.952515
15
Coordinates from ORCA-job freq E -271.028238480432
  C       2.320897     -0.558725      1.002382
  C      -2.404768     -0.390251      0.005581
  C      -0.026510      0.371517     -0.228975
  C       1.228512     -0.090733     -0.442907
  C      -1.030487     -0.276893      0.665564
  O       1.664701     -1.319366      0.055299
  H       1.831963     -0.442672      1.959438
  H       3.389543     -0.435360      0.890082
  H      -2.349225     -0.999575     -0.896110
  H      -3.127756     -0.845072      0.681980
  H      -2.780805      0.593504     -0.278091
  H      -0.295525      1.303388     -0.712076
  H       1.900657      0.371975     -1.154848
  H      -1.128012      0.309849      1.586128
  H      -0.668652     -1.263130      0.957861
15
Coordinates from ORCA-job freq E -271.028254573970
  C       2.322904     -0.562385      0.998608
  C      -2.402756     -0.393471      0.002046
  C      -0.026664      0.376612     -0.221850
  C       1.225667     -0.091141     -0.440260
  C      -1.033137     -0.271022      0.670258
  O       1.658597     -1.321539      0.055790
  H       1.840738     -0.445970      1.958990
  H       3.390700     -0.439979      0.877717
  H      -2.338082     -1.003474     -0.898581
  H      -3.127151     -0.851819      0.674589
  H      -2.783067      0.587650     -0.285122
  H      -0.292297      1.310260     -0.703381
  H       1.897259      0.369340     -1.154221
  H      -1.139116      0.319729      1.587240
  H      -0.669061     -1.254337      0.969485
15
Coordinates from ORCA-job freq E -271.028265495243
  C       2.323377     -0.572472      0.991925
  C      -2.397685     -0.401457     -0.002858
  C      -0.026893      0.388138     -0.211336
  C       1.220709     -0.088205     -0.437949
  C      -1.036199     -0.258147      0.678361
  O       1.647732     -1.323439      0.050332
  H       1.849274     -0.459722      1.956660
  H       3.390334     -0.453018      0.861583
  H      -2.316890     -1.018499     -0.897331
  H      -3.123868     -0.861761      0.666443
  H      -2.785577      0.572917     -0.302539
  H      -0.287473      1.325648     -0.688042
  H       1.892009      0.370846     -1.153203
  H      -1.157539      0.342403      1.586823
  H      -0.666781     -1.234777      0.992441
15
Coordinates from ORCA-job freq E -271.028281578680
  C       2.321695     -0.585272      0.984085
  C      -2.391087     -0.411392     -0.007350
  C      -0.027235      0.402007     -0.201040
  C       1.215519     -0.082884     -0.436247
  C      -1.038720     -0.243102      0.687033
  O       1.635168     -1.324748      0.041125
  H       1.854739     -0.477572      1.952878
  H       3.388270     -0.470395      0.846713
  H      -2.292738     -1.039406     -0.892327
  H      -3.119162     -0.871026      0.660383
  H      -2.786507      0.554365     -0.324467
  H      -0.282881      1.344241     -0.671014
  H       1.887074      0.376039     -1.151420
  H      -1.176971      0.369130      1.584991
  H      -0.662630     -1.211531      1.017967
15
Coordinates from ORCA-job freq E -271.028284877519
  C       2.317866     -0.601058      0.975089
  C      -2.382588     -0.423691     -0.011401
  C      -0.027679      0.418907     -0.190573
  C       1.209770     -0.074598     -0.435577
  C      -1.040745     -0.225388      0.696387
  O       1.620504     -1.324798      0.027765
  H       1.856919     -0.499664      1.947446
  H       3.384679     -0.493947      0.833322
  H      -2.264780     -1.066912     -0.882924
  H      -3.112937     -0.879940      0.656242
  H      -2.785730      0.530954     -0.351557
  H      -0.278117      1.366854     -0.651679
  H       1.882033      0.385210     -1.149525
  H      -1.198010      0.400278      1.581554
  H      -0.656651     -1.183752      1.046738
15
Coordinates from ORCA-job freq E -271.028292767777
  C       2.315852     -0.606886      0.972103
  C      -2.379455     -0.428231     -0.012245
  C      -0.027995      0.425151     -0.187757
  C       1.207897     -0.070495     -0.436061
  C      -1.040941     -0.219480      0.699177
  O       1.615491     -1.323903      0.021911
  H       1.855797     -0.506994      1.945071
  H       3.383240     -0.504449      0.830987
  H      -2.255751     -1.078531     -0.877654
  H      -3.110886     -0.881232      0.656436
  H      -2.784284      0.522130     -0.362192
  H      -0.277111      1.375172     -0.645266
  H       1.880687      0.390256     -1.148874
  H      -1.204219      0.410320      1.580181
  H      -0.653790     -1.174371      1.055491
15
Coordinates from ORCA-job freq E -271.028294912766
  C       2.313511     -0.613362      0.968150
  C      -2.375718     -0.433534     -0.013325
  C      -0.028423      0.432514     -0.184019
  C       1.205687     -0.065546     -0.436365
  C      -1.041307     -0.212835      0.702544
  O       1.609409     -1.322826      0.015168
  H       1.854839     -0.514552      1.941952
  H       3.381665     -0.517342      0.827829
  H      -2.245258     -1.092800     -0.870922
  H      -3.109085     -0.881721      0.656508
  H      -2.781735      0.511663     -0.375634
  H      -0.275854      1.385022     -0.637214
  H       1.879101      0.396259     -1.147828
  H      -1.211742      0.421256      1.578969
  H      -0.650559     -1.163741      1.065495
15
Coordinates from ORCA-job freq E -271.028295481308
  C       2.313409     -0.613851      0.967763
  C      -2.375447     -0.434026     -0.013349
  C      -0.028559      0.433243     -0.183696
  C       1.205488     -0.064702     -0.436555
  C      -1.041281     -0.212535      0.702710
  O       1.609078     -1.322373      0.014266
  H       1.854524     -0.514695      1.941434
  H       3.381801     -0.519298      0.828203
  H      -2.244914     -1.095112     -0.869520
  H      -3.109422     -0.880461      0.656994
  H      -2.780835      0.510608     -0.377837
  H      -0.275924      1.386052     -0.636292
  H       1.878973      0.397371     -1.147758
  H      -1.212198      0.421451      1.579114
  H      -0.650162     -1.163218      1.065832
15
Coordinates from ORCA-job freq E -271.028289386497
  C       2.313654     -0.613301      0.967907
  C      -2.375750     -0.433677     -0.013260
  C      -0.028605      0.432795     -0.183865
  C       1.205647     -0.064755     -0.436552
  C      -1.041245     -0.213229      0.702418
  O       1.609580     -1.322244      0.014543
  H       1.854544     -0.513738      1.941438
  H       3.382122     -0.518974      0.828711
  H      -2.246065     -1.095031     -0.869358
  H      -3.109996     -0.879330      0.657306
  H      -2.780427      0.511233     -0.377846
  H      -0.276124      1.385512     -0.636601
  H       1.879108      0.397394     -1.147724
  H      -1.211587      0.420093      1.579431
  H      -0.650322     -1.164294      1.064760
15
Coordinates from ORCA-job freq E -271.028296676427
  C       2.314040     -0.612267      0.968390
  C      -2.376338     -0.432913     -0.013071
  C      -0.028616      0.431757     -0.184384
  C       1.205992     -0.065198     -0.436543
  C      -1.041154     -0.214428      0.701861
  O       1.610563     -1.322210      0.015324
  H       1.854571     -0.512247      1.941704
  H       3.382522     -0.517603      0.829512
  H      -2.248007     -1.093762     -0.869772
  H      -3.110652     -0.878258      0.657628
  H      -2.780260      0.512696     -0.376691
  H      -0.276441      1.384174     -0.637575
  H       1.879365      0.396937     -1.147795
  H      -1.210357      0.417956      1.579795
  H      -0.650696     -1.166179      1.062923
15
Coordinates from ORCA-job freq E -271.028288134822
  C       2.314212     -0.611761      0.968634
  C      -2.376636     -0.432555     -0.012927
  C      -0.028647      0.431265     -0.184690
  C       1.206182     -0.065268     -0.436609
  C      -1.041061     -0.215107      0.701533
  O       1.611135     -1.322079      0.015544
  H       1.854398     -0.511463      1.941761
  H       3.382755     -0.517139      0.830175
  H      -2.249166     -1.093508     -0.869675
  H      -3.111103     -0.877297      0.658003
  H      -2.779943      0.513359     -0.376433
  H      -0.276673      1.383567     -0.638034
  H       1.879522      0.396963     -1.147825
  H      -1.209629      0.416708      1.580010
  H      -0.650812     -1.167230      1.061842
15
Coordinates from ORCA-job freq E -271.028298383504
  C       2.314456     -0.610895      0.969129
  C      -2.377148     -0.431888     -0.012692
  C      -0.028640      0.430326     -0.185281
  C       1.206523     -0.065622     -0.436698
  C      -1.040913     -0.216167      0.700996
  O       1.612080     -1.322002      0.016107
  H       1.854158     -0.510314      1.941998
  H       3.383020     -0.515895      0.831105
  H      -2.250950     -1.092405     -0.869970
  H      -3.111607     -0.876353      0.658425
  H      -2.779816      0.514643     -0.375315
  H      -0.276988      1.382352     -0.639021
  H       1.879820      0.396688     -1.147910
  H      -1.208393      0.414872      1.580260
  H      -0.651068     -1.168886      1.060177
15
Coordinates from ORCA-job freq E -271.028287664180
  C       2.314442     -0.610840      0.969153
  C      -2.377206     -0.431871     -0.012602
  C      -0.028680      0.430292     -0.185403
  C       1.206586     -0.065407     -0.436797
  C      -1.040833     -0.216368      0.700877
  O       1.612258     -1.321820      0.015896
  H       1.853883     -0.510170      1.941892
  H       3.383091     -0.516154      0.831548
  H      -2.251392     -1.092939     -0.869516
  H      -3.111860     -0.875608      0.658791
  H      -2.779465      0.514634     -0.375758
  H      -0.277118      1.382343     -0.639056
  H       1.879909      0.397084     -1.147851
  H      -1.208120      0.414459      1.580339
  H      -0.650962     -1.169181      1.059796
15
Coordinates from ORCA-job freq E -271.028285276628
  C       2.314627     -0.610355      0.969438
  C      -2.377510     -0.431485     -0.012465
  C      -0.028703      0.429752     -0.185734
  C       1.206782     -0.065551     -0.436844
  C      -1.040764     -0.217013      0.700564
  O       1.612838     -1.321734      0.016181
  H       1.853781     -0.509497      1.942024
  H       3.383298     -0.515511      0.832110
  H      -2.252464     -1.092454     -0.869567
  H      -3.112232     -0.874867      0.659086
  H      -2.779282      0.515361     -0.375284
  H      -0.277360      1.381639     -0.639617
  H       1.880067      0.397028     -1.147875
  H      -1.207418      0.413329      1.580507
  H      -0.651129     -1.170186      1.058785
15
Coordinates from ORCA-job freq E -271.028286087518
  C       2.314869     -0.609578      0.969908
  C      -2.377983     -0.430870     -0.012271
  C      -0.028693      0.428888     -0.186269
  C       1.207087     -0.065930     -0.436874
  C      -1.040652     -0.217942      0.700075
  O       1.613653     -1.321716      0.016788
  H       1.853683     -0.508483      1.942307
  H       3.383529     -0.514274      0.832815
  H      -2.254027     -1.091285     -0.869961
  H      -3.112636     -0.874191      0.659391
  H      -2.779273      0.516548     -0.374120
  H      -0.277622      1.380524     -0.640542
  H       1.880323      0.396671     -1.147933
  H      -1.206330      0.411736      1.580691
  H      -0.651397     -1.171642      1.057305
15
Coordinates from ORCA-job freq E -271.028284162536
  C       2.314989     -0.609055      0.970207
  C      -2.378289     -0.430468     -0.012118
  C      -0.028691      0.428315     -0.186644
  C       1.207307     -0.066124     -0.436928
  C      -1.040555     -0.218587      0.699746
  O       1.614229     -1.321664      0.017105
  H       1.853513     -0.507814      1.942453
  H       3.383661     -0.513528      0.833385
  H      -2.255109     -1.090651     -0.870101
  H      -3.112942     -0.873588      0.659672
  H      -2.779171      0.517318     -0.373469
  H      -0.277821      1.379781     -0.641151
  H       1.880518      0.396543     -1.147971
  H      -1.205560      0.410626      1.580839
  H      -0.651546     -1.172650      1.056282
15
Coordinates from ORCA-job freq E -271.028288609027
  C       2.315045     -0.608772      0.970397
  C      -2.378480     -0.430252     -0.012000
  C      -0.028694      0.428009     -0.186905
  C       1.207455     -0.066154     -0.436990
  C      -1.040474     -0.218986      0.699516
  O       1.614597     -1.321579      0.017209
  H       1.853330     -0.507435      1.942520
  H       3.383748     -0.513198      0.833843
  H      -2.255837     -1.090453     -0.870045
  H      -3.113163     -0.873071      0.659955
  H      -2.779045      0.517722     -0.373213
  H      -0.277959      1.379395     -0.641516
  H       1.880660      0.396584     -1.147985
  H      -1.205062      0.409915      1.580919
  H      -0.651587     -1.173271      1.055602
15
Coordinates from ORCA-job freq E -271.028289071583
  C       2.314996     -0.608818      0.970404
  C      -2.378472     -0.430282     -0.011938
  C      -0.028730      0.428038     -0.186975
  C       1.207474     -0.065971     -0.437073
  C      -1.040416     -0.219050      0.699466
  O       1.614677     -1.321447      0.016986
  H       1.853096     -0.507465      1.942441
  H       3.383756     -0.513444      0.834132
  H      -2.256007     -1.090897     -0.869690
  H      -3.113284     -0.872609      0.660207
  H      -2.778780      0.517633     -0.373580
  H      -0.278073      1.379437     -0.641513
  H       1.880699      0.396916     -1.147943
  H      -1.204921      0.409771      1.580942
  H      -0.651483     -1.173356      1.055441
15
Coordinates from ORCA-job freq E -271.028297309902
  C       2.314963     -0.608811      0.970422
  C      -2.378493     -0.430291     -0.011886
  C      -0.028750      0.428037     -0.187048
  C       1.207507     -0.065838     -0.437123
  C      -1.040363     -0.219143      0.699406
  O       1.614752     -1.321342      0.016855
  H       1.852927     -0.507458      1.942395
  H       3.383766     -0.513572      0.834356
  H      -2.256229     -1.091214     -0.869432
  H      -3.113405     -0.872214      0.660411
  H      -2.778587      0.517602     -0.373832
  H      -0.278133      1.379456     -0.641532
  H       1.880751      0.397138     -1.147915
  H      -1.204776      0.409587      1.580969
  H      -0.651396     -1.173483      1.055262
15
Coordinates from ORCA-job freq E -271.028298772122
  C       2.315031     -0.608583      0.970567
  C      -2.378635     -0.430106     -0.011813
  C      -0.028763      0.427770     -0.187226
  C       1.207605     -0.065906     -0.437147
  C      -1.040321     -0.219452      0.699246
  O       1.615035     -1.321304      0.016978
  H       1.852853     -0.507189      1.942469
  H       3.383838     -0.513212      0.834627
  H      -2.256758     -1.090998     -0.869437
  H      -3.113576     -0.871835      0.660576
  H      -2.778489      0.517945     -0.373614
  H      -0.278241      1.379116     -0.641802
  H       1.880836      0.397122     -1.147916
  H      -1.204415      0.409047      1.581038
  H      -0.651465     -1.173960      1.054762
15
Coordinates from ORCA-job freq E -271.028298966996
  C       2.315183     -0.608091      0.970871
  C      -2.378936     -0.429716     -0.011699
  C      -0.028747      0.427229     -0.187560
  C       1.207801     -0.066171     -0.437141
  C      -1.040262     -0.220018      0.698937
  O       1.615512     -1.321318      0.017414
  H       1.852846     -0.506549      1.942681
  H       3.383966     -0.512391      0.834994
  H      -2.257715     -1.090172     -0.869757
  H      -3.113797     -0.871516      0.660732
  H      -2.778545      0.518707     -0.372797
  H      -0.278382      1.378408     -0.642409
  H       1.881009      0.396837     -1.147948
  H      -1.203754      0.408069      1.581145
  H      -0.651645     -1.174854      1.053846
15
Coordinates from ORCA-job freq E -271.028298133001
  C       2.315274     -0.607798      0.971034
  C      -2.379124     -0.429489     -0.011622
  C      -0.028739      0.426902     -0.187760
  C       1.207939     -0.066296     -0.437148
  C      -1.040231     -0.220367      0.698753
  O       1.615852     -1.321312      0.017606
  H       1.852822     -0.506228      1.942787
  H       3.384054     -0.511918      0.835254
  H      -2.258328     -1.089796     -0.869856
  H      -3.113975     -0.871202      0.660874
  H      -2.778528      0.519135     -0.372424
  H      -0.278477      1.377986     -0.642757
  H       1.881131      0.396761     -1.147944
  H      -1.203362      0.407475      1.581202
  H      -0.651774     -1.175398      1.053309
15
Coordinates from ORCA-job freq E -271.028294899690
  C       2.315242     -0.607811      0.971057
  C      -2.379122     -0.429494     -0.011581
  C      -0.028758      0.426908     -0.187816
  C       1.207952     -0.066186     -0.437205
  C      -1.040189     -0.220416      0.698720
  O       1.615914     -1.321220      0.017480
  H       1.852677     -0.506247      1.942755
  H       3.384055     -0.512048      0.835448
  H      -2.258437     -1.090029     -0.869653
  H      -3.114039     -0.870931      0.661028
  H      -2.778385      0.519099     -0.372619
  H      -0.278547      1.377993     -0.642784
  H       1.881145      0.396940     -1.147942
  H      -1.203253      0.407369      1.581231
  H      -0.651722     -1.175474      1.053188
15
Coordinates from ORCA-job freq E -271.028294948475
  C       2.315254     -0.607776      0.971099
  C      -2.379169     -0.429462     -0.011545
  C      -0.028770      0.426856     -0.187886
  C       1.207990     -0.066134     -0.437238
  C      -1.040167     -0.220510      0.698664
  O       1.616021     -1.321160      0.017432
  H       1.852605     -0.506232      1.942763
  H       3.384084     -0.512030      0.835602
  H      -2.258639     -1.090147     -0.869525
  H      -3.114139     -0.870676      0.661154
  H      -2.778292      0.519147     -0.372711
  H      -0.278600      1.377938     -0.642845
  H       1.881184      0.397056     -1.147931
  H      -1.203121      0.407202      1.581245
  H      -0.651707     -1.175616      1.053031
15
Coordinates from ORCA-job freq E -271.028292870504
  C       2.315301     -0.607599      0.971217
  C      -2.379294     -0.429316     -0.011489
  C      -0.028759      0.426647     -0.188032
  C       1.208078     -0.066208     -0.437253
  C      -1.040137     -0.220741      0.698529
  O       1.616242     -1.321143      0.017545
  H       1.852551     -0.506021      1.942828
  H       3.384129     -0.511717      0.835797
  H      -2.259060     -1.089927     -0.869567
  H      -3.114251     -0.870447      0.661277
  H      -2.778279      0.519418     -0.372473
  H      -0.278649      1.377677     -0.643069
  H       1.881273      0.397013     -1.147930
  H      -1.202843      0.406798      1.581282
  H      -0.651770     -1.175979      1.052645
15
Coordinates from ORCA-job freq E -271.028296538021
  C       2.315325     -0.607530      0.971259
  C      -2.379330     -0.429255     -0.011472
  C      -0.028780      0.426574     -0.188071
  C       1.208093     -0.066212     -0.437255
  C      -1.040122     -0.220852      0.698487
  O       1.616313     -1.321119      0.017586
  H       1.852546     -0.505888      1.942848
  H       3.384159     -0.511646      0.835873
  H      -2.259216     -1.089913     -0.869527
  H      -3.114331     -0.870254      0.661331
  H      -2.778182      0.519523     -0.372485
  H      -0.278711      1.377580     -0.643129
  H       1.881275      0.397021     -1.147930
  H      -1.202723      0.406583      1.581338
  H      -0.651782     -1.176155      1.052454
15
Coordinates from ORCA-job freq E -271.028299050457
  C       2.315399     -0.607227      0.971441
  C      -2.379504     -0.429019     -0.011392
  C      -0.028769      0.426238     -0.188279
  C       1.208212     -0.066378     -0.437262
  C      -1.040080     -0.221193      0.698307
  O       1.616616     -1.321130      0.017831
  H       1.852513     -0.505556      1.942975
  H       3.384215     -0.511107      0.836106
  H      -2.259776     -1.089408     -0.869712
  H      -3.114474     -0.870062      0.661420
  H      -2.778198      0.519984     -0.371983
  H      -0.278799      1.377140     -0.643504
  H       1.881376      0.396851     -1.147955
  H      -1.202311      0.406010      1.581396
  H      -0.651888     -1.176688      1.051919
15
Coordinates from ORCA-job freq E -271.028297808824
  C       2.315427     -0.607009      0.971587
  C      -2.379637     -0.428845     -0.011317
  C      -0.028756      0.425976     -0.188468
  C       1.208314     -0.066488     -0.437296
  C      -1.040028     -0.221462      0.698153
  O       1.616874     -1.321126      0.017967
  H       1.852405     -0.505311      1.943054
  H       3.384241     -0.510712      0.836358
  H      -2.260244     -1.089070     -0.869810
  H      -3.114566     -0.869869      0.661549
  H      -2.778200      0.520327     -0.371617
  H      -0.278865      1.376814     -0.643794
  H       1.881479      0.396773     -1.147973
  H      -1.201961      0.405563      1.581427
  H      -0.651947     -1.177104      1.051487
15
Coordinates from ORCA-job freq E -271.028293238969
  C       2.315411     -0.607030      0.971584
  C      -2.379631     -0.428854     -0.011300
  C      -0.028769      0.425986     -0.188486
  C       1.208321     -0.066423     -0.437323
  C      -1.040010     -0.221482      0.698144
  O       1.616904     -1.321082      0.017883
  H       1.852342     -0.505352      1.943035
  H       3.384240     -0.510782      0.836440
  H      -2.260296     -1.089245     -0.869675
  H      -3.114613     -0.869688      0.661633
  H      -2.778100      0.520290     -0.371773
  H      -0.278911      1.376826     -0.643780
  H       1.881491      0.396897     -1.147955
  H      -1.201929      0.405523      1.581436
  H      -0.651917     -1.177130      1.051445
15
Coordinates from ORCA-job freq E -271.028298582931
  C       2.315361     -0.607134      0.971549
  C      -2.379583     -0.428939     -0.011296
  C      -0.028779      0.426109     -0.188463
  C       1.208300     -0.066293     -0.437353
  C      -1.039991     -0.221405      0.698169
  O       1.616833     -1.321016      0.017736
  H       1.852264     -0.505484      1.942989
  H       3.384215     -0.511029      0.836483
  H      -2.260219     -1.089573     -0.869482
  H      -3.114618     -0.869570      0.661712
  H      -2.778010      0.520115     -0.372058
  H      -0.278921      1.376991     -0.643684
  H       1.881484      0.397061     -1.147944
  H      -1.201974      0.405630      1.581429
  H      -0.651828     -1.177009      1.051521
15
Coordinates from ORCA-job freq E -271.028299487928
  C       2.315289     -0.607364      0.971423
  C      -2.379463     -0.429123     -0.011330
  C      -0.028802      0.426370     -0.188342
  C       1.208226     -0.066095     -0.437355
  C      -1.039999     -0.221193      0.698264
  O       1.616616     -1.320961      0.017504
  H       1.852242     -0.505741      1.942887
  H       3.384166     -0.511493      0.836377
  H      -2.259914     -1.090128     -0.869205
  H      -3.114583     -0.869501      0.661751
  H      -2.777888      0.519745     -0.372580
  H      -0.278898      1.377330     -0.643418
  H       1.881449      0.397311     -1.147877
  H      -1.202216      0.405962      1.581388
  H      -0.651694     -1.176665      1.051818
15
Coordinates from ORCA-job freq E -271.028292898379
  C       2.315336     -0.607274      0.971472
  C      -2.379517     -0.429051     -0.011317
  C      -0.028805      0.426266     -0.188380
  C       1.208258     -0.066148     -0.437347
  C      -1.040009     -0.221286      0.698223
  O       1.616716     -1.320967      0.017581
  H       1.852280     -0.505659      1.942933
  H       3.384204     -0.511325      0.836406
  H      -2.260056     -1.089981     -0.869261
  H      -3.114638     -0.869440      0.661754
  H      -2.777896      0.519877     -0.372457
  H      -0.278911      1.377196     -0.643513
  H       1.881464      0.397254     -1.147890
  H      -1.202135      0.405799      1.581417
  H      -0.651758     -1.176807      1.051686
15
Coordinates from ORCA-job freq E -271.028292567985
  C       2.315389     -0.607039      0.971604
  C      -2.379634     -0.428859     -0.011272
  C      -0.028793      0.426005     -0.188514
  C       1.208335     -0.066311     -0.437337
  C      -1.039982     -0.221538      0.698103
  O       1.616917     -1.321001      0.017809
  H       1.852280     -0.505356      1.943032
  H       3.384236     -0.510882      0.836524
  H      -2.260429     -1.089514     -0.869465
  H      -3.114704     -0.869367      0.661777
  H      -2.777932      0.520249     -0.372021
  H      -0.278966      1.376852     -0.643790
  H       1.881523      0.397060     -1.147917
  H      -1.201845      0.405371      1.581474
  H      -0.651862     -1.177217      1.051301
15
Coordinates from ORCA-job freq E -271.028290950679
  C       2.315452     -0.606766      0.971770
  C      -2.379796     -0.428648     -0.011208
  C      -0.028768      0.425708     -0.188700
  C       1.208447     -0.066482     -0.437343
  C      -1.039944     -0.221834      0.697943
  O       1.617182     -1.321027      0.018048
  H       1.852253     -0.505048      1.943153
  H       3.384279     -0.510373      0.836721
  H      -2.260926     -1.089011     -0.869676
  H      -3.114798     -0.869266      0.661843
  H      -2.778004      0.520674     -0.371515
  H      -0.279015      1.376467     -0.644121
  H       1.881616      0.396864     -1.147956
  H      -1.201482      0.404881      1.581518
  H      -0.651963     -1.177685      1.050832
15
Coordinates from ORCA-job freq E -271.028298309012
  C       2.315493     -0.606624      0.971871
  C      -2.379885     -0.428525     -0.011166
  C      -0.028767      0.425532     -0.188814
  C       1.208510     -0.066561     -0.437361
  C      -1.039921     -0.222011      0.697849
  O       1.617362     -1.321025      0.018150
  H       1.852221     -0.504887      1.943213
  H       3.384316     -0.510104      0.836876
  H      -2.261218     -1.088765     -0.869753
  H      -3.114868     -0.869142      0.661904
  H      -2.778004      0.520909     -0.371268
  H      -0.279083      1.376233     -0.644311
  H       1.881667      0.396797     -1.147979
  H      -1.201270      0.404589      1.581544
  H      -0.652019     -1.177961      1.050553
15
Coordinates from ORCA-job freq E -271.028288127689
  C       2.315428     -0.606756      0.971802
  C      -2.379807     -0.428635     -0.011174
  C      -0.028784      0.425679     -0.188772
  C       1.208468     -0.066427     -0.437388
  C      -1.039908     -0.221899      0.697898
  O       1.617248     -1.320976      0.017985
  H       1.852153     -0.505047      1.943146
  H       3.384277     -0.510400      0.836875
  H      -2.261059     -1.089120     -0.869560
  H      -3.114844     -0.869065      0.661958
  H      -2.777902      0.520692     -0.371582
  H      -0.279086      1.376427     -0.644162
  H       1.881650      0.396980     -1.147948
  H      -1.201384      0.404775      1.581518
  H      -0.651916     -1.177771      1.050712
15
Coordinates from ORCA-job freq E -271.028282173675
  C       2.315258     -0.607307      0.971477
  C      -2.379519     -0.429082     -0.011264
  C      -0.028811      0.426301     -0.188457
  C       1.208298     -0.066004     -0.437408
  C      -1.039949     -0.221337      0.698167
  O       1.616769     -1.320874      0.017404
  H       1.852087     -0.505747      1.942892
  H       3.384166     -0.511448      0.836610
  H      -2.260239     -1.090368     -0.868961
  H      -3.114727     -0.869054      0.661984
  H      -2.777699      0.519798     -0.372754
  H      -0.278972      1.377259     -0.643509
  H       1.881542      0.397510     -1.147836
  H      -1.202012      0.405685      1.581419
  H      -0.651657     -1.176878      1.051544
15
Coordinates from ORCA-job freq E -271.028297307011
  C       2.315312     -0.607265      0.971503
  C      -2.379551     -0.429045     -0.011272
  C      -0.028812      0.426250     -0.188453
  C       1.208309     -0.066038     -0.437385
  C      -1.039968     -0.221376      0.698150
  O       1.616821     -1.320879      0.017459
  H       1.852160     -0.505715      1.942925
  H       3.384205     -0.511346      0.836586
  H      -2.260313     -1.090286     -0.869006
  H      -3.114760     -0.869031      0.661964
  H      -2.777717      0.519862     -0.372706
  H      -0.278972      1.377191     -0.643539
  H       1.881533      0.397464     -1.147846
  H      -1.201998      0.405613      1.581429
  H      -0.651717     -1.176945      1.051499
15
Coordinates from ORCA-job freq E -271.028291538543
  C       2.315580     -0.606509      0.971947
  C      -2.379984     -0.428430     -0.011144
  C      -0.028769      0.425380     -0.188892
  C       1.208572     -0.066597     -0.437347
  C      -1.039927     -0.222172      0.697757
  O       1.617536     -1.321002      0.018226
  H       1.852277     -0.504794      1.943273
  H       3.384394     -0.509877      0.836957
  H      -2.261551     -1.088675     -0.869759
  H      -3.114992     -0.868917      0.661981
  H      -2.777966      0.521083     -0.371188
  H      -0.279123      1.376049     -0.644441
  H       1.881719      0.396805     -1.147945
  H      -1.201125      0.404319      1.581555
  H      -0.652107     -1.178207      1.050328
15
Coordinates from ORCA-job freq E -271.028290963720
  C       2.315392     -0.606906      0.971687
  C      -2.379736     -0.428766     -0.011206
  C      -0.028785      0.425855     -0.188655
  C       1.208439     -0.066286     -0.437368
  C      -1.039933     -0.221747      0.697973
  O       1.617141     -1.320945      0.017784
  H       1.852164     -0.505297      1.943066
  H       3.384250     -0.510668      0.836763
  H      -2.260884     -1.089594     -0.869315
  H      -3.114868     -0.868937      0.661996
  H      -2.777797      0.520414     -0.372049
  H      -0.279028      1.376676     -0.643945
  H       1.881631      0.397182     -1.147875
  H      -1.201581      0.405005      1.581506
  H      -0.651873     -1.177530      1.050947
15
Coordinates from ORCA-job freq E -271.028297501045
  C       2.315377     -0.606982      0.971681
  C      -2.379706     -0.428799     -0.011202
  C      -0.028798      0.425908     -0.188650
  C       1.208416     -0.066222     -0.437401
  C      -1.039922     -0.221715      0.697990
  O       1.617122     -1.320903      0.017694
  H       1.852108     -0.505362      1.943038
  H       3.384248     -0.510790      0.836810
  H      -2.260824     -1.089755     -0.869206
  H      -3.114868     -0.868858      0.662040
  H      -2.777732      0.520333     -0.372193
  H      -0.279065      1.376741     -0.643907
  H       1.881618      0.397285     -1.147877
  H      -1.201602      0.405058      1.581499
  H      -0.651840     -1.177485      1.050990
