15
* (null), Energy   -1000.0000000
C     2.315377   -0.606982    0.971681    0.620358   -0.700991    0.670143
C    -2.379706   -0.428799   -0.011202    0.012498   -0.009219   -0.009398
C    -0.028798    0.425908   -0.188650    0.032143   -0.001328   -0.075270
C     1.208416   -0.066222   -0.437401   -0.816098   -0.056571   -0.848673
C    -1.039922   -0.221715    0.697990   -0.002510    0.001445    0.001535
O     1.617122   -1.320903    0.017694    0.079067    0.558259    0.148161
H     1.852108   -0.505362    1.943038    0.211494    0.127492    0.342099
H     3.384248   -0.510790    0.836810    0.498188   -0.387764    0.378256
H    -2.260824   -1.089755   -0.869206    0.013044   -0.003046   -0.014205
H    -3.114868   -0.868858    0.662040    0.000651   -0.011183   -0.024955
H    -2.777732    0.520333   -0.372193    0.007247   -0.009328   -0.007639
H    -0.279065    1.376741   -0.643907   -0.070700    0.031951    0.022035
H     1.881618    0.397285   -1.147877   -0.169755    0.393743    0.058918
H    -1.201602    0.405058    1.581499    0.029404    0.074360   -0.066671
H    -0.651840   -1.177485    1.050990    0.055823    0.058382    0.078432
15
* Frequency(6) -740.3824
C     2.385878   -0.686646    1.047839    0.620358   -0.700991    0.670143
C    -2.378285   -0.429847   -0.012270    0.012498   -0.009219   -0.009398
C    -0.025145    0.425757   -0.197204    0.032143   -0.001328   -0.075270
C     1.115670   -0.072651   -0.533848   -0.816098   -0.056571   -0.848673
C    -1.040207   -0.221551    0.698165   -0.002510    0.001445    0.001535
O     1.626107   -1.257459    0.034532    0.079067    0.558259    0.148161
H     1.876143   -0.490873    1.981916    0.211494    0.127492    0.342099
H     3.440865   -0.554857    0.879797    0.498188   -0.387764    0.378256
H    -2.259342   -1.090101   -0.870820    0.013044   -0.003046   -0.014205
H    -3.114794   -0.870129    0.659204    0.000651   -0.011183   -0.024955
H    -2.776909    0.519273   -0.373061    0.007247   -0.009328   -0.007639
H    -0.287099    1.380372   -0.641403   -0.070700    0.031951    0.022035
H     1.862326    0.442032   -1.141181   -0.169755    0.393743    0.058918
H    -1.198260    0.413509    1.573923    0.029404    0.074360   -0.066671
H    -0.645496   -1.170850    1.059904    0.055823    0.058382    0.078432
15
* Frequency(6) -740.3824
C     2.448739   -0.757677    1.115744    0.620358   -0.700991    0.670143
C    -2.377019   -0.430781   -0.013222    0.012498   -0.009219   -0.009398
C    -0.021888    0.425623   -0.204831    0.032143   -0.001328   -0.075270
C     1.032976   -0.078383   -0.619844   -0.816098   -0.056571   -0.848673
C    -1.040461   -0.221404    0.698320   -0.002510    0.001445    0.001535
O     1.634119   -1.200891    0.049545    0.079067    0.558259    0.148161
H     1.897574   -0.477954    2.016581    0.211494    0.127492    0.342099
H     3.491346   -0.594149    0.918126    0.498188   -0.387764    0.378256
H    -2.258020   -1.090410   -0.872259    0.013044   -0.003046   -0.014205
H    -3.114728   -0.871262    0.656675    0.000651   -0.011183   -0.024955
H    -2.776174    0.518328   -0.373835    0.007247   -0.009328   -0.007639
H    -0.294263    1.383609   -0.639170   -0.070700    0.031951    0.022035
H     1.845125    0.481930   -1.135211   -0.169755    0.393743    0.058918
H    -1.195280    0.421043    1.567167    0.029404    0.074360   -0.066671
H    -0.639839   -1.164934    1.067851    0.055823    0.058382    0.078432
15
* Frequency(6) -740.3824
C     2.497147   -0.812378    1.168038    0.620358   -0.700991    0.670143
C    -2.376044   -0.431501   -0.013955    0.012498   -0.009219   -0.009398
C    -0.019380    0.425519   -0.210705    0.032143   -0.001328   -0.075270
C     0.969292   -0.082797   -0.686069   -0.816098   -0.056571   -0.848673
C    -1.040657   -0.221291    0.698440   -0.002510    0.001445    0.001535
O     1.640289   -1.157328    0.061106    0.079067    0.558259    0.148161
H     1.914077   -0.468005    2.043276    0.211494    0.127492    0.342099
H     3.530222   -0.624408    0.947642    0.498188   -0.387764    0.378256
H    -2.257002   -1.090647   -0.873368    0.013044   -0.003046   -0.014205
H    -3.114677   -0.872135    0.654728    0.000651   -0.011183   -0.024955
H    -2.775609    0.517600   -0.374431    0.007247   -0.009328   -0.007639
H    -0.299780    1.386103   -0.637451   -0.070700    0.031951    0.022035
H     1.831878    0.512655   -1.130613   -0.169755    0.393743    0.058918
H    -1.192986    0.426846    1.561964    0.029404    0.074360   -0.066671
H    -0.635483   -1.160379    1.073971    0.055823    0.058382    0.078432
15
* Frequency(6) -740.3824
C     2.525859   -0.844821    1.199054    0.620358   -0.700991    0.670143
C    -2.375465   -0.431927   -0.014390    0.012498   -0.009219   -0.009398
C    -0.017893    0.425458   -0.214188    0.032143   -0.001328   -0.075270
C     0.931522   -0.085416   -0.725347   -0.816098   -0.056571   -0.848673
C    -1.040773   -0.221224    0.698511   -0.002510    0.001445    0.001535
O     1.643949   -1.131491    0.067963    0.079067    0.558259    0.148161
H     1.923866   -0.462105    2.059109    0.211494    0.127492    0.342099
H     3.553279   -0.642354    0.965149    0.498188   -0.387764    0.378256
H    -2.256399   -1.090788   -0.874025    0.013044   -0.003046   -0.014205
H    -3.114647   -0.872653    0.653573    0.000651   -0.011183   -0.024955
H    -2.775273    0.517168   -0.374785    0.007247   -0.009328   -0.007639
H    -0.303052    1.387581   -0.636431   -0.070700    0.031951    0.022035
H     1.824022    0.530878   -1.127886   -0.169755    0.393743    0.058918
H    -1.191625    0.430287    1.558879    0.029404    0.074360   -0.066671
H    -0.632899   -1.157677    1.077601    0.055823    0.058382    0.078432
15
* Frequency(6) -740.3824
C     2.531761   -0.851491    1.205430    0.620358   -0.700991    0.670143
C    -2.375346   -0.432015   -0.014480    0.012498   -0.009219   -0.009398
C    -0.017587    0.425445   -0.214904    0.032143   -0.001328   -0.075270
C     0.923757   -0.085954   -0.733422   -0.816098   -0.056571   -0.848673
C    -1.040797   -0.221211    0.698526   -0.002510    0.001445    0.001535
O     1.644701   -1.126179    0.069373    0.079067    0.558259    0.148161
H     1.925878   -0.460892    2.062364    0.211494    0.127492    0.342099
H     3.558019   -0.646044    0.968748    0.498188   -0.387764    0.378256
H    -2.256274   -1.090817   -0.874160    0.013044   -0.003046   -0.014205
H    -3.114641   -0.872759    0.653336    0.000651   -0.011183   -0.024955
H    -2.775204    0.517079   -0.374858    0.007247   -0.009328   -0.007639
H    -0.303725    1.387885   -0.636221   -0.070700    0.031951    0.022035
H     1.822407    0.534625   -1.127326   -0.169755    0.393743    0.058918
H    -1.191345    0.430995    1.558244    0.029404    0.074360   -0.066671
H    -0.632368   -1.157121    1.078348    0.055823    0.058382    0.078432
15
* Frequency(6) -740.3824
C     2.514215   -0.831664    1.186475    0.620358   -0.700991    0.670143
C    -2.375700   -0.431754   -0.014214    0.012498   -0.009219   -0.009398
C    -0.018496    0.425483   -0.212775    0.032143   -0.001328   -0.075270
C     0.946839   -0.084354   -0.709418   -0.816098   -0.056571   -0.848673
C    -1.040726   -0.221252    0.698482   -0.002510    0.001445    0.001535
O     1.642465   -1.141969    0.065182    0.079067    0.558259    0.148161
H     1.919896   -0.464498    2.052688    0.211494    0.127492    0.342099
H     3.543928   -0.635076    0.958049    0.498188   -0.387764    0.378256
H    -2.256643   -1.090731   -0.873759    0.013044   -0.003046   -0.014205
H    -3.114659   -0.872443    0.654042    0.000651   -0.011183   -0.024955
H    -2.775409    0.517343   -0.374642    0.007247   -0.009328   -0.007639
H    -0.301725    1.386982   -0.636845   -0.070700    0.031951    0.022035
H     1.827208    0.523488   -1.128992   -0.169755    0.393743    0.058918
H    -1.192177    0.428892    1.560130    0.029404    0.074360   -0.066671
H    -0.633947   -1.158772    1.076129    0.055823    0.058382    0.078432
15
* Frequency(6) -740.3824
C     2.475122   -0.787489    1.144245    0.620358   -0.700991    0.670143
C    -2.376487   -0.431173   -0.013622    0.012498   -0.009219   -0.009398
C    -0.020521    0.425566   -0.208032    0.032143   -0.001328   -0.075270
C     0.998268   -0.080789   -0.655937   -0.816098   -0.056571   -0.848673
C    -1.040568   -0.221343    0.698386   -0.002510    0.001445    0.001535
O     1.637482   -1.177149    0.055846    0.079067    0.558259    0.148161
H     1.906568   -0.472532    2.031130    0.211494    0.127492    0.342099
H     3.512534   -0.610640    0.934213    0.498188   -0.387764    0.378256
H    -2.257465   -1.090539   -0.872864    0.013044   -0.003046   -0.014205
H    -3.114700   -0.871738    0.655614    0.000651   -0.011183   -0.024955
H    -2.775866    0.517931   -0.374160    0.007247   -0.009328   -0.007639
H    -0.297270    1.384968   -0.638233   -0.070700    0.031951    0.022035
H     1.837905    0.498675   -1.132705   -0.169755    0.393743    0.058918
H    -1.194030    0.424206    1.564331    0.029404    0.074360   -0.066671
H    -0.637465   -1.162452    1.071187    0.055823    0.058382    0.078432
15
* Frequency(6) -740.3824
C     2.418718   -0.723754    1.083314    0.620358   -0.700991    0.670143
C    -2.377624   -0.430335   -0.012767    0.012498   -0.009219   -0.009398
C    -0.023444    0.425687   -0.201189    0.032143   -0.001328   -0.075270
C     1.072469   -0.075645   -0.578774   -0.816098   -0.056571   -0.848673
C    -1.040340   -0.221474    0.698246   -0.002510    0.001445    0.001535
O     1.630293   -1.227907    0.042375    0.079067    0.558259    0.148161
H     1.887339   -0.484124    2.000025    0.211494    0.127492    0.342099
H     3.467237   -0.575384    0.899821    0.498188   -0.387764    0.378256
H    -2.258651   -1.090262   -0.871572    0.013044   -0.003046   -0.014205
H    -3.114759   -0.870721    0.657883    0.000651   -0.011183   -0.024955
H    -2.776525    0.518779   -0.373466    0.007247   -0.009328   -0.007639
H    -0.290842    1.382063   -0.640237   -0.070700    0.031951    0.022035
H     1.853340    0.462876   -1.138062   -0.169755    0.393743    0.058918
H    -1.196703    0.417445    1.570393    0.029404    0.074360   -0.066671
H    -0.642540   -1.167760    1.064056    0.055823    0.058382    0.078432
15
* Frequency(6) -740.3824
C     2.351115   -0.647365    1.010286    0.620358   -0.700991    0.670143
C    -2.378986   -0.429330   -0.011743    0.012498   -0.009219   -0.009398
C    -0.026947    0.425832   -0.192986    0.032143   -0.001328   -0.075270
C     1.161402   -0.069481   -0.486291   -0.816098   -0.056571   -0.848673
C    -1.040066   -0.221632    0.698079   -0.002510    0.001445    0.001535
O     1.621677   -1.288742    0.026229    0.079067    0.558259    0.148161
H     1.864292   -0.498017    1.962746    0.211494    0.127492    0.342099
H     3.412948   -0.533128    0.858601    0.498188   -0.387764    0.378256
H    -2.260073   -1.089930   -0.870024    0.013044   -0.003046   -0.014205
H    -3.114830   -0.869503    0.660603    0.000651   -0.011183   -0.024955
H    -2.777315    0.519796   -0.372633    0.007247   -0.009328   -0.007639
H    -0.283138    1.378581   -0.642638   -0.070700    0.031951    0.022035
H     1.871839    0.419968   -1.144482   -0.169755    0.393743    0.058918
H    -1.199908    0.409342    1.577659    0.029404    0.074360   -0.066671
H    -0.648624   -1.174122    1.055509    0.055823    0.058382    0.078432
15
* Frequency(6) -740.3824
C     2.279640   -0.566599    0.933075    0.620358   -0.700991    0.670143
C    -2.380426   -0.428268   -0.010660    0.012498   -0.009219   -0.009398
C    -0.030650    0.425985   -0.184314    0.032143   -0.001328   -0.075270
C     1.255430   -0.062963   -0.388510   -0.816098   -0.056571   -0.848673
C    -1.039777   -0.221798    0.697902   -0.002510    0.001445    0.001535
O     1.612567   -1.353063    0.009159    0.079067    0.558259    0.148161
H     1.839924   -0.512706    1.923330    0.211494    0.127492    0.342099
H     3.355549   -0.488452    0.815020    0.498188   -0.387764    0.378256
H    -2.261576   -1.089579   -0.868387    0.013044   -0.003046   -0.014205
H    -3.114905   -0.868214    0.663478    0.000651   -0.011183   -0.024955
H    -2.778150    0.520871   -0.371753    0.007247   -0.009328   -0.007639
H    -0.274992    1.374900   -0.645176   -0.070700    0.031951    0.022035
H     1.891397    0.374603   -1.151271   -0.169755    0.393743    0.058918
H    -1.203296    0.400774    1.585340    0.029404    0.074360   -0.066671
H    -0.655055   -1.180849    1.046472    0.055823    0.058382    0.078432
15
* Frequency(6) -740.3824
C     2.212037   -0.490210    0.860047    0.620358   -0.700991    0.670143
C    -2.381788   -0.427264   -0.009636    0.012498   -0.009219   -0.009398
C    -0.034153    0.426129   -0.176111    0.032143   -0.001328   -0.075270
C     1.344363   -0.056798   -0.296027   -0.816098   -0.056571   -0.848673
C    -1.039504   -0.221956    0.697735   -0.002510    0.001445    0.001535
O     1.603951   -1.413898   -0.006987    0.079067    0.558259    0.148161
H     1.816877   -0.526599    1.886051    0.211494    0.127492    0.342099
H     3.301259   -0.446196    0.773800    0.498188   -0.387764    0.378256
H    -2.262997   -1.089247   -0.866840    0.013044   -0.003046   -0.014205
H    -3.114976   -0.866996    0.666197    0.000651   -0.011183   -0.024955
H    -2.778940    0.521887   -0.370921    0.007247   -0.009328   -0.007639
H    -0.267287    1.371418   -0.647578   -0.070700    0.031951    0.022035
H     1.909896    0.331695   -1.157691   -0.169755    0.393743    0.058918
H    -1.206500    0.392671    1.592606    0.029404    0.074360   -0.066671
H    -0.661139   -1.187211    1.037925    0.055823    0.058382    0.078432
15
* Frequency(6) -740.3824
C     2.155633   -0.426474    0.799117    0.620358   -0.700991    0.670143
C    -2.382924   -0.426425   -0.008782    0.012498   -0.009219   -0.009398
C    -0.037075    0.426250   -0.169268    0.032143   -0.001328   -0.075270
C     1.418564   -0.051655   -0.218864   -0.816098   -0.056571   -0.848673
C    -1.039275   -0.222087    0.697595   -0.002510    0.001445    0.001535
O     1.596762   -1.464656   -0.020458    0.079067    0.558259    0.148161
H     1.797647   -0.538191    1.854946    0.211494    0.127492    0.342099
H     3.255963   -0.410939    0.739408    0.498188   -0.387764    0.378256
H    -2.264183   -1.088971   -0.865548    0.013044   -0.003046   -0.014205
H    -3.115036   -0.865979    0.668466    0.000651   -0.011183   -0.024955
H    -2.779599    0.522735   -0.370226    0.007247   -0.009328   -0.007639
H    -0.260859    1.368513   -0.649581   -0.070700    0.031951    0.022035
H     1.925330    0.295895   -1.163048   -0.169755    0.393743    0.058918
H    -1.209173    0.385910    1.598668    0.029404    0.074360   -0.066671
H    -0.666214   -1.192519    1.030794    0.055823    0.058382    0.078432
15
* Frequency(6) -740.3824
C     2.116540   -0.382300    0.756886    0.620358   -0.700991    0.670143
C    -2.383712   -0.425844   -0.008189    0.012498   -0.009219   -0.009398
C    -0.039101    0.426334   -0.164525    0.032143   -0.001328   -0.075270
C     1.469992   -0.048090   -0.165383   -0.816098   -0.056571   -0.848673
C    -1.039117   -0.222178    0.697498   -0.002510    0.001445    0.001535
O     1.591779   -1.499836   -0.029795    0.079067    0.558259    0.148161
H     1.784320   -0.546225    1.833388    0.211494    0.127492    0.342099
H     3.224569   -0.386504    0.715571    0.498188   -0.387764    0.378256
H    -2.265005   -1.088779   -0.864653    0.013044   -0.003046   -0.014205
H    -3.115077   -0.865274    0.670039    0.000651   -0.011183   -0.024955
H    -2.780055    0.523323   -0.369745    0.007247   -0.009328   -0.007639
H    -0.256404    1.366500   -0.650970   -0.070700    0.031951    0.022035
H     1.936028    0.271083   -1.166761   -0.169755    0.393743    0.058918
H    -1.211026    0.381224    1.602869    0.029404    0.074360   -0.066671
H    -0.669732   -1.196198    1.025851    0.055823    0.058382    0.078432
15
* Frequency(6) -740.3824
C     2.098994   -0.362473    0.737932    0.620358   -0.700991    0.670143
C    -2.384065   -0.425584   -0.007924    0.012498   -0.009219   -0.009398
C    -0.040010    0.426371   -0.162396    0.032143   -0.001328   -0.075270
C     1.493075   -0.046490   -0.141380   -0.816098   -0.056571   -0.848673
C    -1.039046   -0.222219    0.697455   -0.002510    0.001445    0.001535
O     1.589543   -1.515626   -0.033985    0.079067    0.558259    0.148161
H     1.778338   -0.549831    1.823712    0.211494    0.127492    0.342099
H     3.210478   -0.375536    0.704873    0.498188   -0.387764    0.378256
H    -2.265374   -1.088692   -0.864251    0.013044   -0.003046   -0.014205
H    -3.115095   -0.864958    0.670745    0.000651   -0.011183   -0.024955
H    -2.780260    0.523587   -0.369529    0.007247   -0.009328   -0.007639
H    -0.254404    1.365596   -0.651593   -0.070700    0.031951    0.022035
H     1.940829    0.259946   -1.168428   -0.169755    0.393743    0.058918
H    -1.211858    0.379121    1.604755    0.029404    0.074360   -0.066671
H    -0.671311   -1.197849    1.023633    0.055823    0.058382    0.078432
15
* Frequency(6) -740.3824
C     2.104896   -0.369142    0.744308    0.620358   -0.700991    0.670143
C    -2.383946   -0.425671   -0.008013    0.012498   -0.009219   -0.009398
C    -0.039704    0.426359   -0.163112    0.032143   -0.001328   -0.075270
C     1.485310   -0.047028   -0.149454   -0.816098   -0.056571   -0.848673
C    -1.039070   -0.222205    0.697470   -0.002510    0.001445    0.001535
O     1.590295   -1.510314   -0.032576    0.079067    0.558259    0.148161
H     1.780350   -0.548618    1.826967    0.211494    0.127492    0.342099
H     3.215218   -0.379225    0.708472    0.498188   -0.387764    0.378256
H    -2.265250   -1.088721   -0.864386    0.013044   -0.003046   -0.014205
H    -3.115089   -0.865064    0.670507    0.000651   -0.011183   -0.024955
H    -2.780191    0.523498   -0.369602    0.007247   -0.009328   -0.007639
H    -0.255077    1.365900   -0.651383   -0.070700    0.031951    0.022035
H     1.939214    0.263692   -1.167867   -0.169755    0.393743    0.058918
H    -1.211578    0.379828    1.604120    0.029404    0.074360   -0.066671
H    -0.670780   -1.197294    1.024379    0.055823    0.058382    0.078432
15
* Frequency(6) -740.3824
C     2.133607   -0.401586    0.775323    0.620358   -0.700991    0.670143
C    -2.383368   -0.426098   -0.008448    0.012498   -0.009219   -0.009398
C    -0.038217    0.426297   -0.166595    0.032143   -0.001328   -0.075270
C     1.447539   -0.049646   -0.188732   -0.816098   -0.056571   -0.848673
C    -1.039186   -0.222138    0.697541   -0.002510    0.001445    0.001535
O     1.593955   -1.484477   -0.025719    0.079067    0.558259    0.148161
H     1.790138   -0.542718    1.842800    0.211494    0.127492    0.342099
H     3.238275   -0.397172    0.725978    0.498188   -0.387764    0.378256
H    -2.264646   -1.088862   -0.865044    0.013044   -0.003046   -0.014205
H    -3.115059   -0.865582    0.669352    0.000651   -0.011183   -0.024955
H    -2.779856    0.523066   -0.369955    0.007247   -0.009328   -0.007639
H    -0.258349    1.367379   -0.650363   -0.070700    0.031951    0.022035
H     1.931358    0.281915   -1.165140   -0.169755    0.393743    0.058918
H    -1.210217    0.383270    1.601035    0.029404    0.074360   -0.066671
H    -0.668196   -1.194592    1.028009    0.055823    0.058382    0.078432
15
* Frequency(6) -740.3824
C     2.182016   -0.456287    0.827617    0.620358   -0.700991    0.670143
C    -2.382393   -0.426817   -0.009181    0.012498   -0.009219   -0.009398
C    -0.035708    0.426194   -0.172469    0.032143   -0.001328   -0.075270
C     1.383856   -0.054061   -0.254958   -0.816098   -0.056571   -0.848673
C    -1.039382   -0.222026    0.697660   -0.002510    0.001445    0.001535
O     1.600124   -1.440914   -0.014157    0.079067    0.558259    0.148161
H     1.806642   -0.532769    1.869496    0.211494    0.127492    0.342099
H     3.277151   -0.427431    0.755495    0.498188   -0.387764    0.378256
H    -2.263628   -1.089100   -0.866152    0.013044   -0.003046   -0.014205
H    -3.115008   -0.866454    0.667405    0.000651   -0.011183   -0.024955
H    -2.779290    0.522339   -0.370551    0.007247   -0.009328   -0.007639
H    -0.263866    1.369872   -0.648644   -0.070700    0.031951    0.022035
H     1.918111    0.312641   -1.160542   -0.169755    0.393743    0.058918
H    -1.207923    0.389072    1.595832    0.029404    0.074360   -0.066671
H    -0.663840   -1.190036    1.034129    0.055823    0.058382    0.078432
15
* Frequency(6) -740.3824
C     2.244877   -0.527318    0.895522    0.620358   -0.700991    0.670143
C    -2.381126   -0.427752   -0.010134    0.012498   -0.009219   -0.009398
C    -0.032451    0.426059   -0.180096    0.032143   -0.001328   -0.075270
C     1.301161   -0.059793   -0.340953   -0.816098   -0.056571   -0.848673
C    -1.039637   -0.221879    0.697816   -0.002510    0.001445    0.001535
O     1.608136   -1.384346    0.000856    0.079067    0.558259    0.148161
H     1.828073   -0.519850    1.904160    0.211494    0.127492    0.342099
H     3.327632   -0.466723    0.793823    0.498188   -0.387764    0.378256
H    -2.262307   -1.089409   -0.867591    0.013044   -0.003046   -0.014205
H    -3.114942   -0.867588    0.664876    0.000651   -0.011183   -0.024955
H    -2.778556    0.521393   -0.371325    0.007247   -0.009328   -0.007639
H    -0.271030    1.373110   -0.646411   -0.070700    0.031951    0.022035
H     1.900910    0.352538   -1.154572   -0.169755    0.393743    0.058918
H    -1.204943    0.396607    1.589076    0.029404    0.074360   -0.066671
H    -0.658184   -1.184120    1.042077    0.055823    0.058382    0.078432
15
* Frequency(6) -740.3824
C     2.315377   -0.606982    0.971681    0.620358   -0.700991    0.670143
C    -2.379706   -0.428799   -0.011202    0.012498   -0.009219   -0.009398
C    -0.028798    0.425908   -0.188650    0.032143   -0.001328   -0.075270
C     1.208416   -0.066222   -0.437401   -0.816098   -0.056571   -0.848673
C    -1.039922   -0.221715    0.697990   -0.002510    0.001445    0.001535
O     1.617122   -1.320903    0.017694    0.079067    0.558259    0.148161
H     1.852108   -0.505362    1.943038    0.211494    0.127492    0.342099
H     3.384248   -0.510790    0.836810    0.498188   -0.387764    0.378256
H    -2.260824   -1.089755   -0.869206    0.013044   -0.003046   -0.014205
H    -3.114868   -0.868858    0.662040    0.000651   -0.011183   -0.024955
H    -2.777732    0.520333   -0.372193    0.007247   -0.009328   -0.007639
H    -0.279065    1.376741   -0.643907   -0.070700    0.031951    0.022035
H     1.881618    0.397285   -1.147877   -0.169755    0.393743    0.058918
H    -1.201602    0.405058    1.581499    0.029404    0.074360   -0.066671
H    -0.651840   -1.177485    1.050990    0.055823    0.058382    0.078432
