11
Coordinates from ORCA-job freq E -231.179434095937
  C           1.70828298542094      0.23652236734647     -0.29482856886817
  C           0.82434864644755     -0.10532922704234      0.62908914661446
  C          -0.54169397721119     -0.58271046457490      0.31138049759965
  C          -1.55054900169388      0.32277733692351     -0.26325651001863
  O          -0.89481085276419     -0.64907332269700     -1.05362567848981
  H           1.46116836787441      0.16146909926488     -1.34580983593052
  H           2.69308875936333      0.59139695751172     -0.02628293935739
  H           1.07077841425515     -0.04833386003604      1.68363200968020
  H          -0.90643420595332     -1.41482573799071      0.90631643837638
  H          -2.60365976913101      0.14021215786277     -0.08432659879329
  H          -1.26051736660779      1.34789469343162     -0.46228696081289
