15
* (null), Energy   -1000.0000000
C     2.431399    0.364745    0.239820   -0.145264    0.176484    0.025216
C    -2.141216   -1.037965    0.757683   -0.011164   -0.012488   -0.008955
C     1.200291    0.457564   -0.592002   -0.568556    0.557740    0.173599
C    -1.043141   -1.113863   -0.300176   -0.126379   -0.061560   -0.157574
C    -0.069003   -0.007595   -0.156515   -0.056766   -0.637106    0.274499
O    -0.298013    1.262278   -0.049271    0.745992    0.058701   -0.156064
H     2.477669   -0.595393    0.755060   -0.288133    0.047090   -0.247029
H     2.405785    1.144530    1.005485    0.122603    0.008697    0.134563
H     3.330730    0.517267   -0.356180   -0.286829    0.099575   -0.198030
H    -2.634061   -0.067516    0.719367   -0.022977   -0.010977    0.015339
H    -2.890055   -1.811555    0.595040   -0.052238    0.010697    0.052024
H    -1.723347   -1.162868    1.756103    0.081469    0.013009   -0.043339
H     1.255711    0.994308   -1.533225    0.000574   -1.020070   -0.732115
H    -1.494222   -1.059128   -1.300024   -0.374133   -0.248546   -0.098520
H    -0.506183   -2.061952   -0.249641   -0.199773   -0.106063   -0.061399
15
* Frequency(6) -961.7196
C     2.414890    0.384801    0.242686   -0.145264    0.176484    0.025216
C    -2.142485   -1.039384    0.756665   -0.011164   -0.012488   -0.008955
C     1.135677    0.520949   -0.572273   -0.568556    0.557740    0.173599
C    -1.057503   -1.120858   -0.318083   -0.126379   -0.061560   -0.157574
C    -0.075454   -0.079999   -0.125319   -0.056766   -0.637106    0.274499
O    -0.213235    1.268949   -0.067007    0.745992    0.058701   -0.156064
H     2.444924   -0.590042    0.726987   -0.288133    0.047090   -0.247029
H     2.419718    1.145519    1.020777    0.122603    0.008697    0.134563
H     3.298133    0.528583   -0.378685   -0.286829    0.099575   -0.198030
H    -2.636672   -0.068763    0.721110   -0.022977   -0.010977    0.015339
H    -2.895991   -1.810339    0.600952   -0.052238    0.010697    0.052024
H    -1.714088   -1.161390    1.751178    0.081469    0.013009   -0.043339
H     1.255776    0.878382   -1.616426    0.000574   -1.020070   -0.732115
H    -1.536740   -1.087374   -1.311220   -0.374133   -0.248546   -0.098520
H    -0.528886   -2.074005   -0.256619   -0.199773   -0.106063   -0.061399
15
* Frequency(6) -961.7196
C     2.400171    0.402684    0.245241   -0.145264    0.176484    0.025216
C    -2.143616   -1.040649    0.755757   -0.011164   -0.012488   -0.008955
C     1.078066    0.577464   -0.554682   -0.568556    0.557740    0.173599
C    -1.070309   -1.127096   -0.334050   -0.126379   -0.061560   -0.157574
C    -0.081206   -0.144557   -0.097505   -0.056766   -0.637106    0.274499
O    -0.137644    1.274898   -0.082821    0.745992    0.058701   -0.156064
H     2.415728   -0.585270    0.701955   -0.288133    0.047090   -0.247029
H     2.432141    1.146400    1.034412    0.122603    0.008697    0.134563
H     3.269069    0.538673   -0.398752   -0.286829    0.099575   -0.198030
H    -2.639000   -0.069876    0.722665   -0.022977   -0.010977    0.015339
H    -2.901284   -1.809255    0.606224   -0.052238    0.010697    0.052024
H    -1.705833   -1.160072    1.746787    0.081469    0.013009   -0.043339
H     1.255835    0.775019   -1.690611    0.000574   -1.020070   -0.732115
H    -1.574651   -1.112559   -1.321203   -0.374133   -0.248546   -0.098520
H    -0.549129   -2.084753   -0.262840   -0.199773   -0.106063   -0.061399
15
* Frequency(6) -961.7196
C     2.388835    0.416456    0.247209   -0.145264    0.176484    0.025216
C    -2.144487   -1.041624    0.755059   -0.011164   -0.012488   -0.008955
C     1.033699    0.620987   -0.541136   -0.568556    0.557740    0.173599
C    -1.080171   -1.131900   -0.346346   -0.126379   -0.061560   -0.157574
C    -0.085636   -0.194272   -0.076084   -0.056766   -0.637106    0.274499
O    -0.079432    1.279478   -0.094999    0.745992    0.058701   -0.156064
H     2.393244   -0.581596    0.682679   -0.288133    0.047090   -0.247029
H     2.441709    1.147079    1.044913    0.122603    0.008697    0.134563
H     3.246686    0.546443   -0.414205   -0.286829    0.099575   -0.198030
H    -2.640793   -0.070732    0.723862   -0.022977   -0.010977    0.015339
H    -2.905361   -1.808420    0.610284   -0.052238    0.010697    0.052024
H    -1.699476   -1.159057    1.743405    0.081469    0.013009   -0.043339
H     1.255879    0.695419   -1.747740    0.000574   -1.020070   -0.732115
H    -1.603846   -1.131954   -1.328891   -0.374133   -0.248546   -0.098520
H    -0.564718   -2.093029   -0.267632   -0.199773   -0.106063   -0.061399
15
* Frequency(6) -961.7196
C     2.382112    0.424624    0.248376   -0.145264    0.176484    0.025216
C    -2.145004   -1.042202    0.754644   -0.011164   -0.012488   -0.008955
C     1.007385    0.646800   -0.533101   -0.568556    0.557740    0.173599
C    -1.086020   -1.134749   -0.353639   -0.126379   -0.061560   -0.157574
C    -0.088263   -0.223759   -0.063380   -0.056766   -0.637106    0.274499
O    -0.044906    1.282195   -0.102222    0.745992    0.058701   -0.156064
H     2.379909   -0.579416    0.671246   -0.288133    0.047090   -0.247029
H     2.447383    1.147481    1.051141    0.122603    0.008697    0.134563
H     3.233411    0.551051   -0.423370   -0.286829    0.099575   -0.198030
H    -2.641856   -0.071240    0.724571   -0.022977   -0.010977    0.015339
H    -2.907778   -1.807925    0.612691   -0.052238    0.010697    0.052024
H    -1.695705   -1.158455    1.741399    0.081469    0.013009   -0.043339
H     1.255906    0.648208   -1.781624    0.000574   -1.020070   -0.732115
H    -1.621161   -1.143457   -1.333451   -0.374133   -0.248546   -0.098520
H    -0.573964   -2.097938   -0.270473   -0.199773   -0.106063   -0.061399
15
* Frequency(6) -961.7196
C     2.380730    0.426303    0.248616   -0.145264    0.176484    0.025216
C    -2.145110   -1.042321    0.754559   -0.011164   -0.012488   -0.008955
C     1.001976    0.652106   -0.531450   -0.568556    0.557740    0.173599
C    -1.087223   -1.135335   -0.355138   -0.126379   -0.061560   -0.157574
C    -0.088803   -0.229821   -0.060768   -0.056766   -0.637106    0.274499
O    -0.037808    1.282754   -0.103707    0.745992    0.058701   -0.156064
H     2.377167   -0.578968    0.668895   -0.288133    0.047090   -0.247029
H     2.448549    1.147564    1.052421    0.122603    0.008697    0.134563
H     3.230682    0.551999   -0.425254   -0.286829    0.099575   -0.198030
H    -2.642075   -0.071345    0.724717   -0.022977   -0.010977    0.015339
H    -2.908275   -1.807824    0.613186   -0.052238    0.010697    0.052024
H    -1.694930   -1.158331    1.740987    0.081469    0.013009   -0.043339
H     1.255911    0.638503   -1.788590    0.000574   -1.020070   -0.732115
H    -1.624721   -1.145822   -1.334388   -0.374133   -0.248546   -0.098520
H    -0.575865   -2.098947   -0.271057   -0.199773   -0.106063   -0.061399
15
* Frequency(6) -961.7196
C     2.384839    0.421312    0.247902   -0.145264    0.176484    0.025216
C    -2.144794   -1.041967    0.754812   -0.011164   -0.012488   -0.008955
C     1.018057    0.636331   -0.536360   -0.568556    0.557740    0.173599
C    -1.083648   -1.133594   -0.350681   -0.126379   -0.061560   -0.157574
C    -0.087197   -0.211801   -0.068532   -0.056766   -0.637106    0.274499
O    -0.058908    1.281093   -0.099293    0.745992    0.058701   -0.156064
H     2.385317   -0.580300    0.675882   -0.288133    0.047090   -0.247029
H     2.445082    1.147318    1.048615    0.122603    0.008697    0.134563
H     3.238795    0.549182   -0.419653   -0.286829    0.099575   -0.198030
H    -2.641425   -0.071034    0.724284   -0.022977   -0.010977    0.015339
H    -2.906798   -1.808126    0.611715   -0.052238    0.010697    0.052024
H    -1.697234   -1.158699    1.742212    0.081469    0.013009   -0.043339
H     1.255895    0.667354   -1.767883    0.000574   -1.020070   -0.732115
H    -1.614139   -1.138792   -1.331602   -0.374133   -0.248546   -0.098520
H    -0.570214   -2.095947   -0.269321   -0.199773   -0.106063   -0.061399
15
* Frequency(6) -961.7196
C     2.393993    0.410190    0.246313   -0.145264    0.176484    0.025216
C    -2.144091   -1.041181    0.755377   -0.011164   -0.012488   -0.008955
C     1.053885    0.601184   -0.547299   -0.568556    0.557740    0.173599
C    -1.075684   -1.129714   -0.340751   -0.126379   -0.061560   -0.157574
C    -0.083620   -0.171652   -0.085830   -0.056766   -0.637106    0.274499
O    -0.105918    1.277394   -0.089458    0.745992    0.058701   -0.156064
H     2.403474   -0.583268    0.691450   -0.288133    0.047090   -0.247029
H     2.437356    1.146770    1.040135    0.122603    0.008697    0.134563
H     3.256870    0.542908   -0.407174   -0.286829    0.099575   -0.198030
H    -2.639977   -0.070342    0.723317   -0.022977   -0.010977    0.015339
H    -2.903506   -1.808800    0.608437   -0.052238    0.010697    0.052024
H    -1.702368   -1.159519    1.744943    0.081469    0.013009   -0.043339
H     1.255859    0.731637   -1.721747    0.000574   -1.020070   -0.732115
H    -1.590562   -1.123129   -1.325393   -0.374133   -0.248546   -0.098520
H    -0.557625   -2.089263   -0.265452   -0.199773   -0.106063   -0.061399
15
* Frequency(6) -961.7196
C     2.407200    0.394144    0.244021   -0.145264    0.176484    0.025216
C    -2.143076   -1.040045    0.756191   -0.011164   -0.012488   -0.008955
C     1.105580    0.550473   -0.563083   -0.568556    0.557740    0.173599
C    -1.064194   -1.124117   -0.326424   -0.126379   -0.061560   -0.157574
C    -0.078459   -0.113725   -0.110788   -0.056766   -0.637106    0.274499
O    -0.173745    1.272057   -0.075268    0.745992    0.058701   -0.156064
H     2.429671   -0.587549    0.713910   -0.288133    0.047090   -0.247029
H     2.426208    1.145979    1.027901    0.122603    0.008697    0.134563
H     3.282949    0.533854   -0.389168   -0.286829    0.099575   -0.198030
H    -2.637888   -0.069344    0.721922   -0.022977   -0.010977    0.015339
H    -2.898756   -1.809773    0.603706   -0.052238    0.010697    0.052024
H    -1.709776   -1.160701    1.748884    0.081469    0.013009   -0.043339
H     1.255807    0.824383   -1.655182    0.000574   -1.020070   -0.732115
H    -1.556545   -1.100531   -1.316435   -0.374133   -0.248546   -0.098520
H    -0.539461   -2.079620   -0.259869   -0.199773   -0.106063   -0.061399
15
* Frequency(6) -961.7196
C     2.423030    0.374912    0.241273   -0.145264    0.176484    0.025216
C    -2.141859   -1.038684    0.757167   -0.011164   -0.012488   -0.008955
C     1.167537    0.489695   -0.582001   -0.568556    0.557740    0.173599
C    -1.050422   -1.117409   -0.309253   -0.126379   -0.061560   -0.157574
C    -0.072273   -0.044297   -0.140702   -0.056766   -0.637106    0.274499
O    -0.255038    1.265660   -0.058261    0.745992    0.058701   -0.156064
H     2.461070   -0.592681    0.740829   -0.288133    0.047090   -0.247029
H     2.412848    1.145031    1.013237    0.122603    0.008697    0.134563
H     3.314206    0.523003   -0.367588   -0.286829    0.099575   -0.198030
H    -2.635384   -0.068148    0.720251   -0.022977   -0.010977    0.015339
H    -2.893064   -1.810938    0.598037   -0.052238    0.010697    0.052024
H    -1.718654   -1.162119    1.753607    0.081469    0.013009   -0.043339
H     1.255744    0.935544   -1.575400    0.000574   -1.020070   -0.732115
H    -1.515775   -1.073446   -1.305699   -0.374133   -0.248546   -0.098520
H    -0.517692   -2.068062   -0.253178   -0.199773   -0.106063   -0.061399
15
* Frequency(6) -961.7196
C     2.439767    0.354578    0.238367   -0.145264    0.176484    0.025216
C    -2.140573   -1.037246    0.758198   -0.011164   -0.012488   -0.008955
C     1.233044    0.425434   -0.602002   -0.568556    0.557740    0.173599
C    -1.035861   -1.110316   -0.291098   -0.126379   -0.061560   -0.157574
C    -0.065733    0.029108   -0.172328   -0.056766   -0.637106    0.274499
O    -0.340989    1.258897   -0.040280    0.745992    0.058701   -0.156064
H     2.494268   -0.598106    0.769291   -0.288133    0.047090   -0.247029
H     2.398722    1.144029    0.997733    0.122603    0.008697    0.134563
H     3.347253    0.511530   -0.344772   -0.286829    0.099575   -0.198030
H    -2.632737   -0.066883    0.718484   -0.022977   -0.010977    0.015339
H    -2.887045   -1.812171    0.592043   -0.052238    0.010697    0.052024
H    -1.728040   -1.163618    1.758600    0.081469    0.013009   -0.043339
H     1.255678    1.053072   -1.491049    0.000574   -1.020070   -0.732115
H    -1.472669   -1.044810   -1.294348   -0.374133   -0.248546   -0.098520
H    -0.494674   -2.055842   -0.246104   -0.199773   -0.106063   -0.061399
15
* Frequency(6) -961.7196
C     2.455597    0.335346    0.235619   -0.145264    0.176484    0.025216
C    -2.139356   -1.035885    0.759174   -0.011164   -0.012488   -0.008955
C     1.295002    0.364655   -0.620920   -0.568556    0.557740    0.173599
C    -1.022089   -1.103608   -0.273927   -0.126379   -0.061560   -0.157574
C    -0.059547    0.098535   -0.202241   -0.056766   -0.637106    0.274499
O    -0.422282    1.252500   -0.023274    0.745992    0.058701   -0.156064
H     2.525667   -0.603238    0.796211   -0.288133    0.047090   -0.247029
H     2.385362    1.143082    0.983069    0.122603    0.008697    0.134563
H     3.378510    0.500679   -0.323192   -0.286829    0.099575   -0.198030
H    -2.630233   -0.065687    0.716812   -0.022977   -0.010977    0.015339
H    -2.881353   -1.813336    0.586374   -0.052238    0.010697    0.052024
H    -1.736918   -1.165035    1.763323    0.081469    0.013009   -0.043339
H     1.255615    1.164233   -1.411268    0.000574   -1.020070   -0.732115
H    -1.431898   -1.017725   -1.283612   -0.374133   -0.248546   -0.098520
H    -0.472904   -2.044284   -0.239413   -0.199773   -0.106063   -0.061399
15
* Frequency(6) -961.7196
C     2.468805    0.319300    0.233327   -0.145264    0.176484    0.025216
C    -2.138341   -1.034749    0.759988   -0.011164   -0.012488   -0.008955
C     1.346696    0.313944   -0.636704   -0.568556    0.557740    0.173599
C    -1.010598   -1.098011   -0.259600   -0.126379   -0.061560   -0.157574
C    -0.054385    0.156462   -0.227199   -0.056766   -0.637106    0.274499
O    -0.490109    1.247163   -0.009084    0.745992    0.058701   -0.156064
H     2.551864   -0.607519    0.818671   -0.288133    0.047090   -0.247029
H     2.374214    1.142291    0.970835    0.122603    0.008697    0.134563
H     3.404589    0.491626   -0.305187   -0.286829    0.099575   -0.198030
H    -2.628144   -0.064689    0.715417   -0.022977   -0.010977    0.015339
H    -2.876603   -1.814309    0.581644   -0.052238    0.010697    0.052024
H    -1.744325   -1.166218    1.767263    0.081469    0.013009   -0.043339
H     1.255563    1.256979   -1.344703    0.000574   -1.020070   -0.732115
H    -1.397881   -0.995126   -1.274655   -0.374133   -0.248546   -0.098520
H    -0.454741   -2.034640   -0.233831   -0.199773   -0.106063   -0.061399
15
* Frequency(6) -961.7196
C     2.477959    0.308178    0.231738   -0.145264    0.176484    0.025216
C    -2.137638   -1.033962    0.760553   -0.011164   -0.012488   -0.008955
C     1.382525    0.278797   -0.647644   -0.568556    0.557740    0.173599
C    -1.002634   -1.094131   -0.249670   -0.126379   -0.061560   -0.157574
C    -0.050808    0.196611   -0.244497   -0.056766   -0.637106    0.274499
O    -0.537119    1.243463    0.000751    0.745992    0.058701   -0.156064
H     2.570022   -0.610487    0.834238   -0.288133    0.047090   -0.247029
H     2.366488    1.141743    0.962355    0.122603    0.008697    0.134563
H     3.422664    0.485351   -0.292707   -0.286829    0.099575   -0.198030
H    -2.626696   -0.063997    0.714451   -0.022977   -0.010977    0.015339
H    -2.873311   -1.814983    0.578365   -0.052238    0.010697    0.052024
H    -1.749459   -1.167038    1.769994    0.081469    0.013009   -0.043339
H     1.255527    1.321261   -1.298567    0.000574   -1.020070   -0.732115
H    -1.374305   -0.979464   -1.268446   -0.374133   -0.248546   -0.098520
H    -0.442152   -2.027957   -0.229961   -0.199773   -0.106063   -0.061399
15
* Frequency(6) -961.7196
C     2.482067    0.303187    0.231024   -0.145264    0.176484    0.025216
C    -2.137322   -1.033609    0.760806   -0.011164   -0.012488   -0.008955
C     1.398606    0.263022   -0.652554   -0.568556    0.557740    0.173599
C    -0.999060   -1.092390   -0.245213   -0.126379   -0.061560   -0.157574
C    -0.049203    0.214631   -0.252261   -0.056766   -0.637106    0.274499
O    -0.558219    1.241803    0.005165    0.745992    0.058701   -0.156064
H     2.578171   -0.611819    0.841225   -0.288133    0.047090   -0.247029
H     2.363020    1.141497    0.958549    0.122603    0.008697    0.134563
H     3.430777    0.482535   -0.287106   -0.286829    0.099575   -0.198030
H    -2.626046   -0.063687    0.714017   -0.022977   -0.010977    0.015339
H    -2.871834   -1.815286    0.576894   -0.052238    0.010697    0.052024
H    -1.751764   -1.167406    1.771220    0.081469    0.013009   -0.043339
H     1.255511    1.350113   -1.277860    0.000574   -1.020070   -0.732115
H    -1.363723   -0.972434   -1.265660   -0.374133   -0.248546   -0.098520
H    -0.436501   -2.024957   -0.228225   -0.199773   -0.106063   -0.061399
15
* Frequency(6) -961.7196
C     2.480685    0.304866    0.231264   -0.145264    0.176484    0.025216
C    -2.137428   -1.033728    0.760721   -0.011164   -0.012488   -0.008955
C     1.393196    0.268329   -0.650902   -0.568556    0.557740    0.173599
C    -1.000262   -1.092976   -0.246712   -0.126379   -0.061560   -0.157574
C    -0.049743    0.208569   -0.249650   -0.056766   -0.637106    0.274499
O    -0.551121    1.242362    0.003680    0.745992    0.058701   -0.156064
H     2.575430   -0.611371    0.838875   -0.288133    0.047090   -0.247029
H     2.364187    1.141580    0.959829    0.122603    0.008697    0.134563
H     3.428048    0.483482   -0.288991   -0.286829    0.099575   -0.198030
H    -2.626265   -0.063791    0.714163   -0.022977   -0.010977    0.015339
H    -2.872331   -1.815184    0.577389   -0.052238    0.010697    0.052024
H    -1.750988   -1.167282    1.770808    0.081469    0.013009   -0.043339
H     1.255516    1.340407   -1.284825    0.000574   -1.020070   -0.732115
H    -1.367282   -0.974799   -1.266597   -0.374133   -0.248546   -0.098520
H    -0.438402   -2.025966   -0.228809   -0.199773   -0.106063   -0.061399
15
* Frequency(6) -961.7196
C     2.473962    0.313034    0.232431   -0.145264    0.176484    0.025216
C    -2.137945   -1.034306    0.760306   -0.011164   -0.012488   -0.008955
C     1.366882    0.294142   -0.642867   -0.568556    0.557740    0.173599
C    -1.006111   -1.095825   -0.254005   -0.126379   -0.061560   -0.157574
C    -0.052370    0.179082   -0.236945   -0.056766   -0.637106    0.274499
O    -0.516595    1.245078   -0.003543    0.745992    0.058701   -0.156064
H     2.562094   -0.609191    0.827442   -0.288133    0.047090   -0.247029
H     2.369861    1.141982    0.966057    0.122603    0.008697    0.134563
H     3.414773    0.488090   -0.298156   -0.286829    0.099575   -0.198030
H    -2.627328   -0.064299    0.714873   -0.022977   -0.010977    0.015339
H    -2.874748   -1.814689    0.579796   -0.052238    0.010697    0.052024
H    -1.747218   -1.166680    1.768802    0.081469    0.013009   -0.043339
H     1.255543    1.293197   -1.318709    0.000574   -1.020070   -0.732115
H    -1.384598   -0.986302   -1.271157   -0.374133   -0.248546   -0.098520
H    -0.447648   -2.030875   -0.231651   -0.199773   -0.106063   -0.061399
15
* Frequency(6) -961.7196
C     2.462627    0.326806    0.234399   -0.145264    0.176484    0.025216
C    -2.138816   -1.035280    0.759608   -0.011164   -0.012488   -0.008955
C     1.322516    0.337665   -0.629321   -0.568556    0.557740    0.173599
C    -1.015973   -1.100629   -0.266301   -0.126379   -0.061560   -0.157574
C    -0.056800    0.129367   -0.215525   -0.056766   -0.637106    0.274499
O    -0.458383    1.249659   -0.015721    0.745992    0.058701   -0.156064
H     2.539610   -0.605517    0.808165   -0.288133    0.047090   -0.247029
H     2.379428    1.142661    0.976557    0.122603    0.008697    0.134563
H     3.392391    0.495861   -0.313609   -0.286829    0.099575   -0.198030
H    -2.629121   -0.065156    0.716070   -0.022977   -0.010977    0.015339
H    -2.878825   -1.813854    0.583856   -0.052238    0.010697    0.052024
H    -1.740861   -1.165665    1.765420    0.081469    0.013009   -0.043339
H     1.255588    1.213597   -1.375839    0.000574   -1.020070   -0.732115
H    -1.413793   -1.005697   -1.278845   -0.374133   -0.248546   -0.098520
H    -0.463237   -2.039151   -0.236442   -0.199773   -0.106063   -0.061399
15
* Frequency(6) -961.7196
C     2.447907    0.344689    0.236954   -0.145264    0.176484    0.025216
C    -2.139947   -1.036546    0.758700   -0.011164   -0.012488   -0.008955
C     1.264904    0.394180   -0.611730   -0.568556    0.557740    0.173599
C    -1.028779   -1.106867   -0.282268   -0.126379   -0.061560   -0.157574
C    -0.062552    0.064809   -0.187710   -0.056766   -0.637106    0.274499
O    -0.382792    1.255607   -0.031535    0.745992    0.058701   -0.156064
H     2.510414   -0.600745    0.783134   -0.288133    0.047090   -0.247029
H     2.391852    1.143542    0.990193    0.122603    0.008697    0.134563
H     3.363326    0.505951   -0.333675   -0.286829    0.099575   -0.198030
H    -2.631449   -0.066268    0.717624   -0.022977   -0.010977    0.015339
H    -2.884118   -1.812770    0.589128   -0.052238    0.010697    0.052024
H    -1.732605   -1.164347    1.761029    0.081469    0.013009   -0.043339
H     1.255646    1.110233   -1.450024    0.000574   -1.020070   -0.732115
H    -1.451704   -1.030882   -1.288828   -0.374133   -0.248546   -0.098520
H    -0.483480   -2.049899   -0.242663   -0.199773   -0.106063   -0.061399
15
* Frequency(6) -961.7196
C     2.431399    0.364745    0.239820   -0.145264    0.176484    0.025216
C    -2.141216   -1.037965    0.757683   -0.011164   -0.012488   -0.008955
C     1.200291    0.457564   -0.592002   -0.568556    0.557740    0.173599
C    -1.043141   -1.113863   -0.300176   -0.126379   -0.061560   -0.157574
C    -0.069003   -0.007595   -0.156515   -0.056766   -0.637106    0.274499
O    -0.298013    1.262278   -0.049271    0.745992    0.058701   -0.156064
H     2.477669   -0.595393    0.755060   -0.288133    0.047090   -0.247029
H     2.405785    1.144530    1.005485    0.122603    0.008697    0.134563
H     3.330730    0.517267   -0.356180   -0.286829    0.099575   -0.198030
H    -2.634061   -0.067516    0.719367   -0.022977   -0.010977    0.015339
H    -2.890055   -1.811555    0.595040   -0.052238    0.010697    0.052024
H    -1.723347   -1.162868    1.756103    0.081469    0.013009   -0.043339
H     1.255711    0.994308   -1.533225    0.000574   -1.020070   -0.732115
H    -1.494222   -1.059128   -1.300024   -0.374133   -0.248546   -0.098520
H    -0.506183   -2.061952   -0.249641   -0.199773   -0.106063   -0.061399
