17
* (null), Energy   -1000.0000000
C    -2.186987    0.917001    0.563912   -0.016136    0.004713   -0.014652
C    -1.417494   -0.351702    0.328383    0.097976   -0.008404    0.094252
C     1.644696    0.416726   -0.299353    0.009083   -0.006832   -0.012298
C    -0.764589   -0.465265   -1.004817   -0.014340    0.001153   -0.011999
C     0.642055   -0.118039   -1.299384   -0.006247    0.001086    0.003216
O     0.623542   -0.009700    1.685346    0.077298    0.062725   -0.007160
O     1.073250    0.998379    0.857926   -0.018426   -0.039455    0.038264
O     0.214931   -1.465100   -1.178905    0.002974    0.002539    0.000520
H    -0.401822   -0.301861    1.186337   -1.645535   -0.374506   -1.012207
H    -2.983190    1.033647   -0.178579   -0.007557    0.020530    0.008837
H    -2.645726    0.923919    1.550232    0.008693    0.000567   -0.001015
H    -1.526235    1.781241    0.481315   -0.002672   -0.001176    0.009608
H    -1.913868   -1.273797    0.629316   -0.204115    0.038870   -0.220804
H     2.203219    1.231924   -0.759479   -0.000981    0.006501    0.009695
H     2.336121   -0.374554   -0.003186    0.000189    0.006989    0.011517
H    -1.456198   -0.374731   -1.844452    0.015803   -0.018326   -0.016350
H     0.857026    0.164938   -2.325952    0.016455    0.009615    0.011479
17
* Frequency(6) -1860.9310
C    -2.188821    0.917537    0.562247   -0.016136    0.004713   -0.014652
C    -1.406359   -0.352657    0.339094    0.097976   -0.008404    0.094252
C     1.645728    0.415950   -0.300750    0.009083   -0.006832   -0.012298
C    -0.766218   -0.465134   -1.006181   -0.014340    0.001153   -0.011999
C     0.641346   -0.117915   -1.299018   -0.006247    0.001086    0.003216
O     0.632327   -0.002572    1.684532    0.077298    0.062725   -0.007160
O     1.071156    0.993896    0.862274   -0.018426   -0.039455    0.038264
O     0.215269   -1.464812   -1.178846    0.002974    0.002539    0.000520
H    -0.588829   -0.344421    1.071305   -1.645535   -0.374506   -1.012207
H    -2.984049    1.035980   -0.177574   -0.007557    0.020530    0.008837
H    -2.644738    0.923984    1.550116    0.008693    0.000567   -0.001015
H    -1.526538    1.781107    0.482407   -0.002672   -0.001176    0.009608
H    -1.937064   -1.269379    0.604223   -0.204115    0.038870   -0.220804
H     2.203108    1.232662   -0.758378   -0.000981    0.006501    0.009695
H     2.336143   -0.373760   -0.001877    0.000189    0.006989    0.011517
H    -1.454402   -0.376813   -1.846310    0.015803   -0.018326   -0.016350
H     0.858896    0.166031   -2.324648    0.016455    0.009615    0.011479
17
* Frequency(6) -1860.9310
C    -2.190456    0.918014    0.560762   -0.016136    0.004713   -0.014652
C    -1.396431   -0.353508    0.348645    0.097976   -0.008404    0.094252
C     1.646648    0.415257   -0.301996    0.009083   -0.006832   -0.012298
C    -0.767671   -0.465017   -1.007397   -0.014340    0.001153   -0.011999
C     0.640712   -0.117805   -1.298692   -0.006247    0.001086    0.003216
O     0.640159    0.003784    1.683806    0.077298    0.062725   -0.007160
O     1.069289    0.989898    0.866151   -0.018426   -0.039455    0.038264
O     0.215570   -1.464554   -1.178793    0.002974    0.002539    0.000520
H    -0.755570   -0.382370    0.968738   -1.645535   -0.374506   -1.012207
H    -2.984815    1.038060   -0.176679   -0.007557    0.020530    0.008837
H    -2.643857    0.924041    1.550013    0.008693    0.000567   -0.001015
H    -1.526809    1.780988    0.483380   -0.002672   -0.001176    0.009608
H    -1.957747   -1.265441    0.581849   -0.204115    0.038870   -0.220804
H     2.203008    1.233321   -0.757395   -0.000981    0.006501    0.009695
H     2.336162   -0.373052   -0.000710    0.000189    0.006989    0.011517
H    -1.452801   -0.378670   -1.847967    0.015803   -0.018326   -0.016350
H     0.860563    0.167005   -2.323484    0.016455    0.009615    0.011479
17
* Frequency(6) -1860.9310
C    -2.191715    0.918382    0.559619   -0.016136    0.004713   -0.014652
C    -1.388786   -0.354164    0.355999    0.097976   -0.008404    0.094252
C     1.647357    0.414724   -0.302956    0.009083   -0.006832   -0.012298
C    -0.768790   -0.464927   -1.008333   -0.014340    0.001153   -0.011999
C     0.640225   -0.117721   -1.298441   -0.006247    0.001086    0.003216
O     0.646191    0.008679    1.683248    0.077298    0.062725   -0.007160
O     1.067851    0.986819    0.869137   -0.018426   -0.039455    0.038264
O     0.215802   -1.464356   -1.178753    0.002974    0.002539    0.000520
H    -0.883977   -0.411594    0.889752   -1.645535   -0.374506   -1.012207
H    -2.985405    1.039662   -0.175989   -0.007557    0.020530    0.008837
H    -2.643179    0.924085    1.549934    0.008693    0.000567   -0.001015
H    -1.527018    1.780896    0.484130   -0.002672   -0.001176    0.009608
H    -1.973675   -1.262408    0.564619   -0.204115    0.038870   -0.220804
H     2.202932    1.233828   -0.756639   -0.000981    0.006501    0.009695
H     2.336177   -0.372506    0.000189    0.000189    0.006989    0.011517
H    -1.451568   -0.380100   -1.849243    0.015803   -0.018326   -0.016350
H     0.861847    0.167755   -2.322589    0.016455    0.009615    0.011479
17
* Frequency(6) -1860.9310
C    -2.192462    0.918600    0.558941   -0.016136    0.004713   -0.014652
C    -1.384251   -0.354553    0.360362    0.097976   -0.008404    0.094252
C     1.647777    0.414408   -0.303525    0.009083   -0.006832   -0.012298
C    -0.769454   -0.464874   -1.008889   -0.014340    0.001153   -0.011999
C     0.639936   -0.117670   -1.298292   -0.006247    0.001086    0.003216
O     0.649768    0.011582    1.682916    0.077298    0.062725   -0.007160
O     1.066998    0.984993    0.870908   -0.018426   -0.039455    0.038264
O     0.215940   -1.464239   -1.178729    0.002974    0.002539    0.000520
H    -0.960136   -0.428927    0.842905   -1.645535   -0.374506   -1.012207
H    -2.985754    1.040613   -0.175580   -0.007557    0.020530    0.008837
H    -2.642777    0.924112    1.549887    0.008693    0.000567   -0.001015
H    -1.527141    1.780842    0.484574   -0.002672   -0.001176    0.009608
H    -1.983122   -1.260609    0.554400   -0.204115    0.038870   -0.220804
H     2.202886    1.234129   -0.756190   -0.000981    0.006501    0.009695
H     2.336186   -0.372183    0.000722    0.000189    0.006989    0.011517
H    -1.450836   -0.380948   -1.849999    0.015803   -0.018326   -0.016350
H     0.862609    0.168200   -2.322057    0.016455    0.009615    0.011479
17
* Frequency(6) -1860.9310
C    -2.192616    0.918645    0.558802   -0.016136    0.004713   -0.014652
C    -1.383319   -0.354633    0.361258    0.097976   -0.008404    0.094252
C     1.647864    0.414343   -0.303642    0.009083   -0.006832   -0.012298
C    -0.769590   -0.464863   -1.009003   -0.014340    0.001153   -0.011999
C     0.639876   -0.117660   -1.298262   -0.006247    0.001086    0.003216
O     0.650504    0.012179    1.682848    0.077298    0.062725   -0.007160
O     1.066823    0.984617    0.871272   -0.018426   -0.039455    0.038264
O     0.215968   -1.464215   -1.178724    0.002974    0.002539    0.000520
H    -0.975792   -0.432490    0.833274   -1.645535   -0.374506   -1.012207
H    -2.985826    1.040808   -0.175496   -0.007557    0.020530    0.008837
H    -2.642694    0.924117    1.549878    0.008693    0.000567   -0.001015
H    -1.527167    1.780831    0.484666   -0.002672   -0.001176    0.009608
H    -1.985064   -1.260239    0.552299   -0.204115    0.038870   -0.220804
H     2.202877    1.234191   -0.756098   -0.000981    0.006501    0.009695
H     2.336187   -0.372116    0.000832    0.000189    0.006989    0.011517
H    -1.450686   -0.381123   -1.850155    0.015803   -0.018326   -0.016350
H     0.862765    0.168292   -2.321948    0.016455    0.009615    0.011479
17
* Frequency(6) -1860.9310
C    -2.192159    0.918512    0.559216   -0.016136    0.004713   -0.014652
C    -1.386090   -0.354395    0.358593    0.097976   -0.008404    0.094252
C     1.647607    0.414536   -0.303294    0.009083   -0.006832   -0.012298
C    -0.769185   -0.464896   -1.008663   -0.014340    0.001153   -0.011999
C     0.640053   -0.117691   -1.298353   -0.006247    0.001086    0.003216
O     0.648318    0.010405    1.683051    0.077298    0.062725   -0.007160
O     1.067344    0.985733    0.870190   -0.018426   -0.039455    0.038264
O     0.215884   -1.464286   -1.178738    0.002974    0.002539    0.000520
H    -0.929250   -0.421898    0.861903   -1.645535   -0.374506   -1.012207
H    -2.985613    1.040227   -0.175746   -0.007557    0.020530    0.008837
H    -2.642940    0.924101    1.549906    0.008693    0.000567   -0.001015
H    -1.527091    1.780864    0.484394   -0.002672   -0.001176    0.009608
H    -1.979291   -1.261338    0.558544   -0.204115    0.038870   -0.220804
H     2.202905    1.234007   -0.756372   -0.000981    0.006501    0.009695
H     2.336182   -0.372314    0.000506    0.000189    0.006989    0.011517
H    -1.451133   -0.380605   -1.849692    0.015803   -0.018326   -0.016350
H     0.862300    0.168020   -2.322273    0.016455    0.009615    0.011479
17
* Frequency(6) -1860.9310
C    -2.191143    0.918215    0.560139   -0.016136    0.004713   -0.014652
C    -1.392265   -0.353866    0.352653    0.097976   -0.008404    0.094252
C     1.647035    0.414967   -0.302519    0.009083   -0.006832   -0.012298
C    -0.768281   -0.464968   -1.007907   -0.014340    0.001153   -0.011999
C     0.640447   -0.117759   -1.298555   -0.006247    0.001086    0.003216
O     0.643447    0.006452    1.683502    0.077298    0.062725   -0.007160
O     1.068505    0.988220    0.867779   -0.018426   -0.039455    0.038264
O     0.215696   -1.464446   -1.178771    0.002974    0.002539    0.000520
H    -0.825553   -0.398297    0.925690   -1.645535   -0.374506   -1.012207
H    -2.985136    1.038933   -0.176303   -0.007557    0.020530    0.008837
H    -2.643488    0.924065    1.549970    0.008693    0.000567   -0.001015
H    -1.526923    1.780938    0.483789   -0.002672   -0.001176    0.009608
H    -1.966428   -1.263788    0.572459   -0.204115    0.038870   -0.220804
H     2.202967    1.233598   -0.756983   -0.000981    0.006501    0.009695
H     2.336170   -0.372754   -0.000220    0.000189    0.006989    0.011517
H    -1.452129   -0.379450   -1.848662    0.015803   -0.018326   -0.016350
H     0.861263    0.167414   -2.322996    0.016455    0.009615    0.011479
17
* Frequency(6) -1860.9310
C    -2.189675    0.917786    0.561471   -0.016136    0.004713   -0.014652
C    -1.401173   -0.353102    0.344083    0.097976   -0.008404    0.094252
C     1.646209    0.415588   -0.301401    0.009083   -0.006832   -0.012298
C    -0.766977   -0.465073   -1.006816   -0.014340    0.001153   -0.011999
C     0.641015   -0.117858   -1.298848   -0.006247    0.001086    0.003216
O     0.636418    0.000749    1.684153    0.077298    0.062725   -0.007160
O     1.070180    0.991807    0.864300   -0.018426   -0.039455    0.038264
O     0.215426   -1.464677   -1.178818    0.002974    0.002539    0.000520
H    -0.675938   -0.364247    1.017722   -1.645535   -0.374506   -1.012207
H    -2.984449    1.037067   -0.177107   -0.007557    0.020530    0.008837
H    -2.644278    0.924014    1.550063    0.008693    0.000567   -0.001015
H    -1.526680    1.781045    0.482915   -0.002672   -0.001176    0.009608
H    -1.947870   -1.267322    0.592534   -0.204115    0.038870   -0.220804
H     2.203056    1.233007   -0.757864   -0.000981    0.006501    0.009695
H     2.336153   -0.373390   -0.001267    0.000189    0.006989    0.011517
H    -1.453566   -0.377783   -1.847176    0.015803   -0.018326   -0.016350
H     0.859767    0.166540   -2.324040    0.016455    0.009615    0.011479
17
* Frequency(6) -1860.9310
C    -2.187917    0.917273    0.563068   -0.016136    0.004713   -0.014652
C    -1.411850   -0.352186    0.333812    0.097976   -0.008404    0.094252
C     1.645219    0.416333   -0.300061    0.009083   -0.006832   -0.012298
C    -0.765415   -0.465199   -1.005509   -0.014340    0.001153   -0.011999
C     0.641696   -0.117976   -1.299198   -0.006247    0.001086    0.003216
O     0.627995   -0.006087    1.684933    0.077298    0.062725   -0.007160
O     1.072188    0.996107    0.860130   -0.018426   -0.039455    0.038264
O     0.215102   -1.464954   -1.178875    0.002974    0.002539    0.000520
H    -0.496618   -0.323435    1.128025   -1.645535   -0.374506   -1.012207
H    -2.983626    1.034830   -0.178070   -0.007557    0.020530    0.008837
H    -2.645225    0.923952    1.550173    0.008693    0.000567   -0.001015
H    -1.526389    1.781173    0.481868   -0.002672   -0.001176    0.009608
H    -1.925626   -1.271558    0.616596   -0.204115    0.038870   -0.220804
H     2.203163    1.232298   -0.758921   -0.000981    0.006501    0.009695
H     2.336132   -0.374152   -0.002522    0.000189    0.006989    0.011517
H    -1.455288   -0.375786   -1.845394    0.015803   -0.018326   -0.016350
H     0.857974    0.165492   -2.325291    0.016455    0.009615    0.011479
17
* Frequency(6) -1860.9310
C    -2.186058    0.916730    0.564756   -0.016136    0.004713   -0.014652
C    -1.423138   -0.351217    0.322953    0.097976   -0.008404    0.094252
C     1.644173    0.417120   -0.298644    0.009083   -0.006832   -0.012298
C    -0.763763   -0.465331   -1.004126   -0.014340    0.001153   -0.011999
C     0.642415   -0.118101   -1.299569   -0.006247    0.001086    0.003216
O     0.619089   -0.013313    1.685758    0.077298    0.062725   -0.007160
O     1.074311    1.000652    0.855721   -0.018426   -0.039455    0.038264
O     0.214759   -1.465247   -1.178935    0.002974    0.002539    0.000520
H    -0.307026   -0.280286    1.244648   -1.645535   -0.374506   -1.012207
H    -2.982755    1.032464   -0.179088   -0.007557    0.020530    0.008837
H    -2.646227    0.923886    1.550290    0.008693    0.000567   -0.001015
H    -1.526081    1.781309    0.480761   -0.002672   -0.001176    0.009608
H    -1.902109   -1.276036    0.642036   -0.204115    0.038870   -0.220804
H     2.203276    1.231549   -0.760038   -0.000981    0.006501    0.009695
H     2.336111   -0.374957   -0.003849    0.000189    0.006989    0.011517
H    -1.457109   -0.373675   -1.843510    0.015803   -0.018326   -0.016350
H     0.856078    0.164384   -2.326613    0.016455    0.009615    0.011479
17
* Frequency(6) -1860.9310
C    -2.184299    0.916216    0.566353   -0.016136    0.004713   -0.014652
C    -1.433815   -0.350302    0.312682    0.097976   -0.008404    0.094252
C     1.643183    0.417864   -0.297304    0.009083   -0.006832   -0.012298
C    -0.762200   -0.465457   -1.002819   -0.014340    0.001153   -0.011999
C     0.643096   -0.118220   -1.299919   -0.006247    0.001086    0.003216
O     0.610666   -0.020149    1.686538    0.077298    0.062725   -0.007160
O     1.076319    1.004952    0.851552   -0.018426   -0.039455    0.038264
O     0.214435   -1.465523   -1.178992    0.002974    0.002539    0.000520
H    -0.127706   -0.239475    1.354952   -1.645535   -0.374506   -1.012207
H    -2.981932    1.030227   -0.180051   -0.007557    0.020530    0.008837
H    -2.647174    0.923825    1.550401    0.008693    0.000567   -0.001015
H    -1.525789    1.781437    0.479714   -0.002672   -0.001176    0.009608
H    -1.879866   -1.280272    0.666098   -0.204115    0.038870   -0.220804
H     2.203383    1.230841   -0.761094   -0.000981    0.006501    0.009695
H     2.336090   -0.375718   -0.005104    0.000189    0.006989    0.011517
H    -1.458831   -0.371678   -1.841729    0.015803   -0.018326   -0.016350
H     0.854285    0.163337   -2.327864    0.016455    0.009615    0.011479
17
* Frequency(6) -1860.9310
C    -2.182832    0.915787    0.567685   -0.016136    0.004713   -0.014652
C    -1.442723   -0.349538    0.304112    0.097976   -0.008404    0.094252
C     1.642357    0.418485   -0.296186    0.009083   -0.006832   -0.012298
C    -0.760896   -0.465562   -1.001728   -0.014340    0.001153   -0.011999
C     0.643664   -0.118318   -1.300212   -0.006247    0.001086    0.003216
O     0.603637   -0.025852    1.687189    0.077298    0.062725   -0.007160
O     1.077995    1.008539    0.848073   -0.018426   -0.039455    0.038264
O     0.214165   -1.465754   -1.179039    0.002974    0.002539    0.000520
H     0.021908   -0.205424    1.446983   -1.645535   -0.374506   -1.012207
H    -2.981244    1.028360   -0.180854   -0.007557    0.020530    0.008837
H    -2.647965    0.923773    1.550493    0.008693    0.000567   -0.001015
H    -1.525546    1.781544    0.478841   -0.002672   -0.001176    0.009608
H    -1.861308   -1.283806    0.686174   -0.204115    0.038870   -0.220804
H     2.203472    1.230250   -0.761976   -0.000981    0.006501    0.009695
H     2.336073   -0.376354   -0.006151    0.000189    0.006989    0.011517
H    -1.460267   -0.370012   -1.840242    0.015803   -0.018326   -0.016350
H     0.852789    0.162462   -2.328908    0.016455    0.009615    0.011479
17
* Frequency(6) -1860.9310
C    -2.181815    0.915490    0.568608   -0.016136    0.004713   -0.014652
C    -1.448897   -0.349008    0.298173    0.097976   -0.008404    0.094252
C     1.641785    0.418916   -0.295411    0.009083   -0.006832   -0.012298
C    -0.759992   -0.465635   -1.000971   -0.014340    0.001153   -0.011999
C     0.644058   -0.118387   -1.300414   -0.006247    0.001086    0.003216
O     0.598766   -0.029805    1.687640    0.077298    0.062725   -0.007160
O     1.079156    1.011025    0.845661   -0.018426   -0.039455    0.038264
O     0.213977   -1.465914   -1.179072    0.002974    0.002539    0.000520
H     0.125606   -0.181824    1.510770   -1.645535   -0.374506   -1.012207
H    -2.980768    1.027066   -0.181411   -0.007557    0.020530    0.008837
H    -2.648513    0.923737    1.550557    0.008693    0.000567   -0.001015
H    -1.525378    1.781618    0.478235   -0.002672   -0.001176    0.009608
H    -1.848445   -1.286256    0.700088   -0.204115    0.038870   -0.220804
H     2.203534    1.229840   -0.762587   -0.000981    0.006501    0.009695
H     2.336061   -0.376794   -0.006877    0.000189    0.006989    0.011517
H    -1.461263   -0.368857   -1.839212    0.015803   -0.018326   -0.016350
H     0.851752    0.161857   -2.329631    0.016455    0.009615    0.011479
17
* Frequency(6) -1860.9310
C    -2.181359    0.915357    0.569023   -0.016136    0.004713   -0.014652
C    -1.451668   -0.348770    0.295507    0.097976   -0.008404    0.094252
C     1.641528    0.419109   -0.295063    0.009083   -0.006832   -0.012298
C    -0.759587   -0.465667   -1.000632   -0.014340    0.001153   -0.011999
C     0.644235   -0.118418   -1.300505   -0.006247    0.001086    0.003216
O     0.596580   -0.031579    1.687843    0.077298    0.062725   -0.007160
O     1.079677    1.012141    0.844579   -0.018426   -0.039455    0.038264
O     0.213893   -1.465986   -1.179087    0.002974    0.002539    0.000520
H     0.172148   -0.171231    1.539399   -1.645535   -0.374506   -1.012207
H    -2.980555    1.026486   -0.181661   -0.007557    0.020530    0.008837
H    -2.648758    0.923721    1.550586    0.008693    0.000567   -0.001015
H    -1.525302    1.781651    0.477964   -0.002672   -0.001176    0.009608
H    -1.842672   -1.287355    0.706334   -0.204115    0.038870   -0.220804
H     2.203562    1.229656   -0.762861   -0.000981    0.006501    0.009695
H     2.336055   -0.376992   -0.007203    0.000189    0.006989    0.011517
H    -1.461710   -0.368339   -1.838749    0.015803   -0.018326   -0.016350
H     0.851286    0.161585   -2.329956    0.016455    0.009615    0.011479
17
* Frequency(6) -1860.9310
C    -2.181512    0.915402    0.568883   -0.016136    0.004713   -0.014652
C    -1.450736   -0.348850    0.296404    0.097976   -0.008404    0.094252
C     1.641614    0.419044   -0.295180    0.009083   -0.006832   -0.012298
C    -0.759723   -0.465656   -1.000746   -0.014340    0.001153   -0.011999
C     0.644175   -0.118407   -1.300475   -0.006247    0.001086    0.003216
O     0.597315   -0.030982    1.687775    0.077298    0.062725   -0.007160
O     1.079502    1.011766    0.844943   -0.018426   -0.039455    0.038264
O     0.213921   -1.465962   -1.179082    0.002974    0.002539    0.000520
H     0.156491   -0.174795    1.529768   -1.645535   -0.374506   -1.012207
H    -2.980626    1.026681   -0.181577   -0.007557    0.020530    0.008837
H    -2.648676    0.923727    1.550576    0.008693    0.000567   -0.001015
H    -1.525328    1.781640    0.478055   -0.002672   -0.001176    0.009608
H    -1.844614   -1.286985    0.704233   -0.204115    0.038870   -0.220804
H     2.203552    1.229718   -0.762769   -0.000981    0.006501    0.009695
H     2.336057   -0.376926   -0.007093    0.000189    0.006989    0.011517
H    -1.461560   -0.368513   -1.838905    0.015803   -0.018326   -0.016350
H     0.851443    0.161676   -2.329847    0.016455    0.009615    0.011479
17
* Frequency(6) -1860.9310
C    -2.182259    0.915620    0.568205   -0.016136    0.004713   -0.014652
C    -1.446202   -0.349239    0.300766    0.097976   -0.008404    0.094252
C     1.642034    0.418728   -0.295749    0.009083   -0.006832   -0.012298
C    -0.760387   -0.465603   -1.001302   -0.014340    0.001153   -0.011999
C     0.643886   -0.118357   -1.300326   -0.006247    0.001086    0.003216
O     0.600893   -0.028079    1.687443    0.077298    0.062725   -0.007160
O     1.078649    1.009940    0.846714   -0.018426   -0.039455    0.038264
O     0.214059   -1.465844   -1.179058    0.002974    0.002539    0.000520
H     0.080333   -0.192127    1.482922   -1.645535   -0.374506   -1.012207
H    -2.980976    1.027631   -0.181168   -0.007557    0.020530    0.008837
H    -2.648273    0.923753    1.550529    0.008693    0.000567   -0.001015
H    -1.525452    1.781585    0.478500   -0.002672   -0.001176    0.009608
H    -1.854061   -1.285186    0.694014   -0.204115    0.038870   -0.220804
H     2.203507    1.230019   -0.762320   -0.000981    0.006501    0.009695
H     2.336066   -0.376602   -0.006560    0.000189    0.006989    0.011517
H    -1.460828   -0.369361   -1.839662    0.015803   -0.018326   -0.016350
H     0.852204    0.162121   -2.329316    0.016455    0.009615    0.011479
17
* Frequency(6) -1860.9310
C    -2.183518    0.915988    0.567062   -0.016136    0.004713   -0.014652
C    -1.438556   -0.349895    0.308121    0.097976   -0.008404    0.094252
C     1.642743    0.418195   -0.296709    0.009083   -0.006832   -0.012298
C    -0.761506   -0.465513   -1.002238   -0.014340    0.001153   -0.011999
C     0.643398   -0.118272   -1.300075   -0.006247    0.001086    0.003216
O     0.606925   -0.023184    1.686885    0.077298    0.062725   -0.007160
O     1.077211    1.006861    0.849700   -0.018426   -0.039455    0.038264
O     0.214291   -1.465646   -1.179017    0.002974    0.002539    0.000520
H    -0.048074   -0.221352    1.403935   -1.645535   -0.374506   -1.012207
H    -2.981566    1.029233   -0.180479   -0.007557    0.020530    0.008837
H    -2.647595    0.923797    1.550450    0.008693    0.000567   -0.001015
H    -1.525660    1.781494    0.479249   -0.002672   -0.001176    0.009608
H    -1.869988   -1.282153    0.676783   -0.204115    0.038870   -0.220804
H     2.203430    1.230526   -0.761563   -0.000981    0.006501    0.009695
H     2.336081   -0.376057   -0.005661    0.000189    0.006989    0.011517
H    -1.459595   -0.370791   -1.840937    0.015803   -0.018326   -0.016350
H     0.853488    0.162871   -2.328420    0.016455    0.009615    0.011479
17
* Frequency(6) -1860.9310
C    -2.185153    0.916465    0.565577   -0.016136    0.004713   -0.014652
C    -1.428628   -0.350747    0.317671    0.097976   -0.008404    0.094252
C     1.643664    0.417503   -0.297955    0.009083   -0.006832   -0.012298
C    -0.762959   -0.465396   -1.003454   -0.014340    0.001153   -0.011999
C     0.642765   -0.118162   -1.299749   -0.006247    0.001086    0.003216
O     0.614757   -0.016828    1.686159    0.077298    0.062725   -0.007160
O     1.075344    1.002863    0.853577   -0.018426   -0.039455    0.038264
O     0.214593   -1.465389   -1.178964    0.002974    0.002539    0.000520
H    -0.214816   -0.259300    1.301369   -1.645535   -0.374506   -1.012207
H    -2.982332    1.031314   -0.179583   -0.007557    0.020530    0.008837
H    -2.646714    0.923855    1.550347    0.008693    0.000567   -0.001015
H    -1.525931    1.781374    0.480223   -0.002672   -0.001176    0.009608
H    -1.890671   -1.278214    0.654409   -0.204115    0.038870   -0.220804
H     2.203331    1.231185   -0.760581   -0.000981    0.006501    0.009695
H     2.336100   -0.375348   -0.004494    0.000189    0.006989    0.011517
H    -1.457994   -0.372648   -1.842594    0.015803   -0.018326   -0.016350
H     0.855156    0.163846   -2.327257    0.016455    0.009615    0.011479
17
* Frequency(6) -1860.9310
C    -2.186987    0.917001    0.563912   -0.016136    0.004713   -0.014652
C    -1.417494   -0.351702    0.328383    0.097976   -0.008404    0.094252
C     1.644696    0.416726   -0.299353    0.009083   -0.006832   -0.012298
C    -0.764589   -0.465265   -1.004817   -0.014340    0.001153   -0.011999
C     0.642055   -0.118039   -1.299384   -0.006247    0.001086    0.003216
O     0.623542   -0.009700    1.685346    0.077298    0.062725   -0.007160
O     1.073250    0.998379    0.857926   -0.018426   -0.039455    0.038264
O     0.214931   -1.465100   -1.178905    0.002974    0.002539    0.000520
H    -0.401822   -0.301861    1.186337   -1.645535   -0.374506   -1.012207
H    -2.983190    1.033647   -0.178579   -0.007557    0.020530    0.008837
H    -2.645726    0.923919    1.550232    0.008693    0.000567   -0.001015
H    -1.526235    1.781241    0.481315   -0.002672   -0.001176    0.009608
H    -1.913868   -1.273797    0.629316   -0.204115    0.038870   -0.220804
H     2.203219    1.231924   -0.759479   -0.000981    0.006501    0.009695
H     2.336121   -0.374554   -0.003186    0.000189    0.006989    0.011517
H    -1.456198   -0.374731   -1.844452    0.015803   -0.018326   -0.016350
H     0.857026    0.164938   -2.325952    0.016455    0.009615    0.011479
