17
Coordinates from ORCA-job freq E -421.391506425632
  C      -2.189514      0.505980      0.681571
  C      -0.931360     -0.257572      0.406696
  C       2.098162     -0.131635     -0.159241
  C      -0.398976     -0.190708     -0.973080
  C       1.060005     -0.146501     -1.272100
  O       1.016694      0.709700      1.700398
  O       1.899363      0.994018      0.671089
  O       0.299093     -1.293331     -1.482564
  H       0.037112      0.351274      1.190994
  H      -3.042337      0.033266      0.186367
  H      -2.394709      0.528049      1.748853
  H      -2.114696      1.527757      0.314496
  H      -0.890654     -1.253031      0.839909
  H       3.098743     -0.010683     -0.579912
  H       2.057033     -1.058401      0.423489
  H      -1.037328      0.319705     -1.694551
  H       1.351698      0.385797     -2.174044
17
Coordinates from ORCA-job freq E -421.391911472951
  C      -2.173597      0.540144      0.680120
  C      -0.932350     -0.267241      0.423140
  C       2.100563     -0.088143     -0.174641
  C      -0.393796     -0.214861     -0.960658
  C       1.056886     -0.141903     -1.271107
  O       1.027262      0.602041      1.722276
  O       1.846068      1.009454      0.689129
  O       0.324552     -1.329500     -1.441052
  H       0.019264      0.269154      1.192872
  H      -3.027915      0.112708      0.146672
  H      -2.415714      0.556669      1.740406
  H      -2.049195      1.567631      0.339190
  H      -0.937222     -1.274930      0.833979
  H       3.089475      0.088941     -0.597926
  H       2.107901     -1.015524      0.401158
  H      -1.051001      0.244743     -1.697104
  H       1.327150      0.354302     -2.198084
17
Coordinates from ORCA-job freq E -421.392088021000
  C      -2.153290      0.571661      0.675418
  C      -0.945676     -0.291252      0.428260
  C       2.101604     -0.047727     -0.183367
  C      -0.397352     -0.252007     -0.953481
  C       1.049766     -0.141915     -1.267279
  O       1.024537      0.527945      1.742114
  O       1.806238      1.012560      0.715293
  O       0.351286     -1.359104     -1.409820
  H       0.011382      0.203091      1.205530
  H      -3.015272      0.198044      0.114188
  H      -2.419541      0.582056      1.730225
  H      -1.970840      1.598763      0.358762
  H      -1.000875     -1.302079      0.828700
  H       3.071801      0.194556     -0.616325
  H       2.170089     -0.983749      0.372194
  H      -1.066669      0.167984     -1.702749
  H       1.301141      0.334857     -2.209293
17
Coordinates from ORCA-job freq E -421.392234848438
  C      -2.129293      0.605704      0.671011
  C      -0.963808     -0.315717      0.429286
  C       2.101934     -0.004329     -0.190000
  C      -0.401955     -0.290737     -0.947371
  C       1.042352     -0.147889     -1.261476
  O       1.013215      0.450170      1.759829
  O       1.761706      1.008950      0.746062
  O       0.375499     -1.389100     -1.373709
  H       0.005126      0.126226      1.218114
  H      -2.999748      0.286469      0.089307
  H      -2.413817      0.614381      1.721102
  H      -1.887960      1.626603      0.373662
  H      -1.075256     -1.326709      0.817790
  H       3.043214      0.316966     -0.634848
  H       2.248421     -0.947165      0.337530
  H      -1.079077      0.091847     -1.710156
  H       1.277776      0.308016     -2.217762
17
Coordinates from ORCA-job freq E -421.392469640327
  C      -2.081435      0.658790      0.667067
  C      -0.993831     -0.353977      0.426107
  C       2.093250      0.068113     -0.198239
  C      -0.408827     -0.356192     -0.941509
  C       1.030468     -0.160211     -1.253531
  O       0.994676      0.319402      1.778526
  O       1.675365      0.994459      0.790088
  O       0.419382     -1.435388     -1.313041
  H      -0.013025      0.012010      1.236551
  H      -2.961122      0.436130      0.054907
  H      -2.391946      0.663293      1.709795
  H      -1.741748      1.662246      0.407685
  H      -1.195231     -1.359735      0.791336
  H       2.976481      0.515611     -0.652640
  H       2.363793     -0.871909      0.282825
  H      -1.095126     -0.037015     -1.726271
  H       1.247204      0.258057     -2.231286
17
Coordinates from ORCA-job freq E -421.392698915115
  C      -2.050657      0.690441      0.658087
  C      -1.011796     -0.374632      0.430425
  C       2.084595      0.113574     -0.205835
  C      -0.412614     -0.392654     -0.930852
  C       1.019630     -0.168008     -1.245764
  O       0.992708      0.227559      1.785166
  O       1.631163      0.979003      0.822285
  O       0.440810     -1.461227     -1.270941
  H      -0.022633     -0.065439      1.256916
  H      -2.920372      0.527819      0.013524
  H      -2.394620      0.692240      1.690137
  H      -1.648481      1.678226      0.429205
  H      -1.268248     -1.370636      0.787874
  H       2.918164      0.640437     -0.669183
  H       2.440559     -0.816140      0.238890
  H      -1.105384     -0.113409     -1.725798
  H       1.225505      0.226530     -2.235764
17
Coordinates from ORCA-job freq E -421.392874255589
  C      -2.023349      0.715772      0.653810
  C      -1.026754     -0.389128      0.429499
  C       2.073917      0.150475     -0.209118
  C      -0.416239     -0.422943     -0.926475
  C       1.012196     -0.176064     -1.239246
  O       0.988200      0.153327      1.786922
  O       1.594094      0.962377      0.849633
  O       0.459928     -1.481567     -1.237547
  H      -0.033227     -0.123519      1.265611
  H      -2.889542      0.596957     -0.005002
  H      -2.382564      0.720956      1.680641
  H      -1.576066      1.687818      0.441634
  H      -1.326421     -1.376615      0.777381
  H       2.863089      0.739565     -0.675304
  H       2.497188     -0.765395      0.204842
  H      -1.110944     -0.176197     -1.730882
  H       1.214824      0.197866     -2.238028
17
Coordinates from ORCA-job freq E -421.392999142630
  C      -2.002824      0.732885      0.651137
  C      -1.036819     -0.398847      0.428521
  C       2.064599      0.176200     -0.211155
  C      -0.418544     -0.443931     -0.923540
  C       1.006841     -0.181874     -1.234813
  O       0.985527      0.102040      1.786027
  O       1.567428      0.949803      0.867645
  O       0.473160     -1.495317     -1.213820
  H      -0.041064     -0.163425      1.271350
  H      -2.864535      0.645902     -0.018530
  H      -2.373794      0.740039      1.673756
  H      -1.523795      1.692630      0.452413
  H      -1.366304     -1.379297      0.769585
  H       2.820547      0.807007     -0.677894
  H       2.533789     -0.726802      0.181481
  H      -1.114019     -0.220531     -1.734375
  H       1.208137      0.177204     -2.239414
17
Coordinates from ORCA-job freq E -421.393190914955
  C      -1.971441      0.755841      0.648728
  C      -1.050290     -0.412263      0.426129
  C       2.048214      0.211885     -0.213429
  C      -0.421863     -0.473725     -0.920561
  C       0.999109     -0.190921     -1.228987
  O       0.980551      0.036474      1.782712
  O       1.529020      0.933315      0.890203
  O       0.491451     -1.514412     -1.181228
  H      -0.051644     -0.220003      1.276960
  H      -2.822926      0.717131     -0.038403
  H      -2.361737      0.763116      1.664102
  H      -1.446841      1.696359      0.474291
  H      -1.421219     -1.381375      0.757316
  H       2.755626      0.897092     -0.679819
  H       2.579183     -0.668628      0.151162
  H      -1.117600     -0.283501     -1.739894
  H       1.200736      0.147302     -2.240911
17
Coordinates from ORCA-job freq E -421.393426350974
  C      -1.924639      0.786690      0.647948
  C      -1.068403     -0.428241      0.420590
  C       2.020677      0.260257     -0.215553
  C      -0.426123     -0.515526     -0.918261
  C       0.988937     -0.204780     -1.221169
  O       0.971343     -0.045790      1.775895
  O       1.475865      0.908229      0.917453
  O       0.517525     -1.539634     -1.135035
  H      -0.065548     -0.299403      1.280752
  H      -2.756194      0.816563     -0.063637
  H      -2.343898      0.792324      1.651685
  H      -1.339030      1.697124      0.512505
  H      -1.497276     -1.379010      0.735423
  H       2.655252      1.015595     -0.678897
  H       2.635010     -0.581110      0.109459
  H      -1.120326     -0.372843     -1.748745
  H       1.195157      0.103240     -2.242040
17
Coordinates from ORCA-job freq E -421.393594109673
  C      -1.858513      0.816796      0.650718
  C      -1.085871     -0.449172      0.410572
  C       1.977081      0.314468     -0.214852
  C      -0.431940     -0.564789     -0.920870
  C       0.975274     -0.220710     -1.215676
  O       0.951634     -0.111829      1.769323
  O       1.401738      0.893625      0.939797
  O       0.545765     -1.566772     -1.092100
  H      -0.073386     -0.401021      1.271222
  H      -2.661952      0.928556     -0.084805
  H      -2.308994      0.823173      1.640856
  H      -1.202906      1.684211      0.561307
  H      -1.582511     -1.372613      0.707379
  H       2.535093      1.130801     -0.673571
  H       2.669463     -0.475712      0.082464
  H      -1.123642     -0.474815     -1.760709
  H       1.191998      0.059489     -2.242684
17
Coordinates from ORCA-job freq E -421.393619109369
  C      -1.855706      0.816113      0.648618
  C      -1.087125     -0.453121      0.413088
  C       1.974758      0.316192     -0.214758
  C      -0.434112     -0.566979     -0.920038
  C       0.972400     -0.219319     -1.214643
  O       0.954032     -0.111606      1.769867
  O       1.403110      0.897047      0.942808
  O       0.545804     -1.566511     -1.093707
  H      -0.071430     -0.403757      1.271096
  H      -2.650857      0.934125     -0.094783
  H      -2.315589      0.822865      1.634399
  H      -1.193904      1.679696      0.567336
  H      -1.584102     -1.374919      0.713935
  H       2.532371      1.132045     -0.674847
  H       2.667048     -0.474494      0.081008
  H      -1.125746     -0.477046     -1.759715
  H       1.187381      0.063353     -2.241293
17
Coordinates from ORCA-job freq E -421.393601481976
  C      -1.856423      0.815863      0.648601
  C      -1.086929     -0.452839      0.413072
  C       1.975260      0.315588     -0.214664
  C      -0.434024     -0.566403     -0.920128
  C       0.972620     -0.219177     -1.214695
  O       0.954107     -0.110838      1.770035
  O       1.403814      0.897242      0.942615
  O       0.545495     -1.566238     -1.094216
  H      -0.071258     -0.402999      1.271026
  H      -2.652626      0.932509     -0.093890
  H      -2.315162      0.822781      1.634921
  H      -1.195670      1.680103      0.566004
  H      -1.583303     -1.374935      0.714005
  H       2.533784      1.130786     -0.674790
  H       2.666686     -0.475692      0.081503
  H      -1.125633     -0.475868     -1.759763
  H       1.187590      0.063800     -2.241263
