17
* (null), Energy   -1000.0000000
C     2.430474   -0.613788   -0.705748    0.098969    0.069572    0.026914
C    -0.056585   -1.312160   -0.718502    0.119200    0.000431   -0.040657
C     2.030607    0.337382    0.397094   -0.011410   -0.015462   -0.006332
C     0.684467    1.010420    0.110780   -0.003826   -0.000292   -0.001815
C    -0.386043   -0.011606   -0.168936   -0.014878   -0.014207    0.015331
O    -2.119415    1.167537    0.693950    0.000142   -0.001497   -0.000630
O    -0.372590   -1.181462    0.641072   -0.002767    0.014785    0.014734
O    -1.651417    0.459669   -0.450648   -0.000671    0.001541   -0.002430
H     1.289209   -1.286821   -0.893564   -1.886560   -0.556905   -0.018497
H     2.603971   -0.147990   -1.673984   -0.164988   -0.096446   -0.084393
H     3.187960   -1.348942   -0.451964   -0.125064   -0.156004   -0.016710
H    -0.705392   -1.911043   -1.348542   -0.040109    0.103214    0.028511
H     1.958820   -0.206681    1.339302    0.005998   -0.000493    0.001415
H     2.789085    1.112420    0.536567    0.005445   -0.001867   -0.021381
H     0.753308    1.656001   -0.767851    0.003266    0.001964    0.000907
H     0.372203    1.630939    0.949838    0.006329   -0.001245    0.002316
H    -2.523150    0.454532    1.205619    0.007195   -0.004714    0.000692
17
* Frequency(6) -1677.4149
C     2.441721   -0.605881   -0.702689    0.098969    0.069572    0.026914
C    -0.043038   -1.312111   -0.723123    0.119200    0.000431   -0.040657
C     2.029310    0.335625    0.396375   -0.011410   -0.015462   -0.006332
C     0.684032    1.010387    0.110573   -0.003826   -0.000292   -0.001815
C    -0.387734   -0.013220   -0.167194   -0.014878   -0.014207    0.015331
O    -2.119399    1.167367    0.693878    0.000142   -0.001497   -0.000630
O    -0.372904   -1.179782    0.642747   -0.002767    0.014785    0.014734
O    -1.651493    0.459844   -0.450924   -0.000671    0.001541   -0.002430
H     1.074812   -1.350110   -0.895666   -1.886560   -0.556905   -0.018497
H     2.585220   -0.158950   -1.683575   -0.164988   -0.096446   -0.084393
H     3.173747   -1.366671   -0.453863   -0.125064   -0.156004   -0.016710
H    -0.709950   -1.899313   -1.345302   -0.040109    0.103214    0.028511
H     1.959502   -0.206737    1.339462    0.005998   -0.000493    0.001415
H     2.789704    1.112208    0.534137    0.005445   -0.001867   -0.021381
H     0.753679    1.656224   -0.767748    0.003266    0.001964    0.000907
H     0.372922    1.630797    0.950101    0.006329   -0.001245    0.002316
H    -2.522332    0.453996    1.205698    0.007195   -0.004714    0.000692
17
* Frequency(6) -1677.4149
C     2.451750   -0.598832   -0.699962    0.098969    0.069572    0.026914
C    -0.030959   -1.312067   -0.727242    0.119200    0.000431   -0.040657
C     2.028154    0.334058    0.395733   -0.011410   -0.015462   -0.006332
C     0.683645    1.010357    0.110389   -0.003826   -0.000292   -0.001815
C    -0.389242   -0.014660   -0.165641   -0.014878   -0.014207    0.015331
O    -2.119385    1.167215    0.693814    0.000142   -0.001497   -0.000630
O    -0.373185   -1.178283    0.644240   -0.002767    0.014785    0.014734
O    -1.651561    0.460001   -0.451170   -0.000671    0.001541   -0.002430
H     0.883647   -1.406541   -0.897540   -1.886560   -0.556905   -0.018497
H     2.568502   -0.168723   -1.692127   -0.164988   -0.096446   -0.084393
H     3.161074   -1.382479   -0.455557   -0.125064   -0.156004   -0.016710
H    -0.714015   -1.888855   -1.342413   -0.040109    0.103214    0.028511
H     1.960109   -0.206787    1.339606    0.005998   -0.000493    0.001415
H     2.790255    1.112019    0.531971    0.005445   -0.001867   -0.021381
H     0.754010    1.656423   -0.767656    0.003266    0.001964    0.000907
H     0.373564    1.630671    0.950336    0.006329   -0.001245    0.002316
H    -2.521603    0.453519    1.205768    0.007195   -0.004714    0.000692
17
* Frequency(6) -1677.4149
C     2.459473   -0.593403   -0.697862    0.098969    0.069572    0.026914
C    -0.021658   -1.312034   -0.730415    0.119200    0.000431   -0.040657
C     2.027264    0.332852    0.395239   -0.011410   -0.015462   -0.006332
C     0.683346    1.010334    0.110248   -0.003826   -0.000292   -0.001815
C    -0.390402   -0.015768   -0.164444   -0.014878   -0.014207    0.015331
O    -2.119373    1.167098    0.693765    0.000142   -0.001497   -0.000630
O    -0.373401   -1.177130    0.645389   -0.002767    0.014785    0.014734
O    -1.651613    0.460121   -0.451360   -0.000671    0.001541   -0.002430
H     0.736432   -1.449999   -0.898983   -1.886560   -0.556905   -0.018497
H     2.555628   -0.176249   -1.698712   -0.164988   -0.096446   -0.084393
H     3.151315   -1.394653   -0.456861   -0.125064   -0.156004   -0.016710
H    -0.717145   -1.880801   -1.340188   -0.040109    0.103214    0.028511
H     1.960577   -0.206825    1.339716    0.005998   -0.000493    0.001415
H     2.790680    1.111874    0.530303    0.005445   -0.001867   -0.021381
H     0.754265    1.656576   -0.767585    0.003266    0.001964    0.000907
H     0.374058    1.630574    0.950516    0.006329   -0.001245    0.002316
H    -2.521042    0.453151    1.205822    0.007195   -0.004714    0.000692
17
* Frequency(6) -1677.4149
C     2.464053   -0.590183   -0.696616    0.098969    0.069572    0.026914
C    -0.016141   -1.312014   -0.732297    0.119200    0.000431   -0.040657
C     2.026736    0.332136    0.394946   -0.011410   -0.015462   -0.006332
C     0.683169    1.010321    0.110164   -0.003826   -0.000292   -0.001815
C    -0.391091   -0.016426   -0.163735   -0.014878   -0.014207    0.015331
O    -2.119367    1.167029    0.693736    0.000142   -0.001497   -0.000630
O    -0.373529   -1.176445    0.646071   -0.002767    0.014785    0.014734
O    -1.651645    0.460192   -0.451472   -0.000671    0.001541   -0.002430
H     0.649118   -1.475773   -0.899839   -1.886560   -0.556905   -0.018497
H     2.547992   -0.180713   -1.702618   -0.164988   -0.096446   -0.084393
H     3.145527   -1.401873   -0.457634   -0.125064   -0.156004   -0.016710
H    -0.719001   -1.876024   -1.338868   -0.040109    0.103214    0.028511
H     1.960855   -0.206848    1.339782    0.005998   -0.000493    0.001415
H     2.790932    1.111787    0.529313    0.005445   -0.001867   -0.021381
H     0.754416    1.656667   -0.767543    0.003266    0.001964    0.000907
H     0.374351    1.630516    0.950623    0.006329   -0.001245    0.002316
H    -2.520709    0.452933    1.205854    0.007195   -0.004714    0.000692
17
* Frequency(6) -1677.4149
C     2.464995   -0.589521   -0.696360    0.098969    0.069572    0.026914
C    -0.015007   -1.312010   -0.732683    0.119200    0.000431   -0.040657
C     2.026627    0.331989    0.394886   -0.011410   -0.015462   -0.006332
C     0.683133    1.010318    0.110147   -0.003826   -0.000292   -0.001815
C    -0.391233   -0.016561   -0.163589   -0.014878   -0.014207    0.015331
O    -2.119366    1.167015    0.693730    0.000142   -0.001497   -0.000630
O    -0.373555   -1.176305    0.646212   -0.002767    0.014785    0.014734
O    -1.651651    0.460207   -0.451495   -0.000671    0.001541   -0.002430
H     0.631169   -1.481072   -0.900015   -1.886560   -0.556905   -0.018497
H     2.546422   -0.181631   -1.703421   -0.164988   -0.096446   -0.084393
H     3.144337   -1.403357   -0.457793   -0.125064   -0.156004   -0.016710
H    -0.719382   -1.875042   -1.338597   -0.040109    0.103214    0.028511
H     1.960912   -0.206853    1.339795    0.005998   -0.000493    0.001415
H     2.790984    1.111769    0.529110    0.005445   -0.001867   -0.021381
H     0.754447    1.656686   -0.767534    0.003266    0.001964    0.000907
H     0.374411    1.630505    0.950645    0.006329   -0.001245    0.002316
H    -2.520640    0.452888    1.205860    0.007195   -0.004714    0.000692
17
* Frequency(6) -1677.4149
C     2.462196   -0.591488   -0.697121    0.098969    0.069572    0.026914
C    -0.018378   -1.312022   -0.731533    0.119200    0.000431   -0.040657
C     2.026950    0.332426    0.395065   -0.011410   -0.015462   -0.006332
C     0.683241    1.010326    0.110198   -0.003826   -0.000292   -0.001815
C    -0.390812   -0.016159   -0.164022   -0.014878   -0.014207    0.015331
O    -2.119370    1.167057    0.693748    0.000142   -0.001497   -0.000630
O    -0.373477   -1.176723    0.645795   -0.002767    0.014785    0.014734
O    -1.651632    0.460163   -0.451427   -0.000671    0.001541   -0.002430
H     0.684528   -1.465321   -0.899492   -1.886560   -0.556905   -0.018497
H     2.551088   -0.178903   -1.701034   -0.164988   -0.096446   -0.084393
H     3.147874   -1.398945   -0.457320   -0.125064   -0.156004   -0.016710
H    -0.718248   -1.877961   -1.339403   -0.040109    0.103214    0.028511
H     1.960742   -0.206839    1.339755    0.005998   -0.000493    0.001415
H     2.790830    1.111822    0.529714    0.005445   -0.001867   -0.021381
H     0.754355    1.656630   -0.767560    0.003266    0.001964    0.000907
H     0.374232    1.630540    0.950580    0.006329   -0.001245    0.002316
H    -2.520844    0.453021    1.205841    0.007195   -0.004714    0.000692
17
* Frequency(6) -1677.4149
C     2.455959   -0.595873   -0.698817    0.098969    0.069572    0.026914
C    -0.025890   -1.312049   -0.728971    0.119200    0.000431   -0.040657
C     2.027669    0.333401    0.395464   -0.011410   -0.015462   -0.006332
C     0.683482    1.010345    0.110312   -0.003826   -0.000292   -0.001815
C    -0.389874   -0.015264   -0.164989   -0.014878   -0.014207    0.015331
O    -2.119379    1.167152    0.693787    0.000142   -0.001497   -0.000630
O    -0.373302   -1.177655    0.644866   -0.002767    0.014785    0.014734
O    -1.651590    0.460066   -0.451274   -0.000671    0.001541   -0.002430
H     0.803414   -1.430226   -0.898327   -1.886560   -0.556905   -0.018497
H     2.561485   -0.172825   -1.695716   -0.164988   -0.096446   -0.084393
H     3.155755   -1.389114   -0.456267   -0.125064   -0.156004   -0.016710
H    -0.715720   -1.884465   -1.341200   -0.040109    0.103214    0.028511
H     1.960364   -0.206808    1.339666    0.005998   -0.000493    0.001415
H     2.790487    1.111940    0.531062    0.005445   -0.001867   -0.021381
H     0.754149    1.656507   -0.767617    0.003266    0.001964    0.000907
H     0.373833    1.630618    0.950434    0.006329   -0.001245    0.002316
H    -2.521297    0.453318    1.205797    0.007195   -0.004714    0.000692
17
* Frequency(6) -1677.4149
C     2.446961   -0.602198   -0.701264    0.098969    0.069572    0.026914
C    -0.036728   -1.312088   -0.725275    0.119200    0.000431   -0.040657
C     2.028706    0.334806    0.396039   -0.011410   -0.015462   -0.006332
C     0.683830    1.010371    0.110477   -0.003826   -0.000292   -0.001815
C    -0.388522   -0.013972   -0.166382   -0.014878   -0.014207    0.015331
O    -2.119391    1.167288    0.693845    0.000142   -0.001497   -0.000630
O    -0.373051   -1.178999    0.643527   -0.002767    0.014785    0.014734
O    -1.651529    0.459926   -0.451053   -0.000671    0.001541   -0.002430
H     0.974943   -1.379591   -0.896645   -1.886560   -0.556905   -0.018497
H     2.576487   -0.164056   -1.688043   -0.164988   -0.096446   -0.084393
H     3.167126   -1.374930   -0.454748   -0.125064   -0.156004   -0.016710
H    -0.712074   -1.893850   -1.343792   -0.040109    0.103214    0.028511
H     1.959819   -0.206763    1.339537    0.005998   -0.000493    0.001415
H     2.789992    1.112110    0.533006    0.005445   -0.001867   -0.021381
H     0.753852    1.656328   -0.767700    0.003266    0.001964    0.000907
H     0.373257    1.630732    0.950224    0.006329   -0.001245    0.002316
H    -2.521952    0.453747    1.205734    0.007195   -0.004714    0.000692
17
* Frequency(6) -1677.4149
C     2.436176   -0.609780   -0.704197    0.098969    0.069572    0.026914
C    -0.049718   -1.312135   -0.720844    0.119200    0.000431   -0.040657
C     2.029950    0.336491    0.396729   -0.011410   -0.015462   -0.006332
C     0.684247    1.010403    0.110675   -0.003826   -0.000292   -0.001815
C    -0.386900   -0.012424   -0.168053   -0.014878   -0.014207    0.015331
O    -2.119407    1.167451    0.693913    0.000142   -0.001497   -0.000630
O    -0.372749   -1.180610    0.641921   -0.002767    0.014785    0.014734
O    -1.651455    0.459758   -0.450788   -0.000671    0.001541   -0.002430
H     1.180528   -1.318903   -0.894629   -1.886560   -0.556905   -0.018497
H     2.594466   -0.153546   -1.678846   -0.164988   -0.096446   -0.084393
H     3.180755   -1.357929   -0.452927   -0.125064   -0.156004   -0.016710
H    -0.707703   -1.905097   -1.346899   -0.040109    0.103214    0.028511
H     1.959166   -0.206709    1.339383    0.005998   -0.000493    0.001415
H     2.789398    1.112313    0.535336    0.005445   -0.001867   -0.021381
H     0.753496    1.656114   -0.767799    0.003266    0.001964    0.000907
H     0.372568    1.630867    0.949971    0.006329   -0.001245    0.002316
H    -2.522736    0.454260    1.205659    0.007195   -0.004714    0.000692
17
* Frequency(6) -1677.4149
C     2.424773   -0.617796   -0.707298    0.098969    0.069572    0.026914
C    -0.063451   -1.312185   -0.716160    0.119200    0.000431   -0.040657
C     2.031264    0.338273    0.397459   -0.011410   -0.015462   -0.006332
C     0.684688    1.010437    0.110884   -0.003826   -0.000292   -0.001815
C    -0.385186   -0.010787   -0.169820   -0.014878   -0.014207    0.015331
O    -2.119423    1.167623    0.693986    0.000142   -0.001497   -0.000630
O    -0.372430   -1.182313    0.640223   -0.002767    0.014785    0.014734
O    -1.651378    0.459581   -0.450508   -0.000671    0.001541   -0.002430
H     1.397891   -1.254739   -0.892498   -1.886560   -0.556905   -0.018497
H     2.613475   -0.142434   -1.669123   -0.164988   -0.096446   -0.084393
H     3.195164   -1.339955   -0.451002   -0.125064   -0.156004   -0.016710
H    -0.703081   -1.916989   -1.350184   -0.040109    0.103214    0.028511
H     1.958474   -0.206652    1.339220    0.005998   -0.000493    0.001415
H     2.788771    1.112528    0.537799    0.005445   -0.001867   -0.021381
H     0.753120    1.655888   -0.767903    0.003266    0.001964    0.000907
H     0.371839    1.631011    0.949704    0.006329   -0.001245    0.002316
H    -2.523565    0.454804    1.205579    0.007195   -0.004714    0.000692
17
* Frequency(6) -1677.4149
C     2.413988   -0.625377   -0.710231    0.098969    0.069572    0.026914
C    -0.076441   -1.312232   -0.711729    0.119200    0.000431   -0.040657
C     2.032508    0.339958    0.398149   -0.011410   -0.015462   -0.006332
C     0.685105    1.010468    0.111082   -0.003826   -0.000292   -0.001815
C    -0.383565   -0.009239   -0.171490   -0.014878   -0.014207    0.015331
O    -2.119439    1.167786    0.694054    0.000142   -0.001497   -0.000630
O    -0.372129   -1.183925    0.638618   -0.002767    0.014785    0.014734
O    -1.651305    0.459413   -0.450243   -0.000671    0.001541   -0.002430
H     1.603476   -1.194051   -0.890482   -1.886560   -0.556905   -0.018497
H     2.631455   -0.131924   -1.659926   -0.164988   -0.096446   -0.084393
H     3.208793   -1.322955   -0.449181   -0.125064   -0.156004   -0.016710
H    -0.698711   -1.928237   -1.353291   -0.040109    0.103214    0.028511
H     1.957821   -0.206599    1.339066    0.005998   -0.000493    0.001415
H     2.788178    1.112731    0.540129    0.005445   -0.001867   -0.021381
H     0.752764    1.655674   -0.768002    0.003266    0.001964    0.000907
H     0.371149    1.631146    0.949452    0.006329   -0.001245    0.002316
H    -2.524349    0.455317    1.205504    0.007195   -0.004714    0.000692
17
* Frequency(6) -1677.4149
C     2.404989   -0.631703   -0.712678    0.098969    0.069572    0.026914
C    -0.087279   -1.312271   -0.708033    0.119200    0.000431   -0.040657
C     2.033545    0.341364    0.398725   -0.011410   -0.015462   -0.006332
C     0.685453    1.010495    0.111247   -0.003826   -0.000292   -0.001815
C    -0.382212   -0.007947   -0.172884   -0.014878   -0.014207    0.015331
O    -2.119451    1.167922    0.694112    0.000142   -0.001497   -0.000630
O    -0.371877   -1.185269    0.637278   -0.002767    0.014785    0.014734
O    -1.651244    0.459272   -0.450022   -0.000671    0.001541   -0.002430
H     1.775005   -1.143416   -0.888801   -1.886560   -0.556905   -0.018497
H     2.646456   -0.123154   -1.652253   -0.164988   -0.096446   -0.084393
H     3.220164   -1.308771   -0.447661   -0.125064   -0.156004   -0.016710
H    -0.695064   -1.937621   -1.355883   -0.040109    0.103214    0.028511
H     1.957276   -0.206554    1.338937    0.005998   -0.000493    0.001415
H     2.787683    1.112901    0.542073    0.005445   -0.001867   -0.021381
H     0.752467    1.655495   -0.768084    0.003266    0.001964    0.000907
H     0.370574    1.631260    0.949241    0.006329   -0.001245    0.002316
H    -2.525003    0.455746    1.205441    0.007195   -0.004714    0.000692
17
* Frequency(6) -1677.4149
C     2.398752   -0.636087   -0.714374    0.098969    0.069572    0.026914
C    -0.094791   -1.312298   -0.705471    0.119200    0.000431   -0.040657
C     2.034264    0.342338    0.399124   -0.011410   -0.015462   -0.006332
C     0.685694    1.010513    0.111361   -0.003826   -0.000292   -0.001815
C    -0.381275   -0.007052   -0.173850   -0.014878   -0.014207    0.015331
O    -2.119460    1.168017    0.694151    0.000142   -0.001497   -0.000630
O    -0.371703   -1.186200    0.636349   -0.002767    0.014785    0.014734
O    -1.651202    0.459175   -0.449869   -0.000671    0.001541   -0.002430
H     1.893891   -1.108321   -0.887635   -1.886560   -0.556905   -0.018497
H     2.656853   -0.117077   -1.646935   -0.164988   -0.096446   -0.084393
H     3.228045   -1.298940   -0.446608   -0.125064   -0.156004   -0.016710
H    -0.692536   -1.944125   -1.357680   -0.040109    0.103214    0.028511
H     1.956898   -0.206523    1.338848    0.005998   -0.000493    0.001415
H     2.787339    1.113019    0.543420    0.005445   -0.001867   -0.021381
H     0.752261    1.655371   -0.768142    0.003266    0.001964    0.000907
H     0.370175    1.631338    0.949096    0.006329   -0.001245    0.002316
H    -2.525456    0.456043    1.205397    0.007195   -0.004714    0.000692
17
* Frequency(6) -1677.4149
C     2.395953   -0.638055   -0.715135    0.098969    0.069572    0.026914
C    -0.098162   -1.312310   -0.704321    0.119200    0.000431   -0.040657
C     2.034587    0.342775    0.399303   -0.011410   -0.015462   -0.006332
C     0.685802    1.010522    0.111413   -0.003826   -0.000292   -0.001815
C    -0.380854   -0.006650   -0.174284   -0.014878   -0.014207    0.015331
O    -2.119464    1.168059    0.694169    0.000142   -0.001497   -0.000630
O    -0.371625   -1.186619    0.635933   -0.002767    0.014785    0.014734
O    -1.651183    0.459132   -0.449800   -0.000671    0.001541   -0.002430
H     1.947250   -1.092570   -0.887112   -1.886560   -0.556905   -0.018497
H     2.661519   -0.114349   -1.644548   -0.164988   -0.096446   -0.084393
H     3.231583   -1.294527   -0.446136   -0.125064   -0.156004   -0.016710
H    -0.691402   -1.947045   -1.358486   -0.040109    0.103214    0.028511
H     1.956728   -0.206509    1.338808    0.005998   -0.000493    0.001415
H     2.787185    1.113072    0.544025    0.005445   -0.001867   -0.021381
H     0.752168    1.655316   -0.768167    0.003266    0.001964    0.000907
H     0.369996    1.631373    0.949030    0.006329   -0.001245    0.002316
H    -2.525660    0.456176    1.205378    0.007195   -0.004714    0.000692
17
* Frequency(6) -1677.4149
C     2.396895   -0.637393   -0.714879    0.098969    0.069572    0.026914
C    -0.097028   -1.312306   -0.704707    0.119200    0.000431   -0.040657
C     2.034478    0.342628    0.399243   -0.011410   -0.015462   -0.006332
C     0.685765    1.010519    0.111395   -0.003826   -0.000292   -0.001815
C    -0.380995   -0.006785   -0.174138   -0.014878   -0.014207    0.015331
O    -2.119463    1.168045    0.694163    0.000142   -0.001497   -0.000630
O    -0.371651   -1.186478    0.636073   -0.002767    0.014785    0.014734
O    -1.651189    0.459146   -0.449823   -0.000671    0.001541   -0.002430
H     1.929301   -1.097868   -0.887288   -1.886560   -0.556905   -0.018497
H     2.659950   -0.115266   -1.645351   -0.164988   -0.096446   -0.084393
H     3.230393   -1.296012   -0.446295   -0.125064   -0.156004   -0.016710
H    -0.691783   -1.946063   -1.358215   -0.040109    0.103214    0.028511
H     1.956785   -0.206513    1.338822    0.005998   -0.000493    0.001415
H     2.787237    1.113054    0.543822    0.005445   -0.001867   -0.021381
H     0.752199    1.655335   -0.768159    0.003266    0.001964    0.000907
H     0.370056    1.631362    0.949052    0.006329   -0.001245    0.002316
H    -2.525591    0.456131    1.205384    0.007195   -0.004714    0.000692
17
* Frequency(6) -1677.4149
C     2.401475   -0.634173   -0.713633    0.098969    0.069572    0.026914
C    -0.091511   -1.312286   -0.706589    0.119200    0.000431   -0.040657
C     2.033950    0.341913    0.398950   -0.011410   -0.015462   -0.006332
C     0.685588    1.010505    0.111311   -0.003826   -0.000292   -0.001815
C    -0.381684   -0.007443   -0.173429   -0.014878   -0.014207    0.015331
O    -2.119457    1.167976    0.694134    0.000142   -0.001497   -0.000630
O    -0.371779   -1.185794    0.636755   -0.002767    0.014785    0.014734
O    -1.651220    0.459218   -0.449936   -0.000671    0.001541   -0.002430
H     1.841987   -1.123643   -0.888144   -1.886560   -0.556905   -0.018497
H     2.652314   -0.119730   -1.649257   -0.164988   -0.096446   -0.084393
H     3.224605   -1.303232   -0.447068   -0.125064   -0.156004   -0.016710
H    -0.693640   -1.941286   -1.356896   -0.040109    0.103214    0.028511
H     1.957063   -0.206536    1.338887    0.005998   -0.000493    0.001415
H     2.787489    1.112967    0.542832    0.005445   -0.001867   -0.021381
H     0.752351    1.655425   -0.768117    0.003266    0.001964    0.000907
H     0.370349    1.631304    0.949159    0.006329   -0.001245    0.002316
H    -2.525258    0.455913    1.205416    0.007195   -0.004714    0.000692
17
* Frequency(6) -1677.4149
C     2.409198   -0.628744   -0.711533    0.098969    0.069572    0.026914
C    -0.082210   -1.312253   -0.709762    0.119200    0.000431   -0.040657
C     2.033060    0.340706    0.398455   -0.011410   -0.015462   -0.006332
C     0.685290    1.010483    0.111170   -0.003826   -0.000292   -0.001815
C    -0.382845   -0.008551   -0.172232   -0.014878   -0.014207    0.015331
O    -2.119445    1.167859    0.694085    0.000142   -0.001497   -0.000630
O    -0.371995   -1.184640    0.637905   -0.002767    0.014785    0.014734
O    -1.651273    0.459338   -0.450125   -0.000671    0.001541   -0.002430
H     1.694772   -1.167101   -0.889587   -1.886560   -0.556905   -0.018497
H     2.639439   -0.127256   -1.655842   -0.164988   -0.096446   -0.084393
H     3.214845   -1.315405   -0.448372   -0.125064   -0.156004   -0.016710
H    -0.696770   -1.933231   -1.354671   -0.040109    0.103214    0.028511
H     1.957531   -0.206575    1.338997    0.005998   -0.000493    0.001415
H     2.787914    1.112822    0.541164    0.005445   -0.001867   -0.021381
H     0.752606    1.655579   -0.768046    0.003266    0.001964    0.000907
H     0.370843    1.631207    0.949340    0.006329   -0.001245    0.002316
H    -2.524697    0.455545    1.205470    0.007195   -0.004714    0.000692
17
* Frequency(6) -1677.4149
C     2.419227   -0.621694   -0.708806    0.098969    0.069572    0.026914
C    -0.070131   -1.312209   -0.713882    0.119200    0.000431   -0.040657
C     2.031904    0.339139    0.397814   -0.011410   -0.015462   -0.006332
C     0.684902    1.010453    0.110986   -0.003826   -0.000292   -0.001815
C    -0.384352   -0.009991   -0.170679   -0.014878   -0.014207    0.015331
O    -2.119431    1.167707    0.694021    0.000142   -0.001497   -0.000630
O    -0.372275   -1.183142    0.639398   -0.002767    0.014785    0.014734
O    -1.651341    0.459494   -0.450372   -0.000671    0.001541   -0.002430
H     1.503607   -1.223532   -0.891461   -1.886560   -0.556905   -0.018497
H     2.622721   -0.137029   -1.664393   -0.164988   -0.096446   -0.084393
H     3.202173   -1.331213   -0.450065   -0.125064   -0.156004   -0.016710
H    -0.700834   -1.922773   -1.351782   -0.040109    0.103214    0.028511
H     1.958138   -0.206625    1.339141    0.005998   -0.000493    0.001415
H     2.788466    1.112633    0.538997    0.005445   -0.001867   -0.021381
H     0.752937    1.655778   -0.767954    0.003266    0.001964    0.000907
H     0.371484    1.631081    0.949575    0.006329   -0.001245    0.002316
H    -2.523968    0.455068    1.205540    0.007195   -0.004714    0.000692
17
* Frequency(6) -1677.4149
C     2.430474   -0.613788   -0.705748    0.098969    0.069572    0.026914
C    -0.056585   -1.312160   -0.718502    0.119200    0.000431   -0.040657
C     2.030607    0.337382    0.397094   -0.011410   -0.015462   -0.006332
C     0.684467    1.010420    0.110780   -0.003826   -0.000292   -0.001815
C    -0.386043   -0.011606   -0.168936   -0.014878   -0.014207    0.015331
O    -2.119415    1.167537    0.693950    0.000142   -0.001497   -0.000630
O    -0.372590   -1.181462    0.641072   -0.002767    0.014785    0.014734
O    -1.651417    0.459669   -0.450648   -0.000671    0.001541   -0.002430
H     1.289209   -1.286821   -0.893564   -1.886560   -0.556905   -0.018497
H     2.603971   -0.147990   -1.673984   -0.164988   -0.096446   -0.084393
H     3.187960   -1.348942   -0.451964   -0.125064   -0.156004   -0.016710
H    -0.705392   -1.911043   -1.348542   -0.040109    0.103214    0.028511
H     1.958820   -0.206681    1.339302    0.005998   -0.000493    0.001415
H     2.789085    1.112420    0.536567    0.005445   -0.001867   -0.021381
H     0.753308    1.656001   -0.767851    0.003266    0.001964    0.000907
H     0.372203    1.630939    0.949838    0.006329   -0.001245    0.002316
H    -2.523150    0.454532    1.205619    0.007195   -0.004714    0.000692
