17
Coordinates from ORCA-job freq E -421.383866918302
  C       1.847935     -0.624663     -0.930932
  C      -0.626063     -1.375922     -0.913339
  C       1.439196      0.280848      0.196162
  C       0.088369      0.948108     -0.085950
  C      -0.989297     -0.092564     -0.322293
  O      -2.765194      1.175506      0.453558
  O      -0.926503     -1.274652      0.444600
  O      -2.258657      0.369092     -0.602481
  H       0.643278     -1.319570     -1.104485
  H       2.002891     -0.131575     -1.881281
  H       2.609524     -1.352210     -0.691428
  H      -1.292775     -1.956679     -1.533682
  H       1.358462     -0.300102      1.117572
  H       2.186062      1.065393      0.360875
  H       0.141417      1.570230     -0.982041
  H      -0.209183      1.580567      0.752371
  H      -3.286280      0.562845      0.995320
17
Coordinates from ORCA-job freq E -421.384697273881
  C       1.824146     -0.644142     -0.916172
  C      -0.649496     -1.360572     -0.916493
  C       1.425757      0.293693      0.197792
  C       0.076630      0.961869     -0.083937
  C      -0.988835     -0.069003     -0.352139
  O      -2.706426      1.146503      0.490142
  O      -0.955951     -1.242753      0.447158
  O      -2.256323      0.394634     -0.632109
  H       0.685464     -1.319217     -1.102346
  H       1.986810     -0.169661     -1.881729
  H       2.584747     -1.379906     -0.674968
  H      -1.300678     -1.959533     -1.544017
  H       1.353779     -0.263086      1.132436
  H       2.181087      1.069868      0.347282
  H       0.138484      1.598829     -0.969321
  H      -0.232827      1.587732      0.752013
  H      -3.203185      0.479397      0.978956
17
Coordinates from ORCA-job freq E -421.384810409116
  C       1.822203     -0.653450     -0.913959
  C      -0.664384     -1.357049     -0.907011
  C       1.429116      0.295719      0.193084
  C       0.079630      0.967686     -0.079736
  C      -0.990704     -0.051407     -0.367926
  O      -2.737906      1.131261      0.473055
  O      -0.989839     -1.216033      0.449358
  O      -2.250961      0.424096     -0.665040
  H       0.682705     -1.335166     -1.081969
  H       1.978817     -0.187098     -1.884986
  H       2.590804     -1.380499     -0.669731
  H      -1.311214     -1.956501     -1.538644
  H       1.367983     -0.249120      1.135738
  H       2.187422      1.071980      0.326742
  H       0.143184      1.627259     -0.948253
  H      -0.230713      1.575571      0.769414
  H      -3.142960      0.417402      0.982410
17
Coordinates from ORCA-job freq E -421.384792903441
  C       1.823371     -0.653880     -0.909020
  C      -0.662785     -1.354093     -0.917509
  C       1.425508      0.297495      0.194293
  C       0.077301      0.968848     -0.086652
  C      -0.992360     -0.053559     -0.368081
  O      -2.726956      1.130122      0.488478
  O      -0.979000     -1.223278      0.442006
  O      -2.257125      0.417546     -0.652448
  H       0.682257     -1.327637     -1.095155
  H       1.995884     -0.188505     -1.877692
  H       2.581048     -1.389130     -0.656093
  H      -1.311630     -1.952863     -1.547651
  H       1.358267     -0.245842      1.137228
  H       2.183234      1.073902      0.330243
  H       0.142769      1.619094     -0.962065
  H      -0.233887      1.584835      0.756142
  H      -3.142711      0.421596      0.996522
17
Coordinates from ORCA-job freq E -421.384804234566
  C       1.823389     -0.653681     -0.908025
  C      -0.663112     -1.353271     -0.918724
  C       1.424191      0.297119      0.195347
  C       0.077157      0.969412     -0.088820
  C      -0.992934     -0.052880     -0.369049
  O      -2.726428      1.129114      0.490488
  O      -0.979184     -1.222751      0.440836
  O      -2.258079      0.418110     -0.651960
  H       0.682176     -1.326924     -1.095146
  H       1.995985     -0.187753     -1.876363
  H       2.581214     -1.388747     -0.655018
  H      -1.311864     -1.952217     -1.548774
  H       1.354226     -0.247092      1.137611
  H       2.182296      1.072678      0.333876
  H       0.144627      1.616511     -0.966430
  H      -0.234670      1.588339      0.751565
  H      -3.135807      0.418685      1.001132
17
Coordinates from ORCA-job freq E -421.384797320542
  C       1.823312     -0.653824     -0.907534
  C      -0.663451     -1.352835     -0.919254
  C       1.423770      0.297135      0.195586
  C       0.077204      0.969818     -0.089695
  C      -0.993081     -0.052347     -0.369679
  O      -2.726485      1.128218      0.491562
  O      -0.979504     -1.222193      0.440302
  O      -2.258344      0.418788     -0.651986
  H       0.682122     -1.327017     -1.094947
  H       1.996396     -0.187941     -1.875804
  H       2.580945     -1.388961     -0.654137
  H      -1.312224     -1.951743     -1.549316
  H       1.352839     -0.247028      1.137805
  H       2.182051      1.072431      0.334623
  H       0.145372      1.616153     -0.967819
  H      -0.234878      1.589537      0.750020
  H      -3.132860      0.416461      1.002821
17
Coordinates from ORCA-job freq E -421.384798108504
  C       1.823302     -0.653916     -0.907222
  C      -0.663673     -1.352562     -0.919596
  C       1.423518      0.297119      0.195763
  C       0.077238      0.970035     -0.090235
  C      -0.993197     -0.052032     -0.370033
  O      -2.726519      1.127708      0.492229
  O      -0.979733     -1.221887      0.439965
  O      -2.258536      0.419193     -0.651969
  H       0.682098     -1.327112     -1.094778
  H       1.996482     -0.188037     -1.875474
  H       2.580985     -1.388949     -0.653671
  H      -1.312458     -1.951443     -1.549670
  H       1.352001     -0.247033      1.137947
  H       2.181901      1.072257      0.335148
  H       0.145891      1.615834     -0.968714
  H      -0.234963      1.590302      0.749024
  H      -3.131154      0.415175      1.003831
17
Coordinates from ORCA-job freq E -421.384804783931
  C       1.823278     -0.654009     -0.907038
  C      -0.663780     -1.352381     -0.919792
  C       1.423411      0.297161      0.195804
  C       0.077271      0.970199     -0.090511
  C      -0.993239     -0.051826     -0.370227
  O      -2.726611      1.127316      0.492659
  O      -0.979786     -1.221683      0.439782
  O      -2.258613      0.419448     -0.651938
  H       0.682014     -1.327042     -1.094854
  H       1.996775     -0.188211     -1.875275
  H       2.580764     -1.389163     -0.653255
  H      -1.312588     -1.951264     -1.549832
  H       1.351624     -0.246902      1.138011
  H       2.181889      1.072199      0.335277
  H       0.146112      1.615780     -0.969141
  H      -0.234993      1.590718      0.748547
  H      -3.130346      0.414311      1.004329
