17
Coordinates from ORCA-job freq E -421.384804783931
  C           1.82327830236982     -0.65400868680476     -0.90703795338159
  C          -0.66378030010083     -1.35238105262332     -0.91979245786867
  C           1.42341121237588      0.29716109698698      0.19580383961940
  C           0.07727148909581      0.97019890181827     -0.09051078992208
  C          -0.99323898540601     -0.05182649318627     -0.37022677464138
  O          -2.72661079154391      1.12731598952255      0.49265914577267
  O          -0.97978551448959     -1.22168268240206      0.43978172251457
  O          -2.25861259583633      0.41944833480554     -0.65193814090263
  H           0.68201367981876     -1.32704188736377     -1.09485397721074
  H           1.99677478200229     -0.18821078165429     -1.87527467774365
  H           2.58076393932549     -1.38916316199493     -0.65325465836236
  H          -1.31258787893662     -1.95126414911938     -1.54983203173775
  H           1.35162420973528     -0.24690179754814      1.13801125689383
  H           2.18188901411229      1.07219949854202      0.33527685044654
  H           0.14611191486444      1.61577989919141     -0.96914126176846
  H          -0.23499257065360      1.59071800132734      0.74854736408729
  H          -3.13034590673318      0.41431097050282      1.00432854420501
