15
Coordinates from ORCA-job freq E -271.047598918690
  C          -2.57910697068698      0.18665460967649     -0.66138177206171
  C          -1.28702937116225     -0.39739820620601     -0.21255594940922
  C          -0.07406191782411      0.21124363060924     -0.36643113152054
  O           0.79625347291289      0.43084342898121      1.21236905428491
  C           1.19823653855937     -0.35527350993954      0.15797511310993
  C           2.48028353218600      0.05583847820113     -0.52679325730313
  H          -3.23309334080548      0.37152793830029      0.19497946378984
  H          -3.11409571697027     -0.50018836331270     -1.32044207917569
  H          -2.43035010745923      1.12801471054267     -1.18745132102667
  H          -1.31494107021922     -1.34804986982380      0.30842049358414
  H           0.00043599164936      1.17008202406999     -0.86254922936951
  H           1.15007849066228     -1.43150236901478      0.35622696795009
  H           2.61337368661839     -0.49205965384171     -1.45984503070302
  H           3.32930569987475     -0.15487747920686      0.12295178163311
  H           2.46471008266448      1.12514563096439     -0.73541010378249
