15
Coordinates from ORCA-job freq E -271.047984745163
  C      -2.577348      0.184113     -0.658673
  C      -1.294156     -0.405067     -0.218785
  C      -0.068895      0.222598     -0.335673
  O       0.763787      0.440085      1.200049
  C       1.202379     -0.353992      0.144823
  C       2.486719      0.056053     -0.526211
  H      -3.224629      0.395480      0.198614
  H      -3.136940     -0.504516     -1.295653
  H      -2.435799      1.115883     -1.202579
  H      -1.325105     -1.366348      0.281329
  H      -0.001558      1.176051     -0.842137
  H       1.164283     -1.431697      0.345583
  H       2.632523     -0.499246     -1.453034
  H       3.331255     -0.151042      0.130084
  H       2.483483      1.121646     -0.747675
15
Coordinates from ORCA-job freq E -271.047595748927
  C      -2.579052      0.187357     -0.659384
  C      -1.285969     -0.399898     -0.218929
  C      -0.073446      0.208155     -0.373372
  O       0.790555      0.433412      1.208728
  C       1.197344     -0.354171      0.158053
  C       2.480773      0.056051     -0.524420
  H      -3.225683      0.373931      0.202217
  H      -3.121394     -0.497880     -1.313990
  H      -2.431820      1.128650     -1.185928
  H      -1.313134     -1.352316      0.298744
  H       0.000912      1.168455     -0.866359
  H       1.150924     -1.430208      0.358264
  H       2.616365     -0.493715     -1.456048
  H       3.328468     -0.152757      0.127682
  H       2.465155      1.124935     -0.735196
15
Coordinates from ORCA-job freq E -271.047602173913
  C      -2.578923      0.186261     -0.662000
  C      -1.287235     -0.395935     -0.209706
  C      -0.073972      0.211535     -0.365724
  O       0.797512      0.432770      1.212642
  C       1.198436     -0.354752      0.158725
  C       2.479972      0.055064     -0.527845
  H      -3.238011      0.364103      0.191877
  H      -3.108209     -0.498760     -1.327630
  H      -2.430524      1.130880     -1.182259
  H      -1.315529     -1.345246      0.313709
  H       0.000586      1.169899     -0.862792
  H       1.150067     -1.430716      0.358306
  H       2.610399     -0.492262     -1.461612
  H       3.329981     -0.157387      0.120021
  H       2.465449      1.124546     -0.735648
15
Coordinates from ORCA-job freq E -271.047589300787
  C      -2.579108      0.186641     -0.661312
  C      -1.287041     -0.397214     -0.212239
  C      -0.074012      0.211053     -0.366819
  O       0.796308      0.431651      1.212093
  C       1.198235     -0.355082      0.158130
  C       2.480276      0.055632     -0.526897
  H      -3.234112      0.369412      0.194701
  H      -3.112873     -0.499447     -1.322168
  H      -2.430560      1.129034     -1.185584
  H      -1.315019     -1.347580      0.309260
  H       0.000520      1.169756     -0.863195
  H       1.150097     -1.431196      0.356998
  H       2.612955     -0.492280     -1.459999
  H       3.329416     -0.155321      0.122611
  H       2.464917      1.124942     -0.735516
15
Coordinates from ORCA-job freq E -271.047599833805
  C      -2.579086      0.186660     -0.661380
  C      -1.287047     -0.397394     -0.212453
  C      -0.074067      0.211191     -0.366425
  O       0.796279      0.431015      1.212345
  C       1.198253     -0.355232      0.158035
  C       2.480266      0.055804     -0.526850
  H      -3.233328      0.371096      0.194879
  H      -3.113801     -0.499975     -1.320879
  H      -2.430308      1.128253     -1.187025
  H      -1.314998     -1.348025      0.308557
  H       0.000396      1.169998     -0.862600
  H       1.150117     -1.431430      0.356437
  H       2.613273     -0.492171     -1.459866
  H       3.329332     -0.154881      0.122847
  H       2.464719      1.125093     -0.735557
15
Coordinates from ORCA-job freq E -271.047598918690
  C      -2.579107      0.186655     -0.661382
  C      -1.287029     -0.397398     -0.212556
  C      -0.074062      0.211244     -0.366431
  O       0.796253      0.430843      1.212369
  C       1.198237     -0.355274      0.157975
  C       2.480284      0.055838     -0.526793
  H      -3.233093      0.371528      0.194979
  H      -3.114096     -0.500188     -1.320442
  H      -2.430350      1.128015     -1.187451
  H      -1.314941     -1.348050      0.308420
  H       0.000436      1.170082     -0.862549
  H       1.150078     -1.431502      0.356227
  H       2.613374     -0.492060     -1.459845
  H       3.329306     -0.154877      0.122952
  H       2.464710      1.125146     -0.735410
