15
* (null), Energy   -1000.0000000
C    -2.685507    0.149420   -0.607919    0.056307    0.028628    0.027799
C    -1.393429   -0.434632   -0.159094   -0.079826   -0.126893    0.123715
C    -0.180462    0.174009   -0.312969    0.404937    0.362372    1.109884
O     0.689854    0.393609    1.265831   -0.720066    0.067712   -0.775373
C     1.091837   -0.392508    0.211437    0.300181   -0.311495   -0.239238
C     2.373884    0.018604   -0.473331    0.178030   -0.041152   -0.022446
H    -3.339493    0.334294    0.248442   -0.058496    0.126043   -0.059359
H    -3.220496   -0.537422   -1.266980    0.020651    0.097365   -0.026407
H    -2.536750    1.090781   -1.133989    0.145649    0.022693    0.031911
H    -1.421341   -1.385284    0.361883   -0.115705   -0.247637   -0.150082
H    -0.105964    1.132848   -0.809087    0.381789    0.114451    0.640956
H     1.043679   -1.468737    0.409689    0.297996   -0.232926   -0.013363
H     2.506974   -0.529294   -1.406383    0.321753    0.056829   -0.061407
H     3.222906   -0.192112    0.176414    0.204273    0.075076   -0.014611
H     2.358310    1.087911   -0.681948   -0.012057   -0.031626    0.046830
15
* Frequency(6) -533.2439
C    -2.679108    0.152674   -0.604760    0.056307    0.028628    0.027799
C    -1.402501   -0.449053   -0.145034   -0.079826   -0.126893    0.123715
C    -0.134443    0.215191   -0.186836    0.404937    0.362372    1.109884
O     0.608022    0.401304    1.177714   -0.720066    0.067712   -0.775373
C     1.125951   -0.427907    0.184249    0.300181   -0.311495   -0.239238
C     2.394116    0.013928   -0.475882    0.178030   -0.041152   -0.022446
H    -3.346141    0.348618    0.241696   -0.058496    0.126043   -0.059359
H    -3.218149   -0.526357   -1.269981    0.020651    0.097365   -0.026407
H    -2.520198    1.093359   -1.130362    0.145649    0.022693    0.031911
H    -1.434490   -1.413427    0.344827   -0.115705   -0.247637   -0.150082
H    -0.062576    1.145855   -0.736246    0.381789    0.114451    0.640956
H     1.077544   -1.495207    0.408171    0.297996   -0.232926   -0.013363
H     2.543539   -0.522835   -1.413361    0.321753    0.056829   -0.061407
H     3.246120   -0.183580    0.174754    0.204273    0.075076   -0.014611
H     2.356940    1.084317   -0.676626   -0.012057   -0.031626    0.046830
15
* Frequency(6) -533.2439
C    -2.673402    0.155575   -0.601943    0.056307    0.028628    0.027799
C    -1.410590   -0.461911   -0.132498   -0.079826   -0.126893    0.123715
C    -0.093411    0.251910   -0.074372    0.404937    0.362372    1.109884
O     0.535058    0.408166    1.099146   -0.720066    0.067712   -0.775373
C     1.156368   -0.459471    0.160007    0.300181   -0.311495   -0.239238
C     2.412156    0.009758   -0.478156    0.178030   -0.041152   -0.022446
H    -3.352068    0.361390    0.235681   -0.058496    0.126043   -0.059359
H    -3.216056   -0.516492   -1.272657    0.020651    0.097365   -0.026407
H    -2.505439    1.095659   -1.127129    0.145649    0.022693    0.031911
H    -1.446214   -1.438520    0.329619   -0.115705   -0.247637   -0.150082
H    -0.023889    1.157452   -0.671298    0.381789    0.114451    0.640956
H     1.107740   -1.518810    0.406817    0.297996   -0.232926   -0.013363
H     2.576143   -0.517077   -1.419584    0.321753    0.056829   -0.061407
H     3.266819   -0.175972    0.173273    0.204273    0.075076   -0.014611
H     2.355718    1.081113   -0.671881   -0.012057   -0.031626    0.046830
15
* Frequency(6) -533.2439
C    -2.669008    0.157809   -0.599774    0.056307    0.028628    0.027799
C    -1.416819   -0.471813   -0.122844   -0.079826   -0.126893    0.123715
C    -0.061812    0.280188    0.012236    0.404937    0.362372    1.109884
O     0.478868    0.413449    1.038641   -0.720066    0.067712   -0.775373
C     1.179792   -0.483778    0.141339    0.300181   -0.311495   -0.239238
C     2.426048    0.006546   -0.479908    0.178030   -0.041152   -0.022446
H    -3.356633    0.371226    0.231049   -0.058496    0.126043   -0.059359
H    -3.214444   -0.508894   -1.274717    0.020651    0.097365   -0.026407
H    -2.494074    1.097430   -1.124639    0.145649    0.022693    0.031911
H    -1.455243   -1.457844    0.317907   -0.115705   -0.247637   -0.150082
H     0.005903    1.166383   -0.621282    0.381789    0.114451    0.640956
H     1.130994   -1.536986    0.405774    0.297996   -0.232926   -0.013363
H     2.601250   -0.512642   -1.424375    0.321753    0.056829   -0.061407
H     3.282759   -0.170114    0.172133    0.204273    0.075076   -0.014611
H     2.354777    1.078645   -0.668226   -0.012057   -0.031626    0.046830
15
* Frequency(6) -533.2439
C    -2.666402    0.159134   -0.598488    0.056307    0.028628    0.027799
C    -1.420513   -0.477686   -0.117118   -0.079826   -0.126893    0.123715
C    -0.043071    0.296959    0.063604    0.404937    0.362372    1.109884
O     0.445542    0.416583    1.002755   -0.720066    0.067712   -0.775373
C     1.193685   -0.498195    0.130266    0.300181   -0.311495   -0.239238
C     2.434287    0.004642   -0.480946    0.178030   -0.041152   -0.022446
H    -3.359340    0.377059    0.228302   -0.058496    0.126043   -0.059359
H    -3.213489   -0.504388   -1.275939    0.020651    0.097365   -0.026407
H    -2.487333    1.098480   -1.123162    0.145649    0.022693    0.031911
H    -1.460598   -1.469305    0.310961   -0.115705   -0.247637   -0.150082
H     0.023573    1.171680   -0.591617    0.381789    0.114451    0.640956
H     1.144786   -1.547766    0.405155    0.297996   -0.232926   -0.013363
H     2.616142   -0.510012   -1.427217    0.321753    0.056829   -0.061407
H     3.292214   -0.166639    0.171457    0.204273    0.075076   -0.014611
H     2.354219    1.077181   -0.666059   -0.012057   -0.031626    0.046830
15
* Frequency(6) -533.2439
C    -2.665867    0.159406   -0.598223    0.056307    0.028628    0.027799
C    -1.421273   -0.478893   -0.115941   -0.079826   -0.126893    0.123715
C    -0.039218    0.300407    0.074164    0.404937    0.362372    1.109884
O     0.438691    0.417228    0.995378   -0.720066    0.067712   -0.775373
C     1.196541   -0.501158    0.127990    0.300181   -0.311495   -0.239238
C     2.435981    0.004250   -0.481160    0.178030   -0.041152   -0.022446
H    -3.359897    0.378258    0.227737   -0.058496    0.126043   -0.059359
H    -3.213292   -0.503461   -1.276191    0.020651    0.097365   -0.026407
H    -2.485947    1.098696   -1.122858    0.145649    0.022693    0.031911
H    -1.461699   -1.471661    0.309533   -0.115705   -0.247637   -0.150082
H     0.027206    1.172769   -0.585519    0.381789    0.114451    0.640956
H     1.147621   -1.549982    0.405028    0.297996   -0.232926   -0.013363
H     2.619203   -0.509472   -1.427802    0.321753    0.056829   -0.061407
H     3.294157   -0.165925    0.171318    0.204273    0.075076   -0.014611
H     2.354105    1.076880   -0.665613   -0.012057   -0.031626    0.046830
15
* Frequency(6) -533.2439
C    -2.667459    0.158596   -0.599009    0.056307    0.028628    0.027799
C    -1.419015   -0.475304   -0.119440   -0.079826   -0.126893    0.123715
C    -0.050671    0.290157    0.042772    0.404937    0.362372    1.109884
O     0.459058    0.415312    1.017308   -0.720066    0.067712   -0.775373
C     1.188051   -0.492348    0.134757    0.300181   -0.311495   -0.239238
C     2.430946    0.005414   -0.480525    0.178030   -0.041152   -0.022446
H    -3.358242    0.374693    0.229416   -0.058496    0.126043   -0.059359
H    -3.213876   -0.506215   -1.275444    0.020651    0.097365   -0.026407
H    -2.490066    1.098054   -1.123761    0.145649    0.022693    0.031911
H    -1.458427   -1.464657    0.313778   -0.115705   -0.247637   -0.150082
H     0.016407    1.169532   -0.603647    0.381789    0.114451    0.640956
H     1.139193   -1.543394    0.405406    0.297996   -0.232926   -0.013363
H     2.610102   -0.511079   -1.426065    0.321753    0.056829   -0.061407
H     3.288380   -0.168048    0.171731    0.204273    0.075076   -0.014611
H     2.354446    1.077775   -0.666938   -0.012057   -0.031626    0.046830
15
* Frequency(6) -533.2439
C    -2.671008    0.156792   -0.600761    0.056307    0.028628    0.027799
C    -1.413985   -0.467308   -0.127236   -0.079826   -0.126893    0.123715
C    -0.076189    0.267322   -0.027170    0.404937    0.362372    1.109884
O     0.504434    0.411045    1.066170   -0.720066    0.067712   -0.775373
C     1.169134   -0.472719    0.149833    0.300181   -0.311495   -0.239238
C     2.419727    0.008008   -0.479111    0.178030   -0.041152   -0.022446
H    -3.354556    0.366750    0.233157   -0.058496    0.126043   -0.059359
H    -3.215178   -0.512351   -1.273780    0.020651    0.097365   -0.026407
H    -2.499245    1.096624   -1.125772    0.145649    0.022693    0.031911
H    -1.451135   -1.449051    0.323236   -0.115705   -0.247637   -0.150082
H    -0.007652    1.162320   -0.644039    0.381789    0.114451    0.640956
H     1.120414   -1.528716    0.406248    0.297996   -0.232926   -0.013363
H     2.589826   -0.514660   -1.422195    0.321753    0.056829   -0.061407
H     3.275507   -0.172779    0.172652    0.204273    0.075076   -0.014611
H     2.355205    1.079768   -0.669889   -0.012057   -0.031626    0.046830
15
* Frequency(6) -533.2439
C    -2.676127    0.154189   -0.603289    0.056307    0.028628    0.027799
C    -1.406727   -0.455770   -0.138485   -0.079826   -0.126893    0.123715
C    -0.113007    0.234374   -0.128083    0.404937    0.362372    1.109884
O     0.569904    0.404889    1.136669   -0.720066    0.067712   -0.775373
C     1.141841   -0.444397    0.171585    0.300181   -0.311495   -0.239238
C     2.403540    0.011749   -0.477070    0.178030   -0.041152   -0.022446
H    -3.349237    0.355290    0.238554   -0.058496    0.126043   -0.059359
H    -3.217055   -0.521203   -1.271379    0.020651    0.097365   -0.026407
H    -2.512487    1.094561   -1.128673    0.145649    0.022693    0.031911
H    -1.440615   -1.426536    0.336882   -0.115705   -0.247637   -0.150082
H    -0.042365    1.151913   -0.702315    0.381789    0.114451    0.640956
H     1.093319   -1.507538    0.407463    0.297996   -0.232926   -0.013363
H     2.560572   -0.519827   -1.416612    0.321753    0.056829   -0.061407
H     3.256934   -0.179605    0.173980    0.204273    0.075076   -0.014611
H     2.356302    1.082643   -0.674147   -0.012057   -0.031626    0.046830
15
* Frequency(6) -533.2439
C    -2.682263    0.151070   -0.606318    0.056307    0.028628    0.027799
C    -1.398028   -0.441942   -0.151967   -0.079826   -0.126893    0.123715
C    -0.157134    0.194885   -0.249030    0.404937    0.362372    1.109884
O     0.648372    0.397510    1.221164   -0.720066    0.067712   -0.775373
C     1.109130   -0.410452    0.197655    0.300181   -0.311495   -0.239238
C     2.384140    0.016234   -0.474624    0.178030   -0.041152   -0.022446
H    -3.342863    0.341555    0.245022   -0.058496    0.126043   -0.059359
H    -3.219306   -0.531813   -1.268501    0.020651    0.097365   -0.026407
H    -2.528359    1.092088   -1.132151    0.145649    0.022693    0.031911
H    -1.428006   -1.399550    0.353237   -0.115705   -0.247637   -0.150082
H    -0.083970    1.139441   -0.772163    0.381789    0.114451    0.640956
H     1.060846   -1.482155    0.408919    0.297996   -0.232926   -0.013363
H     2.525509   -0.526020   -1.409920    0.321753    0.056829   -0.061407
H     3.234674   -0.187787    0.175572    0.204273    0.075076   -0.014611
H     2.357616    1.086090   -0.679250   -0.012057   -0.031626    0.046830
15
* Frequency(6) -533.2439
C    -2.688751    0.147771   -0.609521    0.056307    0.028628    0.027799
C    -1.388831   -0.427322   -0.166221   -0.079826   -0.126893    0.123715
C    -0.203789    0.153134   -0.376907    0.404937    0.362372    1.109884
O     0.731335    0.389709    1.310499   -0.720066    0.067712   -0.775373
C     1.074544   -0.374563    0.225220    0.300181   -0.311495   -0.239238
C     2.363628    0.020975   -0.472038    0.178030   -0.041152   -0.022446
H    -3.336123    0.327033    0.251861   -0.058496    0.126043   -0.059359
H    -3.221685   -0.543032   -1.265458    0.020651    0.097365   -0.026407
H    -2.545140    1.089473   -1.135827    0.145649    0.022693    0.031911
H    -1.414675   -1.371018    0.370529   -0.115705   -0.247637   -0.150082
H    -0.127958    1.126255   -0.846011    0.381789    0.114451    0.640956
H     1.026512   -1.455318    0.410459    0.297996   -0.232926   -0.013363
H     2.488438   -0.532568   -1.402845    0.321753    0.056829   -0.061407
H     3.211138   -0.196437    0.177256    0.204273    0.075076   -0.014611
H     2.359005    1.089733   -0.684646   -0.012057   -0.031626    0.046830
15
* Frequency(6) -533.2439
C    -2.694887    0.144652   -0.612550    0.056307    0.028628    0.027799
C    -1.380132   -0.413494   -0.179702   -0.079826   -0.126893    0.123715
C    -0.247917    0.113645   -0.497855    0.404937    0.362372    1.109884
O     0.809803    0.382330    1.394994   -0.720066    0.067712   -0.775373
C     1.041832   -0.340618    0.251290    0.300181   -0.311495   -0.239238
C     2.344227    0.025460   -0.469592    0.178030   -0.041152   -0.022446
H    -3.329749    0.313297    0.258330   -0.058496    0.126043   -0.059359
H    -3.223936   -0.553642   -1.262581    0.020651    0.097365   -0.026407
H    -2.561012    1.087000   -1.139305    0.145649    0.022693    0.031911
H    -1.402067   -1.344032    0.386884   -0.115705   -0.247637   -0.150082
H    -0.169563    1.113782   -0.915858    0.381789    0.114451    0.640956
H     0.994038   -1.429935    0.411915    0.297996   -0.232926   -0.013363
H     2.453376   -0.538760   -1.396153    0.321753    0.056829   -0.061407
H     3.188878   -0.204618    0.178848    0.204273    0.075076   -0.014611
H     2.360319    1.093180   -0.689749   -0.012057   -0.031626    0.046830
15
* Frequency(6) -533.2439
C    -2.700006    0.142049   -0.615078    0.056307    0.028628    0.027799
C    -1.372874   -0.401957   -0.190951   -0.079826   -0.126893    0.123715
C    -0.284734    0.080697   -0.598768    0.404937    0.362372    1.109884
O     0.875273    0.376173    1.465492   -0.720066    0.067712   -0.775373
C     1.014539   -0.312297    0.273042    0.300181   -0.311495   -0.239238
C     2.328041    0.029201   -0.467551    0.178030   -0.041152   -0.022446
H    -3.324430    0.301837    0.263727   -0.058496    0.126043   -0.059359
H    -3.225813   -0.562494   -1.260180    0.020651    0.097365   -0.026407
H    -2.574255    1.084937   -1.142206    0.145649    0.022693    0.031911
H    -1.391547   -1.321517    0.400530   -0.115705   -0.247637   -0.150082
H    -0.204276    1.103376   -0.974135    0.381789    0.114451    0.640956
H     0.966944   -1.408757    0.413130    0.297996   -0.232926   -0.013363
H     2.424121   -0.543927   -1.390570    0.321753    0.056829   -0.061407
H     3.170305   -0.211444    0.180176    0.204273    0.075076   -0.014611
H     2.361415    1.096055   -0.694007   -0.012057   -0.031626    0.046830
15
* Frequency(6) -533.2439
C    -2.703554    0.140245   -0.616829    0.056307    0.028628    0.027799
C    -1.367843   -0.393961   -0.198747   -0.079826   -0.126893    0.123715
C    -0.310252    0.057862   -0.668710    0.404937    0.362372    1.109884
O     0.920650    0.371906    1.514354   -0.720066    0.067712   -0.775373
C     0.995622   -0.292667    0.288118    0.300181   -0.311495   -0.239238
C     2.316822    0.031794   -0.466137    0.178030   -0.041152   -0.022446
H    -3.320744    0.293894    0.267468   -0.058496    0.126043   -0.059359
H    -3.227115   -0.568630   -1.258516    0.020651    0.097365   -0.026407
H    -2.583433    1.083507   -1.144217    0.145649    0.022693    0.031911
H    -1.384255   -1.305911    0.409987   -0.115705   -0.247637   -0.150082
H    -0.228335    1.096164   -1.014526    0.381789    0.114451    0.640956
H     0.948165   -1.394079    0.413973    0.297996   -0.232926   -0.013363
H     2.403845   -0.547509   -1.386701    0.321753    0.056829   -0.061407
H     3.157432   -0.216175    0.181097    0.204273    0.075076   -0.014611
H     2.362175    1.098048   -0.696958   -0.012057   -0.031626    0.046830
15
* Frequency(6) -533.2439
C    -2.705147    0.139435   -0.617616    0.056307    0.028628    0.027799
C    -1.365586   -0.390372   -0.202246   -0.079826   -0.126893    0.123715
C    -0.321705    0.047612   -0.700101    0.404937    0.362372    1.109884
O     0.941016    0.369991    1.536285   -0.720066    0.067712   -0.775373
C     0.987132   -0.283857    0.294885    0.300181   -0.311495   -0.239238
C     2.311786    0.032958   -0.465502    0.178030   -0.041152   -0.022446
H    -3.319090    0.290329    0.269147   -0.058496    0.126043   -0.059359
H    -3.227699   -0.571384   -1.257769    0.020651    0.097365   -0.026407
H    -2.587553    1.082865   -1.145120    0.145649    0.022693    0.031911
H    -1.380983   -1.298907    0.414232   -0.115705   -0.247637   -0.150082
H    -0.239133    1.092927   -1.032655    0.381789    0.114451    0.640956
H     0.939736   -1.387491    0.414350    0.297996   -0.232926   -0.013363
H     2.394745   -0.549116   -1.384964    0.321753    0.056829   -0.061407
H     3.151655   -0.218299    0.181510    0.204273    0.075076   -0.014611
H     2.362516    1.098943   -0.698282   -0.012057   -0.031626    0.046830
15
* Frequency(6) -533.2439
C    -2.704611    0.139707   -0.617351    0.056307    0.028628    0.027799
C    -1.366345   -0.391579   -0.201069   -0.079826   -0.126893    0.123715
C    -0.317853    0.051060   -0.689541    0.404937    0.362372    1.109884
O     0.934165    0.370635    1.528908   -0.720066    0.067712   -0.775373
C     0.989988   -0.286821    0.292609    0.300181   -0.311495   -0.239238
C     2.313480    0.032567   -0.465715    0.178030   -0.041152   -0.022446
H    -3.319646    0.291529    0.268582   -0.058496    0.126043   -0.059359
H    -3.227502   -0.570457   -1.258020    0.020651    0.097365   -0.026407
H    -2.586167    1.083081   -1.144816    0.145649    0.022693    0.031911
H    -1.382083   -1.301263    0.412804   -0.115705   -0.247637   -0.150082
H    -0.235501    1.094016   -1.026557    0.381789    0.114451    0.640956
H     0.942572   -1.389707    0.414223    0.297996   -0.232926   -0.013363
H     2.397806   -0.548575   -1.385548    0.321753    0.056829   -0.061407
H     3.153598   -0.217584    0.181371    0.204273    0.075076   -0.014611
H     2.362401    1.098642   -0.697837   -0.012057   -0.031626    0.046830
15
* Frequency(6) -533.2439
C    -2.702005    0.141032   -0.616065    0.056307    0.028628    0.027799
C    -1.370040   -0.397452   -0.195343   -0.079826   -0.126893    0.123715
C    -0.299111    0.067831   -0.638174    0.404937    0.362372    1.109884
O     0.900839    0.373769    1.493022   -0.720066    0.067712   -0.775373
C     1.003881   -0.301237    0.281536    0.300181   -0.311495   -0.239238
C     2.321720    0.030662   -0.466754    0.178030   -0.041152   -0.022446
H    -3.322353    0.297362    0.265835   -0.058496    0.126043   -0.059359
H    -3.226547   -0.565951   -1.259242    0.020651    0.097365   -0.026407
H    -2.579426    1.084131   -1.143339    0.145649    0.022693    0.031911
H    -1.387438   -1.312724    0.405858   -0.115705   -0.247637   -0.150082
H    -0.217831    1.099313   -0.996892    0.381789    0.114451    0.640956
H     0.956363   -1.400487    0.413605    0.297996   -0.232926   -0.013363
H     2.412698   -0.545945   -1.388390    0.321753    0.056829   -0.061407
H     3.163052   -0.214110    0.180695    0.204273    0.075076   -0.014611
H     2.361843    1.097178   -0.695669   -0.012057   -0.031626    0.046830
15
* Frequency(6) -533.2439
C    -2.697611    0.143266   -0.613895    0.056307    0.028628    0.027799
C    -1.376269   -0.407354   -0.185689   -0.079826   -0.126893    0.123715
C    -0.267513    0.096109   -0.551565    0.404937    0.362372    1.109884
O     0.844649    0.379053    1.432517   -0.720066    0.067712   -0.775373
C     1.027305   -0.325544    0.262868    0.300181   -0.311495   -0.239238
C     2.335612    0.027451   -0.468506    0.178030   -0.041152   -0.022446
H    -3.326918    0.307198    0.261203   -0.058496    0.126043   -0.059359
H    -3.224935   -0.558353   -1.261303    0.020651    0.097365   -0.026407
H    -2.568061    1.085902   -1.140849    0.145649    0.022693    0.031911
H    -1.396467   -1.332048    0.394147   -0.115705   -0.247637   -0.150082
H    -0.188039    1.108244   -0.946876    0.381789    0.114451    0.640956
H     0.979617   -1.418663    0.412562    0.297996   -0.232926   -0.013363
H     2.437805   -0.541511   -1.393182    0.321753    0.056829   -0.061407
H     3.178992   -0.208251    0.179555    0.204273    0.075076   -0.014611
H     2.360902    1.094710   -0.692015   -0.012057   -0.031626    0.046830
15
* Frequency(6) -533.2439
C    -2.691906    0.146167   -0.611079    0.056307    0.028628    0.027799
C    -1.384357   -0.420212   -0.173153   -0.079826   -0.126893    0.123715
C    -0.226481    0.132828   -0.439101    0.404937    0.362372    1.109884
O     0.771685    0.385914    1.353948   -0.720066    0.067712   -0.775373
C     1.057723   -0.357108    0.238626    0.300181   -0.311495   -0.239238
C     2.353652    0.023281   -0.470780    0.178030   -0.041152   -0.022446
H    -3.332845    0.319970    0.255188   -0.058496    0.126043   -0.059359
H    -3.222842   -0.548488   -1.263979    0.020651    0.097365   -0.026407
H    -2.553302    1.088202   -1.137615    0.145649    0.022693    0.031911
H    -1.408192   -1.357141    0.378939   -0.115705   -0.247637   -0.150082
H    -0.149352    1.119841   -0.881928    0.381789    0.114451    0.640956
H     1.009813   -1.442266    0.411208    0.297996   -0.232926   -0.013363
H     2.470408   -0.535752   -1.399404    0.321753    0.056829   -0.061407
H     3.199691   -0.200644    0.178075    0.204273    0.075076   -0.014611
H     2.359681    1.091506   -0.687270   -0.012057   -0.031626    0.046830
15
* Frequency(6) -533.2439
C    -2.685507    0.149420   -0.607919    0.056307    0.028628    0.027799
C    -1.393429   -0.434632   -0.159094   -0.079826   -0.126893    0.123715
C    -0.180462    0.174009   -0.312969    0.404937    0.362372    1.109884
O     0.689854    0.393609    1.265831   -0.720066    0.067712   -0.775373
C     1.091837   -0.392508    0.211437    0.300181   -0.311495   -0.239238
C     2.373884    0.018604   -0.473331    0.178030   -0.041152   -0.022446
H    -3.339493    0.334294    0.248442   -0.058496    0.126043   -0.059359
H    -3.220496   -0.537422   -1.266980    0.020651    0.097365   -0.026407
H    -2.536750    1.090781   -1.133989    0.145649    0.022693    0.031911
H    -1.421341   -1.385284    0.361883   -0.115705   -0.247637   -0.150082
H    -0.105964    1.132848   -0.809087    0.381789    0.114451    0.640956
H     1.043679   -1.468737    0.409689    0.297996   -0.232926   -0.013363
H     2.506974   -0.529294   -1.406383    0.321753    0.056829   -0.061407
H     3.222906   -0.192112    0.176414    0.204273    0.075076   -0.014611
H     2.358310    1.087911   -0.681948   -0.012057   -0.031626    0.046830
