15
Coordinates from ORCA-job scan E -270.932020857349
  C      -2.525774      0.156249     -0.705915
  C      -1.270962     -0.625929     -0.393306
  C      -0.083448      0.239385     -0.303783
  O       0.533677      0.253852      1.061116
  C       1.202458     -0.456866      0.023634
  C       2.512802      0.168092     -0.417997
  H      -2.554548      1.137999     -0.227827
  H      -3.382178     -0.466253     -0.360562
  H      -2.613823      0.263544     -1.825278
  H      -1.387233     -1.257966      0.511829
  H      -0.100702      1.164474     -0.893546
  H       1.189540     -1.568183      0.107738
  H       2.477186      0.408279     -1.508700
  H       3.318965     -0.532146     -0.165526
  H       2.684041      1.115469      0.118186
15
Coordinates from ORCA-job scan E -270.943170708794
  C      -2.566228      0.142284     -0.716416
  C      -1.284306     -0.573118     -0.356756
  C      -0.065897      0.242351     -0.275762
  O       0.560411      0.258687      1.084928
  C       1.217228     -0.444917      0.034181
  C       2.529542      0.154503     -0.430023
  H      -2.651916      1.114330     -0.230732
  H      -3.414601     -0.483520     -0.428911
  H      -2.628616      0.278708     -1.805579
  H      -1.380603     -1.262389      0.482323
  H      -0.060507      1.166244     -0.846509
  H       1.196744     -1.532541      0.124175
  H       2.500589      0.361818     -1.503063
  H       3.345892     -0.525054     -0.189163
  H       2.702265      1.102613      0.077370
15
Coordinates from ORCA-job scan E -270.948544502161
  C      -2.574583      0.133116     -0.724574
  C      -1.294624     -0.534124     -0.324338
  C      -0.061241      0.234823     -0.245997
  O       0.574464      0.266205      1.110063
  C       1.221684     -0.433199      0.050240
  C       2.526604      0.145212     -0.444767
  H      -2.703045      1.092583     -0.218369
  H      -3.426393     -0.496377     -0.492094
  H      -2.609714      0.317637     -1.797002
  H      -1.374928     -1.287754      0.447352
  H      -0.034106      1.167509     -0.797304
  H       1.199462     -1.511948      0.156782
  H       2.502101      0.301873     -1.518927
  H       3.361549     -0.506638     -0.203462
  H       2.692767      1.111085      0.022461
15
Coordinates from ORCA-job scan E -270.952009932058
  C      -2.570657      0.133241     -0.726122
  C      -1.305098     -0.500893     -0.286078
  C      -0.062157      0.227362     -0.211585
  O       0.590062      0.283538      1.135805
  C       1.224829     -0.421031      0.072854
  C       2.515639      0.135388     -0.464426
  H      -2.759521      1.060210     -0.172802
  H      -3.426232     -0.517757     -0.579654
  H      -2.559776      0.405485     -1.782795
  H      -1.367078     -1.345847      0.386639
  H      -0.015382      1.173864     -0.741310
  H       1.202675     -1.499080      0.205998
  H       2.501242      0.189578     -1.551008
  H       3.374544     -0.467578     -0.181329
  H       2.656907      1.143522     -0.084123
15
Coordinates from ORCA-job scan E -270.953673931094
  C      -2.562701      0.142927     -0.719796
  C      -1.312001     -0.485066     -0.253840
  C      -0.065813      0.224836     -0.183465
  O       0.606703      0.296694      1.153158
  C       1.227449     -0.415453      0.088829
  C       2.504450      0.128090     -0.481775
  H      -2.812085      1.025711     -0.115993
  H      -3.411995     -0.533293     -0.664633
  H      -2.502580      0.503877     -1.751361
  H      -1.361178     -1.402560      0.319581
  H      -0.011260      1.180807     -0.698992
  H       1.205706     -1.494632      0.237594
  H       2.511258      0.056183     -1.570380
  H       3.381430     -0.407086     -0.122491
  H       2.602617      1.178965     -0.216372
15
Coordinates from ORCA-job scan E -270.954806083243
  C      -2.555307      0.158500     -0.708206
  C      -1.317541     -0.476819     -0.221512
  C      -0.069251      0.225435     -0.157473
  O       0.627308      0.299447      1.166661
  C       1.230044     -0.415848      0.096366
  C       2.494282      0.122343     -0.498770
  H      -2.868601      0.985879     -0.056065
  H      -3.388023     -0.540748     -0.753196
  H      -2.441712      0.606678     -1.702042
  H      -1.358281     -1.449189      0.253802
  H      -0.016006      1.188029     -0.661834
  H       1.208231     -1.496688      0.245968
  H       2.542031     -0.096928     -1.567948
  H       3.380557     -0.313955     -0.039260
  H       2.532271      1.203864     -0.376429
15
Coordinates from ORCA-job scan E -270.955416868724
  C      -2.553443      0.172818     -0.695729
  C      -1.321773     -0.471668     -0.197103
  C      -0.070646      0.228935     -0.142088
  O       0.646361      0.290067      1.171749
  C       1.231253     -0.420917      0.090694
  C       2.490057      0.118819     -0.510965
  H      -2.916676      0.950453     -0.010067
  H      -3.365014     -0.541624     -0.821201
  H      -2.398301      0.682877     -1.652754
  H      -1.360442     -1.470748      0.217326
  H      -0.025761      1.195130     -0.638999
  H       1.207995     -1.503615      0.226570
  H       2.591820     -0.220174     -1.544221
  H       3.369038     -0.217906      0.038559
  H       2.475531      1.207554     -0.511708
15
Coordinates from ORCA-job scan E -270.955683387103
  C      -2.557911      0.180407     -0.686978
  C      -1.324055     -0.466025     -0.187379
  C      -0.069856      0.233946     -0.141109
  O       0.657465      0.276029      1.167798
  C       1.230716     -0.426517      0.076276
  C       2.493249      0.116754     -0.515617
  H      -2.947275      0.926584      0.017655
  H      -3.352854     -0.543229     -0.855004
  H      -2.385083      0.720610     -1.622535
  H      -1.364895     -1.468173      0.217420
  H      -0.033689      1.201571     -0.634067
  H       1.204828     -1.510497      0.194478
  H       2.641907     -0.285277     -1.518985
  H       3.355501     -0.158201      0.091802
  H       2.451951      1.202019     -0.583692
15
Coordinates from ORCA-job scan E -270.955823149465
  C      -2.564187      0.182005     -0.682667
  C      -1.324347     -0.459573     -0.187757
  C      -0.068116      0.239348     -0.148042
  O       0.661565      0.264601      1.159984
  C       1.229058     -0.430078      0.061060
  C       2.499147      0.114692     -0.515889
  H      -2.966296      0.908448      0.034580
  H      -3.347457     -0.548857     -0.870195
  H      -2.390054      0.736987     -1.607845
  H      -1.368088     -1.451703      0.239770
  H      -0.037403      1.207200     -0.639799
  H       1.199998     -1.514759      0.165077
  H       2.679514     -0.310439     -1.503324
  H       3.346035     -0.135326      0.122931
  H       2.450627      1.197454     -0.607822
15
Coordinates from ORCA-job scan E -270.955903499115
  C      -2.568245      0.180938     -0.681200
  C      -1.323500     -0.453725     -0.191548
  C      -0.066544      0.243596     -0.155608
  O       0.662163      0.259497      1.153108
  C       1.227370     -0.431277      0.050833
  C       2.503152      0.111713     -0.515968
  H      -2.983680      0.885964      0.049962
  H      -3.340749     -0.555966     -0.888311
  H      -2.397347      0.755048     -1.594485
  H      -1.368919     -1.432302      0.266114
  H      -0.037128      1.211089     -0.648039
  H       1.195590     -1.516351      0.148012
  H       2.703817     -0.324137     -1.494275
  H       3.340435     -0.127509      0.139574
  H       2.453584      1.193424     -0.618104
15
Coordinates from ORCA-job scan E -270.955966558885
  C      -2.570334      0.179383     -0.680650
  C      -1.322399     -0.449139     -0.195772
  C      -0.065344      0.246751     -0.162359
  O       0.661818      0.262455      1.147218
  C       1.226336     -0.430539      0.046124
  C       2.505268      0.107404     -0.517338
  H      -3.007080      0.851652      0.069614
  H      -3.328974     -0.562547     -0.920469
  H      -2.401225      0.786571     -1.572287
  H      -1.368532     -1.414447      0.290114
  H      -0.034024      1.212552     -0.658338
  H       1.192168     -1.515671      0.144485
  H       2.719479     -0.340417     -1.487339
  H       3.337252     -0.122039      0.148812
  H       2.455591      1.188031     -0.631752
15
Coordinates from ORCA-job scan E -270.956039974660
  C      -2.571757      0.177855     -0.679653
  C      -1.321141     -0.445045     -0.200825
  C      -0.064172      0.249697     -0.171139
  O       0.661072      0.277252      1.139306
  C       1.226043     -0.427461      0.045967
  C       2.506889      0.100250     -0.520529
  H      -3.046717      0.789453      0.100122
  H      -3.306349     -0.567160     -0.980911
  H      -2.402146      0.844482     -1.527291
  H      -1.367878     -1.394627      0.316559
  H      -0.027781      1.210627     -0.676775
  H       1.189063     -1.511826      0.155852
  H       2.731452     -0.367084     -1.479236
  H       3.335583     -0.115107      0.154950
  H       2.457839      1.178695     -0.656331
15
Coordinates from ORCA-job scan E -270.956106276860
  C      -2.572050      0.177700     -0.677821
  C      -1.320370     -0.443313     -0.203521
  C      -0.063464      0.250929     -0.178693
  O       0.660406      0.301364      1.131831
  C       1.226908     -0.422611      0.051874
  C       2.507493      0.092952     -0.524386
  H      -3.088464      0.720032      0.127366
  H      -3.279550     -0.563845     -1.048358
  H      -2.399014      0.906389     -1.471484
  H      -1.367877     -1.383543      0.331767
  H      -0.021040      1.204293     -0.698236
  H       1.188012     -1.505041      0.181807
  H       2.732174     -0.393879     -1.473757
  H       3.336978     -0.110029      0.154297
  H       2.459858      1.168603     -0.682623
15
Coordinates from ORCA-job scan E -270.956168959242
  C      -2.571597      0.179092     -0.674960
  C      -1.320202     -0.443237     -0.201806
  C      -0.063058      0.250524     -0.183858
  O       0.660424      0.330670      1.125399
  C       1.228650     -0.416726      0.062256
  C       2.507197      0.086560     -0.528460
  H      -3.127159      0.654578      0.146161
  H      -3.251567     -0.553161     -1.112556
  H      -2.391295      0.961357     -1.413433
  H      -1.369074     -1.383021      0.334582
  H      -0.015636      1.194449     -0.719757
  H       1.189154     -1.495943      0.217107
  H       2.721860     -0.416368     -1.472089
  H       3.340875     -0.108098      0.147428
  H       2.461429      1.159325     -0.705951
15
Coordinates from ORCA-job scan E -270.956204686617
  C      -2.571484      0.180770     -0.672255
  C      -1.320413     -0.442631     -0.196173
  C      -0.062588      0.250033     -0.185800
  O       0.661567      0.350178      1.121707
  C       1.229830     -0.413007      0.069715
  C       2.506903      0.082993     -0.531224
  H      -3.150635      0.617765      0.153009
  H      -3.232467     -0.544434     -1.149945
  H      -2.383148      0.989510     -1.378820
  H      -1.370918     -1.386551      0.332273
  H      -0.014463      1.186924     -0.733427
  H       1.190686     -1.489539      0.240913
  H       2.710336     -0.426458     -1.473796
  H       3.344012     -0.109902      0.140480
  H       2.462782      1.154350     -0.716595
15
Coordinates from ORCA-job scan E -270.956222494574
  C      -2.572012      0.181387     -0.670906
  C      -1.320577     -0.440171     -0.190350
  C      -0.061767      0.250707     -0.186446
  O       0.663161      0.357997      1.120065
  C       1.229986     -0.411782      0.072042
  C       2.507110      0.081171     -0.532666
  H      -3.162504      0.602391      0.153855
  H      -3.221827     -0.542170     -1.166118
  H      -2.379054      0.998413     -1.366052
  H      -1.372362     -1.385680      0.334602
  H      -0.015442      1.184045     -0.740014
  H       1.190986     -1.487084      0.249214
  H       2.704061     -0.427312     -1.476885
  H       3.345521     -0.114632      0.136195
  H       2.464718      1.152721     -0.716474
15
Coordinates from ORCA-job scan E -270.956233854737
  C      -2.572803      0.181220     -0.670276
  C      -1.320639     -0.435168     -0.183703
  C      -0.060444      0.252898     -0.186953
  O       0.665649      0.363944      1.118597
  C       1.229697     -0.410865      0.072815
  C       2.507416      0.078495     -0.534539
  H      -3.177094      0.582978      0.153575
  H      -3.208343     -0.541548     -1.184927
  H      -2.378105      1.008209     -1.352553
  H      -1.373363     -1.379259      0.343526
  H      -0.016015      1.183241     -0.745656
  H       1.190079     -1.485325      0.253840
  H       2.700398     -0.428779     -1.479994
  H       3.346527     -0.120480      0.132290
  H       2.467037      1.150440     -0.715977
15
Coordinates from ORCA-job scan E -270.956239190238
  C      -2.572947      0.180417     -0.671082
  C      -1.320797     -0.430536     -0.178172
  C      -0.059537      0.255288     -0.185418
  O       0.668220      0.365593      1.119268
  C       1.229382     -0.410506      0.072997
  C       2.507168      0.076716     -0.536117
  H      -3.186038      0.572895      0.150555
  H      -3.199497     -0.543585     -1.195235
  H      -2.378875      1.011936     -1.348002
  H      -1.373459     -1.373265      0.351609
  H      -0.015946      1.184850     -0.745568
  H       1.188875     -1.484884      0.254403
  H       2.697656     -0.428353     -1.483221
  H       3.347394     -0.125867      0.128243
  H       2.468401      1.149304     -0.714197
15
Coordinates from ORCA-job scan E -270.956242467367
  C      -2.572676      0.179364     -0.672535
  C      -1.321103     -0.426058     -0.172599
  C      -0.058956      0.257958     -0.182750
  O       0.671248      0.366627      1.120706
  C       1.229202     -0.410123      0.073369
  C       2.506606      0.074988     -0.538019
  H      -3.195296      0.562680      0.146298
  H      -3.190370     -0.545785     -1.205975
  H      -2.379894      1.016130     -1.343386
  H      -1.373358     -1.367192      0.360285
  H      -0.015302      1.187323     -0.743321
  H       1.187453     -1.484572      0.254558
  H       2.694856     -0.428990     -1.486211
  H       3.348211     -0.130340      0.123862
  H       2.469379      1.147990     -0.714220
15
Coordinates from ORCA-job scan E -270.956244102296
  C      -2.572088      0.178493     -0.674067
  C      -1.321528     -0.423100     -0.167861
  C      -0.058868      0.259944     -0.179668
  O       0.673918      0.366834      1.122486
  C       1.229215     -0.409910      0.073882
  C       2.505909      0.073982     -0.539721
  H      -3.202054      0.556352      0.141737
  H      -3.183577     -0.547622     -1.213640
  H      -2.379645      1.018601     -1.340869
  H      -1.373500     -1.363199      0.366963
  H      -0.014762      1.189529     -0.739876
  H       1.186428     -1.484478      0.254428
  H       2.691839     -0.429335     -1.488787
  H       3.348838     -0.133307      0.119942
  H       2.469874      1.147216     -0.714887
15
Coordinates from ORCA-job scan E -270.956244875927
  C      -2.571466      0.177961     -0.675265
  C      -1.321937     -0.421644     -0.164394
  C      -0.059076      0.261032     -0.177080
  O       0.675833      0.366436      1.123998
  C       1.229319     -0.409909      0.074238
  C       2.505311      0.073633     -0.541006
  H      -3.206212      0.553397      0.137978
  H      -3.179295     -0.548753     -1.218314
  H      -2.378234      1.019577     -1.339905
  H      -1.374004     -1.360997      0.371707
  H      -0.014566      1.190920     -0.736697
  H       1.185890     -1.484580      0.254003
  H       2.689312     -0.429284     -1.490691
  H       3.349158     -0.134754      0.117161
  H       2.469967      1.146966     -0.715672
15
Coordinates from ORCA-job scan E -270.956245160079
  C      -2.570986      0.177718     -0.676015
  C      -1.322238     -0.421025     -0.162063
  C      -0.059307      0.261462     -0.175343
  O       0.677018      0.365950      1.125008
  C       1.229419     -0.410002      0.074422
  C       2.504884      0.073583     -0.541893
  H      -3.208688      0.551957      0.135445
  H      -3.176600     -0.549223     -1.221280
  H      -2.376460      1.019934     -1.339452
  H      -1.374707     -1.359733      0.375064
  H      -0.014623      1.191522     -0.734604
  H       1.185709     -1.484727      0.253631
  H       2.687473     -0.429026     -1.491999
  H       3.349283     -0.135348      0.115370
  H       2.469820      1.146959     -0.716229
15
Coordinates from ORCA-job scan E -270.956245239572
  C      -2.570833      0.177731     -0.676207
  C      -1.322336     -0.421246     -0.161702
  C      -0.059442      0.261261     -0.174902
  O       0.677148      0.365269      1.125337
  C       1.229464     -0.410175      0.074325
  C       2.504774      0.073828     -0.542029
  H      -3.208317      0.553201      0.134826
  H      -3.176806     -0.549376     -1.220814
  H      -2.375484      1.019039     -1.340537
  H      -1.375134     -1.359709      0.375769
  H      -0.014812      1.191506     -0.733848
  H       1.185858     -1.484958      0.253115
  H       2.687102     -0.428421     -1.492370
  H       3.349254     -0.135206      0.115080
  H       2.469564      1.147259     -0.715980
15
Coordinates from ORCA-job scan E -270.954027859679
  C      -2.575981      0.179409     -0.683979
  C      -1.330389     -0.421870     -0.165100
  C      -0.065086      0.256166     -0.178933
  O       0.727561      0.365513      1.180056
  C       1.237734     -0.417377      0.085320
  C       2.502681      0.076876     -0.544427
  H      -3.213699      0.559952      0.124520
  H      -3.183360     -0.547696     -1.227022
  H      -2.376647      1.017540     -1.351160
  H      -1.387085     -1.358445      0.375284
  H      -0.020267      1.181695     -0.745712
  H       1.192729     -1.492422      0.262190
  H       2.674847     -0.417879     -1.500678
  H       3.356779     -0.132819      0.100112
  H       2.460183      1.151359     -0.710409
15
Coordinates from ORCA-job scan E -270.954644825767
  C      -2.570773      0.180652     -0.679543
  C      -1.321686     -0.424103     -0.173946
  C      -0.063877      0.249637     -0.197365
  O       0.715696      0.365200      1.168654
  C       1.230276     -0.411867      0.085959
  C       2.498075      0.076061     -0.541578
  H      -3.201009      0.556443      0.136565
  H      -3.182012     -0.544076     -1.220835
  H      -2.376880      1.022149     -1.343865
  H      -1.375338     -1.361577      0.365259
  H      -0.019941      1.183209     -0.747524
  H       1.187218     -1.486025      0.266700
  H       2.676050     -0.425350     -1.493717
  H       3.347754     -0.129546      0.109516
  H       2.456445      1.149196     -0.714218
15
Coordinates from ORCA-job scan E -270.954962043276
  C      -2.570527      0.182150     -0.669500
  C      -1.312673     -0.425849     -0.188594
  C      -0.062056      0.244453     -0.225468
  O       0.698588      0.376639      1.149684
  C       1.221905     -0.400096      0.090436
  C       2.497752      0.072757     -0.535338
  H      -3.191710      0.540295      0.161090
  H      -3.184526     -0.536924     -1.215153
  H      -2.388359      1.035347     -1.321746
  H      -1.358201     -1.372224      0.335665
  H      -0.014653      1.183844     -0.763554
  H       1.179813     -1.474649      0.277019
  H       2.681975     -0.441879     -1.479015
  H       3.340546     -0.127871      0.126080
  H       2.462128      1.144008     -0.721543
15
Coordinates from ORCA-job scan E -270.955000438096
  C      -2.574468      0.182494     -0.664756
  C      -1.312588     -0.426400     -0.195079
  C      -0.061942      0.244842     -0.234708
  O       0.693359      0.386664      1.142428
  C       1.221648     -0.395529      0.092744
  C       2.501400      0.070744     -0.532199
  H      -3.193198      0.529205      0.172390
  H      -3.188366     -0.532740     -1.215694
  H      -2.397549      1.043383     -1.308259
  H      -1.354403     -1.377935      0.320057
  H      -0.011673      1.182520     -0.775686
  H       1.180086     -1.470197      0.282512
  H       2.686779     -0.449978     -1.472076
  H       3.341554     -0.128217      0.133119
  H       2.469361      1.141145     -0.724731
15
Coordinates from ORCA-job scan E -270.955021822684
  C      -2.579720      0.182943     -0.658737
  C      -1.313009     -0.427736     -0.204630
  C      -0.062068      0.245665     -0.245788
  O       0.686890      0.400949      1.133358
  C       1.222006     -0.390388      0.095284
  C       2.506264      0.068184     -0.528075
  H      -3.195241      0.512858      0.187377
  H      -3.193557     -0.525901     -1.218156
  H      -2.409461      1.055164     -1.288645
  H      -1.350452     -1.384959      0.300232
  H      -0.008029      1.179561     -0.793070
  H       1.181894     -1.464572      0.290834
  H       2.692837     -0.460844     -1.462850
  H       3.343022     -0.128161      0.142299
  H       2.478623      1.137238     -0.729368
15
Coordinates from ORCA-job scan E -270.955023896251
  C      -2.580313      0.183158     -0.657581
  C      -1.312772     -0.428488     -0.207375
  C      -0.062048      0.245534     -0.248082
  O       0.685334      0.404103      1.131545
  C       1.221935     -0.389725      0.095541
  C       2.506762      0.067775     -0.527266
  H      -3.195088      0.508455      0.190840
  H      -3.194251     -0.523534     -1.219677
  H      -2.411383      1.058514     -1.283473
  H      -1.349575     -1.386165      0.296724
  H      -0.007362      1.178265     -0.797246
  H       1.182541     -1.463416      0.293531
  H       2.693711     -0.463313     -1.460828
  H       3.342814     -0.127558      0.144268
  H       2.479693      1.136395     -0.730857
15
Coordinates from ORCA-job scan E -270.955025199803
  C      -2.580501      0.183509     -0.656477
  C      -1.312257     -0.429484     -0.210355
  C      -0.061862      0.244997     -0.250476
  O       0.683638      0.407203      1.129746
  C       1.221658     -0.389319      0.095643
  C       2.506843      0.067470     -0.526557
  H      -3.194711      0.503283      0.194418
  H      -3.194441     -0.520462     -1.222065
  H      -2.412769      1.062504     -1.277530
  H      -1.348677     -1.387133      0.293905
  H      -0.006681      1.176445     -0.801721
  H       1.183117     -1.462282      0.296934
  H       2.694393     -0.465813     -1.458816
  H       3.342249     -0.126470      0.146149
  H       2.480000      1.135555     -0.732735
15
Coordinates from ORCA-job scan E -270.955025385843
  C      -2.580427      0.183634     -0.656306
  C      -1.312135     -0.429629     -0.210656
  C      -0.061721      0.244725     -0.250887
  O       0.683404      0.407702      1.129447
  C       1.221566     -0.389335      0.095635
  C       2.506753      0.067425     -0.526535
  H      -3.194920      0.501917      0.194928
  H      -3.194069     -0.519679     -1.223076
  H      -2.412777      1.063503     -1.276127
  H      -1.348631     -1.387120      0.293910
  H      -0.006561      1.175915     -0.802576
  H       1.183101     -1.462118      0.297772
  H       2.694521     -0.466207     -1.458573
  H       3.342132     -0.126133      0.146309
  H       2.479763      1.135403     -0.733201
15
Coordinates from ORCA-job scan E -270.952289477215
  C      -2.585725      0.185094     -0.664333
  C      -1.320188     -0.430593     -0.214177
  C      -0.067540      0.239613     -0.254523
  O       0.733433      0.409680      1.184992
  C       1.230081     -0.395990      0.107541
  C       2.504814      0.070334     -0.529202
  H      -3.201005      0.508008      0.184601
  H      -3.200318     -0.518231     -1.230058
  H      -2.414159      1.062332     -1.286829
  H      -1.360427     -1.386583      0.292967
  H      -0.011647      1.166345     -0.813662
  H       1.189904     -1.469103      0.307600
  H       2.681948     -0.456142     -1.467480
  H       3.350259     -0.124381      0.130811
  H       2.470568      1.139616     -0.728186
15
Coordinates from ORCA-job scan E -270.952968916220
  C      -2.578438      0.185800     -0.661706
  C      -1.310996     -0.431178     -0.219480
  C      -0.066044      0.232666     -0.269980
  O       0.724009      0.405111      1.175275
  C       1.221468     -0.391123      0.107160
  C       2.498406      0.070139     -0.527310
  H      -3.187686      0.506764      0.191759
  H      -3.195946     -0.517122     -1.224275
  H      -2.410426      1.063917     -1.283642
  H      -1.349720     -1.386046      0.290180
  H      -0.012813      1.168966     -0.811125
  H       1.182792     -1.463470      0.308776
  H       2.679667     -0.460199     -1.463021
  H       3.340239     -0.122695      0.137287
  H       2.465486      1.138472     -0.729835
15
Coordinates from ORCA-job scan E -270.953274104571
  C      -2.575306      0.186217     -0.655808
  C      -1.302553     -0.429209     -0.225064
  C      -0.064233      0.227821     -0.290044
  O       0.712529      0.408842      1.161354
  C       1.212589     -0.381184      0.110455
  C       2.495617      0.067925     -0.523882
  H      -3.180505      0.495018      0.204690
  H      -3.192055     -0.515006     -1.221248
  H      -2.414625      1.070721     -1.270204
  H      -1.336777     -1.389266      0.275491
  H      -0.009831      1.171872     -0.816585
  H       1.174282     -1.454875      0.312882
  H       2.679149     -0.470141     -1.454567
  H       3.333039     -0.123899      0.146457
  H       2.468680      1.135163     -0.733865
15
Coordinates from ORCA-job scan E -270.953302817590
  C      -2.578047      0.186000     -0.653422
  C      -1.303154     -0.428111     -0.226532
  C      -0.064248      0.228633     -0.294846
  O       0.710068      0.414965      1.157187
  C       1.212642     -0.377800      0.112363
  C       2.498252      0.066412     -0.522510
  H      -3.184051      0.486346      0.209425
  H      -3.192425     -0.513408     -1.223768
  H      -2.420138      1.075342     -1.261486
  H      -1.335693     -1.391076      0.268511
  H      -0.007675      1.172179     -0.822198
  H       1.174656     -1.452167      0.314950
  H       2.680902     -0.475003     -1.451210
  H       3.334493     -0.125541      0.149319
  H       2.474417      1.133229     -0.735721
15
Coordinates from ORCA-job scan E -270.953317190020
  C      -2.581499      0.185640     -0.650737
  C      -1.304270     -0.427026     -0.228658
  C      -0.064548      0.230138     -0.299984
  O       0.707410      0.423742      1.152353
  C       1.213229     -0.374038      0.114512
  C       2.501501      0.064378     -0.521037
  H      -3.189695      0.472798      0.214956
  H      -3.191843     -0.510345     -1.229741
  H      -2.426917      1.082629     -1.248307
  H      -1.334956     -1.392515      0.261541
  H      -0.004969      1.172142     -0.829765
  H       1.176281     -1.448732      0.318320
  H       2.682372     -0.481726     -1.447136
  H       3.336388     -0.127583      0.152506
  H       2.481517      1.130498     -0.738759
15
Coordinates from ORCA-job scan E -270.953318878065
  C      -2.581796      0.185562     -0.650386
  C      -1.304257     -0.426815     -0.228988
  C      -0.064632      0.230505     -0.300713
  O       0.707064      0.425942      1.151518
  C       1.213203     -0.373390      0.114883
  C       2.501665      0.063867     -0.521049
  H      -3.191649      0.467809      0.215718
  H      -3.190209     -0.508947     -1.233280
  H      -2.427820      1.085343     -1.243862
  H      -1.334664     -1.392121      0.261603
  H      -0.004313      1.171945     -0.831337
  H       1.176745     -1.447837      0.319865
  H       2.681789     -0.483638     -1.446475
  H       3.336401     -0.127932      0.152716
  H       2.482472      1.129709     -0.740149
15
Coordinates from ORCA-job scan E -270.953321651050
  C      -2.581924      0.185434     -0.650007
  C      -1.304050     -0.426047     -0.228603
  C      -0.064705      0.231240     -0.301405
  O       0.707025      0.430562      1.150280
  C       1.212988     -0.372215      0.115685
  C       2.501393      0.062697     -0.521713
  H      -3.197440      0.454825      0.216073
  H      -3.184390     -0.505221     -1.243854
  H      -2.428853      1.092240     -1.232812
  H      -1.334132     -1.390258      0.264203
  H      -0.002850      1.171300     -0.834143
  H       1.177520     -1.445914      0.324010
  H       2.679560     -0.487934     -1.445726
  H       3.336219     -0.128572      0.152065
  H       2.483639      1.127865     -0.743989
15
Coordinates from ORCA-job scan E -270.953322917091
  C      -2.581782      0.185410     -0.650068
  C      -1.304029     -0.425248     -0.227135
  C      -0.064629      0.231538     -0.301010
  O       0.707731      0.432610      1.150098
  C       1.212920     -0.371779      0.116155
  C       2.501017      0.062029     -0.522555
  H      -3.201839      0.447117      0.215033
  H      -3.179822     -0.503065     -1.251071
  H      -2.428743      1.096171     -1.226598
  H      -1.334218     -1.388623      0.267321
  H      -0.002255      1.170854     -0.834983
  H       1.177629     -1.445065      0.326372
  H       2.678114     -0.489977     -1.445988
  H       3.336256     -0.128839      0.150809
  H       2.483648      1.126869     -0.746317
15
Coordinates from ORCA-job scan E -270.953324564351
  C      -2.581476      0.185407     -0.650391
  C      -1.304234     -0.423544     -0.223423
  C      -0.064419      0.231938     -0.299615
  O       0.709657      0.435115      1.150284
  C       1.213021     -0.371314      0.116922
  C       2.500416      0.060940     -0.524282
  H      -3.209782      0.435375      0.212055
  H      -3.171632     -0.499962     -1.262946
  H      -2.428031      1.101952     -1.217465
  H      -1.334892     -1.385591      0.273617
  H      -0.001831      1.170189     -0.835466
  H       1.177399     -1.444080      0.329633
  H       2.676032     -0.492585     -1.447114
  H       3.336635     -0.129236      0.148047
  H       2.483137      1.125398     -0.749794
15
Coordinates from ORCA-job scan E -270.953325331391
  C      -2.581293      0.185402     -0.650676
  C      -1.304534     -0.422317     -0.220502
  C      -0.064287      0.232185     -0.298414
  O       0.711253      0.435992      1.150614
  C       1.213278     -0.371189      0.117344
  C       2.500186      0.060290     -0.525426
  H      -3.214657      0.429601      0.209624
  H      -3.166687     -0.498685     -1.269377
  H      -2.427358      1.104660     -1.213175
  H      -1.335629     -1.383711      0.277781
  H      -0.002135      1.169969     -0.835192
  H       1.176960     -1.443813      0.330833
  H       2.675200     -0.493554     -1.448165
  H       3.337087     -0.129493      0.146170
  H       2.482615      1.124664     -0.751376
15
Coordinates from ORCA-job scan E -270.953325589566
  C      -2.581237      0.185375     -0.650804
  C      -1.304728     -0.421753     -0.219086
  C      -0.064264      0.232360     -0.297829
  O       0.712088      0.435997      1.150789
  C       1.213502     -0.371198      0.117463
  C       2.500225      0.060020     -0.525873
  H      -3.216466      0.428283      0.208456
  H      -3.164918     -0.498662     -1.271227
  H      -2.427018      1.105203     -1.212304
  H      -1.336048     -1.383012      0.279445
  H      -0.002683      1.170078     -0.834813
  H       1.176581     -1.443894      0.330695
  H       2.675205     -0.493620     -1.448711
  H       3.337367     -0.129632      0.145479
  H       2.482392      1.124456     -0.751616
15
Coordinates from ORCA-job scan E -270.951270571131
  C      -2.586808      0.186556     -0.658992
  C      -1.312868     -0.422743     -0.222732
  C      -0.070374      0.227551     -0.301227
  O       0.762481      0.438922      1.206237
  C       1.222402     -0.377284      0.130106
  C       2.498476      0.062737     -0.528628
  H      -3.223277      0.433772      0.198134
  H      -3.170953     -0.497804     -1.278621
  H      -2.428887      1.104172     -1.223097
  H      -1.347709     -1.382674      0.278137
  H      -0.007637      1.161110     -0.845341
  H       1.183343     -1.450336      0.341179
  H       2.662238     -0.484060     -1.457699
  H       3.345829     -0.128554      0.129528
  H       2.473744      1.128637     -0.746922
15
Coordinates from ORCA-job scan E -270.951993642999
  C      -2.578508      0.186784     -0.657811
  C      -1.303115     -0.422360     -0.226279
  C      -0.068906      0.221076     -0.314063
  O       0.755426      0.430836      1.198302
  C       1.213077     -0.372820      0.129126
  C       2.490958      0.063101     -0.527153
  H      -3.209346      0.435504      0.202497
  H      -3.165670     -0.499382     -1.272154
  H      -2.423153      1.103048     -1.224516
  H      -1.337096     -1.379691      0.280078
  H      -0.009544      1.164515     -0.840147
  H       1.175115     -1.445279      0.339468
  H       2.657233     -0.485288     -1.455165
  H       3.335309     -0.128595      0.134165
  H       2.468220      1.128552     -0.746284
15
Coordinates from ORCA-job scan E -270.952292662529
  C      -2.574145      0.186485     -0.654821
  C      -1.294668     -0.418389     -0.227426
  C      -0.067328      0.217432     -0.328287
  O       0.748114      0.428583      1.188698
  C       1.204088     -0.364119      0.132016
  C       2.486813      0.061849     -0.525119
  H      -3.202344      0.429411      0.208786
  H      -3.159704     -0.501586     -1.268361
  H      -2.424289      1.104512     -1.219806
  H      -1.325881     -1.378849      0.273809
  H      -0.007778      1.169063     -0.839263
  H       1.166047     -1.438865      0.338939
  H       2.652399     -0.490223     -1.450940
  H       3.328382     -0.132311      0.138920
  H       2.470292      1.127007     -0.747083
15
Coordinates from ORCA-job scan E -270.952318113302
  C      -2.576369      0.186063     -0.653717
  C      -1.295420     -0.416722     -0.227078
  C      -0.067354      0.218444     -0.330936
  O       0.746718      0.432042      1.186442
  C       1.204372     -0.361530      0.133815
  C       2.488996      0.060790     -0.524433
  H      -3.205722      0.423764      0.210467
  H      -3.159362     -0.501603     -1.270165
  H      -2.428514      1.106575     -1.215159
  H      -1.325933     -1.378980      0.270770
  H      -0.006096      1.170253     -0.841510
  H       1.166640     -1.437437      0.338818
  H       2.652773     -0.492905     -1.449404
  H       3.330104     -0.134597      0.139883
  H       2.475167      1.125846     -0.747730
15
Coordinates from ORCA-job scan E -270.952330418692
  C      -2.579124      0.185447     -0.652550
  C      -1.296582     -0.414892     -0.226951
  C      -0.067630      0.220147     -0.333762
  O       0.745146      0.437402      1.183791
  C       1.205132     -0.358654      0.135862
  C       2.491635      0.059291     -0.523738
  H      -3.210898      0.414345      0.212191
  H      -3.157868     -0.500738     -1.274708
  H      -2.433874      1.110369     -1.207375
  H      -1.326306     -1.378385      0.268520
  H      -0.003923      1.171601     -0.844656
  H       1.168384     -1.435487      0.339205
  H       2.652451     -0.496902     -1.447522
  H       3.332221     -0.137628      0.140819
  H       2.481236      1.124083     -0.749063
15
Coordinates from ORCA-job scan E -270.952331617498
  C      -2.579285      0.185305     -0.652491
  C      -1.296570     -0.414516     -0.226768
  C      -0.067734      0.220619     -0.333955
  O       0.745095      0.438803      1.183436
  C       1.205130     -0.358186      0.136200
  C       2.491662      0.058906     -0.523875
  H      -3.212567      0.410717      0.212037
  H      -3.156172     -0.499957     -1.277452
  H      -2.434574      1.111989     -1.204485
  H      -1.326116     -1.377718      0.269277
  H      -0.003376      1.171807     -0.845182
  H       1.168781     -1.434904      0.340012
  H       2.651450     -0.498114     -1.447346
  H       3.332277     -0.138297      0.140555
  H       2.481998      1.123547     -0.749900
15
Coordinates from ORCA-job scan E -270.952333378601
  C      -2.579222      0.185055     -0.652603
  C      -1.296410     -0.413584     -0.225641
  C      -0.067890      0.221526     -0.333645
  O       0.745580      0.441568      1.183134
  C       1.204982     -0.357407      0.136860
  C       2.491207      0.058091     -0.524614
  H      -3.216999      0.401870      0.210730
  H      -3.151073     -0.497781     -1.284995
  H      -2.435344      1.115944     -1.197612
  H      -1.325713     -1.375763      0.272383
  H      -0.002182      1.172014     -0.845851
  H       1.169369     -1.433681      0.342397
  H       2.648690     -0.500677     -1.447477
  H       3.332188     -0.139543      0.139205
  H       2.482817      1.122369     -0.752207
15
Coordinates from ORCA-job scan E -270.952334023082
  C      -2.579106      0.184987     -0.652726
  C      -1.296407     -0.412938     -0.224399
  C      -0.067888      0.221847     -0.333086
  O       0.746252      0.442849      1.183195
  C       1.204936     -0.357083      0.137243
  C       2.490875      0.057638     -0.525268
  H      -3.220043      0.396805      0.209443
  H      -3.147667     -0.496381     -1.289768
  H      -2.435380      1.118225     -1.193706
  H      -1.325723     -1.374562      0.274697
  H      -0.001691      1.171899     -0.846021
  H       1.169415     -1.433112      0.343932
  H       2.647336     -0.501903     -1.447860
  H       3.332248     -0.140001      0.138043
  H       2.482843      1.121732     -0.753656
15
Coordinates from ORCA-job scan E -270.952334677317
  C      -2.578943      0.184981     -0.652881
  C      -1.296558     -0.412020     -0.222286
  C      -0.067811      0.222033     -0.332146
  O       0.747438      0.444244      1.183361
  C       1.205009     -0.356784      0.137720
  C       2.490509      0.057035     -0.526265
  H      -3.224381      0.390441      0.207370
  H      -3.142977     -0.494461     -1.296133
  H      -2.435111      1.121136     -1.188736
  H      -1.326080     -1.372975      0.278106
  H      -0.001427      1.171510     -0.846152
  H       1.169235     -1.432530      0.345874
  H       2.646084     -0.503238     -1.448574
  H       3.332501     -0.140307      0.136341
  H       2.482512      1.120935     -0.755535
15
Coordinates from ORCA-job scan E -270.952334936973
  C      -2.578874      0.185039     -0.652904
  C      -1.296733     -0.411586     -0.221079
  C      -0.067742      0.221960     -0.331696
  O       0.748137      0.444740      1.183389
  C       1.205164     -0.356724      0.137900
  C       2.490445      0.056732     -0.526762
  H      -3.226500      0.387792      0.206293
  H      -3.140784     -0.493552     -1.298980
  H      -2.434813      1.122416     -1.186551
  H      -1.326480     -1.372279      0.279814
  H      -0.001691      1.171183     -0.846264
  H       1.168988     -1.432378      0.346600
  H       2.646000     -0.503695     -1.448969
  H       3.332726     -0.140224      0.135593
  H       2.482157      1.120579     -0.756320
15
Coordinates from ORCA-job scan E -270.951623981638
  C      -2.584776      0.186006     -0.661174
  C      -1.304995     -0.412475     -0.224908
  C      -0.074173      0.217597     -0.335094
  O       0.799002      0.447761      1.238421
  C       1.214514     -0.362319      0.151122
  C       2.488940      0.059263     -0.529473
  H      -3.233837      0.392735      0.196003
  H      -3.146847     -0.493104     -1.306566
  H      -2.437308      1.121431     -1.197329
  H      -1.337997     -1.371946      0.278134
  H      -0.006634      1.163010     -0.856499
  H       1.175741     -1.438318      0.357600
  H       2.632695     -0.494567     -1.457680
  H       3.341419     -0.139690      0.119320
  H       2.474256      1.124617     -0.751816
15
Coordinates from ORCA-job scan E -270.952332613582
  C      -2.576494      0.185654     -0.661131
  C      -1.295375     -0.411173     -0.226749
  C      -0.072602      0.212506     -0.344914
  O       0.795114      0.437617      1.232348
  C       1.205022     -0.357898      0.149972
  C       2.480988      0.059882     -0.528374
  H      -3.221023      0.395605      0.198149
  H      -3.140834     -0.496850     -1.300602
  H      -2.431053      1.118641     -1.201778
  H      -1.327745     -1.367319      0.283237
  H      -0.008313      1.166735     -0.850179
  H       1.166541     -1.433241      0.354317
  H       2.625495     -0.493712     -1.456822
  H       3.331191     -0.141653      0.122058
  H       2.469086      1.125208     -0.749470
15
Coordinates from ORCA-job scan E -270.952601498867
  C      -2.571997      0.184603     -0.660304
  C      -1.287573     -0.405917     -0.224873
  C      -0.071038      0.210890     -0.353791
  O       0.792100      0.431834      1.226568
  C       1.196471     -0.350003      0.152833
  C       2.476311      0.059146     -0.527408
  H      -3.215652      0.392190      0.199945
  H      -3.133360     -0.502186     -1.297547
  H      -2.430906      1.117093     -1.202678
  H      -1.318168     -1.363723      0.282878
  H      -0.006812      1.172125     -0.846168
  H       1.156994     -1.428080      0.351409
  H       2.617643     -0.495098     -1.455863
  H       3.325070     -0.147663      0.123115
  H       2.470915      1.124789     -0.748052
15
Coordinates from ORCA-job scan E -270.952623103328
  C      -2.573749      0.184051     -0.660004
  C      -1.288265     -0.403975     -0.223669
  C      -0.071018      0.212165     -0.355018
  O       0.791330      0.433620      1.225701
  C       1.196838     -0.347970      0.154624
  C       2.478080      0.058354     -0.527167
  H      -3.218810      0.388256      0.199993
  H      -3.132360     -0.503280     -1.299050
  H      -2.434249      1.117848     -1.200540
  H      -1.318685     -1.362695      0.282403
  H      -0.005551      1.173730     -0.846704
  H       1.157523     -1.427460      0.350138
  H       2.617046     -0.496374     -1.455517
  H       3.326807     -0.150377      0.122826
  H       2.475064      1.124110     -0.747952
15
Coordinates from ORCA-job scan E -270.952633719942
  C      -2.575898      0.183322     -0.659703
  C      -1.289244     -0.401711     -0.222467
  C      -0.071201      0.214105     -0.356446
  O       0.790264      0.436817      1.224578
  C       1.197644     -0.345734      0.156718
  C       2.480214      0.057179     -0.526914
  H      -3.223498      0.381295      0.199824
  H      -3.130095     -0.503906     -1.302711
  H      -2.438658      1.119842     -1.196098
  H      -1.319429     -1.360743      0.282998
  H      -0.003938      1.175668     -0.847826
  H       1.159120     -1.426485      0.348888
  H       2.615527     -0.498573     -1.454997
  H       3.328895     -0.154041      0.122366
  H       2.480295      1.122966     -0.748147
15
Coordinates from ORCA-job scan E -270.952634592198
  C      -2.575970      0.183194     -0.659705
  C      -1.289190     -0.401290     -0.222161
  C      -0.071278      0.214572     -0.356523
  O       0.790246      0.437746      1.224403
  C       1.197647     -0.345411      0.157009
  C       2.480180      0.056889     -0.527031
  H      -3.224824      0.378558      0.199449
  H      -3.128514     -0.503471     -1.304786
  H      -2.439260      1.120928     -1.194092
  H      -1.319235     -1.360006      0.283902
  H      -0.003525      1.175938     -0.848152
  H       1.159440     -1.426091      0.349313
  H       2.614440     -0.499340     -1.454985
  H       3.328927     -0.154811      0.122003
  H       2.480916      1.122597     -0.748582
15
Coordinates from ORCA-job scan E -270.951757677883
  C      -2.571489      0.182599     -0.653790
  C      -1.283182     -0.400778     -0.219256
  C      -0.066443      0.217331     -0.353945
  O       0.753555      0.435993      1.185556
  C       1.190637     -0.341701      0.147270
  C       2.481036      0.055196     -0.525200
  H      -3.219319      0.375347      0.206732
  H      -3.124003     -0.503639     -1.299350
  H      -2.436991      1.121630     -1.186467
  H      -1.311108     -1.360316      0.285375
  H       0.000099      1.181177     -0.840890
  H       1.154596     -1.422172      0.341177
  H       2.624078     -0.505613     -1.449138
  H       3.322611     -0.154916      0.133730
  H       2.485921      1.119864     -0.751740
15
Coordinates from ORCA-job scan E -270.952126923492
  C      -2.577208      0.182944     -0.653660
  C      -1.289899     -0.401679     -0.217881
  C      -0.067671      0.220620     -0.347616
  O       0.756278      0.443649      1.189146
  C       1.197416     -0.344680      0.148210
  C       2.486575      0.054583     -0.526038
  H      -3.229019      0.371606      0.205091
  H      -3.127228     -0.500167     -1.304916
  H      -2.441457      1.124541     -1.181634
  H      -1.318215     -1.363414      0.282020
  H       0.000825      1.178738     -0.845436
  H       1.161459     -1.425513      0.344470
  H       2.628919     -0.507030     -1.449339
  H       3.329672     -0.153298      0.131771
  H       2.489550      1.119101     -0.754125
15
Coordinates from ORCA-job scan E -270.952264185218
  C      -2.580175      0.183674     -0.653887
  C      -1.294920     -0.404673     -0.218572
  C      -0.068819      0.222170     -0.341812
  O       0.758941      0.448963      1.192349
  C       1.203170     -0.349449      0.147000
  C       2.489410      0.054557     -0.526876
  H      -3.234579      0.369921      0.203531
  H      -3.129891     -0.495263     -1.310010
  H      -2.442059      1.127495     -1.177425
  H      -1.323905     -1.365902      0.281754
  H       0.000038      1.175068     -0.849002
  H       1.167591     -1.428010      0.348338
  H       2.633130     -0.507722     -1.449603
  H       3.333690     -0.149449      0.130656
  H       2.488377      1.118621     -0.756377
15
Coordinates from ORCA-job scan E -270.952275292485
  C      -2.579341      0.184054     -0.654131
  C      -1.294970     -0.406152     -0.219235
  C      -0.068907      0.221448     -0.340582
  O       0.759611      0.448444      1.193140
  C       1.203473     -0.351102      0.145732
  C       2.488580      0.054983     -0.527235
  H      -3.233719      0.371146      0.203120
  H      -3.130153     -0.493757     -1.310568
  H      -2.439981      1.127794     -1.177488
  H      -1.324255     -1.366316      0.283065
  H      -0.000708      1.173658     -0.849100
  H       1.167688     -1.428571      0.349578
  H       2.633952     -0.507143     -1.449936
  H       3.333032     -0.147398      0.130598
  H       2.485698      1.118915     -0.756894
15
Coordinates from ORCA-job scan E -270.952280041681
  C      -2.578098      0.184465     -0.654380
  C      -1.294556     -0.407489     -0.219645
  C      -0.068833      0.220291     -0.339549
  O       0.760280      0.446949      1.193901
  C       1.203141     -0.352506      0.144335
  C       2.487381      0.055544     -0.527648
  H      -3.232122      0.373359      0.202739
  H      -3.130405     -0.492653     -1.310311
  H      -2.437312      1.127541     -1.178540
  H      -1.324188     -1.366721      0.284414
  H      -0.001541      1.172241     -0.848740
  H       1.166804     -1.429131      0.350559
  H       2.634943     -0.506107     -1.450413
  H       3.331918     -0.145196      0.130584
  H       2.482588      1.119416     -0.757243
15
Coordinates from ORCA-job scan E -270.952280434624
  C      -2.577890      0.184560     -0.654401
  C      -1.294474     -0.407643     -0.219569
  C      -0.068764      0.219935     -0.339391
  O       0.760450      0.446334      1.194043
  C       1.202984     -0.352685      0.144047
  C       2.487220      0.055680     -0.527724
  H      -3.231637      0.374386      0.202725
  H      -3.130718     -0.492703     -1.309728
  H      -2.436731      1.127170     -1.179299
  H      -1.324229     -1.366902      0.284449
  H      -0.001794      1.171963     -0.848539
  H       1.166366     -1.429293      0.350500
  H       2.635508     -0.505688     -1.450547
  H       3.331716     -0.144704      0.130664
  H       2.481993      1.119591     -0.757170
15
Coordinates from ORCA-job scan E -270.952280432379
  C      -2.577890      0.184560     -0.654401
  C      -1.294474     -0.407643     -0.219569
  C      -0.068764      0.219935     -0.339391
  O       0.760450      0.446334      1.194043
  C       1.202984     -0.352685      0.144047
  C       2.487220      0.055680     -0.527724
  H      -3.231637      0.374386      0.202725
  H      -3.130718     -0.492703     -1.309728
  H      -2.436731      1.127170     -1.179299
  H      -1.324229     -1.366902      0.284449
  H      -0.001794      1.171963     -0.848539
  H       1.166366     -1.429293      0.350500
  H       2.635508     -0.505688     -1.450547
  H       3.331716     -0.144704      0.130664
  H       2.481993      1.119591     -0.757170
15
Coordinates from ORCA-job scan E -270.952197886180
  C      -2.576002      0.180305     -0.657442
  C      -1.291956     -0.405718     -0.216146
  C      -0.068214      0.226452     -0.331899
  O       0.760639      0.460595      1.182786
  C       1.198652     -0.353254      0.144495
  C       2.483025      0.053976     -0.527706
  H      -3.227490      0.360142      0.203550
  H      -3.130080     -0.490499     -1.318333
  H      -2.438443      1.133934     -1.163039
  H      -1.318775     -1.370245      0.277885
  H       0.014183      1.169250     -0.855748
  H       1.157719     -1.428132      0.359000
  H       2.629805     -0.506491     -1.451317
  H       3.327688     -0.148488      0.129831
  H       2.479246      1.118173     -0.755854
15
Coordinates from ORCA-job scan E -270.951936059825
  C      -2.578811      0.175179     -0.661776
  C      -1.294377     -0.407058     -0.215180
  C      -0.064760      0.231914     -0.326511
  O       0.762160      0.477395      1.168371
  C       1.196160     -0.354516      0.144333
  C       2.482305      0.051439     -0.527891
  H      -3.229622      0.345353      0.207265
  H      -3.134964     -0.485132     -1.326412
  H      -2.443122      1.140326     -1.145482
  H      -1.320678     -1.373429      0.273297
  H       0.038291      1.164490     -0.861915
  H       1.150623     -1.425239      0.368614
  H       2.635657     -0.505346     -1.454062
  H       3.327515     -0.150835      0.129492
  H       2.473623      1.115459     -0.752082
15
Coordinates from ORCA-job scan E -270.951363525040
  C      -2.580489      0.171298     -0.667659
  C      -1.298007     -0.413384     -0.219054
  C      -0.061982      0.230983     -0.325201
  O       0.758975      0.491105      1.152352
  C       1.193125     -0.359497      0.142906
  C       2.481752      0.050120     -0.527553
  H      -3.224491      0.339888      0.212964
  H      -3.148570     -0.477448     -1.328700
  H      -2.442385      1.146119     -1.130532
  H      -1.324377     -1.375911      0.273959
  H       0.062706      1.154365     -0.868843
  H       1.144945     -1.425438      0.377636
  H       2.652434     -0.498562     -1.456538
  H       3.328632     -0.148416      0.129319
  H       2.457730      1.114782     -0.744993
15
Coordinates from ORCA-job scan E -270.950437379289
  C      -2.579738      0.168111     -0.673991
  C      -1.303030     -0.422974     -0.220244
  C      -0.060810      0.227169     -0.322048
  O       0.755830      0.497374      1.142217
  C       1.188684     -0.366283      0.142761
  C       2.478898      0.051943     -0.526307
  H      -3.215098      0.354915      0.215920
  H      -3.166710     -0.474055     -1.320842
  H      -2.429523      1.140965     -1.136368
  H      -1.323686     -1.380769      0.279646
  H       0.084793      1.142514     -0.872546
  H       1.138239     -1.428631      0.381675
  H       2.663319     -0.479103     -1.463449
  H       3.332051     -0.150068      0.121709
  H       2.436781      1.118892     -0.728069
15
Coordinates from ORCA-job scan E -270.949574867037
  C      -2.575902      0.167700     -0.677164
  C      -1.308877     -0.434771     -0.218386
  C      -0.063291      0.217552     -0.322236
  O       0.750870      0.490078      1.141529
  C       1.184425     -0.374902      0.144020
  C       2.474325      0.057768     -0.522742
  H      -3.204456      0.389674      0.211915
  H      -3.186434     -0.471467     -1.305416
  H      -2.402186      1.126018     -1.160316
  H      -1.315121     -1.384260      0.296784
  H       0.095467      1.126511     -0.880767
  H       1.134720     -1.437599      0.381192
  H       2.665294     -0.446124     -1.474062
  H       3.339190     -0.154288      0.105710
  H       2.411974      1.128110     -0.699998
15
Coordinates from ORCA-job scan E -270.949890738930
  C      -2.565760      0.172325     -0.673914
  C      -1.310133     -0.436768     -0.215075
  C      -0.070768      0.211377     -0.324318
  O       0.744308      0.470948      1.153519
  C       1.182993     -0.376170      0.148151
  C       2.473421      0.062125     -0.517105
  H      -3.196580      0.414338      0.199447
  H      -3.186380     -0.473253     -1.295245
  H      -2.372759      1.115471     -1.179425
  H      -1.305667     -1.385899      0.303104
  H       0.071027      1.127759     -0.879965
  H       1.139884     -1.444644      0.382514
  H       2.652394     -0.434882     -1.476434
  H       3.349708     -0.154656      0.090045
  H       2.394312      1.131931     -0.695236
15
Coordinates from ORCA-job scan E -270.949201300972
  C      -2.572935      0.168402     -0.677564
  C      -1.311148     -0.440705     -0.217459
  C      -0.067389      0.215714     -0.320207
  O       0.745786      0.482271      1.144588
  C       1.180361     -0.377259      0.143449
  C       2.470953      0.060332     -0.522512
  H      -3.191570      0.416871      0.211721
  H      -3.198446     -0.474365     -1.290141
  H      -2.384415      1.113880     -1.179476
  H      -1.303463     -1.391081      0.295699
  H       0.093051      1.125269     -0.880725
  H       1.131631     -1.441635      0.376295
  H       2.668960     -0.437135     -1.475735
  H       3.340631     -0.152313      0.100653
  H       2.397993      1.131755     -0.688523
15
Coordinates from ORCA-job scan E -270.948471497965
  C      -2.577131      0.167557     -0.677552
  C      -1.314127     -0.445197     -0.215921
  C      -0.070120      0.221821     -0.313917
  O       0.742634      0.490772      1.136147
  C       1.174800     -0.376557      0.136260
  C       2.466638      0.057985     -0.529542
  H      -3.182757      0.423227      0.220782
  H      -3.205189     -0.476088     -1.284066
  H      -2.383875      1.110644     -1.181450
  H      -1.289523     -1.399238      0.288852
  H       0.101883      1.124351     -0.882879
  H       1.121716     -1.440224      0.368386
  H       2.685601     -0.441004     -1.475167
  H       3.327400     -0.150003      0.111131
  H       2.402048      1.131955     -0.681000
15
Coordinates from ORCA-job scan E -270.947552236051
  C      -2.586105      0.168679     -0.676322
  C      -1.318140     -0.447978     -0.210834
  C      -0.073773      0.233365     -0.307965
  O       0.741877      0.499920      1.129573
  C       1.169325     -0.371135      0.124686
  C       2.461674      0.054024     -0.536124
  H      -3.177265      0.424276      0.226320
  H      -3.206319     -0.486111     -1.277209
  H      -2.377473      1.103757     -1.184262
  H      -1.274372     -1.403854      0.286170
  H       0.106298      1.131514     -0.885391
  H       1.109806     -1.436540      0.352839
  H       2.694473     -0.441805     -1.471929
  H       3.315360     -0.159878      0.123870
  H       2.414632      1.131767     -0.673358
15
Coordinates from ORCA-job scan E -270.946529638822
  C      -2.578559      0.165872     -0.682826
  C      -1.318576     -0.447947     -0.215641
  C      -0.068951      0.222823     -0.302329
  O       0.748755      0.506266      1.129628
  C       1.169570     -0.380859      0.137169
  C       2.459354      0.055812     -0.538098
  H      -3.176553      0.412252      0.227039
  H      -3.205483     -0.471144     -1.290853
  H      -2.386184      1.114352     -1.179743
  H      -1.298928     -1.400497      0.290357
  H       0.134864      1.111929     -0.881522
  H       1.117740     -1.437998      0.376994
  H       2.696009     -0.428153     -1.481092
  H       3.319651     -0.152584      0.108160
  H       2.387288      1.129876     -0.677180
15
Coordinates from ORCA-job scan E -270.945046679683
  C      -2.587853      0.169437     -0.681027
  C      -1.324569     -0.457182     -0.222315
  C      -0.069838      0.221278     -0.307804
  O       0.742913      0.511631      1.112534
  C       1.165400     -0.383907      0.125112
  C       2.456492      0.055855     -0.542139
  H      -3.162315      0.414534      0.242781
  H      -3.217863     -0.469177     -1.283271
  H      -2.383191      1.113399     -1.179429
  H      -1.294109     -1.402041      0.296394
  H       0.150720      1.104829     -0.890485
  H       1.111504     -1.439621      0.368334
  H       2.719921     -0.424413     -1.477612
  H       3.305434     -0.146888      0.125187
  H       2.387352      1.132267     -0.666197
15
Coordinates from ORCA-job scan E -270.944346332950
  C      -2.599399      0.177771     -0.676295
  C      -1.331759     -0.460558     -0.232662
  C      -0.072703      0.212062     -0.317967
  O       0.743901      0.502287      1.104056
  C       1.166983     -0.392109      0.113270
  C       2.459039      0.059983     -0.545003
  H      -3.146133      0.423860      0.259464
  H      -3.231979     -0.469094     -1.269525
  H      -2.394726      1.113261     -1.188981
  H      -1.302053     -1.396868      0.302711
  H       0.160865      1.089607     -0.905752
  H       1.117060     -1.447997      0.358243
  H       2.748802     -0.418820     -1.472959
  H       3.291025     -0.131332      0.147300
  H       2.391077      1.137949     -0.655836
15
Coordinates from ORCA-job scan E -270.944104202159
  C      -2.602688      0.188742     -0.672422
  C      -1.334876     -0.459742     -0.240667
  C      -0.075237      0.194345     -0.326947
  O       0.747365      0.478628      1.106554
  C       1.169444     -0.405918      0.109609
  C       2.458338      0.067668     -0.547672
  H      -3.128443      0.443233      0.266090
  H      -3.239356     -0.465912     -1.255908
  H      -2.402312      1.113528     -1.205028
  H      -1.307163     -1.386844      0.313405
  H       0.165719      1.065640     -0.922370
  H       1.128050     -1.463439      0.353484
  H       2.766423     -0.406751     -1.472092
  H       3.279355     -0.108974      0.160155
  H       2.375380      1.145798     -0.646128
15
Coordinates from ORCA-job scan E -270.944438396619
  C      -2.604099      0.195667     -0.668611
  C      -1.333853     -0.450642     -0.251861
  C      -0.072595      0.184671     -0.332312
  O       0.753394      0.455668      1.116416
  C       1.173174     -0.412195      0.112831
  C       2.463347      0.073927     -0.550034
  H      -3.120290      0.453109      0.266272
  H      -3.237578     -0.472412     -1.244389
  H      -2.422499      1.114567     -1.219393
  H      -1.311665     -1.372252      0.317270
  H       0.167990      1.054295     -0.932116
  H       1.135545     -1.472652      0.351576
  H       2.765788     -0.404494     -1.473447
  H       3.275812     -0.098664      0.166072
  H       2.367526      1.151407     -0.638211
15
Coordinates from ORCA-job scan E -270.944743335675
  C      -2.599653      0.197690     -0.667635
  C      -1.328502     -0.439390     -0.267040
  C      -0.070238      0.186527     -0.331831
  O       0.763586      0.442520      1.131150
  C       1.174460     -0.410405      0.123676
  C       2.468413      0.074679     -0.550257
  H      -3.120112      0.449153      0.263658
  H      -3.227341     -0.480428     -1.241304
  H      -2.443504      1.117821     -1.226121
  H      -1.305995     -1.358752      0.309939
  H       0.163491      1.058550     -0.932398
  H       1.139219     -1.473444      0.358655
  H       2.748808     -0.414276     -1.474498
  H       3.281155     -0.100252      0.161482
  H       2.356211      1.150008     -0.637413
15
Coordinates from ORCA-job scan E -270.944897356655
  C      -2.594791      0.193346     -0.667049
  C      -1.318898     -0.427903     -0.285402
  C      -0.068849      0.198837     -0.332249
  O       0.772666      0.444932      1.141142
  C       1.172932     -0.403569      0.132219
  C       2.475905      0.069528     -0.550389
  H      -3.124616      0.433175      0.263816
  H      -3.218220     -0.489498     -1.241921
  H      -2.471030      1.120153     -1.224062
  H      -1.294983     -1.347091      0.294688
  H       0.155343      1.077448     -0.927164
  H       1.137448     -1.467022      0.371526
  H       2.731952     -0.430557     -1.475067
  H       3.288038     -0.115461      0.156909
  H       2.357101      1.143684     -0.636935
15
Coordinates from ORCA-job scan E -270.944410818548
  C      -2.592018      0.186621     -0.668423
  C      -1.310576     -0.423397     -0.302686
  C      -0.067883      0.212896     -0.334309
  O       0.777221      0.457242      1.148911
  C       1.168857     -0.395412      0.139353
  C       2.480554      0.062773     -0.550351
  H      -3.126034      0.418821      0.263347
  H      -3.218317     -0.496492     -1.240913
  H      -2.489578      1.117845     -1.222900
  H      -1.276373     -1.339369      0.282987
  H       0.152503      1.097890     -0.920601
  H       1.130355     -1.457804      0.384745
  H       2.716123     -0.438959     -1.479267
  H       3.295370     -0.139883      0.148062
  H       2.359796      1.137229     -0.627893
15
Coordinates from ORCA-job scan E -270.943915191192
  C      -2.589942      0.178914     -0.669992
  C      -1.301595     -0.421204     -0.320272
  C      -0.066456      0.226394     -0.336902
  O       0.781568      0.471750      1.156218
  C       1.165054     -0.386309      0.145493
  C       2.484279      0.056399     -0.549124
  H      -3.126968      0.402615      0.263009
  H      -3.220389     -0.501783     -1.241463
  H      -2.506378      1.115325     -1.219368
  H      -1.259491     -1.332335      0.272791
  H       0.150068      1.117574     -0.914101
  H       1.122506     -1.447312      0.396191
  H       2.697651     -0.447403     -1.482109
  H       3.301765     -0.164389      0.139828
  H       2.368326      1.131764     -0.620137
15
Coordinates from ORCA-job scan E -270.943443735628
  C      -2.587962      0.171433     -0.671713
  C      -1.292597     -0.420789     -0.338003
  C      -0.065347      0.238373     -0.339478
  O       0.786208      0.486528      1.162989
  C       1.161804     -0.377251      0.151324
  C       2.486390      0.050823     -0.547008
  H      -3.125578      0.386762      0.263099
  H      -3.222764     -0.506084     -1.242658
  H      -2.519694      1.112500     -1.215713
  H      -1.244547     -1.326391      0.263359
  H       0.146322      1.135734     -0.907886
  H       1.114576     -1.436761      0.407636
  H       2.676039     -0.454385     -1.484452
  H       3.306874     -0.187997      0.131542
  H       2.380276      1.127506     -0.612977
15
Coordinates from ORCA-job scan E -270.943007962014
  C      -2.585631      0.164655     -0.673715
  C      -1.283888     -0.421978     -0.355674
  C      -0.064802      0.248537     -0.341635
  O       0.790897      0.500634      1.169906
  C       1.159318     -0.368558      0.157701
  C       2.486729      0.046075     -0.544135
  H      -3.121895      0.371609      0.263639
  H      -3.224937     -0.508988     -1.244605
  H      -2.528979      1.109985     -1.212097
  H      -1.232052     -1.321987      0.254049
  H       0.141644      1.151503     -0.902255
  H       1.107139     -1.426401      0.420250
  H       2.651993     -0.459483     -1.486373
  H       3.311300     -0.209692      0.122423
  H       2.393161      1.124092     -0.607416
15
Coordinates from ORCA-job scan E -270.942588504168
  C      -2.582943      0.158615     -0.676049
  C      -1.275365     -0.423979     -0.373057
  C      -0.064723      0.257272     -0.343288
  O       0.795636      0.513296      1.177639
  C       1.157537     -0.360110      0.164939
  C       2.485590      0.042075     -0.540676
  H      -3.116366      0.357515      0.264359
  H      -3.226594     -0.511259     -1.246806
  H      -2.535422      1.107625     -1.209226
  H      -1.221739     -1.318478      0.244953
  H       0.136605      1.164934     -0.897479
  H       1.100467     -1.416306      0.433597
  H       2.625822     -0.462511     -1.488035
  H       3.315237     -0.230014      0.112224
  H       2.406256      1.121327     -0.603032
15
Coordinates from ORCA-job scan E -270.942179125475
  C      -2.580019      0.153240     -0.678813
  C      -1.266985     -0.426191     -0.389961
  C      -0.064981      0.264758     -0.344447
  O       0.800490      0.523591      1.186845
  C       1.156439     -0.351793      0.173117
  C       2.483389      0.038815     -0.536767
  H      -3.109334      0.345405      0.264890
  H      -3.227909     -0.513685     -1.248500
  H      -2.540071      1.104960     -1.208130
  H      -1.213519     -1.315365      0.236147
  H       0.131457      1.176303     -0.893425
  H       1.095053     -1.406558      0.447262
  H       2.597708     -0.463241     -1.489613
  H       3.318935     -0.249394      0.100740
  H       2.419348      1.119154     -0.599281
15
Coordinates from ORCA-job scan E -270.941776128945
  C      -2.577015      0.148310     -0.682027
  C      -1.258612     -0.427973     -0.406121
  C      -0.065539      0.271729     -0.345018
  O       0.805855      0.531169      1.198017
  C       1.155722     -0.343236      0.182165
  C       2.480356      0.036109     -0.532514
  H      -3.101139      0.335709      0.265005
  H      -3.228844     -0.517216     -1.249039
  H      -2.543897      1.101497     -1.209477
  H      -1.206859     -1.312491      0.227197
  H       0.126350      1.186433     -0.889908
  H       1.090829     -1.396974      0.460712
  H       2.567769     -0.461876     -1.491083
  H       3.322212     -0.268573      0.087997
  H       2.432811      1.117387     -0.595844
15
Coordinates from ORCA-job scan E -270.941395310750
  C      -2.574129      0.143619     -0.685697
  C      -1.250185     -0.428455     -0.420533
  C      -0.066438      0.279172     -0.344285
  O       0.812866      0.536035      1.211815
  C       1.155059     -0.334040      0.191982
  C       2.476565      0.033747     -0.528165
  H      -3.092820      0.328851      0.264189
  H      -3.228780     -0.523056     -1.248188
  H      -2.547700      1.096525     -1.214309
  H      -1.201284     -1.309862      0.217876
  H       0.121353      1.196008     -0.886696
  H       1.087652     -1.387386      0.473258
  H       2.535721     -0.458211     -1.492802
  H       3.324662     -0.288788      0.073706
  H       2.447458      1.115844     -0.592088
15
Coordinates from ORCA-job scan E -270.941139658962
  C      -2.571233      0.139037     -0.690276
  C      -1.241733     -0.426973     -0.431197
  C      -0.067612      0.287624     -0.340741
  O       0.823055      0.537806      1.229634
  C       1.154560     -0.324105      0.202913
  C       2.471814      0.031653     -0.524353
  H      -3.085761      0.326298      0.260911
  H      -3.226600     -0.532543     -1.246072
  H      -2.551126      1.088870     -1.224922
  H      -1.196949     -1.307524      0.209188
  H       0.115767      1.206068     -0.881742
  H       1.085460     -1.378192      0.483559
  H       2.500735     -0.451779     -1.495532
  H       3.326032     -0.310644      0.056719
  H       2.463590      1.114404     -0.588026
15
Coordinates from ORCA-job scan E -270.941255772368
  C      -2.568298      0.134454     -0.696149
  C      -1.233859     -0.423436     -0.435297
  C      -0.069016      0.296749     -0.333696
  O       0.838121      0.536715      1.252305
  C       1.154682     -0.313238      0.214942
  C       2.466210      0.030003     -0.521686
  H      -3.081924      0.329173      0.253484
  H      -3.221365     -0.546205     -1.243472
  H      -2.552966      1.078066     -1.242012
  H      -1.194787     -1.306189      0.202710
  H       0.107950      1.216897     -0.873857
  H       1.084061     -1.369632      0.489779
  H       2.463200     -0.442151     -1.499714
  H       3.325953     -0.334338      0.036569
  H       2.482036      1.113131     -0.583842
15
Coordinates from ORCA-job scan E -270.942579250468
  C      -2.566434      0.131127     -0.701456
  C      -1.229846     -0.419887     -0.427194
  C      -0.070742      0.303639     -0.325876
  O       0.856870      0.534754      1.278589
  C       1.158249     -0.302516      0.225188
  C       2.462158      0.029196     -0.520080
  H      -3.088172      0.336672      0.241092
  H      -3.213181     -0.559253     -1.244100
  H      -2.548367      1.067600     -1.259257
  H      -1.197998     -1.310599      0.199473
  H       0.091075      1.227417     -0.864411
  H       1.085001     -1.362828      0.488143
  H       2.431530     -0.433759     -1.503046
  H       3.326122     -0.353571      0.018462
  H       2.503734      1.112008     -0.585464
15
Coordinates from ORCA-job scan E -270.943871502751
  C      -2.566931      0.133170     -0.695363
  C      -1.232818     -0.422204     -0.414933
  C      -0.069071      0.302887     -0.327612
  O       0.837894      0.537263      1.264635
  C       1.161850     -0.302670      0.216053
  C       2.467214      0.028076     -0.518438
  H      -3.101454      0.333105      0.241506
  H      -3.210240     -0.551118     -1.250009
  H      -2.538063      1.074659     -1.243763
  H      -1.199761     -1.320934      0.198692
  H       0.077466      1.231569     -0.861447
  H       1.087200     -1.363531      0.476931
  H       2.448823     -0.449022     -1.495395
  H       3.329399     -0.341108      0.032614
  H       2.508490      1.109860     -0.603409
15
Coordinates from ORCA-job scan E -270.945677226604
  C      -2.565790      0.135457     -0.693778
  C      -1.235839     -0.422734     -0.396351
  C      -0.069647      0.299094     -0.325928
  O       0.835270      0.530725      1.269347
  C       1.167333     -0.300444      0.213907
  C       2.468295      0.030032     -0.517396
  H      -3.112936      0.344544      0.233516
  H      -3.203408     -0.551792     -1.251667
  H      -2.523734      1.072508     -1.248544
  H      -1.209174     -1.330695      0.202350
  H       0.056618      1.233269     -0.855001
  H       1.093042     -1.364335      0.464725
  H       2.449382     -0.450036     -1.493713
  H       3.331458     -0.336401      0.033828
  H       2.519128      1.110810     -0.615233
15
Coordinates from ORCA-job scan E -270.947164365139
  C      -2.565877      0.140092     -0.690160
  C      -1.241655     -0.424994     -0.378523
  C      -0.069961      0.289895     -0.327884
  O       0.825724      0.522547      1.264833
  C       1.172211     -0.303071      0.207737
  C       2.470720      0.033500     -0.516917
  H      -3.121654      0.357180      0.229959
  H      -3.200209     -0.547359     -1.251808
  H      -2.509673      1.073434     -1.249530
  H      -1.221323     -1.339883      0.208549
  H       0.041604      1.228182     -0.852905
  H       1.100892     -1.368975      0.452257
  H       2.463728     -0.451385     -1.491514
  H       3.333409     -0.322691      0.041943
  H       2.522063      1.113528     -0.625974
15
Coordinates from ORCA-job scan E -270.948412234856
  C      -2.566591      0.145540     -0.685958
  C      -1.248240     -0.427413     -0.361555
  C      -0.070087      0.278759     -0.331510
  O       0.814333      0.513645      1.257356
  C       1.176709     -0.307533      0.200379
  C       2.473408      0.037518     -0.516465
  H      -3.128801      0.370084      0.228225
  H      -3.198537     -0.541549     -1.250968
  H      -2.496653      1.075253     -1.249413
  H      -1.234650     -1.348168      0.215403
  H       0.030040      1.220330     -0.853063
  H       1.109636     -1.375112      0.440025
  H       2.482384     -0.452160     -1.488994
  H       3.335009     -0.306096      0.052212
  H       2.522039      1.116902     -0.635609
15
Coordinates from ORCA-job scan E -270.949474420606
  C      -2.567570      0.151262     -0.681762
  C      -1.254965     -0.429327     -0.344808
  C      -0.070111      0.266947     -0.335830
  O       0.803255      0.503874      1.249586
  C       1.180938     -0.312762      0.192860
  C       2.475924      0.041826     -0.515951
  H      -3.135202      0.383562      0.226861
  H      -3.197262     -0.535979     -1.249317
  H      -2.484409      1.076861     -1.249786
  H      -1.248551     -1.355481      0.222662
  H       0.020484      1.211303     -0.854237
  H       1.118804     -1.381953      0.427712
  H       2.501741     -0.451930     -1.486415
  H       3.336205     -0.288809      0.062682
  H       2.520720      1.120608     -0.644194
15
Coordinates from ORCA-job scan E -270.950319930037
  C      -2.568934      0.157204     -0.677051
  C      -1.261765     -0.430791     -0.328945
  C      -0.069863      0.254926     -0.341062
  O       0.790805      0.494145      1.239553
  C       1.184784     -0.318917      0.184510
  C       2.478722      0.046042     -0.515333
  H      -3.141227      0.395761      0.226753
  H      -3.196447     -0.529813     -1.247477
  H      -2.473578      1.079338     -1.248404
  H      -1.262207     -1.361744      0.229793
  H       0.013455      1.201538     -0.856806
  H       1.128055     -1.389430      0.415479
  H       2.523380     -0.452344     -1.482978
  H       3.336972     -0.270081      0.074678
  H       2.517847      1.124166     -0.652647
15
Coordinates from ORCA-job scan E -270.950996098178
  C      -2.570427      0.163099     -0.672326
  C      -1.268373     -0.431407     -0.313190
  C      -0.069488      0.243293     -0.346365
  O       0.778729      0.484129      1.229296
  C       1.188406     -0.325392      0.176106
  C       2.481420      0.050132     -0.514654
  H      -3.147449      0.407215      0.226698
  H      -3.195264     -0.524090     -1.245674
  H      -2.463771      1.081919     -1.246655
  H      -1.275623     -1.366977      0.236940
  H       0.007903      1.191765     -0.859846
  H       1.137259     -1.397167      0.403110
  H       2.544971     -0.452792     -1.479105
  H       3.337309     -0.251211      0.086729
  H       2.514399      1.127485     -0.661000
15
Coordinates from ORCA-job scan E -270.951507094529
  C      -2.572084      0.168883     -0.667535
  C      -1.274764     -0.431124     -0.297572
  C      -0.068989      0.232323     -0.351543
  O       0.766979      0.474092      1.218553
  C       1.191794     -0.332170      0.167579
  C       2.484085      0.053956     -0.514007
  H      -3.154216      0.417320      0.226741
  H      -3.193531     -0.518687     -1.244319
  H      -2.455177      1.084912     -1.244018
  H      -1.288530     -1.371164      0.244024
  H       0.003862      1.182243     -0.863263
  H       1.146252     -1.405079      0.390716
  H       2.566757     -0.453771     -1.474693
  H       3.337177     -0.232123      0.098995
  H       2.510384      1.130390     -0.669595
15
Coordinates from ORCA-job scan E -270.951866474219
  C      -2.573893      0.174448     -0.662758
  C      -1.280890     -0.429841     -0.281935
  C      -0.068399      0.222397     -0.356160
  O       0.755844      0.464306      1.207462
  C       1.194984     -0.339108      0.159038
  C       2.486676      0.057366     -0.513519
  H      -3.161957      0.425476      0.226648
  H      -3.190847     -0.513620     -1.243978
  H      -2.447851      1.088505     -1.240168
  H      -1.300804     -1.374307      0.251025
  H       0.001218      1.173341     -0.866696
  H       1.154878     -1.413026      0.378419
  H       2.588509     -0.455650     -1.469736
  H       3.336539     -0.212940      0.111288
  H       2.505991      1.132656     -0.678869
15
Coordinates from ORCA-job scan E -270.952092544327
  C      -2.575811      0.179640     -0.658237
  C      -1.286690     -0.427319     -0.265890
  C      -0.067799      0.214017     -0.359513
  O       0.746164      0.454881      1.196742
  C       1.198024     -0.345987      0.150787
  C       2.489052      0.060222     -0.513389
  H      -3.171270      0.431207      0.225832
  H      -3.186566     -0.509177     -1.245340
  H      -2.441770      1.092710     -1.235171
  H      -1.312369     -1.376320      0.258067
  H      -0.000292      1.165557     -0.869484
  H       1.162930     -1.420833      0.366300
  H       2.609491     -0.458672     -1.464446
  H       3.335441     -0.194017      0.123025
  H       2.501466      1.134093     -0.689220
15
Coordinates from ORCA-job scan E -270.952205005722
  C      -2.577793      0.184186     -0.654390
  C      -1.292052     -0.423074     -0.248952
  C      -0.067292      0.208097     -0.360457
  O       0.739351      0.446014      1.187552
  C       1.200902     -0.352506      0.143319
  C       2.490997      0.062259     -0.513988
  H      -3.183112      0.433507      0.223346
  H      -3.179593     -0.505822     -1.249576
  H      -2.437120      1.097609     -1.228997
  H      -1.322952     -1.376878      0.265373
  H      -0.000818      1.159768     -0.870569
  H       1.169945     -1.428265      0.354540
  H       2.628563     -0.463395     -1.459179
  H       3.333998     -0.175871      0.133297
  H       2.496976      1.134371     -0.701255
15
Coordinates from ORCA-job scan E -270.952234922616
  C      -2.578822      0.185920     -0.653582
  C      -1.294667     -0.418240     -0.237158
  C      -0.067286      0.207904     -0.357255
  O       0.740708      0.440927      1.186315
  C       1.202432     -0.355523      0.140635
  C       2.491277      0.062556     -0.515516
  H      -3.193523      0.431356      0.218534
  H      -3.171507     -0.505940     -1.255921
  H      -2.435533      1.100640     -1.225412
  H      -1.328088     -1.375404      0.270519
  H      -0.000907      1.159366     -0.867906
  H       1.172516     -1.432064      0.347889
  H       2.635626     -0.467963     -1.457090
  H       3.333288     -0.166932      0.136270
  H       2.494485      1.133400     -0.710258
15
Coordinates from ORCA-job scan E -270.952248437059
  C      -2.578614      0.185627     -0.655133
  C      -1.294877     -0.414234     -0.231082
  C      -0.067717      0.210646     -0.352551
  O       0.747419      0.438353      1.191557
  C       1.202658     -0.355669      0.141773
  C       2.490156      0.062027     -0.517384
  H      -3.200002      0.428394      0.212898
  H      -3.164530     -0.508537     -1.261486
  H      -2.435347      1.101203     -1.225596
  H      -1.328746     -1.372901      0.273772
  H      -0.001505      1.162171     -0.863125
  H       1.171704     -1.432936      0.345503
  H       2.632937     -0.470782     -1.457939
  H       3.333226     -0.165744      0.133637
  H       2.493236      1.132383     -0.714784
15
Coordinates from ORCA-job scan E -270.952263889887
  C      -2.578701      0.185535     -0.656161
  C      -1.295267     -0.408426     -0.222939
  C      -0.067781      0.215640     -0.345283
  O       0.752801      0.436824      1.192326
  C       1.202419     -0.357262      0.141047
  C       2.489134      0.059866     -0.521435
  H      -3.212135      0.416006      0.206570
  H      -3.152122     -0.508101     -1.274943
  H      -2.436424      1.107374     -1.216592
  H      -1.327615     -1.368562      0.279263
  H       0.000814      1.167318     -0.855058
  H       1.169193     -1.434813      0.342903
  H       2.636696     -0.482267     -1.455812
  H       3.331647     -0.157570      0.134051
  H       2.487339      1.128440     -0.727873
15
Coordinates from ORCA-job scan E -270.952269437236
  C      -2.577935      0.184543     -0.658040
  C      -1.294706     -0.406279     -0.220006
  C      -0.068405      0.219029     -0.340576
  O       0.759401      0.437038      1.198081
  C       1.202420     -0.355761      0.143215
  C       2.487629      0.058629     -0.523301
  H      -3.216893      0.410390      0.201824
  H      -3.145855     -0.509211     -1.281801
  H      -2.435756      1.108658     -1.214746
  H      -1.327021     -1.367112      0.280835
  H      -0.000678      1.171387     -0.849205
  H       1.167240     -1.433672      0.343092
  H       2.632044     -0.486484     -1.456429
  H       3.331712     -0.157662      0.130537
  H       2.486803      1.126507     -0.733416
15
Coordinates from ORCA-job scan E -270.952274270894
  C      -2.577649      0.184264     -0.658400
  C      -1.294359     -0.405005     -0.218752
  C      -0.068604      0.221876     -0.336879
  O       0.761799      0.438988      1.198368
  C       1.202269     -0.355025      0.143741
  C       2.487103      0.056698     -0.525598
  H      -3.222758      0.399578      0.199568
  H      -3.139229     -0.506094     -1.291655
  H      -2.436181      1.113974     -1.205828
  H      -1.325386     -1.366075      0.281768
  H      -0.000547      1.174935     -0.843976
  H       1.165002     -1.432735      0.344412
  H       2.633544     -0.495891     -1.453942
  H       3.331073     -0.152483      0.130788
  H       2.483921      1.122995     -0.743552
15
Coordinates from ORCA-job scan E -270.952276441234
  C      -2.577348      0.184113     -0.658673
  C      -1.294156     -0.405067     -0.218785
  C      -0.068895      0.222598     -0.335673
  O       0.763787      0.440085      1.200049
  C       1.202379     -0.353992      0.144823
  C       2.486719      0.056053     -0.526211
  H      -3.224629      0.395480      0.198614
  H      -3.136940     -0.504516     -1.295653
  H      -2.435799      1.115883     -1.202579
  H      -1.325105     -1.366348      0.281329
  H      -0.001558      1.176051     -0.842137
  H       1.164283     -1.431697      0.345583
  H       2.632523     -0.499246     -1.453034
  H       3.331255     -0.151042      0.130084
  H       2.483483      1.121646     -0.747675
