17
Coordinates from ORCA-job freq E -421.327435241964
  C      -2.152262      0.848645     -0.624514
  C      -1.059172      0.180618      0.216081
  C       0.182583      0.079960     -0.632044
  O       0.956146      1.203647     -0.733866
  O       1.373848      1.459756      0.583937
  O       0.306775     -1.051451     -1.382743
  C       1.353985     -1.051717     -0.463670
  C       1.504741     -1.143233      0.965480
  H      -2.358630      0.258107     -1.513752
  H      -3.062914      0.936363     -0.038202
  H      -1.833632      1.841993     -0.930130
  H      -1.379800     -0.819623      0.507679
  H      -0.858168      0.782423      1.103691
  H       2.293543     -0.826583     -0.973878
  H       0.661078     -1.431834      1.572968
  H       2.455412     -1.534444      1.294594
  H       1.616465      0.267371      1.048370
17
Coordinates from ORCA-job freq E -421.329749029188
  C      -2.134725      0.844905     -0.624058
  C      -1.047384      0.174384      0.219606
  C       0.199067      0.063198     -0.621010
  O       0.942217      1.219472     -0.754970
  O       1.369032      1.464408      0.557649
  O       0.283366     -1.053144     -1.414542
  C       1.328147     -1.021971     -0.449349
  C       1.501008     -1.157080      0.981392
  H      -2.342918      0.256204     -1.515130
  H      -3.049468      0.937915     -0.044211
  H      -1.813952      1.838385     -0.929742
  H      -1.368301     -0.824998      0.512036
  H      -0.844619      0.771315      1.108321
  H       2.261572     -0.775268     -0.952913
  H       0.664550     -1.441452      1.602367
  H       2.455523     -1.556794      1.295103
  H       1.596884      0.260520      1.029453
17
Coordinates from ORCA-job freq E -421.330569872754
  C      -2.123912      0.831208     -0.625673
  C      -1.034674      0.173868      0.223383
  C       0.217721      0.052034     -0.604221
  O       0.944971      1.227463     -0.760357
  O       1.388741      1.463948      0.542890
  O       0.261791     -1.038269     -1.440984
  C       1.301050     -0.984036     -0.442171
  C       1.487102     -1.163592      0.985839
  H      -2.329914      0.235928     -1.514024
  H      -3.042876      0.922533     -0.050976
  H      -1.813440      1.826489     -0.938704
  H      -1.349448     -0.824471      0.524715
  H      -0.831391      0.770871      1.110338
  H       2.228325     -0.725682     -0.943502
  H       0.645561     -1.418273      1.615015
  H       2.434174     -1.590414      1.293179
  H       1.616217      0.240394      1.025255
17
Coordinates from ORCA-job freq E -421.330862606705
  C      -2.140474      0.808269     -0.640520
  C      -1.037771      0.209560      0.234179
  C       0.217384      0.081152     -0.582562
  O       0.961441      1.246765     -0.727028
  O       1.425842      1.452258      0.575163
  O       0.254168     -0.993700     -1.439675
  C       1.305584     -0.970634     -0.447076
  C       1.493766     -1.188490      0.971254
  H      -2.328537      0.175142     -1.506784
  H      -3.064571      0.895739     -0.072895
  H      -1.857445      1.799884     -0.989995
  H      -1.333636     -0.781908      0.574907
  H      -0.843022      0.839685      1.099723
  H       2.230393     -0.716946     -0.953543
  H       0.641701     -1.400154      1.603109
  H       2.420731     -1.663100      1.270941
  H       1.654444      0.206476      1.030803
17
Coordinates from ORCA-job freq E -421.330923317995
  C      -2.142544      0.816085     -0.637021
  C      -1.041724      0.198321      0.227048
  C       0.212750      0.069440     -0.585426
  O       0.960304      1.231887     -0.739080
  O       1.419802      1.455743      0.560554
  O       0.264367     -1.008198     -1.438684
  C       1.314073     -0.967776     -0.440430
  C       1.496013     -1.182903      0.977454
  H      -2.342127      0.198104     -1.511891
  H      -3.064445      0.907137     -0.065624
  H      -1.851744      1.810305     -0.974153
  H      -1.339798     -0.794281      0.561571
  H      -0.840781      0.817705      1.098071
  H       2.233862     -0.704749     -0.947491
  H       0.641128     -1.397652      1.606358
  H       2.426148     -1.649941      1.283009
  H       1.654715      0.200772      1.025736
17
Coordinates from ORCA-job freq E -421.330912426843
  C      -2.141292      0.816884     -0.636493
  C      -1.041806      0.196630      0.227632
  C       0.212440      0.068000     -0.585233
  O       0.958431      1.232429     -0.739678
  O       1.420187      1.456643      0.558121
  O       0.263744     -1.007428     -1.440118
  C       1.313348     -0.968791     -0.439945
  C       1.495013     -1.182654      0.978006
  H      -2.341504      0.198808     -1.511282
  H      -3.063461      0.909515     -0.065798
  H      -1.848684      1.810395     -0.974099
  H      -1.341206     -0.796603      0.559046
  H      -0.840744      0.813246      1.100598
  H       2.233133     -0.705504     -0.946985
  H       0.641153     -1.399539      1.607615
  H       2.426415     -1.647278      1.283431
  H       1.654832      0.205247      1.025182
17
Coordinates from ORCA-job freq E -421.330927006708
  C      -2.142058      0.814385     -0.637732
  C      -1.041192      0.200072      0.228909
  C       0.212937      0.070641     -0.584085
  O       0.961150      1.234071     -0.736380
  O       1.422798      1.455564      0.561844
  O       0.261788     -1.003021     -1.440982
  C       1.312541     -0.967682     -0.440661
  C       1.494513     -1.184404      0.976773
  H      -2.340688      0.192393     -1.510080
  H      -3.064462      0.907138     -0.067451
  H      -1.851735      1.807253     -0.979229
  H      -1.338767     -0.792295      0.564562
  H      -0.840941      0.820799      1.099100
  H       2.232226     -0.705063     -0.948168
  H       0.640583     -1.401686      1.606123
  H       2.425391     -1.650917      1.280920
  H       1.655915      0.202750      1.026540
17
Coordinates from ORCA-job freq E -421.330931697327
  C      -2.142146      0.814209     -0.637834
  C      -1.041167      0.200343      0.228976
  C       0.212976      0.070864     -0.583976
  O       0.961372      1.234198     -0.736148
  O       1.423148      1.455455      0.562077
  O       0.261660     -1.002705     -1.441001
  C       1.312452     -0.967619     -0.440702
  C       1.494487     -1.184557      0.976689
  H      -2.340590      0.191976     -1.510051
  H      -3.064588      0.906862     -0.067596
  H      -1.852083      1.807081     -0.979542
  H      -1.338634     -0.791970      0.564897
  H      -0.841032      0.821321      1.099015
  H       2.232146     -0.705048     -0.948217
  H       0.640580     -1.401767      1.606088
  H       2.425323     -1.651225      1.280724
  H       1.656093      0.202581      1.026603
