17
Coordinates from ORCA-job freq E -421.330931697327
  C          -2.14214599466984      0.81420872431528     -0.63783382214143
  C          -1.04116724256227      0.20034344585768      0.22897569802626
  C           0.21297641203926      0.07086369953648     -0.58397601783506
  O           0.96137198471170      1.23419787228038     -0.73614787574874
  O           1.42314808314324      1.45545527179656      0.56207659487003
  O           0.26166028867988     -1.00270489208495     -1.44100147186049
  C           1.31245226249825     -0.96761936063092     -0.44070246820732
  C           1.49448746954093     -1.18455689584185      0.97668854275451
  H          -2.34059013156677      0.19197633448872     -1.51005099699929
  H          -3.06458847544447      0.90686177035275     -0.06759569367993
  H          -1.85208286332791      1.80708105952655     -0.97954155175298
  H          -1.33863376686467     -0.79197008031161      0.56489739607024
  H          -0.84103183074057      0.82132057541311      1.09901502754395
  H           2.23214632289689     -0.70504776502453     -0.94821696643579
  H           0.64058016436976     -1.40176695447475      1.60608759013104
  H           2.42532344997649     -1.65122470422193      1.28072363126948
  H           1.65609286732009      0.20258089902301      1.02660338399553
