15
Coordinates from ORCA-job freq E -270.991744264495
  C      -2.402725      0.408763      0.633251
  C      -1.537176      0.045422     -0.519366
  C      -0.469714     -0.767827     -0.452262
  C       1.526658      0.508174      0.053689
  C       2.766389     -0.227176     -0.010955
  O       2.325298      0.695010     -1.053812
  H      -2.363692      1.481875      0.840009
  H      -3.451428      0.175586      0.434581
  H      -2.107868     -0.117814      1.539635
  H      -1.761500      0.528546     -1.465553
  H      -0.262012     -1.342269      0.441674
  H       0.069624     -1.053864     -1.343757
  H       1.260401      1.353398      0.679669
  H       3.656333      0.098161      0.518679
  H       2.751410     -1.274316     -0.295480
15
Coordinates from ORCA-job freq E -270.991259143854
  C      -2.374529      0.412565      0.634611
  C      -1.513300      0.047491     -0.524391
  C      -0.441891     -0.761074     -0.453198
  C       1.483422      0.496855      0.054171
  C       2.733104     -0.226742     -0.011652
  O       2.282269      0.683340     -1.047864
  H      -2.324095      1.484341      0.845722
  H      -3.425118      0.187842      0.437123
  H      -2.078154     -0.122683      1.535845
  H      -1.740556      0.528071     -1.470642
  H      -0.244153     -1.339222      0.441281
  H       0.092371     -1.055007     -1.346130
  H       1.209008      1.340700      0.677285
  H       3.615697      0.109406      0.521936
  H       2.725924     -1.274211     -0.294099
15
Coordinates from ORCA-job freq E -270.991150990346
  C      -2.364192      0.409514      0.632209
  C      -1.492015      0.052566     -0.524071
  C      -0.412591     -0.746680     -0.441724
  C       1.458083      0.499155      0.058124
  C       2.704987     -0.233015     -0.020315
  O       2.248212      0.671590     -1.048387
  H      -2.316342      1.480236      0.849203
  H      -3.412172      0.182374      0.424701
  H      -2.070519     -0.131361      1.531327
  H      -1.717522      0.529348     -1.472189
  H      -0.226957     -1.327144      0.454472
  H       0.125051     -1.043105     -1.332469
  H       1.198424      1.348127      0.680938
  H       3.591739      0.101347      0.506203
  H       2.685811     -1.281282     -0.298023
15
Coordinates from ORCA-job freq E -270.991192294367
  C      -2.372641      0.402499      0.627975
  C      -1.484789      0.055371     -0.521382
  C      -0.397344     -0.733297     -0.425783
  C       1.460709      0.513813      0.062705
  C       2.694811     -0.241061     -0.032065
  O       2.241331      0.669031     -1.050811
  H      -2.333701      1.472646      0.849139
  H      -3.416234      0.167958      0.407507
  H      -2.083154     -0.140622      1.527297
  H      -1.707450      0.526653     -1.472626
  H      -0.219186     -1.310348      0.474602
  H       0.149995     -1.028139     -1.311704
  H       1.224947      1.367739      0.688638
  H       3.591969      0.078113      0.485256
  H       2.650735     -1.288686     -0.308749
15
Coordinates from ORCA-job freq E -270.991206788016
  C      -2.375916      0.400343      0.625263
  C      -1.483629      0.054256     -0.521174
  C      -0.391996     -0.727584     -0.420042
  C       1.463391      0.519425      0.067347
  C       2.690593     -0.244742     -0.036977
  O       2.238894      0.673554     -1.049726
  H      -2.341820      1.471090      0.844147
  H      -3.417952      0.160896      0.402743
  H      -2.086303     -0.139633      1.526447
  H      -1.707237      0.520297     -1.474751
  H      -0.211092     -1.298960      0.483403
  H       0.160181     -1.022200     -1.303206
  H       1.234725      1.371479      0.697916
  H       3.593474      0.064212      0.476426
  H       2.634684     -1.290764     -0.317817
15
Coordinates from ORCA-job freq E -270.991197449876
  C      -2.375243      0.401022      0.624207
  C      -1.481605      0.053153     -0.520589
  C      -0.390075     -0.728524     -0.417150
  C       1.461323      0.519032      0.068591
  C       2.688768     -0.244024     -0.039680
  O       2.235402      0.676899     -1.048901
  H      -2.338838      1.471653      0.843411
  H      -3.417461      0.164354      0.399635
  H      -2.088714     -0.139855      1.525834
  H      -1.703665      0.518396     -1.474932
  H      -0.210821     -1.299649      0.486804
  H       0.163281     -1.024138     -1.299254
  H       1.232635      1.368941      0.701923
  H       3.592155      0.063703      0.473531
  H       2.632855     -1.289295     -0.323429
15
Coordinates from ORCA-job freq E -270.991199538811
  C      -2.376722      0.405485      0.619662
  C      -1.479938      0.050177     -0.520353
  C      -0.391206     -0.734316     -0.409609
  C       1.461084      0.513573      0.079190
  C       2.691959     -0.240960     -0.049095
  O       2.224907      0.690350     -1.042461
  H      -2.339503      1.477253      0.833082
  H      -3.418553      0.169015      0.393081
  H      -2.093794     -0.130862      1.525124
  H      -1.696996      0.512044     -1.477473
  H      -0.216557     -1.301993      0.497391
  H       0.164560     -1.034873     -1.288561
  H       1.233121      1.354045      0.725326
  H       3.597752      0.065498      0.460652
  H       2.639884     -1.282767     -0.345958
15
Coordinates from ORCA-job freq E -270.991199020304
  C      -2.376957      0.405536      0.619381
  C      -1.479773      0.050061     -0.520251
  C      -0.391077     -0.734402     -0.408973
  C       1.461156      0.513584      0.079682
  C       2.691969     -0.240879     -0.049673
  O       2.224315      0.690824     -1.042382
  H      -2.339491      1.477256      0.832991
  H      -3.418757      0.169421      0.392295
  H      -2.094587     -0.131055      1.524875
  H      -1.696442      0.511759     -1.477536
  H      -0.216697     -1.301871      0.498206
  H       0.164912     -1.035179     -1.287683
  H       1.233650      1.353813      0.726296
  H       3.598052      0.065374      0.459668
  H       2.639725     -1.282572     -0.346893
