15
* (null), Energy   -1000.0000000
C     2.323461    0.033007    0.914965    0.097453    0.023782   -0.063502
C    -2.269624    0.061686    0.405640    0.001469   -0.000068    0.000539
C    -1.059960   -0.527554   -0.311977    0.007507   -0.000982    0.001185
C     0.217679    0.038688    0.207026    0.044604   -0.032150    0.102268
C     1.537918    0.343908   -0.320990    0.005608    0.011872    0.003405
O     0.577059    1.364695   -0.007958    0.009864    0.008221   -0.007867
H     0.977840   -0.209468    1.365469   -1.900691   -0.103304   -0.568195
H     2.802300    0.852434    1.441582   -0.084593    0.010287    0.091112
H     2.846799   -0.917228    0.926571   -0.054097   -0.042482    0.062805
H    -2.234890   -0.168632    1.470164   -0.002137   -0.000789    0.001039
H    -2.285695    1.145229    0.294637    0.000789   -0.000262    0.001087
H    -3.196528   -0.339297   -0.001651    0.001033   -0.000693   -0.000641
H    -1.108286   -0.308988   -1.383845    0.017743    0.008614    0.016429
H    -1.033683   -1.612252   -0.201977   -0.007701   -0.003116   -0.001600
H     1.868823    0.308959   -1.349465    0.006604   -0.027976   -0.000210
15
* Frequency(6) -2091.5523
C     2.334536    0.035710    0.907748    0.097453    0.023782   -0.063502
C    -2.269457    0.061678    0.405702    0.001469   -0.000068    0.000539
C    -1.059107   -0.527666   -0.311842    0.007507   -0.000982    0.001185
C     0.222748    0.035035    0.218648    0.044604   -0.032150    0.102268
C     1.538555    0.345257   -0.320603    0.005608    0.011872    0.003405
O     0.578180    1.365629   -0.008852    0.009864    0.008221   -0.007867
H     0.761837   -0.221208    1.300897   -1.900691   -0.103304   -0.568195
H     2.792686    0.853603    1.451937   -0.084593    0.010287    0.091112
H     2.840651   -0.922056    0.933709   -0.054097   -0.042482    0.062805
H    -2.235133   -0.168722    1.470282   -0.002137   -0.000789    0.001039
H    -2.285605    1.145199    0.294761    0.000789   -0.000262    0.001087
H    -3.196411   -0.339376   -0.001723    0.001033   -0.000693   -0.000641
H    -1.106269   -0.308009   -1.381978    0.017743    0.008614    0.016429
H    -1.034558   -1.612606   -0.202158   -0.007701   -0.003116   -0.001600
H     1.869574    0.305780   -1.349489    0.006604   -0.027976   -0.000210
15
* Frequency(6) -2091.5523
C     2.344411    0.038120    0.901313    0.097453    0.023782   -0.063502
C    -2.269308    0.061671    0.405756    0.001469   -0.000068    0.000539
C    -1.058346   -0.527766   -0.311722    0.007507   -0.000982    0.001185
C     0.227267    0.031777    0.229011    0.044604   -0.032150    0.102268
C     1.539123    0.346460   -0.320258    0.005608    0.011872    0.003405
O     0.579180    1.366462   -0.009649    0.009864    0.008221   -0.007867
H     0.569240   -0.231676    1.243322   -1.900691   -0.103304   -0.568195
H     2.784114    0.854645    1.461169   -0.084593    0.010287    0.091112
H     2.835169   -0.926361    0.940072   -0.054097   -0.042482    0.062805
H    -2.235350   -0.168802    1.470387   -0.002137   -0.000789    0.001039
H    -2.285525    1.145173    0.294871    0.000789   -0.000262    0.001087
H    -3.196306   -0.339446   -0.001788    0.001033   -0.000693   -0.000641
H    -1.104471   -0.307136   -1.380313    0.017743    0.008614    0.016429
H    -1.035338   -1.612922   -0.202321   -0.007701   -0.003116   -0.001600
H     1.870243    0.302945   -1.349510    0.006604   -0.027976   -0.000210
15
* Frequency(6) -2091.5523
C     2.352016    0.039976    0.896358    0.097453    0.023782   -0.063502
C    -2.269193    0.061666    0.405798    0.001469   -0.000068    0.000539
C    -1.057760   -0.527842   -0.311629    0.007507   -0.000982    0.001185
C     0.230748    0.029268    0.236992    0.044604   -0.032150    0.102268
C     1.539561    0.347386   -0.319992    0.005608    0.011872    0.003405
O     0.579950    1.367104   -0.010263    0.009864    0.008221   -0.007867
H     0.420922   -0.239737    1.198984   -1.900691   -0.103304   -0.568195
H     2.777513    0.855448    1.468279   -0.084593    0.010287    0.091112
H     2.830948   -0.929676    0.944973   -0.054097   -0.042482    0.062805
H    -2.235517   -0.168864    1.470469   -0.002137   -0.000789    0.001039
H    -2.285463    1.145152    0.294956    0.000789   -0.000262    0.001087
H    -3.196225   -0.339500   -0.001838    0.001033   -0.000693   -0.000641
H    -1.103087   -0.306464   -1.379031    0.017743    0.008614    0.016429
H    -1.035939   -1.613165   -0.202445   -0.007701   -0.003116   -0.001600
H     1.870758    0.300762   -1.349526    0.006604   -0.027976   -0.000210
15
* Frequency(6) -2091.5523
C     2.356526    0.041076    0.893419    0.097453    0.023782   -0.063502
C    -2.269125    0.061663    0.405823    0.001469   -0.000068    0.000539
C    -1.057413   -0.527888   -0.311575    0.007507   -0.000982    0.001185
C     0.232812    0.027780    0.241725    0.044604   -0.032150    0.102268
C     1.539820    0.347936   -0.319835    0.005608    0.011872    0.003405
O     0.580406    1.367484   -0.010627    0.009864    0.008221   -0.007867
H     0.332954   -0.244518    1.172686   -1.900691   -0.103304   -0.568195
H     2.773598    0.855924    1.472496   -0.084593    0.010287    0.091112
H     2.828444   -0.931642    0.947880   -0.054097   -0.042482    0.062805
H    -2.235615   -0.168900    1.470517   -0.002137   -0.000789    0.001039
H    -2.285427    1.145140    0.295006    0.000789   -0.000262    0.001087
H    -3.196178   -0.339532   -0.001868    0.001033   -0.000693   -0.000641
H    -1.102266   -0.306065   -1.378271    0.017743    0.008614    0.016429
H    -1.036295   -1.613309   -0.202519   -0.007701   -0.003116   -0.001600
H     1.871064    0.299467   -1.349536    0.006604   -0.027976   -0.000210
15
* Frequency(6) -2091.5523
C     2.357453    0.041303    0.892815    0.097453    0.023782   -0.063502
C    -2.269111    0.061662    0.405828    0.001469   -0.000068    0.000539
C    -1.057341   -0.527897   -0.311563    0.007507   -0.000982    0.001185
C     0.233237    0.027474    0.242698    0.044604   -0.032150    0.102268
C     1.539874    0.348049   -0.319802    0.005608    0.011872    0.003405
O     0.580500    1.367562   -0.010702    0.009864    0.008221   -0.007867
H     0.314870   -0.245501    1.167280   -1.900691   -0.103304   -0.568195
H     2.772793    0.856022    1.473363   -0.084593    0.010287    0.091112
H     2.827930   -0.932046    0.948478   -0.054097   -0.042482    0.062805
H    -2.235636   -0.168908    1.470526   -0.002137   -0.000789    0.001039
H    -2.285419    1.145137    0.295016    0.000789   -0.000262    0.001087
H    -3.196168   -0.339539   -0.001874    0.001033   -0.000693   -0.000641
H    -1.102097   -0.305983   -1.378115    0.017743    0.008614    0.016429
H    -1.036369   -1.613339   -0.202535   -0.007701   -0.003116   -0.001600
H     1.871126    0.299201   -1.349538    0.006604   -0.027976   -0.000210
15
* Frequency(6) -2091.5523
C     2.354697    0.040630    0.894611    0.097453    0.023782   -0.063502
C    -2.269153    0.061664    0.405813    0.001469   -0.000068    0.000539
C    -1.057554   -0.527869   -0.311597    0.007507   -0.000982    0.001185
C     0.231975    0.028384    0.239805    0.044604   -0.032150    0.102268
C     1.539715    0.347713   -0.319899    0.005608    0.011872    0.003405
O     0.580221    1.367330   -0.010479    0.009864    0.008221   -0.007867
H     0.368629   -0.242579    1.183351   -1.900691   -0.103304   -0.568195
H     2.775186    0.855731    1.470786   -0.084593    0.010287    0.091112
H     2.829460   -0.930845    0.946701   -0.054097   -0.042482    0.062805
H    -2.235575   -0.168885    1.470497   -0.002137   -0.000789    0.001039
H    -2.285442    1.145145    0.294986    0.000789   -0.000262    0.001087
H    -3.196197   -0.339519   -0.001856    0.001033   -0.000693   -0.000641
H    -1.102599   -0.306227   -1.378579    0.017743    0.008614    0.016429
H    -1.036151   -1.613250   -0.202489   -0.007701   -0.003116   -0.001600
H     1.870940    0.299992   -1.349532    0.006604   -0.027976   -0.000210
15
* Frequency(6) -2091.5523
C     2.348556    0.039131    0.898612    0.097453    0.023782   -0.063502
C    -2.269245    0.061669    0.405779    0.001469   -0.000068    0.000539
C    -1.058027   -0.527807   -0.311672    0.007507   -0.000982    0.001185
C     0.229164    0.030410    0.233361    0.044604   -0.032150    0.102268
C     1.539362    0.346965   -0.320113    0.005608    0.011872    0.003405
O     0.579599    1.366812   -0.009984    0.009864    0.008221   -0.007867
H     0.488406   -0.236069    1.219157   -1.900691   -0.103304   -0.568195
H     2.780517    0.855083    1.465044   -0.084593    0.010287    0.091112
H     2.832869   -0.928168    0.942743   -0.054097   -0.042482    0.062805
H    -2.235441   -0.168836    1.470432   -0.002137   -0.000789    0.001039
H    -2.285491    1.145161    0.294917    0.000789   -0.000262    0.001087
H    -3.196262   -0.339475   -0.001815    0.001033   -0.000693   -0.000641
H    -1.103717   -0.306770   -1.379614    0.017743    0.008614    0.016429
H    -1.035666   -1.613054   -0.202389   -0.007701   -0.003116   -0.001600
H     1.870524    0.301755   -1.349519    0.006604   -0.027976   -0.000210
15
* Frequency(6) -2091.5523
C     2.339695    0.036969    0.904386    0.097453    0.023782   -0.063502
C    -2.269379    0.061675    0.405730    0.001469   -0.000068    0.000539
C    -1.058709   -0.527718   -0.311779    0.007507   -0.000982    0.001185
C     0.225109    0.033333    0.224062    0.044604   -0.032150    0.102268
C     1.538852    0.345885   -0.320423    0.005608    0.011872    0.003405
O     0.578703    1.366064   -0.009268    0.009864    0.008221   -0.007867
H     0.661220   -0.226677    1.270819   -1.900691   -0.103304   -0.568195
H     2.788208    0.854148    1.456760   -0.084593    0.010287    0.091112
H     2.837787   -0.924305    0.937033   -0.054097   -0.042482    0.062805
H    -2.235246   -0.168764    1.470337   -0.002137   -0.000789    0.001039
H    -2.285563    1.145185    0.294818    0.000789   -0.000262    0.001087
H    -3.196356   -0.339412   -0.001757    0.001033   -0.000693   -0.000641
H    -1.105330   -0.307553   -1.381108    0.017743    0.008614    0.016429
H    -1.034965   -1.612771   -0.202243   -0.007701   -0.003116   -0.001600
H     1.869923    0.304299   -1.349500    0.006604   -0.027976   -0.000210
15
* Frequency(6) -2091.5523
C     2.329075    0.034377    0.911306    0.097453    0.023782   -0.063502
C    -2.269539    0.061682    0.405671    0.001469   -0.000068    0.000539
C    -1.059527   -0.527611   -0.311908    0.007507   -0.000982    0.001185
C     0.220248    0.036836    0.212918    0.044604   -0.032150    0.102268
C     1.538241    0.344592   -0.320794    0.005608    0.011872    0.003405
O     0.577628    1.365168   -0.008411    0.009864    0.008221   -0.007867
H     0.868345   -0.215419    1.332737   -1.900691   -0.103304   -0.568195
H     2.797426    0.853027    1.446831   -0.084593    0.010287    0.091112
H     2.843682   -0.919676    0.930189   -0.054097   -0.042482    0.062805
H    -2.235013   -0.168678    1.470224   -0.002137   -0.000789    0.001039
H    -2.285649    1.145214    0.294700    0.000789   -0.000262    0.001087
H    -3.196469   -0.339337   -0.001687    0.001033   -0.000693   -0.000641
H    -1.107264   -0.308492   -1.382899    0.017743    0.008614    0.016429
H    -1.034126   -1.612431   -0.202069   -0.007701   -0.003116   -0.001600
H     1.869203    0.307348   -1.349477    0.006604   -0.027976   -0.000210
15
* Frequency(6) -2091.5523
C     2.317847    0.031637    0.918623    0.097453    0.023782   -0.063502
C    -2.269708    0.061690    0.405609    0.001469   -0.000068    0.000539
C    -1.060392   -0.527498   -0.312045    0.007507   -0.000982    0.001185
C     0.215109    0.040540    0.201135    0.044604   -0.032150    0.102268
C     1.537595    0.343224   -0.321186    0.005608    0.011872    0.003405
O     0.576491    1.364221   -0.007505    0.009864    0.008221   -0.007867
H     1.087335   -0.203517    1.398202   -1.900691   -0.103304   -0.568195
H     2.807173    0.851841    1.436334   -0.084593    0.010287    0.091112
H     2.849915   -0.914781    0.922953   -0.054097   -0.042482    0.062805
H    -2.234767   -0.168587    1.470104   -0.002137   -0.000789    0.001039
H    -2.285740    1.145244    0.294575    0.000789   -0.000262    0.001087
H    -3.196588   -0.339257   -0.001614    0.001033   -0.000693   -0.000641
H    -1.109308   -0.309484   -1.384791    0.017743    0.008614    0.016429
H    -1.033239   -1.612072   -0.201884   -0.007701   -0.003116   -0.001600
H     1.868443    0.310571   -1.349453    0.006604   -0.027976   -0.000210
15
* Frequency(6) -2091.5523
C     2.307227    0.029046    0.925543    0.097453    0.023782   -0.063502
C    -2.269868    0.061697    0.405551    0.001469   -0.000068    0.000539
C    -1.061210   -0.527391   -0.312174    0.007507   -0.000982    0.001185
C     0.210248    0.044044    0.189990    0.044604   -0.032150    0.102268
C     1.536984    0.341930   -0.321557    0.005608    0.011872    0.003405
O     0.575416    1.363325   -0.006648    0.009864    0.008221   -0.007867
H     1.294460   -0.192260    1.460120   -1.900691   -0.103304   -0.568195
H     2.816391    0.850720    1.426405   -0.084593    0.010287    0.091112
H     2.855810   -0.910151    0.916109   -0.054097   -0.042482    0.062805
H    -2.234534   -0.168501    1.469991   -0.002137   -0.000789    0.001039
H    -2.285826    1.145273    0.294456    0.000789   -0.000262    0.001087
H    -3.196700   -0.339181   -0.001544    0.001033   -0.000693   -0.000641
H    -1.111241   -0.310423   -1.386582    0.017743    0.008614    0.016429
H    -1.032400   -1.611733   -0.201710   -0.007701   -0.003116   -0.001600
H     1.867723    0.313620   -1.349430    0.006604   -0.027976   -0.000210
15
* Frequency(6) -2091.5523
C     2.298367    0.026884    0.931317    0.097453    0.023782   -0.063502
C    -2.270002    0.061703    0.405502    0.001469   -0.000068    0.000539
C    -1.061893   -0.527302   -0.312282    0.007507   -0.000982    0.001185
C     0.206193    0.046967    0.180692    0.044604   -0.032150    0.102268
C     1.536474    0.340851   -0.321867    0.005608    0.011872    0.003405
O     0.574519    1.362578   -0.005932    0.009864    0.008221   -0.007867
H     1.467275   -0.182867    1.511782   -1.900691   -0.103304   -0.568195
H     2.824083    0.849785    1.418121   -0.084593    0.010287    0.091112
H     2.860729   -0.906289    0.910399   -0.054097   -0.042482    0.062805
H    -2.234340   -0.168429    1.469897   -0.002137   -0.000789    0.001039
H    -2.285898    1.145296    0.294358    0.000789   -0.000262    0.001087
H    -3.196794   -0.339118   -0.001486    0.001033   -0.000693   -0.000641
H    -1.112854   -0.311206   -1.388075    0.017743    0.008614    0.016429
H    -1.031699   -1.611449   -0.201565   -0.007701   -0.003116   -0.001600
H     1.867122    0.316163   -1.349411    0.006604   -0.027976   -0.000210
15
* Frequency(6) -2091.5523
C     2.292226    0.025385    0.935318    0.097453    0.023782   -0.063502
C    -2.270094    0.061708    0.405468    0.001469   -0.000068    0.000539
C    -1.062366   -0.527240   -0.312356    0.007507   -0.000982    0.001185
C     0.203382    0.048993    0.174247    0.044604   -0.032150    0.102268
C     1.536121    0.340103   -0.322081    0.005608    0.011872    0.003405
O     0.573898    1.362060   -0.005437    0.009864    0.008221   -0.007867
H     1.587051   -0.176357    1.547588   -1.900691   -0.103304   -0.568195
H     2.829414    0.849137    1.412379   -0.084593    0.010287    0.091112
H     2.864138   -0.903612    0.906441   -0.054097   -0.042482    0.062805
H    -2.234205   -0.168379    1.469831   -0.002137   -0.000789    0.001039
H    -2.285947    1.145313    0.294289    0.000789   -0.000262    0.001087
H    -3.196859   -0.339075   -0.001445    0.001033   -0.000693   -0.000641
H    -1.113973   -0.311749   -1.389111    0.017743    0.008614    0.016429
H    -1.031214   -1.611253   -0.201464   -0.007701   -0.003116   -0.001600
H     1.866706    0.317926   -1.349398    0.006604   -0.027976   -0.000210
15
* Frequency(6) -2091.5523
C     2.289469    0.024712    0.937114    0.097453    0.023782   -0.063502
C    -2.270136    0.061710    0.405452    0.001469   -0.000068    0.000539
C    -1.062578   -0.527212   -0.312390    0.007507   -0.000982    0.001185
C     0.202120    0.049902    0.171354    0.044604   -0.032150    0.102268
C     1.535962    0.339767   -0.322178    0.005608    0.011872    0.003405
O     0.573619    1.361827   -0.005214    0.009864    0.008221   -0.007867
H     1.640810   -0.173435    1.563659   -1.900691   -0.103304   -0.568195
H     2.831806    0.848846    1.409802   -0.084593    0.010287    0.091112
H     2.865668   -0.902410    0.904665   -0.054097   -0.042482    0.062805
H    -2.234145   -0.168357    1.469802   -0.002137   -0.000789    0.001039
H    -2.285970    1.145320    0.294258    0.000789   -0.000262    0.001087
H    -3.196889   -0.339055   -0.001427    0.001033   -0.000693   -0.000641
H    -1.114474   -0.311992   -1.389575    0.017743    0.008614    0.016429
H    -1.030996   -1.611165   -0.201419   -0.007701   -0.003116   -0.001600
H     1.866519    0.318718   -1.349392    0.006604   -0.027976   -0.000210
15
* Frequency(6) -2091.5523
C     2.290396    0.024939    0.936510    0.097453    0.023782   -0.063502
C    -2.270122    0.061709    0.405458    0.001469   -0.000068    0.000539
C    -1.062507   -0.527221   -0.312379    0.007507   -0.000982    0.001185
C     0.202545    0.049596    0.172328    0.044604   -0.032150    0.102268
C     1.536015    0.339880   -0.322145    0.005608    0.011872    0.003405
O     0.573712    1.361905   -0.005289    0.009864    0.008221   -0.007867
H     1.622726   -0.174418    1.558253   -1.900691   -0.103304   -0.568195
H     2.831001    0.848944    1.410669   -0.084593    0.010287    0.091112
H     2.865153   -0.902814    0.905262   -0.054097   -0.042482    0.062805
H    -2.234165   -0.168365    1.469812   -0.002137   -0.000789    0.001039
H    -2.285962    1.145318    0.294269    0.000789   -0.000262    0.001087
H    -3.196879   -0.339062   -0.001433    0.001033   -0.000693   -0.000641
H    -1.114306   -0.311911   -1.389419    0.017743    0.008614    0.016429
H    -1.031070   -1.611194   -0.201434   -0.007701   -0.003116   -0.001600
H     1.866582    0.318451   -1.349394    0.006604   -0.027976   -0.000210
15
* Frequency(6) -2091.5523
C     2.294907    0.026039    0.933571    0.097453    0.023782   -0.063502
C    -2.270054    0.061706    0.405482    0.001469   -0.000068    0.000539
C    -1.062160   -0.527267   -0.312324    0.007507   -0.000982    0.001185
C     0.204609    0.048108    0.177061    0.044604   -0.032150    0.102268
C     1.536275    0.340429   -0.321988    0.005608    0.011872    0.003405
O     0.574169    1.362286   -0.005653    0.009864    0.008221   -0.007867
H     1.534758   -0.179199    1.531955   -1.900691   -0.103304   -0.568195
H     2.827086    0.849420    1.414886   -0.084593    0.010287    0.091112
H     2.862650   -0.904780    0.908169   -0.054097   -0.042482    0.062805
H    -2.234264   -0.168401    1.469860   -0.002137   -0.000789    0.001039
H    -2.285926    1.145306    0.294319    0.000789   -0.000262    0.001087
H    -3.196831   -0.339094   -0.001463    0.001033   -0.000693   -0.000641
H    -1.113484   -0.311512   -1.388659    0.017743    0.008614    0.016429
H    -1.031426   -1.611339   -0.201508   -0.007701   -0.003116   -0.001600
H     1.866888    0.317157   -1.349403    0.006604   -0.027976   -0.000210
15
* Frequency(6) -2091.5523
C     2.302511    0.027895    0.928616    0.097453    0.023782   -0.063502
C    -2.269939    0.061701    0.405525    0.001469   -0.000068    0.000539
C    -1.061574   -0.527343   -0.312231    0.007507   -0.000982    0.001185
C     0.208090    0.045600    0.185041    0.044604   -0.032150    0.102268
C     1.536712    0.341356   -0.321722    0.005608    0.011872    0.003405
O     0.574939    1.362927   -0.006267    0.009864    0.008221   -0.007867
H     1.386440   -0.187260    1.487617   -1.900691   -0.103304   -0.568195
H     2.820485    0.850223    1.421996   -0.084593    0.010287    0.091112
H     2.858428   -0.908096    0.913070   -0.054097   -0.042482    0.062805
H    -2.234431   -0.168463    1.469941   -0.002137   -0.000789    0.001039
H    -2.285864    1.145285    0.294404    0.000789   -0.000262    0.001087
H    -3.196750   -0.339148   -0.001513    0.001033   -0.000693   -0.000641
H    -1.112100   -0.310840   -1.387377    0.017743    0.008614    0.016429
H    -1.032027   -1.611582   -0.201633   -0.007701   -0.003116   -0.001600
H     1.867403    0.314974   -1.349420    0.006604   -0.027976   -0.000210
15
* Frequency(6) -2091.5523
C     2.312386    0.030305    0.922181    0.097453    0.023782   -0.063502
C    -2.269791    0.061694    0.405579    0.001469   -0.000068    0.000539
C    -1.060813   -0.527443   -0.312111    0.007507   -0.000982    0.001185
C     0.212609    0.042342    0.195404    0.044604   -0.032150    0.102268
C     1.537281    0.342559   -0.321377    0.005608    0.011872    0.003405
O     0.575938    1.363760   -0.007064    0.009864    0.008221   -0.007867
H     1.193844   -0.197728    1.430042   -1.900691   -0.103304   -0.568195
H     2.811913    0.851265    1.431228   -0.084593    0.010287    0.091112
H     2.852947   -0.912400    0.919434   -0.054097   -0.042482    0.062805
H    -2.234647   -0.168543    1.470046   -0.002137   -0.000789    0.001039
H    -2.285784    1.145259    0.294514    0.000789   -0.000262    0.001087
H    -3.196646   -0.339218   -0.001578    0.001033   -0.000693   -0.000641
H    -1.110302   -0.309967   -1.385712    0.017743    0.008614    0.016429
H    -1.032807   -1.611898   -0.201795   -0.007701   -0.003116   -0.001600
H     1.868072    0.312139   -1.349441    0.006604   -0.027976   -0.000210
15
* Frequency(6) -2091.5523
C     2.323461    0.033007    0.914965    0.097453    0.023782   -0.063502
C    -2.269624    0.061686    0.405640    0.001469   -0.000068    0.000539
C    -1.059960   -0.527554   -0.311977    0.007507   -0.000982    0.001185
C     0.217679    0.038688    0.207026    0.044604   -0.032150    0.102268
C     1.537918    0.343908   -0.320990    0.005608    0.011872    0.003405
O     0.577059    1.364695   -0.007958    0.009864    0.008221   -0.007867
H     0.977840   -0.209468    1.365469   -1.900691   -0.103304   -0.568195
H     2.802300    0.852434    1.441582   -0.084593    0.010287    0.091112
H     2.846799   -0.917228    0.926571   -0.054097   -0.042482    0.062805
H    -2.234890   -0.168632    1.470164   -0.002137   -0.000789    0.001039
H    -2.285695    1.145229    0.294637    0.000789   -0.000262    0.001087
H    -3.196528   -0.339297   -0.001651    0.001033   -0.000693   -0.000641
H    -1.108286   -0.308988   -1.383845    0.017743    0.008614    0.016429
H    -1.033683   -1.612252   -0.201977   -0.007701   -0.003116   -0.001600
H     1.868823    0.308959   -1.349465    0.006604   -0.027976   -0.000210
