17
Coordinates from ORCA-job freq E -421.308299872516
  C          -1.69673450466321      1.22012125166846     -0.60763995992525
  C          -0.99453745280882     -0.30292784463483      0.48252149804355
  C           2.01023680768224      0.26116742204169      0.67829706607669
  C           0.00050287866823     -0.83290657841620     -0.54328865062102
  C           1.32646210569168     -0.09512246408506     -0.56332700667763
  O          -0.34556180508960     -1.71600999882196      1.29795461485862
  O           1.36003297708218      1.24794320936669     -0.11140713724847
  O           0.15745387497871     -2.12538247155094      0.01280364969558
  H          -2.00581606127151     -0.68163378237127      0.48078155611297
  H          -2.39132357661010      1.70773769251651      0.06376445464679
  H          -0.79324525925672      1.77538812791741     -0.82017163474716
  H          -2.15699960420293      0.71753213104930     -1.44923189465741
  H          -0.70770315766678      0.43103304659423      1.22179427593014
  H           3.09123309844918      0.32133184854687      0.68411698006337
  H           1.53332591888726      0.02747918751804      1.62171982350717
  H          -0.40694155811710     -0.91611298670973     -1.55280193089036
  H           1.93658031824730     -0.28354679062921     -1.44055470416758
