17
Coordinates from ORCA-job freq E -421.400807060106
  C      -1.962967     -0.289186     -0.105408
  C      -0.873998      0.003911     -1.081710
  C       0.145083      1.052562     -0.741653
  C       0.905220      0.732250      0.538553
  C       1.803864     -0.438901      0.554767
  O       0.756662     -1.958823     -0.761650
  O       2.302396      0.844617      0.490148
  O       1.917693     -1.190389     -0.600202
  H      -0.015189     -1.241655     -1.006826
  H      -1.569540     -0.447622      0.896568
  H      -2.665425      0.549827     -0.053682
  H      -2.525436     -1.169857     -0.406731
  H      -1.159399     -0.034923     -2.125795
  H       0.876281      1.132896     -1.549563
  H      -0.331270      2.034756     -0.628210
  H       0.458156      1.048833      1.476260
  H       1.986172     -0.985545      1.479613
17
Coordinates from ORCA-job freq E -421.397844605309
  C      -1.972177     -0.290881     -0.117611
  C      -0.854067     -0.041066     -1.084887
  C       0.140523      1.036052     -0.731465
  C       0.912258      0.729325      0.544001
  C       1.816029     -0.435456      0.560621
  O       0.771238     -1.959541     -0.729197
  O       2.320944      0.847105      0.480604
  O       1.921526     -1.181318     -0.606995
  H      -0.043357     -1.213481     -1.003446
  H      -1.598621     -0.457124      0.891882
  H      -2.637206      0.579028     -0.086860
  H      -2.568046     -1.151102     -0.414991
  H      -1.158843     -0.027939     -2.128204
  H       0.868914      1.149307     -1.535036
  H      -0.379584      1.993918     -0.615608
  H       0.479135      1.058360      1.482715
  H       2.029637     -0.992439      1.468957
17
Coordinates from ORCA-job freq E -421.396702867630
  C      -1.949284     -0.304203     -0.108985
  C      -0.827105     -0.067383     -1.083223
  C       0.151890      1.033620     -0.737956
  C       0.907419      0.737669      0.544842
  C       1.787068     -0.434643      0.571936
  O       0.750774     -1.935811     -0.727637
  O       2.329368      0.835273      0.499311
  O       1.893861     -1.154923     -0.618905
  H      -0.093861     -1.145849     -1.032754
  H      -1.570138     -0.473431      0.899099
  H      -2.606024      0.571612     -0.076102
  H      -2.554227     -1.162405     -0.395183
  H      -1.138338     -0.056105     -2.126672
  H       0.883685      1.153001     -1.535794
  H      -0.387864      1.981505     -0.639239
  H       0.475691      1.081220      1.478161
  H       1.995386     -1.016397      1.463580
17
Coordinates from ORCA-job freq E -421.396933101266
  C      -1.939222     -0.308351     -0.103137
  C      -0.831891     -0.068499     -1.095455
  C       0.154653      1.028559     -0.753842
  C       0.892380      0.741819      0.538509
  C       1.773432     -0.424601      0.581246
  O       0.774894     -1.944292     -0.713300
  O       2.318522      0.844496      0.512566
  O       1.896959     -1.136985     -0.615633
  H      -0.084874     -1.157181     -1.028714
  H      -1.540018     -0.561619      0.880121
  H      -2.549067      0.594183      0.009046
  H      -2.593792     -1.117847     -0.420269
  H      -1.161755     -0.039514     -2.132505
  H       0.894182      1.134379     -1.546286
  H      -0.377679      1.982310     -0.673697
  H       0.450441      1.088998      1.465617
  H       1.971139     -1.013105      1.470212
17
Coordinates from ORCA-job freq E -421.396906952429
  C      -1.935799     -0.306779     -0.091787
  C      -0.835326     -0.069972     -1.091498
  C       0.156337      1.025173     -0.762759
  C       0.880129      0.742394      0.537688
  C       1.766806     -0.419340      0.584814
  O       0.786802     -1.936191     -0.734063
  O       2.305754      0.853870      0.527991
  O       1.906471     -1.127326     -0.613158
  H      -0.072383     -1.151491     -1.049065
  H      -1.531686     -0.599245      0.878609
  H      -2.517256      0.609567      0.055846
  H      -2.617452     -1.087646     -0.422591
  H      -1.164731     -0.059599     -2.128909
  H       0.903247      1.109637     -1.550900
  H      -0.364452      1.986484     -0.700007
  H       0.423930      1.082979      1.460350
  H       1.957913     -1.009762      1.473918
17
Coordinates from ORCA-job freq E -421.396744977525
  C      -1.929395     -0.319367     -0.098952
  C      -0.836325     -0.061293     -1.102422
  C       0.156801      1.029380     -0.767430
  C       0.878487      0.747115      0.534437
  C       1.768507     -0.411539      0.586695
  O       0.767821     -1.937289     -0.704055
  O       2.304704      0.861689      0.515651
  O       1.894858     -1.136166     -0.603530
  H      -0.093330     -1.151402     -1.017658
  H      -1.518759     -0.674526      0.847799
  H      -2.482735      0.602872      0.107792
  H      -2.636363     -1.064003     -0.458795
  H      -1.166952     -0.044283     -2.138997
  H       0.906906      1.105680     -1.553389
  H      -0.355994      1.995308     -0.709442
  H       0.425133      1.093698      1.456276
  H       1.964939     -0.993125      1.480500
17
Coordinates from ORCA-job freq E -421.396882843898
  C      -1.933188     -0.314865     -0.099047
  C      -0.836927     -0.059916     -1.099202
  C       0.156749      1.029921     -0.762641
  C       0.881433      0.743358      0.536596
  C       1.770395     -0.416315      0.584100
  O       0.769114     -1.938407     -0.711304
  O       2.307838      0.856597      0.515345
  O       1.895946     -1.137161     -0.608401
  H      -0.090036     -1.150899     -1.023517
  H      -1.523931     -0.627159      0.863073
  H      -2.514250      0.597914      0.070171
  H      -2.616180     -1.089659     -0.441507
  H      -1.165009     -0.044035     -2.136662
  H       0.904814      1.110707     -1.550033
  H      -0.356822      1.995134     -0.699180
  H       0.430597      1.087707      1.460488
  H       1.967760     -1.000171      1.476200
17
Coordinates from ORCA-job freq E -421.396969945468
  C      -1.936771     -0.310478     -0.098970
  C      -0.837571     -0.058473     -1.096162
  C       0.156817      1.030386     -0.757989
  C       0.884240      0.739604      0.538738
  C       1.772176     -0.421025      0.581627
  O       0.770342     -1.939367     -0.718548
  O       2.310820      0.851582      0.515230
  O       1.896972     -1.138086     -0.613149
  H      -0.087028     -1.150141     -1.029510
  H      -1.529798     -0.579690      0.876842
  H      -2.544751      0.590883      0.032924
  H      -2.595445     -1.114033     -0.422800
  H      -1.163423     -0.043308     -2.134396
  H       0.902984      1.115402     -1.546680
  H      -0.357363      1.994942     -0.689263
  H       0.435755      1.081726      1.464575
  H       1.970347     -1.007176      1.472009
17
Coordinates from ORCA-job freq E -421.397018322575
  C      -1.942950     -0.304486     -0.099752
  C      -0.838167     -0.057117     -1.091580
  C       0.156626      1.030904     -0.751012
  C       0.888905      0.734407      0.541746
  C       1.775929     -0.427173      0.577734
  O       0.772423     -1.940719     -0.727417
  O       2.315672      0.845182      0.513993
  O       1.898722     -1.139251     -0.620064
  H      -0.083441     -1.149169     -1.035215
  H      -1.543075     -0.515214      0.892983
  H      -2.585137      0.579013     -0.018524
  H      -2.568633     -1.144081     -0.397323
  H      -1.159883     -0.043309     -2.131188
  H       0.899700      1.122448     -1.541794
  H      -0.358916      1.994200     -0.674381
  H       0.444438      1.073449      1.470617
  H       1.976091     -1.016335      1.465656
17
Coordinates from ORCA-job freq E -421.397009134602
  C      -1.943424     -0.304033     -0.099712
  C      -0.838062     -0.057136     -1.091270
  C       0.156684      1.030966     -0.750717
  C       0.889146      0.734029      0.541856
  C       1.776254     -0.427487      0.577429
  O       0.772875     -1.940746     -0.728115
  O       2.315900      0.844921      0.514075
  O       1.899062     -1.139215     -0.620596
  H      -0.083321     -1.148906     -1.035267
  H      -1.544435     -0.511712      0.894003
  H      -2.587424      0.578326     -0.021401
  H      -2.567394     -1.145501     -0.395632
  H      -1.159533     -0.043551     -2.130978
  H       0.899650      1.122799     -1.541576
  H      -0.358877      1.994199     -0.673668
  H       0.444699      1.072685      1.470875
  H       1.976503     -1.016891      1.465174
17
Coordinates from ORCA-job freq E -421.397011149200
  C      -1.943620     -0.304031     -0.099811
  C      -0.838077     -0.057134     -1.091183
  C       0.156671      1.030974     -0.750583
  C       0.889299      0.734008      0.541897
  C       1.776428     -0.427491      0.577362
  O       0.772825     -1.940764     -0.728006
  O       2.316052      0.844917      0.513893
  O       1.899055     -1.139281     -0.620652
  H      -0.083382     -1.148863     -1.035111
  H      -1.544882     -0.511430      0.894063
  H      -2.587826      0.578207     -0.021878
  H      -2.567344     -1.145686     -0.395727
  H      -1.159428     -0.043562     -2.130930
  H       0.899575      1.122859     -1.541501
  H      -0.358879      1.994210     -0.673447
  H       0.445027      1.072679      1.470995
  H       1.976808     -1.016862      1.465097
