17
Coordinates from ORCA-job freq E -421.397011149200
  C          -1.94361986769835     -0.30403061005558     -0.09981107167278
  C          -0.83807684925342     -0.05713362242445     -1.09118344219515
  C           0.15667051262778      1.03097397383364     -0.75058294459859
  C           0.88929871121657      0.73400831356411      0.54189687795644
  C           1.77642815594234     -0.42749143741351      0.57736225154141
  O           0.77282463776353     -1.94076380914505     -0.72800582860686
  O           2.31605224779448      0.84491655966709      0.51389280694051
  O           1.89905454972750     -1.13928066925878     -0.62065184741098
  H          -0.08338167072271     -1.14886285342158     -1.03511081846780
  H          -1.54488206590477     -0.51142959351539      0.89406303579589
  H          -2.58782560579753      0.57820651536132     -0.02187785033537
  H          -2.56734393557136     -1.14568603039745     -0.39572710719447
  H          -1.15942764487063     -0.04356194149922     -2.13093010473080
  H           0.89957522942165      1.12285853207972     -1.54150054244815
  H          -0.35887877786413      1.99420982860328     -0.67344703618543
  H           0.44502719705828      1.07267866044742      1.47099516478724
  H           1.97680817613073     -1.01686181642555      1.46509745682489
