17
* (null), Energy   -1000.0000000
C    -1.582109    1.534310   -0.662485    0.009397    0.003348    0.002350
C     0.155989   -0.055520    0.357396    0.030490    0.098942   -0.050330
C     2.717435   -0.024864    0.389448    0.003670    0.002626    0.000079
C    -1.126417    0.109055   -0.459391   -0.015170   -0.023276    0.018535
C     1.448737   -0.144518   -0.342181   -0.009756   -0.017062    0.001627
O    -1.447337   -1.760072    0.668119    0.105603   -0.008164    0.021850
O     2.228944    1.054378   -0.375127    0.000304    0.000948    0.005357
O    -2.089681   -0.578380    0.330894   -0.021852    0.049110   -0.023118
H    -0.322622   -1.237906    0.757825   -1.518481   -1.263382    0.172621
H    -2.513270    1.563851   -1.226499    0.004938   -0.033042    0.006387
H    -1.735130    2.019124    0.300793   -0.005416   -0.000412    0.000822
H    -0.821243    2.085502   -1.214495   -0.007148    0.012936   -0.009529
H     0.185261    0.555771    1.259574   -0.020194   -0.152775    0.112611
H     3.599257   -0.514195   -0.006570   -0.006060   -0.004323   -0.008018
H     2.690472    0.117451    1.463983   -0.000398    0.000788   -0.000256
H    -1.005042   -0.416085   -1.413124    0.006372    0.001019   -0.006222
H     1.456558   -0.694613   -1.277740   -0.009733    0.004746   -0.002801
17
* Frequency(6) -2307.4188
C    -1.581041    1.534690   -0.662218    0.009397    0.003348    0.002350
C     0.159454   -0.044276    0.351676    0.030490    0.098942   -0.050330
C     2.717852   -0.024565    0.389457    0.003670    0.002626    0.000079
C    -1.128141    0.106410   -0.457284   -0.015170   -0.023276    0.018535
C     1.447628   -0.146457   -0.341996   -0.009756   -0.017062    0.001627
O    -1.435335   -1.761000    0.670602    0.105603   -0.008164    0.021850
O     2.228978    1.054486   -0.374518    0.000304    0.000948    0.005357
O    -2.092164   -0.572799    0.328266   -0.021852    0.049110   -0.023118
H    -0.495190   -1.381483    0.777443   -1.518481   -1.263382    0.172621
H    -2.512709    1.560096   -1.225773    0.004938   -0.033042    0.006387
H    -1.735745    2.019077    0.300887   -0.005416   -0.000412    0.000822
H    -0.822056    2.086972   -1.215577   -0.007148    0.012936   -0.009529
H     0.182966    0.538409    1.272372   -0.020194   -0.152775    0.112611
H     3.598569   -0.514686   -0.007481   -0.006060   -0.004323   -0.008018
H     2.690427    0.117541    1.463954   -0.000398    0.000788   -0.000256
H    -1.004318   -0.415969   -1.413831    0.006372    0.001019   -0.006222
H     1.455452   -0.694074   -1.278059   -0.009733    0.004746   -0.002801
17
* Frequency(6) -2307.4188
C    -1.580089    1.535030   -0.661980    0.009397    0.003348    0.002350
C     0.162543   -0.034250    0.346576    0.030490    0.098942   -0.050330
C     2.718224   -0.024299    0.389465    0.003670    0.002626    0.000079
C    -1.129679    0.104051   -0.455406   -0.015170   -0.023276    0.018535
C     1.446640   -0.148186   -0.341831   -0.009756   -0.017062    0.001627
O    -1.424635   -1.761827    0.672816    0.105603   -0.008164    0.021850
O     2.229009    1.054582   -0.373976    0.000304    0.000948    0.005357
O    -2.094378   -0.567822    0.325924   -0.021852    0.049110   -0.023118
H    -0.649057   -1.509501    0.794935   -1.518481   -1.263382    0.172621
H    -2.512209    1.556747   -1.225126    0.004938   -0.033042    0.006387
H    -1.736294    2.019035    0.300970   -0.005416   -0.000412    0.000822
H    -0.822780    2.088283   -1.216543   -0.007148    0.012936   -0.009529
H     0.180920    0.522929    1.283782   -0.020194   -0.152775    0.112611
H     3.597954   -0.515124   -0.008293   -0.006060   -0.004323   -0.008018
H     2.690386    0.117621    1.463928   -0.000398    0.000788   -0.000256
H    -1.003672   -0.415866   -1.414462    0.006372    0.001019   -0.006222
H     1.454466   -0.693593   -1.278342   -0.009733    0.004746   -0.002801
17
* Frequency(6) -2307.4188
C    -1.579356    1.535291   -0.661796    0.009397    0.003348    0.002350
C     0.164923   -0.026529    0.342649    0.030490    0.098942   -0.050330
C     2.718510   -0.024094    0.389471    0.003670    0.002626    0.000079
C    -1.130862    0.102235   -0.453960   -0.015170   -0.023276    0.018535
C     1.445878   -0.149517   -0.341704   -0.009756   -0.017062    0.001627
O    -1.416394   -1.762464    0.674521    0.105603   -0.008164    0.021850
O     2.229033    1.054656   -0.373558    0.000304    0.000948    0.005357
O    -2.096083   -0.563990    0.324120   -0.021852    0.049110   -0.023118
H    -0.767550   -1.608088    0.808405   -1.518481   -1.263382    0.172621
H    -2.511824    1.554169   -1.224627    0.004938   -0.033042    0.006387
H    -1.736717    2.019003    0.301034   -0.005416   -0.000412    0.000822
H    -0.823338    2.089293   -1.217287   -0.007148    0.012936   -0.009529
H     0.179344    0.511007    1.292570   -0.020194   -0.152775    0.112611
H     3.597482   -0.515461   -0.008919   -0.006060   -0.004323   -0.008018
H     2.690355    0.117682    1.463908   -0.000398    0.000788   -0.000256
H    -1.003175   -0.415786   -1.414947    0.006372    0.001019   -0.006222
H     1.453707   -0.693223   -1.278561   -0.009733    0.004746   -0.002801
17
* Frequency(6) -2307.4188
C    -1.578921    1.535446   -0.661687    0.009397    0.003348    0.002350
C     0.166334   -0.021950    0.340319    0.030490    0.098942   -0.050330
C     2.718680   -0.023973    0.389475    0.003670    0.002626    0.000079
C    -1.131564    0.101158   -0.453102   -0.015170   -0.023276    0.018535
C     1.445427   -0.150307   -0.341629   -0.009756   -0.017062    0.001627
O    -1.411507   -1.762842    0.675533    0.105603   -0.008164    0.021850
O     2.229047    1.054700   -0.373310    0.000304    0.000948    0.005357
O    -2.097095   -0.561717    0.323050   -0.021852    0.049110   -0.023118
H    -0.837828   -1.666559    0.816394   -1.518481   -1.263382    0.172621
H    -2.511595    1.552640   -1.224332    0.004938   -0.033042    0.006387
H    -1.736967    2.018984    0.301072   -0.005416   -0.000412    0.000822
H    -0.823669    2.089891   -1.217728   -0.007148    0.012936   -0.009529
H     0.178410    0.503936    1.297782   -0.020194   -0.152775    0.112611
H     3.597201   -0.515661   -0.009290   -0.006060   -0.004323   -0.008018
H     2.690337    0.117719    1.463896   -0.000398    0.000788   -0.000256
H    -1.002880   -0.415739   -1.415235    0.006372    0.001019   -0.006222
H     1.453256   -0.693003   -1.278691   -0.009733    0.004746   -0.002801
17
* Frequency(6) -2307.4188
C    -1.578832    1.535478   -0.661665    0.009397    0.003348    0.002350
C     0.166624   -0.021009    0.339841    0.030490    0.098942   -0.050330
C     2.718715   -0.023948    0.389476    0.003670    0.002626    0.000079
C    -1.131709    0.100936   -0.452926   -0.015170   -0.023276    0.018535
C     1.445334   -0.150469   -0.341614   -0.009756   -0.017062    0.001627
O    -1.410502   -1.762919    0.675741    0.105603   -0.008164    0.021850
O     2.229050    1.054709   -0.373259    0.000304    0.000948    0.005357
O    -2.097303   -0.561250    0.322830   -0.021852    0.049110   -0.023118
H    -0.852276   -1.678580    0.818036   -1.518481   -1.263382    0.172621
H    -2.511548    1.552325   -1.224271    0.004938   -0.033042    0.006387
H    -1.737019    2.018980    0.301080   -0.005416   -0.000412    0.000822
H    -0.823737    2.090014   -1.217818   -0.007148    0.012936   -0.009529
H     0.178218    0.502483    1.298853   -0.020194   -0.152775    0.112611
H     3.597143   -0.515702   -0.009366   -0.006060   -0.004323   -0.008018
H     2.690333    0.117726    1.463894   -0.000398    0.000788   -0.000256
H    -1.002820   -0.415729   -1.415295    0.006372    0.001019   -0.006222
H     1.453164   -0.692958   -1.278717   -0.009733    0.004746   -0.002801
17
* Frequency(6) -2307.4188
C    -1.579097    1.535383   -0.661731    0.009397    0.003348    0.002350
C     0.165761   -0.023807    0.341264    0.030490    0.098942   -0.050330
C     2.718611   -0.024022    0.389473    0.003670    0.002626    0.000079
C    -1.131280    0.101594   -0.453450   -0.015170   -0.023276    0.018535
C     1.445610   -0.149986   -0.341660   -0.009756   -0.017062    0.001627
O    -1.413489   -1.762688    0.675123    0.105603   -0.008164    0.021850
O     2.229041    1.054682   -0.373410    0.000304    0.000948    0.005357
O    -2.096685   -0.562639    0.323484   -0.021852    0.049110   -0.023118
H    -0.809327   -1.642846    0.813154   -1.518481   -1.263382    0.172621
H    -2.511688    1.553260   -1.224452    0.004938   -0.033042    0.006387
H    -1.736866    2.018992    0.301057   -0.005416   -0.000412    0.000822
H    -0.823535    2.089648   -1.217549   -0.007148    0.012936   -0.009529
H     0.178789    0.506804    1.295668   -0.020194   -0.152775    0.112611
H     3.597315   -0.515580   -0.009140   -0.006060   -0.004323   -0.008018
H     2.690344    0.117704    1.463901   -0.000398    0.000788   -0.000256
H    -1.003000   -0.415758   -1.415119    0.006372    0.001019   -0.006222
H     1.453439   -0.693092   -1.278638   -0.009733    0.004746   -0.002801
17
* Frequency(6) -2307.4188
C    -1.579690    1.535172   -0.661880    0.009397    0.003348    0.002350
C     0.163840   -0.030042    0.344436    0.030490    0.098942   -0.050330
C     2.718380   -0.024188    0.389468    0.003670    0.002626    0.000079
C    -1.130324    0.103061   -0.454618   -0.015170   -0.023276    0.018535
C     1.446225   -0.148911   -0.341762   -0.009756   -0.017062    0.001627
O    -1.420144   -1.762174    0.673746    0.105603   -0.008164    0.021850
O     2.229022    1.054622   -0.373748    0.000304    0.000948    0.005357
O    -2.095308   -0.565734    0.324941   -0.021852    0.049110   -0.023118
H    -0.713636   -1.563231    0.802276   -1.518481   -1.263382    0.172621
H    -2.511999    1.555342   -1.224854    0.004938   -0.033042    0.006387
H    -1.736524    2.019018    0.301005   -0.005416   -0.000412    0.000822
H    -0.823084    2.088833   -1.216948   -0.007148    0.012936   -0.009529
H     0.180061    0.516431    1.288572   -0.020194   -0.152775    0.112611
H     3.597697   -0.515308   -0.008634   -0.006060   -0.004323   -0.008018
H     2.690369    0.117654    1.463917   -0.000398    0.000788   -0.000256
H    -1.003401   -0.415823   -1.414726    0.006372    0.001019   -0.006222
H     1.454052   -0.693391   -1.278462   -0.009733    0.004746   -0.002801
17
* Frequency(6) -2307.4188
C    -1.580544    1.534868   -0.662093    0.009397    0.003348    0.002350
C     0.161068   -0.039038    0.349012    0.030490    0.098942   -0.050330
C     2.718046   -0.024426    0.389461    0.003670    0.002626    0.000079
C    -1.128944    0.105178   -0.456303   -0.015170   -0.023276    0.018535
C     1.447112   -0.147360   -0.341910   -0.009756   -0.017062    0.001627
O    -1.429745   -1.761432    0.671759    0.105603   -0.008164    0.021850
O     2.228994    1.054536   -0.374235    0.000304    0.000948    0.005357
O    -2.093321   -0.570199    0.327043   -0.021852    0.049110   -0.023118
H    -0.575573   -1.448362    0.786581   -1.518481   -1.263382    0.172621
H    -2.512448    1.558346   -1.225435    0.004938   -0.033042    0.006387
H    -1.736032    2.019055    0.300930   -0.005416   -0.000412    0.000822
H    -0.822434    2.087657   -1.216082   -0.007148    0.012936   -0.009529
H     0.181897    0.530322    1.278333   -0.020194   -0.152775    0.112611
H     3.598248   -0.514915   -0.007905   -0.006060   -0.004323   -0.008018
H     2.690406    0.117583    1.463940   -0.000398    0.000788   -0.000256
H    -1.003981   -0.415915   -1.414161    0.006372    0.001019   -0.006222
H     1.454937   -0.693823   -1.278207   -0.009733    0.004746   -0.002801
17
* Frequency(6) -2307.4188
C    -1.581568    1.534503   -0.662349    0.009397    0.003348    0.002350
C     0.157745   -0.049820    0.354496    0.030490    0.098942   -0.050330
C     2.717646   -0.024712    0.389453    0.003670    0.002626    0.000079
C    -1.127291    0.107714   -0.458323   -0.015170   -0.023276    0.018535
C     1.448175   -0.145501   -0.342087   -0.009756   -0.017062    0.001627
O    -1.441253   -1.760542    0.669378    0.105603   -0.008164    0.021850
O     2.228961    1.054433   -0.374819    0.000304    0.000948    0.005357
O    -2.090940   -0.575551    0.329562   -0.021852    0.049110   -0.023118
H    -0.410099   -1.310687    0.767770   -1.518481   -1.263382    0.172621
H    -2.512986    1.561947   -1.226131    0.004938   -0.033042    0.006387
H    -1.735442    2.019100    0.300841   -0.005416   -0.000412    0.000822
H    -0.821655    2.086247   -1.215043   -0.007148    0.012936   -0.009529
H     0.184098    0.546970    1.266061   -0.020194   -0.152775    0.112611
H     3.598908   -0.514444   -0.007032   -0.006060   -0.004323   -0.008018
H     2.690449    0.117497    1.463968   -0.000398    0.000788   -0.000256
H    -1.004675   -0.416026   -1.413483    0.006372    0.001019   -0.006222
H     1.455998   -0.694340   -1.277902   -0.009733    0.004746   -0.002801
17
* Frequency(6) -2307.4188
C    -1.582651    1.534117   -0.662620    0.009397    0.003348    0.002350
C     0.154232   -0.061220    0.360295    0.030490    0.098942   -0.050330
C     2.717223   -0.025015    0.389444    0.003670    0.002626    0.000079
C    -1.125544    0.110396   -0.460459   -0.015170   -0.023276    0.018535
C     1.449299   -0.143535   -0.342275   -0.009756   -0.017062    0.001627
O    -1.453420   -1.759601    0.666861    0.105603   -0.008164    0.021850
O     2.228926    1.054324   -0.375436    0.000304    0.000948    0.005357
O    -2.088422   -0.581209    0.332225   -0.021852    0.049110   -0.023118
H    -0.235146   -1.165125    0.747881   -1.518481   -1.263382    0.172621
H    -2.513555    1.565754   -1.226867    0.004938   -0.033042    0.006387
H    -1.734818    2.019148    0.300746   -0.005416   -0.000412    0.000822
H    -0.820831    2.084757   -1.213946   -0.007148    0.012936   -0.009529
H     0.186425    0.564573    1.253087   -0.020194   -0.152775    0.112611
H     3.599606   -0.513946   -0.006108   -0.006060   -0.004323   -0.008018
H     2.690495    0.117406    1.463998   -0.000398    0.000788   -0.000256
H    -1.005409   -0.416144   -1.412766    0.006372    0.001019   -0.006222
H     1.457119   -0.694887   -1.277579   -0.009733    0.004746   -0.002801
17
* Frequency(6) -2307.4188
C    -1.583675    1.533752   -0.662876    0.009397    0.003348    0.002350
C     0.150910   -0.072002    0.365780    0.030490    0.098942   -0.050330
C     2.716823   -0.025301    0.389435    0.003670    0.002626    0.000079
C    -1.123890    0.112932   -0.462478   -0.015170   -0.023276    0.018535
C     1.450362   -0.141676   -0.342452   -0.009756   -0.017062    0.001627
O    -1.464928   -1.758712    0.664480    0.105603   -0.008164    0.021850
O     2.228893    1.054220   -0.376020    0.000304    0.000948    0.005357
O    -2.086041   -0.586561    0.334745   -0.021852    0.049110   -0.023118
H    -0.069671   -1.027450    0.729070   -1.518481   -1.263382    0.172621
H    -2.514093    1.569355   -1.227563    0.004938   -0.033042    0.006387
H    -1.734228    2.019192    0.300656   -0.005416   -0.000412    0.000822
H    -0.820052    2.083347   -1.212907   -0.007148    0.012936   -0.009529
H     0.188625    0.581221    1.240815   -0.020194   -0.152775    0.112611
H     3.600267   -0.513475   -0.005234   -0.006060   -0.004323   -0.008018
H     2.690538    0.117320    1.464026   -0.000398    0.000788   -0.000256
H    -1.006104   -0.416255   -1.412088    0.006372    0.001019   -0.006222
H     1.458180   -0.695404   -1.277274   -0.009733    0.004746   -0.002801
17
* Frequency(6) -2307.4188
C    -1.584529    1.533448   -0.663090    0.009397    0.003348    0.002350
C     0.148138   -0.080998    0.370356    0.030490    0.098942   -0.050330
C     2.716490   -0.025540    0.389428    0.003670    0.002626    0.000079
C    -1.122511    0.115049   -0.464164   -0.015170   -0.023276    0.018535
C     1.451249   -0.140124   -0.342600   -0.009756   -0.017062    0.001627
O    -1.474530   -1.757970    0.662493    0.105603   -0.008164    0.021850
O     2.228865    1.054134   -0.376507    0.000304    0.000948    0.005357
O    -2.084054   -0.591026    0.336846   -0.021852    0.049110   -0.023118
H     0.068392   -0.912581    0.713375   -1.518481   -1.263382    0.172621
H    -2.514542    1.572359   -1.228143    0.004938   -0.033042    0.006387
H    -1.733735    2.019230    0.300582   -0.005416   -0.000412    0.000822
H    -0.819403    2.082171   -1.212041   -0.007148    0.012936   -0.009529
H     0.190461    0.595112    1.230576   -0.020194   -0.152775    0.112611
H     3.600818   -0.513081   -0.004505   -0.006060   -0.004323   -0.008018
H     2.690574    0.117249    1.464049   -0.000398    0.000788   -0.000256
H    -1.006683   -0.416347   -1.411522    0.006372    0.001019   -0.006222
H     1.459064   -0.695835   -1.277019   -0.009733    0.004746   -0.002801
17
* Frequency(6) -2307.4188
C    -1.585121    1.533237   -0.663238    0.009397    0.003348    0.002350
C     0.146216   -0.087233    0.373527    0.030490    0.098942   -0.050330
C     2.716258   -0.025705    0.389423    0.003670    0.002626    0.000079
C    -1.121555    0.116516   -0.465332   -0.015170   -0.023276    0.018535
C     1.451864   -0.139049   -0.342702   -0.009756   -0.017062    0.001627
O    -1.481184   -1.757455    0.661116    0.105603   -0.008164    0.021850
O     2.228846    1.054074   -0.376844    0.000304    0.000948    0.005357
O    -2.082677   -0.594121    0.338303   -0.021852    0.049110   -0.023118
H     0.164082   -0.832966    0.702497   -1.518481   -1.263382    0.172621
H    -2.514853    1.574441   -1.228546    0.004938   -0.033042    0.006387
H    -1.733394    2.019256    0.300530   -0.005416   -0.000412    0.000822
H    -0.818952    2.081356   -1.211440   -0.007148    0.012936   -0.009529
H     0.191734    0.604739    1.223480   -0.020194   -0.152775    0.112611
H     3.601199   -0.512809   -0.004000   -0.006060   -0.004323   -0.008018
H     2.690599    0.117199    1.464065   -0.000398    0.000788   -0.000256
H    -1.007084   -0.416412   -1.411130    0.006372    0.001019   -0.006222
H     1.459678   -0.696134   -1.276843   -0.009733    0.004746   -0.002801
17
* Frequency(6) -2307.4188
C    -1.585387    1.533142   -0.663305    0.009397    0.003348    0.002350
C     0.145354   -0.090032    0.374951    0.030490    0.098942   -0.050330
C     2.716155   -0.025780    0.389421    0.003670    0.002626    0.000079
C    -1.121126    0.117174   -0.465856   -0.015170   -0.023276    0.018535
C     1.452140   -0.138567   -0.342749   -0.009756   -0.017062    0.001627
O    -1.484171   -1.757224    0.660498    0.105603   -0.008164    0.021850
O     2.228838    1.054047   -0.376996    0.000304    0.000948    0.005357
O    -2.082059   -0.595510    0.338957   -0.021852    0.049110   -0.023118
H     0.207031   -0.797233    0.697614   -1.518481   -1.263382    0.172621
H    -2.514993    1.575376   -1.228726    0.004938   -0.033042    0.006387
H    -1.733241    2.019267    0.300507   -0.005416   -0.000412    0.000822
H    -0.818750    2.080990   -1.211171   -0.007148    0.012936   -0.009529
H     0.192305    0.609060    1.220295   -0.020194   -0.152775    0.112611
H     3.601371   -0.512687   -0.003773   -0.006060   -0.004323   -0.008018
H     2.690611    0.117177    1.464072   -0.000398    0.000788   -0.000256
H    -1.007265   -0.416441   -1.410954    0.006372    0.001019   -0.006222
H     1.459953   -0.696269   -1.276763   -0.009733    0.004746   -0.002801
17
* Frequency(6) -2307.4188
C    -1.585298    1.533174   -0.663282    0.009397    0.003348    0.002350
C     0.145644   -0.089090    0.374472    0.030490    0.098942   -0.050330
C     2.716190   -0.025755    0.389421    0.003670    0.002626    0.000079
C    -1.121270    0.116953   -0.465680   -0.015170   -0.023276    0.018535
C     1.452047   -0.138729   -0.342733   -0.009756   -0.017062    0.001627
O    -1.483167   -1.757302    0.660706    0.105603   -0.008164    0.021850
O     2.228840    1.054057   -0.376945    0.000304    0.000948    0.005357
O    -2.082267   -0.595043    0.338737   -0.021852    0.049110   -0.023118
H     0.192583   -0.809253    0.699257   -1.518481   -1.263382    0.172621
H    -2.514946    1.575061   -1.228666    0.004938   -0.033042    0.006387
H    -1.733292    2.019264    0.300515   -0.005416   -0.000412    0.000822
H    -0.818818    2.081113   -1.211261   -0.007148    0.012936   -0.009529
H     0.192113    0.607607    1.221366   -0.020194   -0.152775    0.112611
H     3.601313   -0.512728   -0.003850   -0.006060   -0.004323   -0.008018
H     2.690607    0.117184    1.464070   -0.000398    0.000788   -0.000256
H    -1.007204   -0.416431   -1.411013    0.006372    0.001019   -0.006222
H     1.459860   -0.696224   -1.276790   -0.009733    0.004746   -0.002801
17
* Frequency(6) -2307.4188
C    -1.584863    1.533329   -0.663173    0.009397    0.003348    0.002350
C     0.147055   -0.084511    0.372143    0.030490    0.098942   -0.050330
C     2.716359   -0.025633    0.389425    0.003670    0.002626    0.000079
C    -1.121973    0.115875   -0.464822   -0.015170   -0.023276    0.018535
C     1.451596   -0.139519   -0.342658   -0.009756   -0.017062    0.001627
O    -1.478279   -1.757680    0.661717    0.105603   -0.008164    0.021850
O     2.228855    1.054100   -0.376697    0.000304    0.000948    0.005357
O    -2.083278   -0.592770    0.337667   -0.021852    0.049110   -0.023118
H     0.122305   -0.867725    0.707246   -1.518481   -1.263382    0.172621
H    -2.514717    1.573532   -1.228370    0.004938   -0.033042    0.006387
H    -1.733543    2.019245    0.300553   -0.005416   -0.000412    0.000822
H    -0.819149    2.081712   -1.211702   -0.007148    0.012936   -0.009529
H     0.191178    0.600536    1.226578   -0.020194   -0.152775    0.112611
H     3.601033   -0.512928   -0.004221   -0.006060   -0.004323   -0.008018
H     2.690588    0.117221    1.464058   -0.000398    0.000788   -0.000256
H    -1.006909   -0.416384   -1.411301    0.006372    0.001019   -0.006222
H     1.459410   -0.696004   -1.276920   -0.009733    0.004746   -0.002801
17
* Frequency(6) -2307.4188
C    -1.584129    1.533590   -0.662990    0.009397    0.003348    0.002350
C     0.149434   -0.076790    0.368215    0.030490    0.098942   -0.050330
C     2.716646   -0.025428    0.389431    0.003670    0.002626    0.000079
C    -1.123156    0.114059   -0.463375   -0.015170   -0.023276    0.018535
C     1.450835   -0.140850   -0.342531   -0.009756   -0.017062    0.001627
O    -1.470039   -1.758317    0.663422    0.105603   -0.008164    0.021850
O     2.228878    1.054174   -0.376279    0.000304    0.000948    0.005357
O    -2.084983   -0.588937    0.335863   -0.021852    0.049110   -0.023118
H     0.003812   -0.966312    0.720716   -1.518481   -1.263382    0.172621
H    -2.514332    1.570954   -1.227872    0.004938   -0.033042    0.006387
H    -1.733966    2.019212    0.300617   -0.005416   -0.000412    0.000822
H    -0.819707    2.082721   -1.212446   -0.007148    0.012936   -0.009529
H     0.189602    0.588614    1.235365   -0.020194   -0.152775    0.112611
H     3.600560   -0.513265   -0.004846   -0.006060   -0.004323   -0.008018
H     2.690557    0.117282    1.464038   -0.000398    0.000788   -0.000256
H    -1.006412   -0.416304   -1.411786    0.006372    0.001019   -0.006222
H     1.458651   -0.695634   -1.277138   -0.009733    0.004746   -0.002801
17
* Frequency(6) -2307.4188
C    -1.583177    1.533929   -0.662752    0.009397    0.003348    0.002350
C     0.152524   -0.066765    0.363115    0.030490    0.098942   -0.050330
C     2.717018   -0.025162    0.389439    0.003670    0.002626    0.000079
C    -1.124693    0.111700   -0.461497   -0.015170   -0.023276    0.018535
C     1.449846   -0.142579   -0.342366   -0.009756   -0.017062    0.001627
O    -1.459338   -1.759144    0.665636    0.105603   -0.008164    0.021850
O     2.228909    1.054270   -0.375736    0.000304    0.000948    0.005357
O    -2.087197   -0.583961    0.333521   -0.021852    0.049110   -0.023118
H    -0.150055   -1.094330    0.738208   -1.518481   -1.263382    0.172621
H    -2.513831    1.567606   -1.227224    0.004938   -0.033042    0.006387
H    -1.734514    2.019171    0.300700   -0.005416   -0.000412    0.000822
H    -0.820431    2.084032   -1.213412   -0.007148    0.012936   -0.009529
H     0.187556    0.573134    1.246776   -0.020194   -0.152775    0.112611
H     3.599946   -0.513703   -0.005659   -0.006060   -0.004323   -0.008018
H     2.690517    0.117362    1.464012   -0.000398    0.000788   -0.000256
H    -1.005766   -0.416201   -1.412417    0.006372    0.001019   -0.006222
H     1.457664   -0.695153   -1.277422   -0.009733    0.004746   -0.002801
17
* Frequency(6) -2307.4188
C    -1.582109    1.534310   -0.662485    0.009397    0.003348    0.002350
C     0.155989   -0.055520    0.357396    0.030490    0.098942   -0.050330
C     2.717435   -0.024864    0.389448    0.003670    0.002626    0.000079
C    -1.126417    0.109055   -0.459391   -0.015170   -0.023276    0.018535
C     1.448737   -0.144518   -0.342181   -0.009756   -0.017062    0.001627
O    -1.447337   -1.760072    0.668119    0.105603   -0.008164    0.021850
O     2.228944    1.054378   -0.375127    0.000304    0.000948    0.005357
O    -2.089681   -0.578380    0.330894   -0.021852    0.049110   -0.023118
H    -0.322622   -1.237906    0.757825   -1.518481   -1.263382    0.172621
H    -2.513270    1.563851   -1.226499    0.004938   -0.033042    0.006387
H    -1.735130    2.019124    0.300793   -0.005416   -0.000412    0.000822
H    -0.821243    2.085502   -1.214495   -0.007148    0.012936   -0.009529
H     0.185261    0.555771    1.259574   -0.020194   -0.152775    0.112611
H     3.599257   -0.514195   -0.006570   -0.006060   -0.004323   -0.008018
H     2.690472    0.117451    1.463983   -0.000398    0.000788   -0.000256
H    -1.005042   -0.416085   -1.413124    0.006372    0.001019   -0.006222
H     1.456558   -0.694613   -1.277740   -0.009733    0.004746   -0.002801
