17
Coordinates from ORCA-job freq E -421.377922321200
  C          -1.25361358440962      1.54414119637845      0.51339881210418
  C           0.01157896013630     -0.68003543250212      0.28150912651038
  C           2.37589822769330      0.07618872726394     -0.37843337018834
  C          -1.22089596204970      0.15121940546186     -0.07048511747667
  C           1.14009704923404     -0.68700558518980     -0.66242625412438
  O          -1.99339572394173     -1.90794335463001      0.10462139690542
  O           2.32910724456333     -1.32333495533365     -0.23195831802038
  O          -2.28445514765362     -0.60699917431601      0.49215524419355
  H          -0.75559726721158     -1.76337202731447      0.19908135532933
  H          -2.18382963782745      2.04728724421217      0.25347299892967
  H          -1.16810486169425      1.49874940515599      1.59839773066874
  H          -0.42315214361429      2.12874791489367      0.11778718712181
  H           0.30755167424500     -0.63412971884510      1.32977858563643
  H           2.96952600464878      0.44160809224774     -1.20823669186457
  H           2.44236942731894      0.63779190709574      0.54666011242348
  H          -1.33352529725239      0.17113353363029     -1.16049216850720
  H           0.89378303781494     -0.85696317820872     -1.70673062964145
