15
* (null), Energy   -1000.0000000
C     2.712487    0.242523    0.165137   -0.001350    0.018266   -0.012310
C    -2.075405   -1.320537    0.636804    0.011807   -0.008214   -0.003753
C     1.356293    0.059137   -0.469827   -0.009869    0.039281   -0.001791
C    -0.857115   -1.492109   -0.265422   -0.014391    0.003146   -0.042783
C     0.284293   -0.656666    0.191331    0.006357   -0.030888   -0.042367
O     0.233641    0.705057    0.195594    0.006408   -0.032649    0.088976
H     3.010854   -0.644900    0.720698   -0.485357    0.435076    0.911139
H     2.672486    1.079896    0.860571    0.341844    0.744528   -0.866036
H     3.471622    0.456739   -0.584708    0.176862   -1.097738   -0.150582
H    -2.374060   -0.273575    0.675167    0.024777   -0.006004    0.033544
H    -2.917276   -1.904276    0.267858   -0.003304    0.010636    0.001193
H    -1.850337   -1.644614    1.652358    0.031927   -0.038037   -0.017423
H     1.301850    0.185096   -1.548063   -0.032219    0.176692    0.015253
H    -1.108071   -1.199133   -1.293542   -0.039382    0.034980   -0.027922
H    -0.541381   -2.535135   -0.298184   -0.028132    0.000798   -0.084040
15
* Frequency(6) -202.5984
C     2.712334    0.244599    0.163738   -0.001350    0.018266   -0.012310
C    -2.074063   -1.321470    0.636377    0.011807   -0.008214   -0.003753
C     1.355171    0.063601   -0.470031   -0.009869    0.039281   -0.001791
C    -0.858750   -1.491752   -0.270284   -0.014391    0.003146   -0.042783
C     0.285016   -0.660176    0.186516    0.006357   -0.030888   -0.042367
O     0.234369    0.701347    0.205705    0.006408   -0.032649    0.088976
H     2.955696   -0.595456    0.824245   -0.485357    0.435076    0.911139
H     2.711335    1.164508    0.762150    0.341844    0.744528   -0.866036
H     3.491722    0.331986   -0.601821    0.176862   -1.097738   -0.150582
H    -2.371244   -0.274258    0.678979    0.024777   -0.006004    0.033544
H    -2.917652   -1.903067    0.267993   -0.003304    0.010636    0.001193
H    -1.846709   -1.648936    1.650378    0.031927   -0.038037   -0.017423
H     1.298189    0.205176   -1.546329   -0.032219    0.176692    0.015253
H    -1.112547   -1.195158   -1.296715   -0.039382    0.034980   -0.027922
H    -0.544578   -2.535044   -0.307735   -0.028132    0.000798   -0.084040
15
* Frequency(6) -202.5984
C     2.712197    0.246450    0.162491   -0.001350    0.018266   -0.012310
C    -2.072867   -1.322302    0.635997    0.011807   -0.008214   -0.003753
C     1.354171    0.067581   -0.470212   -0.009869    0.039281   -0.001791
C    -0.860209   -1.491433   -0.274619   -0.014391    0.003146   -0.042783
C     0.285660   -0.663306    0.182223    0.006357   -0.030888   -0.042367
O     0.235018    0.698039    0.214721    0.006408   -0.032649    0.088976
H     2.906515   -0.551370    0.916570   -0.485357    0.435076    0.911139
H     2.745974    1.239951    0.674395    0.341844    0.744528   -0.866036
H     3.509643    0.220753   -0.617079    0.176862   -1.097738   -0.150582
H    -2.368734   -0.274866    0.682378    0.024777   -0.006004    0.033544
H    -2.917987   -1.901989    0.268114   -0.003304    0.010636    0.001193
H    -1.843473   -1.652791    1.648613    0.031927   -0.038037   -0.017423
H     1.294924    0.223081   -1.544784   -0.032219    0.176692    0.015253
H    -1.116538   -1.191613   -1.299545   -0.039382    0.034980   -0.027922
H    -0.547428   -2.534963   -0.316251   -0.028132    0.000798   -0.084040
15
* Frequency(6) -202.5984
C     2.712091    0.247876    0.161530   -0.001350    0.018266   -0.012310
C    -2.071946   -1.322943    0.635704    0.011807   -0.008214   -0.003753
C     1.353401    0.070646   -0.470352   -0.009869    0.039281   -0.001791
C    -0.861332   -1.491187   -0.277958   -0.014391    0.003146   -0.042783
C     0.286156   -0.665716    0.178917    0.006357   -0.030888   -0.042367
O     0.235518    0.695491    0.221664    0.006408   -0.032649    0.088976
H     2.868640   -0.517419    0.987670   -0.485357    0.435076    0.911139
H     2.772649    1.298049    0.606815    0.341844    0.744528   -0.866036
H     3.523444    0.135092   -0.628830    0.176862   -1.097738   -0.150582
H    -2.366800   -0.275335    0.684995    0.024777   -0.006004    0.033544
H    -2.918245   -1.901159    0.268207   -0.003304    0.010636    0.001193
H    -1.840982   -1.655759    1.647253    0.031927   -0.038037   -0.017423
H     1.292410    0.236869   -1.543593   -0.032219    0.176692    0.015253
H    -1.119611   -1.188884   -1.301723   -0.039382    0.034980   -0.027922
H    -0.549624   -2.534901   -0.322809   -0.028132    0.000798   -0.084040
15
* Frequency(6) -202.5984
C     2.712029    0.248721    0.160960   -0.001350    0.018266   -0.012310
C    -2.071399   -1.323324    0.635531    0.011807   -0.008214   -0.003753
C     1.352945    0.072464   -0.470435   -0.009869    0.039281   -0.001791
C    -0.861998   -1.491042   -0.279938   -0.014391    0.003146   -0.042783
C     0.286450   -0.667145    0.176956    0.006357   -0.030888   -0.042367
O     0.235815    0.693980    0.225782    0.006408   -0.032649    0.088976
H     2.846177   -0.497283    1.029839   -0.485357    0.435076    0.911139
H     2.788470    1.332507    0.566733    0.341844    0.744528   -0.866036
H     3.531630    0.084287   -0.635799    0.176862   -1.097738   -0.150582
H    -2.365654   -0.275612    0.686548    0.024777   -0.006004    0.033544
H    -2.918397   -1.900667    0.268263   -0.003304    0.010636    0.001193
H    -1.839504   -1.657519    1.646447    0.031927   -0.038037   -0.017423
H     1.290919    0.245046   -1.542887   -0.032219    0.176692    0.015253
H    -1.121433   -1.187265   -1.303016   -0.039382    0.034980   -0.027922
H    -0.550926   -2.534864   -0.326698   -0.028132    0.000798   -0.084040
15
* Frequency(6) -202.5984
C     2.712016    0.248895    0.160843   -0.001350    0.018266   -0.012310
C    -2.071287   -1.323402    0.635495    0.011807   -0.008214   -0.003753
C     1.352851    0.072838   -0.470452   -0.009869    0.039281   -0.001791
C    -0.862134   -1.491012   -0.280345   -0.014391    0.003146   -0.042783
C     0.286511   -0.667439    0.176553    0.006357   -0.030888   -0.042367
O     0.235876    0.693669    0.226629    0.006408   -0.032649    0.088976
H     2.841559   -0.493143    1.038508   -0.485357    0.435076    0.911139
H     2.791723    1.339591    0.558493    0.341844    0.744528   -0.866036
H     3.533312    0.073843   -0.637232    0.176862   -1.097738   -0.150582
H    -2.365418   -0.275670    0.686867    0.024777   -0.006004    0.033544
H    -2.918429   -1.900566    0.268274   -0.003304    0.010636    0.001193
H    -1.839201   -1.657881    1.646281    0.031927   -0.038037   -0.017423
H     1.290612    0.246727   -1.542742   -0.032219    0.176692    0.015253
H    -1.121808   -1.186932   -1.303281   -0.039382    0.034980   -0.027922
H    -0.551193   -2.534856   -0.327498   -0.028132    0.000798   -0.084040
15
* Frequency(6) -202.5984
C     2.712054    0.248378    0.161192   -0.001350    0.018266   -0.012310
C    -2.071621   -1.323169    0.635601    0.011807   -0.008214   -0.003753
C     1.353130    0.071727   -0.470401   -0.009869    0.039281   -0.001791
C    -0.861727   -1.491101   -0.279135   -0.014391    0.003146   -0.042783
C     0.286331   -0.666566    0.177751    0.006357   -0.030888   -0.042367
O     0.235695    0.694593    0.224112    0.006408   -0.032649    0.088976
H     2.855287   -0.505449    1.012737   -0.485357    0.435076    0.911139
H     2.782054    1.318533    0.582988    0.341844    0.744528   -0.866036
H     3.528310    0.104891   -0.632973    0.176862   -1.097738   -0.150582
H    -2.366119   -0.275500    0.685918    0.024777   -0.006004    0.033544
H    -2.918335   -1.900867    0.268240   -0.003304    0.010636    0.001193
H    -1.840104   -1.656805    1.646774    0.031927   -0.038037   -0.017423
H     1.291523    0.241730   -1.543174   -0.032219    0.176692    0.015253
H    -1.120694   -1.187921   -1.302492   -0.039382    0.034980   -0.027922
H    -0.550398   -2.534879   -0.325121   -0.028132    0.000798   -0.084040
15
* Frequency(6) -202.5984
C     2.712139    0.247227    0.161967   -0.001350    0.018266   -0.012310
C    -2.072365   -1.322652    0.635838    0.011807   -0.008214   -0.003753
C     1.353752    0.069252   -0.470288   -0.009869    0.039281   -0.001791
C    -0.860821   -1.491299   -0.276439   -0.014391    0.003146   -0.042783
C     0.285930   -0.664619    0.180421    0.006357   -0.030888   -0.042367
O     0.235291    0.696650    0.218505    0.006408   -0.032649    0.088976
H     2.885873   -0.532866    0.955320   -0.485357    0.435076    0.911139
H     2.760512    1.271615    0.637564    0.341844    0.744528   -0.866036
H     3.517165    0.174067   -0.623483    0.176862   -1.097738   -0.150582
H    -2.367680   -0.275121    0.683804    0.024777   -0.006004    0.033544
H    -2.918127   -1.901537    0.268165   -0.003304    0.010636    0.001193
H    -1.842116   -1.654408    1.647872    0.031927   -0.038037   -0.017423
H     1.293554    0.230595   -1.544135   -0.032219    0.176692    0.015253
H    -1.118212   -1.190126   -1.300732   -0.039382    0.034980   -0.027922
H    -0.548625   -2.534929   -0.319825   -0.028132    0.000798   -0.084040
15
* Frequency(6) -202.5984
C     2.712262    0.245566    0.163086   -0.001350    0.018266   -0.012310
C    -2.073438   -1.321905    0.636179    0.011807   -0.008214   -0.003753
C     1.354649    0.065680   -0.470126   -0.009869    0.039281   -0.001791
C    -0.859512   -1.491585   -0.272549   -0.014391    0.003146   -0.042783
C     0.285352   -0.661811    0.184273    0.006357   -0.030888   -0.042367
O     0.234708    0.699619    0.210415    0.006408   -0.032649    0.088976
H     2.930002   -0.572424    0.872477   -0.485357    0.435076    0.911139
H     2.729431    1.203921    0.716305    0.341844    0.744528   -0.866036
H     3.501084    0.273876   -0.609792    0.176862   -1.097738   -0.150582
H    -2.369933   -0.274576    0.680754    0.024777   -0.006004    0.033544
H    -2.917827   -1.902504    0.268057   -0.003304    0.010636    0.001193
H    -1.845018   -1.650950    1.649456    0.031927   -0.038037   -0.017423
H     1.296483    0.214530   -1.545522   -0.032219    0.176692    0.015253
H    -1.114632   -1.193306   -1.298193   -0.039382    0.034980   -0.027922
H    -0.546067   -2.535002   -0.312184   -0.028132    0.000798   -0.084040
15
* Frequency(6) -202.5984
C     2.712409    0.243576    0.164428   -0.001350    0.018266   -0.012310
C    -2.074725   -1.321010    0.636588    0.011807   -0.008214   -0.003753
C     1.355724    0.061400   -0.469930   -0.009869    0.039281   -0.001791
C    -0.857944   -1.491928   -0.267887   -0.014391    0.003146   -0.042783
C     0.284659   -0.658445    0.188890    0.006357   -0.030888   -0.042367
O     0.234010    0.703176    0.200719    0.006408   -0.032649    0.088976
H     2.982894   -0.619836    0.773187   -0.485357    0.435076    0.911139
H     2.692179    1.122787    0.810680    0.341844    0.744528   -0.866036
H     3.481811    0.393500   -0.593383    0.176862   -1.097738   -0.150582
H    -2.372633   -0.273921    0.677099    0.024777   -0.006004    0.033544
H    -2.917467   -1.903663    0.267926   -0.003304    0.010636    0.001193
H    -1.848498   -1.646805    1.651355    0.031927   -0.038037   -0.017423
H     1.299994    0.195275   -1.547184   -0.032219    0.176692    0.015253
H    -1.110340   -1.197118   -1.295150   -0.039382    0.034980   -0.027922
H    -0.543001   -2.535089   -0.303025   -0.028132    0.000798   -0.084040
15
* Frequency(6) -202.5984
C     2.712565    0.241471    0.165846   -0.001350    0.018266   -0.012310
C    -2.076085   -1.320063    0.637020    0.011807   -0.008214   -0.003753
C     1.356862    0.056874   -0.469724   -0.009869    0.039281   -0.001791
C    -0.856286   -1.492290   -0.262957   -0.014391    0.003146   -0.042783
C     0.283927   -0.654886    0.193771    0.006357   -0.030888   -0.042367
O     0.233271    0.706938    0.190468    0.006408   -0.032649    0.088976
H     3.038814   -0.669964    0.668210   -0.485357    0.435076    0.911139
H     2.652793    1.037005    0.910461    0.341844    0.744528   -0.866036
H     3.461433    0.519977   -0.576033    0.176862   -1.097738   -0.150582
H    -2.375488   -0.273230    0.673234    0.024777   -0.006004    0.033544
H    -2.917086   -1.904889    0.267789   -0.003304    0.010636    0.001193
H    -1.852176   -1.642422    1.653362    0.031927   -0.038037   -0.017423
H     1.303706    0.174917   -1.548941   -0.032219    0.176692    0.015253
H    -1.105803   -1.201148   -1.291933   -0.039382    0.034980   -0.027922
H    -0.539760   -2.535181   -0.293343   -0.028132    0.000798   -0.084040
15
* Frequency(6) -202.5984
C     2.712712    0.239481    0.167188   -0.001350    0.018266   -0.012310
C    -2.077372   -1.319168    0.637429    0.011807   -0.008214   -0.003753
C     1.357937    0.052593   -0.469529   -0.009869    0.039281   -0.001791
C    -0.854718   -1.492633   -0.258295   -0.014391    0.003146   -0.042783
C     0.283234   -0.651520    0.198388    0.006357   -0.030888   -0.042367
O     0.232573    0.710496    0.180772    0.006408   -0.032649    0.088976
H     3.091705   -0.717375    0.568920   -0.485357    0.435076    0.911139
H     2.615542    0.955872    1.004836    0.341844    0.744528   -0.866036
H     3.442160    0.639602   -0.559624    0.176862   -1.097738   -0.150582
H    -2.378188   -0.272575    0.669579    0.024777   -0.006004    0.033544
H    -2.916726   -1.906048    0.267659   -0.003304    0.010636    0.001193
H    -1.855655   -1.638277    1.655261    0.031927   -0.038037   -0.017423
H     1.307217    0.155662   -1.550604   -0.032219    0.176692    0.015253
H    -1.101511   -1.204960   -1.288891   -0.039382    0.034980   -0.027922
H    -0.536695   -2.535268   -0.284184   -0.028132    0.000798   -0.084040
15
* Frequency(6) -202.5984
C     2.712835    0.237820    0.168307   -0.001350    0.018266   -0.012310
C    -2.078446   -1.318421    0.637770    0.011807   -0.008214   -0.003753
C     1.358834    0.049022   -0.469366   -0.009869    0.039281   -0.001791
C    -0.853409   -1.492919   -0.254405   -0.014391    0.003146   -0.042783
C     0.282656   -0.648712    0.202240    0.006357   -0.030888   -0.042367
O     0.231990    0.713464    0.172682    0.006408   -0.032649    0.088976
H     3.135835   -0.756933    0.486077   -0.485357    0.435076    0.911139
H     2.584460    0.888178    1.083578    0.341844    0.744528   -0.866036
H     3.426080    0.739410   -0.545933    0.176862   -1.097738   -0.150582
H    -2.380440   -0.272029    0.666529    0.024777   -0.006004    0.033544
H    -2.916425   -1.907015    0.267550   -0.003304    0.010636    0.001193
H    -1.858558   -1.634819    1.656845    0.031927   -0.038037   -0.017423
H     1.310147    0.139597   -1.551990   -0.032219    0.176692    0.015253
H    -1.097930   -1.208141   -1.286352   -0.039382    0.034980   -0.027922
H    -0.534137   -2.535340   -0.276543   -0.028132    0.000798   -0.084040
15
* Frequency(6) -202.5984
C     2.712920    0.236669    0.169083   -0.001350    0.018266   -0.012310
C    -2.079190   -1.317904    0.638007    0.011807   -0.008214   -0.003753
C     1.359456    0.046546   -0.469253   -0.009869    0.039281   -0.001791
C    -0.852502   -1.493117   -0.251709   -0.014391    0.003146   -0.042783
C     0.282256   -0.646765    0.204910    0.006357   -0.030888   -0.042367
O     0.231587    0.715522    0.167075    0.006408   -0.032649    0.088976
H     3.166421   -0.784350    0.428660   -0.485357    0.435076    0.911139
H     2.562918    0.841260    1.138153    0.341844    0.744528   -0.866036
H     3.414934    0.808587   -0.536443    0.176862   -1.097738   -0.150582
H    -2.382002   -0.271651    0.664415    0.024777   -0.006004    0.033544
H    -2.916217   -1.907685    0.267475   -0.003304    0.010636    0.001193
H    -1.860570   -1.632422    1.657943    0.031927   -0.038037   -0.017423
H     1.312177    0.128463   -1.552952   -0.032219    0.176692    0.015253
H    -1.095449   -1.210345   -1.284592   -0.039382    0.034980   -0.027922
H    -0.532364   -2.535390   -0.271247   -0.028132    0.000798   -0.084040
15
* Frequency(6) -202.5984
C     2.712958    0.236152    0.169431   -0.001350    0.018266   -0.012310
C    -2.079524   -1.317671    0.638113    0.011807   -0.008214   -0.003753
C     1.359735    0.045435   -0.469203   -0.009869    0.039281   -0.001791
C    -0.852095   -1.493206   -0.250499   -0.014391    0.003146   -0.042783
C     0.282076   -0.645892    0.206109    0.006357   -0.030888   -0.042367
O     0.231405    0.716445    0.164559    0.006408   -0.032649    0.088976
H     3.180149   -0.796656    0.402889   -0.485357    0.435076    0.911139
H     2.553250    0.820201    1.162648    0.341844    0.744528   -0.866036
H     3.409932    0.839635   -0.532184    0.176862   -1.097738   -0.150582
H    -2.382702   -0.271481    0.663466    0.024777   -0.006004    0.033544
H    -2.916124   -1.907986    0.267442   -0.003304    0.010636    0.001193
H    -1.861473   -1.631346    1.658436    0.031927   -0.038037   -0.017423
H     1.313088    0.123465   -1.553383   -0.032219    0.176692    0.015253
H    -1.094335   -1.211334   -1.283803   -0.039382    0.034980   -0.027922
H    -0.531568   -2.535413   -0.268870   -0.028132    0.000798   -0.084040
15
* Frequency(6) -202.5984
C     2.712945    0.236326    0.169314   -0.001350    0.018266   -0.012310
C    -2.079411   -1.317749    0.638077    0.011807   -0.008214   -0.003753
C     1.359641    0.045809   -0.469220   -0.009869    0.039281   -0.001791
C    -0.852232   -1.493176   -0.250906   -0.014391    0.003146   -0.042783
C     0.282137   -0.646186    0.205705    0.006357   -0.030888   -0.042367
O     0.231466    0.716135    0.165405    0.006408   -0.032649    0.088976
H     3.175531   -0.792517    0.411558   -0.485357    0.435076    0.911139
H     2.556502    0.827285    1.154408    0.341844    0.744528   -0.866036
H     3.411615    0.829190   -0.533617    0.176862   -1.097738   -0.150582
H    -2.382467   -0.271538    0.663785    0.024777   -0.006004    0.033544
H    -2.916155   -1.907885    0.267453   -0.003304    0.010636    0.001193
H    -1.861169   -1.631708    1.658270    0.031927   -0.038037   -0.017423
H     1.312782    0.125146   -1.553238   -0.032219    0.176692    0.015253
H    -1.094709   -1.211002   -1.284068   -0.039382    0.034980   -0.027922
H    -0.531836   -2.535405   -0.269670   -0.028132    0.000798   -0.084040
15
* Frequency(6) -202.5984
C     2.712883    0.237171    0.168744   -0.001350    0.018266   -0.012310
C    -2.078865   -1.318130    0.637903    0.011807   -0.008214   -0.003753
C     1.359185    0.047627   -0.469303   -0.009869    0.039281   -0.001791
C    -0.852898   -1.493031   -0.252886   -0.014391    0.003146   -0.042783
C     0.282431   -0.647615    0.203745    0.006357   -0.030888   -0.042367
O     0.231763    0.714624    0.169523    0.006408   -0.032649    0.088976
H     3.153067   -0.772380    0.453727   -0.485357    0.435076    0.911139
H     2.572323    0.861743    1.114326    0.341844    0.744528   -0.866036
H     3.419800    0.778385   -0.540586    0.176862   -1.097738   -0.150582
H    -2.381320   -0.271816    0.665338    0.024777   -0.006004    0.033544
H    -2.916308   -1.907393    0.267508   -0.003304    0.010636    0.001193
H    -1.859692   -1.633468    1.657464    0.031927   -0.038037   -0.017423
H     1.311291    0.133324   -1.552532   -0.032219    0.176692    0.015253
H    -1.096532   -1.209383   -1.285360   -0.039382    0.034980   -0.027922
H    -0.533138   -2.535368   -0.273560   -0.028132    0.000798   -0.084040
15
* Frequency(6) -202.5984
C     2.712777    0.238597    0.167783   -0.001350    0.018266   -0.012310
C    -2.077944   -1.318771    0.637611    0.011807   -0.008214   -0.003753
C     1.358415    0.050692   -0.469442   -0.009869    0.039281   -0.001791
C    -0.854021   -1.492785   -0.256225   -0.014391    0.003146   -0.042783
C     0.282927   -0.650026    0.200439    0.006357   -0.030888   -0.042367
O     0.232263    0.712076    0.176466    0.006408   -0.032649    0.088976
H     3.115193   -0.738430    0.524827   -0.485357    0.435076    0.911139
H     2.598999    0.919842    1.046746    0.341844    0.744528   -0.866036
H     3.433601    0.692724   -0.552337    0.176862   -1.097738   -0.150582
H    -2.379387   -0.272285    0.667955    0.024777   -0.006004    0.033544
H    -2.916566   -1.906563    0.267601   -0.003304    0.010636    0.001193
H    -1.857200   -1.636437    1.656104    0.031927   -0.038037   -0.017423
H     1.308776    0.147112   -1.551342   -0.032219    0.176692    0.015253
H    -1.099605   -1.206653   -1.287539   -0.039382    0.034980   -0.027922
H    -0.535333   -2.535306   -0.280118   -0.028132    0.000798   -0.084040
15
* Frequency(6) -202.5984
C     2.712641    0.240448    0.166536   -0.001350    0.018266   -0.012310
C    -2.076747   -1.319603    0.637230    0.011807   -0.008214   -0.003753
C     1.357415    0.054673   -0.469624   -0.009869    0.039281   -0.001791
C    -0.855479   -1.492467   -0.260560   -0.014391    0.003146   -0.042783
C     0.283571   -0.653155    0.196145    0.006357   -0.030888   -0.042367
O     0.232912    0.708768    0.185482    0.006408   -0.032649    0.088976
H     3.066012   -0.694344    0.617152   -0.485357    0.435076    0.911139
H     2.633638    0.995284    0.958991    0.341844    0.744528   -0.866036
H     3.451523    0.581491   -0.567595    0.176862   -1.097738   -0.150582
H    -2.376876   -0.272893    0.671354    0.024777   -0.006004    0.033544
H    -2.916901   -1.905485    0.267722   -0.003304    0.010636    0.001193
H    -1.853965   -1.640291    1.654339    0.031927   -0.038037   -0.017423
H     1.305512    0.165016   -1.549796   -0.032219    0.176692    0.015253
H    -1.103596   -1.203108   -1.290369   -0.039382    0.034980   -0.027922
H    -0.538184   -2.535225   -0.288633   -0.028132    0.000798   -0.084040
15
* Frequency(6) -202.5984
C     2.712487    0.242523    0.165137   -0.001350    0.018266   -0.012310
C    -2.075405   -1.320537    0.636804    0.011807   -0.008214   -0.003753
C     1.356293    0.059137   -0.469827   -0.009869    0.039281   -0.001791
C    -0.857115   -1.492109   -0.265422   -0.014391    0.003146   -0.042783
C     0.284293   -0.656666    0.191331    0.006357   -0.030888   -0.042367
O     0.233641    0.705057    0.195594    0.006408   -0.032649    0.088976
H     3.010854   -0.644900    0.720698   -0.485357    0.435076    0.911139
H     2.672486    1.079896    0.860571    0.341844    0.744528   -0.866036
H     3.471622    0.456739   -0.584708    0.176862   -1.097738   -0.150582
H    -2.374060   -0.273575    0.675167    0.024777   -0.006004    0.033544
H    -2.917276   -1.904276    0.267858   -0.003304    0.010636    0.001193
H    -1.850337   -1.644614    1.652358    0.031927   -0.038037   -0.017423
H     1.301850    0.185096   -1.548063   -0.032219    0.176692    0.015253
H    -1.108071   -1.199133   -1.293542   -0.039382    0.034980   -0.027922
H    -0.541381   -2.535135   -0.298184   -0.028132    0.000798   -0.084040
