15
Coordinates from ORCA-job freq E -271.049604731807
  C           2.71248715698216      0.24252341867206      0.16513705793540
  C          -2.07540529223747     -1.32053658518097      0.63680389857054
  C           1.35629299815165      0.05913673405938     -0.46982730612890
  C          -0.85711479513563     -1.49210911177704     -0.26542210231055
  C           0.28429328367371     -0.65666556156265      0.19133063470052
  O           0.23364054132643      0.70505725855261      0.19559362927931
  H           3.01085397940255     -0.64489969041199      0.72069848322421
  H           2.67248634872226      1.07989625754307      0.86057066738277
  H           3.47162214314610      0.45673871767559     -0.58470796470048
  H          -2.37406024514459     -0.27357545525175      0.67516657522942
  H          -2.91727632984237     -1.90427595778763      0.26785773056927
  H          -1.85033686415966     -1.64461355731051      1.65235844308126
  H           1.30185023963338      0.18509618204604     -1.54806273699600
  H          -1.10807139597929     -1.19913312879214     -1.29354194622495
  H          -0.54138076853924     -2.53513452047397     -0.29818406361182
