15
Coordinates from ORCA-job freq E -271.054759823995
  C          -2.13619762507752     -0.12488012910682      0.34567061433571
  C          -0.64291451044823     -0.44738014253385      0.15769665023745
  O          -0.25899707841260     -1.02489999157373      1.34527808924965
  C           0.15988298483382      0.81388643118836     -0.14228821166899
  C           1.62473458651832      0.56594170169695     -0.35430139188265
  C           2.25406323242646     -0.58234963896104     -0.15553021875472
  H          -2.51939230994322      0.29926017436654     -0.58133691307757
  H          -2.26220539830401      0.59571837552768      1.15191901544836
  H          -2.69443923987584     -1.02763507363987      0.58219310409557
  H          -0.54605091184592     -1.16256042578059     -0.67079167436111
  H           0.02511683588423      1.51518136688359      0.68726584843367
  H          -0.25918869233161      1.29607122526141     -1.03051503235663
  H           2.19689732831942      1.42379475386274     -0.69400714737703
  H           1.74007662509147     -1.47045513107645      0.19336861841760
  H           3.31861317316523     -0.66969249611492     -0.32480935073929
