17
* (null), Energy   -1000.0000000
C    -2.344203    0.247425    1.455739   -0.001898    0.001230   -0.001604
C     0.132815   -0.100528    1.017224    0.013431    0.000627    0.009234
C     2.606208   -0.195586   -0.037156   -0.012677   -0.014698    0.003794
C     1.152811   -0.172355   -0.076965   -0.064396    0.062125   -0.082438
C    -1.285470   -0.073149    0.426117   -0.003395   -0.010968    0.005924
O    -0.562237    0.586380   -1.631984   -0.089948    0.024252    0.011212
O     1.810637   -1.343508   -0.378026    0.017625   -0.011233    0.001313
O    -1.318786    0.969996   -0.538972    0.031605   -0.009617   -0.038436
H     0.486569    0.356176   -1.114334    1.549260   -0.532234    1.133504
H    -3.330457    0.260842    0.996376   -0.007272   -0.000978    0.007409
H    -2.334828   -0.502167    2.246130    0.004814   -0.000531   -0.005661
H    -2.151863    1.224018    1.900143    0.001290   -0.002107    0.002599
H     0.250937   -0.963105    1.677332   -0.031413    0.011656    0.011179
H     0.276460    0.815011    1.592747   -0.018476   -0.006259    0.030010
H     3.118788   -0.275388    0.914934   -0.028868    0.016817    0.009313
H     3.172679    0.228235   -0.855886   -0.009217   -0.002920    0.007768
H    -1.494947   -1.016770   -0.084615    0.007551    0.006002   -0.009283
17
* Frequency(6) -1954.8892
C    -2.344418    0.247565    1.455557   -0.001898    0.001230   -0.001604
C     0.134342   -0.100457    1.018274    0.013431    0.000627    0.009234
C     2.604767   -0.197256   -0.036725   -0.012677   -0.014698    0.003794
C     1.145492   -0.165295   -0.086333   -0.064396    0.062125   -0.082438
C    -1.285856   -0.074396    0.426790   -0.003395   -0.010968    0.005924
O    -0.572459    0.589136   -1.630710   -0.089948    0.024252    0.011212
O     1.812640   -1.344784   -0.377876    0.017625   -0.011233    0.001313
O    -1.315194    0.968903   -0.543340    0.031605   -0.009617   -0.038436
H     0.662634    0.295690   -0.985517    1.549260   -0.532234    1.133504
H    -3.331283    0.260731    0.997218   -0.007272   -0.000978    0.007409
H    -2.334281   -0.502227    2.245487    0.004814   -0.000531   -0.005661
H    -2.151717    1.223778    1.900438    0.001290   -0.002107    0.002599
H     0.247368   -0.961780    1.678602   -0.031413    0.011656    0.011179
H     0.274360    0.814300    1.596157   -0.018476   -0.006259    0.030010
H     3.115507   -0.273477    0.915992   -0.028868    0.016817    0.009313
H     3.171632    0.227903   -0.855003   -0.009217   -0.002920    0.007768
H    -1.494089   -1.016088   -0.085670    0.007551    0.006002   -0.009283
17
* Frequency(6) -1954.8892
C    -2.344611    0.247690    1.455394   -0.001898    0.001230   -0.001604
C     0.135703   -0.100393    1.019209    0.013431    0.000627    0.009234
C     2.603483   -0.198746   -0.036340   -0.012677   -0.014698    0.003794
C     1.138967   -0.158999   -0.094687   -0.064396    0.062125   -0.082438
C    -1.286200   -0.075507    0.427390   -0.003395   -0.010968    0.005924
O    -0.581574    0.591593   -1.629574   -0.089948    0.024252    0.011212
O     1.814426   -1.345923   -0.377743    0.017625   -0.011233    0.001313
O    -1.311991    0.967929   -0.547235    0.031605   -0.009617   -0.038436
H     0.819620    0.241759   -0.870660    1.549260   -0.532234    1.133504
H    -3.332020    0.260632    0.997969   -0.007272   -0.000978    0.007409
H    -2.333793   -0.502281    2.244913    0.004814   -0.000531   -0.005661
H    -2.151586    1.223565    1.900702    0.001290   -0.002107    0.002599
H     0.244185   -0.960599    1.679735   -0.031413    0.011656    0.011179
H     0.272488    0.813665    1.599198   -0.018476   -0.006259    0.030010
H     3.112582   -0.271773    0.916936   -0.028868    0.016817    0.009313
H     3.170698    0.227607   -0.854216   -0.009217   -0.002920    0.007768
H    -1.493324   -1.015480   -0.086610    0.007551    0.006002   -0.009283
17
* Frequency(6) -1954.8892
C    -2.344759    0.247786    1.455269   -0.001898    0.001230   -0.001604
C     0.136751   -0.100344    1.019930    0.013431    0.000627    0.009234
C     2.602494   -0.199893   -0.036044   -0.012677   -0.014698    0.003794
C     1.133942   -0.154152   -0.101120   -0.064396    0.062125   -0.082438
C    -1.286465   -0.076363    0.427853   -0.003395   -0.010968    0.005924
O    -0.588593    0.593486   -1.628699   -0.089948    0.024252    0.011212
O     1.815801   -1.346799   -0.377641    0.017625   -0.011233    0.001313
O    -1.309525    0.967179   -0.550234    0.031605   -0.009617   -0.038436
H     0.940515    0.200227   -0.782208    1.549260   -0.532234    1.133504
H    -3.332588    0.260555    0.998547   -0.007272   -0.000978    0.007409
H    -2.333418   -0.502322    2.244471    0.004814   -0.000531   -0.005661
H    -2.151485    1.223400    1.900905    0.001290   -0.002107    0.002599
H     0.241733   -0.959690    1.680607   -0.031413    0.011656    0.011179
H     0.271046    0.813177    1.601540   -0.018476   -0.006259    0.030010
H     3.110329   -0.270460    0.917663   -0.028868    0.016817    0.009313
H     3.169978    0.227379   -0.853610   -0.009217   -0.002920    0.007768
H    -1.492734   -1.015012   -0.087335    0.007551    0.006002   -0.009283
17
* Frequency(6) -1954.8892
C    -2.344847    0.247843    1.455195   -0.001898    0.001230   -0.001604
C     0.137372   -0.100315    1.020357    0.013431    0.000627    0.009234
C     2.601907   -0.200573   -0.035868   -0.012677   -0.014698    0.003794
C     1.130962   -0.151276   -0.104935   -0.064396    0.062125   -0.082438
C    -1.286622   -0.076870    0.428127   -0.003395   -0.010968    0.005924
O    -0.592756    0.594608   -1.628180   -0.089948    0.024252    0.011212
O     1.816617   -1.347319   -0.377580    0.017625   -0.011233    0.001313
O    -1.308062    0.966733   -0.552013    0.031605   -0.009617   -0.038436
H     1.012217    0.175594   -0.729747    1.549260   -0.532234    1.133504
H    -3.332924    0.260510    0.998890   -0.007272   -0.000978    0.007409
H    -2.333195   -0.502347    2.244209    0.004814   -0.000531   -0.005661
H    -2.151426    1.223303    1.901025    0.001290   -0.002107    0.002599
H     0.240279   -0.959150    1.681125   -0.031413    0.011656    0.011179
H     0.270191    0.812887    1.602929   -0.018476   -0.006259    0.030010
H     3.108993   -0.269682    0.918094   -0.028868    0.016817    0.009313
H     3.169552    0.227244   -0.853250   -0.009217   -0.002920    0.007768
H    -1.492385   -1.014734   -0.087764    0.007551    0.006002   -0.009283
17
* Frequency(6) -1954.8892
C    -2.344865    0.247854    1.455180   -0.001898    0.001230   -0.001604
C     0.137500   -0.100309    1.020445    0.013431    0.000627    0.009234
C     2.601786   -0.200713   -0.035832   -0.012677   -0.014698    0.003794
C     1.130349   -0.150685   -0.105719   -0.064396    0.062125   -0.082438
C    -1.286654   -0.076975    0.428183   -0.003395   -0.010968    0.005924
O    -0.593612    0.594839   -1.628073   -0.089948    0.024252    0.011212
O     1.816785   -1.347426   -0.377568    0.017625   -0.011233    0.001313
O    -1.307762    0.966642   -0.552379    0.031605   -0.009617   -0.038436
H     1.026958    0.170530   -0.718963    1.549260   -0.532234    1.133504
H    -3.332993    0.260501    0.998961   -0.007272   -0.000978    0.007409
H    -2.333149   -0.502352    2.244155    0.004814   -0.000531   -0.005661
H    -2.151413    1.223283    1.901050    0.001290   -0.002107    0.002599
H     0.239981   -0.959039    1.681231   -0.031413    0.011656    0.011179
H     0.270015    0.812828    1.603215   -0.018476   -0.006259    0.030010
H     3.108719   -0.269522    0.918182   -0.028868    0.016817    0.009313
H     3.169464    0.227216   -0.853176   -0.009217   -0.002920    0.007768
H    -1.492313   -1.014677   -0.087853    0.007551    0.006002   -0.009283
17
* Frequency(6) -1954.8892
C    -2.344811    0.247820    1.455225   -0.001898    0.001230   -0.001604
C     0.137120   -0.100327    1.020184    0.013431    0.000627    0.009234
C     2.602145   -0.200297   -0.035940   -0.012677   -0.014698    0.003794
C     1.132170   -0.152442   -0.103388   -0.064396    0.062125   -0.082438
C    -1.286558   -0.076665    0.428016   -0.003395   -0.010968    0.005924
O    -0.591068    0.594153   -1.628391   -0.089948    0.024252    0.011212
O     1.816286   -1.347108   -0.377605    0.017625   -0.011233    0.001313
O    -1.308655    0.966914   -0.551291    0.031605   -0.009617   -0.038436
H     0.983138    0.185584   -0.751022    1.549260   -0.532234    1.133504
H    -3.332788    0.260528    0.998751   -0.007272   -0.000978    0.007409
H    -2.333285   -0.502337    2.244316    0.004814   -0.000531   -0.005661
H    -2.151450    1.223342    1.900976    0.001290   -0.002107    0.002599
H     0.240869   -0.959369    1.680915   -0.031413    0.011656    0.011179
H     0.270538    0.813005    1.602366   -0.018476   -0.006259    0.030010
H     3.109535   -0.269998    0.917919   -0.028868    0.016817    0.009313
H     3.169725    0.227299   -0.853396   -0.009217   -0.002920    0.007768
H    -1.492527   -1.014847   -0.087590    0.007551    0.006002   -0.009283
17
* Frequency(6) -1954.8892
C    -2.344692    0.247742    1.455326   -0.001898    0.001230   -0.001604
C     0.136274   -0.100366    1.019602    0.013431    0.000627    0.009234
C     2.602944   -0.199371   -0.036179   -0.012677   -0.014698    0.003794
C     1.136228   -0.156357   -0.098193   -0.064396    0.062125   -0.082438
C    -1.286344   -0.075973    0.427642   -0.003395   -0.010968    0.005924
O    -0.585399    0.592625   -1.629097   -0.089948    0.024252    0.011212
O     1.815176   -1.346400   -0.377688    0.017625   -0.011233    0.001313
O    -1.310647    0.967520   -0.548869    0.031605   -0.009617   -0.038436
H     0.885508    0.219124   -0.822453    1.549260   -0.532234    1.133504
H    -3.332329    0.260590    0.998284   -0.007272   -0.000978    0.007409
H    -2.333589   -0.502303    2.244672    0.004814   -0.000531   -0.005661
H    -2.151531    1.223475    1.900812    0.001290   -0.002107    0.002599
H     0.242849   -0.960104    1.680210   -0.031413    0.011656    0.011179
H     0.271702    0.813399    1.600475   -0.018476   -0.006259    0.030010
H     3.111354   -0.271057    0.917332   -0.028868    0.016817    0.009313
H     3.170306    0.227483   -0.853885   -0.009217   -0.002920    0.007768
H    -1.493003   -1.015225   -0.087005    0.007551    0.006002   -0.009283
17
* Frequency(6) -1954.8892
C    -2.344519    0.247630    1.455472   -0.001898    0.001230   -0.001604
C     0.135053   -0.100423    1.018762    0.013431    0.000627    0.009234
C     2.604096   -0.198034   -0.036524   -0.012677   -0.014698    0.003794
C     1.142083   -0.162006   -0.090697   -0.064396    0.062125   -0.082438
C    -1.286035   -0.074976    0.427104   -0.003395   -0.010968    0.005924
O    -0.577221    0.590420   -1.630117   -0.089948    0.024252    0.011212
O     1.813573   -1.345379   -0.377807    0.017625   -0.011233    0.001313
O    -1.313521    0.968394   -0.545375    0.031605   -0.009617   -0.038436
H     0.744647    0.267515   -0.925513    1.549260   -0.532234    1.133504
H    -3.331668    0.260679    0.997610   -0.007272   -0.000978    0.007409
H    -2.334026   -0.502255    2.245187    0.004814   -0.000531   -0.005661
H    -2.151648    1.223667    1.900576    0.001290   -0.002107    0.002599
H     0.245705   -0.961163    1.679194   -0.031413    0.011656    0.011179
H     0.273382    0.813968    1.597746   -0.018476   -0.006259    0.030010
H     3.113979   -0.272586    0.916485   -0.028868    0.016817    0.009313
H     3.171144    0.227748   -0.854592   -0.009217   -0.002920    0.007768
H    -1.493689   -1.015770   -0.086161    0.007551    0.006002   -0.009283
17
* Frequency(6) -1954.8892
C    -2.344312    0.247496    1.455647   -0.001898    0.001230   -0.001604
C     0.133589   -0.100492    1.017756    0.013431    0.000627    0.009234
C     2.605478   -0.196433   -0.036937   -0.012677   -0.014698    0.003794
C     1.149101   -0.168776   -0.081714   -0.064396    0.062125   -0.082438
C    -1.285665   -0.073781    0.426458   -0.003395   -0.010968    0.005924
O    -0.567419    0.587777   -1.631338   -0.089948    0.024252    0.011212
O     1.811652   -1.344155   -0.377950    0.017625   -0.011233    0.001313
O    -1.316965    0.969442   -0.541186    0.031605   -0.009617   -0.038436
H     0.575818    0.325515   -1.049035    1.549260   -0.532234    1.133504
H    -3.330876    0.260785    0.996803   -0.007272   -0.000978    0.007409
H    -2.334551   -0.502197    2.245804    0.004814   -0.000531   -0.005661
H    -2.151789    1.223896    1.900293    0.001290   -0.002107    0.002599
H     0.249128   -0.962433    1.677976   -0.031413    0.011656    0.011179
H     0.275395    0.814650    1.594476   -0.018476   -0.006259    0.030010
H     3.117125   -0.274419    0.915470   -0.028868    0.016817    0.009313
H     3.172148    0.228067   -0.855438   -0.009217   -0.002920    0.007768
H    -1.494512   -1.016425   -0.085149    0.007551    0.006002   -0.009283
17
* Frequency(6) -1954.8892
C    -2.344093    0.247355    1.455832   -0.001898    0.001230   -0.001604
C     0.132042   -0.100564    1.016692    0.013431    0.000627    0.009234
C     2.606938   -0.194739   -0.037374   -0.012677   -0.014698    0.003794
C     1.156520   -0.175934   -0.072215   -0.064396    0.062125   -0.082438
C    -1.285274   -0.072517    0.425775   -0.003395   -0.010968    0.005924
O    -0.557056    0.584983   -1.632630   -0.089948    0.024252    0.011212
O     1.809622   -1.342861   -0.378101    0.017625   -0.011233    0.001313
O    -1.320606    0.970550   -0.536758    0.031605   -0.009617   -0.038436
H     0.397319    0.386837   -1.179633    1.549260   -0.532234    1.133504
H    -3.330038    0.260898    0.995950   -0.007272   -0.000978    0.007409
H    -2.335106   -0.502136    2.246456    0.004814   -0.000531   -0.005661
H    -2.151938    1.224139    1.899993    0.001290   -0.002107    0.002599
H     0.252747   -0.963776    1.676688   -0.031413    0.011656    0.011179
H     0.277524    0.815371    1.591018   -0.018476   -0.006259    0.030010
H     3.120451   -0.276357    0.914397   -0.028868    0.016817    0.009313
H     3.173210    0.228403   -0.856333   -0.009217   -0.002920    0.007768
H    -1.495382   -1.017116   -0.084080    0.007551    0.006002   -0.009283
17
* Frequency(6) -1954.8892
C    -2.343886    0.247220    1.456006   -0.001898    0.001230   -0.001604
C     0.130578   -0.100632    1.015686    0.013431    0.000627    0.009234
C     2.608320   -0.193138   -0.037788   -0.012677   -0.014698    0.003794
C     1.163538   -0.182704   -0.063232   -0.064396    0.062125   -0.082438
C    -1.284904   -0.071322    0.425130   -0.003395   -0.010968    0.005924
O    -0.547254    0.582340   -1.633852   -0.089948    0.024252    0.011212
O     1.807701   -1.341637   -0.378244    0.017625   -0.011233    0.001313
O    -1.324050    0.971598   -0.532569    0.031605   -0.009617   -0.038436
H     0.228490    0.444836   -1.303155    1.549260   -0.532234    1.133504
H    -3.329246    0.261005    0.995142   -0.007272   -0.000978    0.007409
H    -2.335630   -0.502078    2.247073    0.004814   -0.000531   -0.005661
H    -2.152078    1.224369    1.899710    0.001290   -0.002107    0.002599
H     0.256170   -0.965046    1.675469   -0.031413    0.011656    0.011179
H     0.279537    0.816053    1.587748   -0.018476   -0.006259    0.030010
H     3.123597   -0.278189    0.913382   -0.028868    0.016817    0.009313
H     3.174214    0.228721   -0.857180   -0.009217   -0.002920    0.007768
H    -1.496205   -1.017770   -0.083068    0.007551    0.006002   -0.009283
17
* Frequency(6) -1954.8892
C    -2.343714    0.247109    1.456152   -0.001898    0.001230   -0.001604
C     0.129357   -0.100689    1.014846    0.013431    0.000627    0.009234
C     2.609472   -0.191801   -0.038133   -0.012677   -0.014698    0.003794
C     1.169393   -0.188352   -0.055736   -0.064396    0.062125   -0.082438
C    -1.284596   -0.070325    0.424591   -0.003395   -0.010968    0.005924
O    -0.539075    0.580135   -1.634871   -0.089948    0.024252    0.011212
O     1.806098   -1.340615   -0.378364    0.017625   -0.011233    0.001313
O    -1.326924    0.972473   -0.529075    0.031605   -0.009617   -0.038436
H     0.087629    0.493228   -1.406215    1.549260   -0.532234    1.133504
H    -3.328584    0.261094    0.994469   -0.007272   -0.000978    0.007409
H    -2.336068   -0.502030    2.247588    0.004814   -0.000531   -0.005661
H    -2.152196    1.224560    1.899474    0.001290   -0.002107    0.002599
H     0.259026   -0.966106    1.674453   -0.031413    0.011656    0.011179
H     0.281217    0.816622    1.585019   -0.018476   -0.006259    0.030010
H     3.126222   -0.279718    0.912536   -0.028868    0.016817    0.009313
H     3.175052    0.228987   -0.857886   -0.009217   -0.002920    0.007768
H    -1.496892   -1.018316   -0.082224    0.007551    0.006002   -0.009283
17
* Frequency(6) -1954.8892
C    -2.343594    0.247031    1.456253   -0.001898    0.001230   -0.001604
C     0.128510   -0.100729    1.014264    0.013431    0.000627    0.009234
C     2.610271   -0.190875   -0.038372   -0.012677   -0.014698    0.003794
C     1.173451   -0.192267   -0.050541   -0.064396    0.062125   -0.082438
C    -1.284382   -0.069634    0.424218   -0.003395   -0.010968    0.005924
O    -0.533407    0.578607   -1.635578   -0.089948    0.024252    0.011212
O     1.804988   -1.339907   -0.378446    0.017625   -0.011233    0.001313
O    -1.328916    0.973079   -0.526652    0.031605   -0.009617   -0.038436
H    -0.010001    0.526768   -1.477645    1.549260   -0.532234    1.133504
H    -3.328126    0.261155    0.994002   -0.007272   -0.000978    0.007409
H    -2.336371   -0.501997    2.247945    0.004814   -0.000531   -0.005661
H    -2.152277    1.224693    1.899310    0.001290   -0.002107    0.002599
H     0.261006   -0.966841    1.673748   -0.031413    0.011656    0.011179
H     0.282381    0.817017    1.583128   -0.018476   -0.006259    0.030010
H     3.128041   -0.280778    0.911949   -0.028868    0.016817    0.009313
H     3.175633    0.229171   -0.858375   -0.009217   -0.002920    0.007768
H    -1.497368   -1.018694   -0.081639    0.007551    0.006002   -0.009283
17
* Frequency(6) -1954.8892
C    -2.343541    0.246996    1.456299   -0.001898    0.001230   -0.001604
C     0.128131   -0.100747    1.014003    0.013431    0.000627    0.009234
C     2.610630   -0.190459   -0.038479   -0.012677   -0.014698    0.003794
C     1.175272   -0.194024   -0.048210   -0.064396    0.062125   -0.082438
C    -1.284286   -0.069324    0.424050   -0.003395   -0.010968    0.005924
O    -0.530863    0.577921   -1.635895   -0.089948    0.024252    0.011212
O     1.804489   -1.339590   -0.378484    0.017625   -0.011233    0.001313
O    -1.329810    0.973351   -0.525565    0.031605   -0.009617   -0.038436
H    -0.053821    0.541822   -1.509705    1.549260   -0.532234    1.133504
H    -3.327921    0.261183    0.993792   -0.007272   -0.000978    0.007409
H    -2.336507   -0.501982    2.248105    0.004814   -0.000531   -0.005661
H    -2.152313    1.224753    1.899236    0.001290   -0.002107    0.002599
H     0.261894   -0.967170    1.673432   -0.031413    0.011656    0.011179
H     0.282904    0.817194    1.582279   -0.018476   -0.006259    0.030010
H     3.128857   -0.281254    0.911685   -0.028868    0.016817    0.009313
H     3.175894    0.229254   -0.858595   -0.009217   -0.002920    0.007768
H    -1.497581   -1.018864   -0.081377    0.007551    0.006002   -0.009283
17
* Frequency(6) -1954.8892
C    -2.343559    0.247008    1.456283   -0.001898    0.001230   -0.001604
C     0.128258   -0.100741    1.014091    0.013431    0.000627    0.009234
C     2.610509   -0.190599   -0.038443   -0.012677   -0.014698    0.003794
C     1.174659   -0.193433   -0.048994   -0.064396    0.062125   -0.082438
C    -1.284318   -0.069428    0.424107   -0.003395   -0.010968    0.005924
O    -0.531719    0.578151   -1.635788   -0.089948    0.024252    0.011212
O     1.804657   -1.339697   -0.378471    0.017625   -0.011233    0.001313
O    -1.329509    0.973259   -0.525931    0.031605   -0.009617   -0.038436
H    -0.039080    0.536758   -1.498921    1.549260   -0.532234    1.133504
H    -3.327990    0.261174    0.993863   -0.007272   -0.000978    0.007409
H    -2.336462   -0.501987    2.248051    0.004814   -0.000531   -0.005661
H    -2.152301    1.224732    1.899261    0.001290   -0.002107    0.002599
H     0.261595   -0.967060    1.673538   -0.031413    0.011656    0.011179
H     0.282728    0.817134    1.582565   -0.018476   -0.006259    0.030010
H     3.128583   -0.281094    0.911774   -0.028868    0.016817    0.009313
H     3.175806    0.229226   -0.858521   -0.009217   -0.002920    0.007768
H    -1.497509   -1.018807   -0.081465    0.007551    0.006002   -0.009283
17
* Frequency(6) -1954.8892
C    -2.343646    0.247065    1.456209   -0.001898    0.001230   -0.001604
C     0.128880   -0.100712    1.014518    0.013431    0.000627    0.009234
C     2.609922   -0.191279   -0.038268   -0.012677   -0.014698    0.003794
C     1.171679   -0.190558   -0.052809   -0.064396    0.062125   -0.082438
C    -1.284475   -0.069936    0.424381   -0.003395   -0.010968    0.005924
O    -0.535882    0.579274   -1.635269   -0.089948    0.024252    0.011212
O     1.805473   -1.340216   -0.378410    0.017625   -0.011233    0.001313
O    -1.328046    0.972814   -0.527710    0.031605   -0.009617   -0.038436
H     0.032622    0.512125   -1.446460    1.549260   -0.532234    1.133504
H    -3.328326    0.261128    0.994205   -0.007272   -0.000978    0.007409
H    -2.336239   -0.502011    2.247789    0.004814   -0.000531   -0.005661
H    -2.152241    1.224635    1.899381    0.001290   -0.002107    0.002599
H     0.260142   -0.966520    1.674056   -0.031413    0.011656    0.011179
H     0.281873    0.816845    1.583954   -0.018476   -0.006259    0.030010
H     3.127247   -0.280315    0.912205   -0.028868    0.016817    0.009313
H     3.175380    0.229091   -0.858162   -0.009217   -0.002920    0.007768
H    -1.497160   -1.018529   -0.081895    0.007551    0.006002   -0.009283
17
* Frequency(6) -1954.8892
C    -2.343795    0.247161    1.456084   -0.001898    0.001230   -0.001604
C     0.129928   -0.100663    1.015239    0.013431    0.000627    0.009234
C     2.608933   -0.192426   -0.037972   -0.012677   -0.014698    0.003794
C     1.166654   -0.185710   -0.059242   -0.064396    0.062125   -0.082438
C    -1.284740   -0.070792    0.424843   -0.003395   -0.010968    0.005924
O    -0.542901    0.581166   -1.634395   -0.089948    0.024252    0.011212
O     1.806848   -1.341093   -0.378308    0.017625   -0.011233    0.001313
O    -1.325580    0.972064   -0.530709    0.031605   -0.009617   -0.038436
H     0.153517    0.470593   -1.358008    1.549260   -0.532234    1.133504
H    -3.328894    0.261052    0.994784   -0.007272   -0.000978    0.007409
H    -2.335863   -0.502053    2.247347    0.004814   -0.000531   -0.005661
H    -2.152141    1.224471    1.899584    0.001290   -0.002107    0.002599
H     0.257690   -0.965611    1.674928   -0.031413    0.011656    0.011179
H     0.280431    0.816356    1.586295   -0.018476   -0.006259    0.030010
H     3.124994   -0.279003    0.912932   -0.028868    0.016817    0.009313
H     3.174660    0.228863   -0.857556   -0.009217   -0.002920    0.007768
H    -1.496571   -1.018061   -0.082619    0.007551    0.006002   -0.009283
17
* Frequency(6) -1954.8892
C    -2.343987    0.247286    1.455921   -0.001898    0.001230   -0.001604
C     0.131289   -0.100599    1.016175    0.013431    0.000627    0.009234
C     2.607648   -0.193916   -0.037587   -0.012677   -0.014698    0.003794
C     1.160129   -0.179415   -0.067596   -0.064396    0.062125   -0.082438
C    -1.285084   -0.071903    0.425443   -0.003395   -0.010968    0.005924
O    -0.552015    0.583624   -1.633258   -0.089948    0.024252    0.011212
O     1.808634   -1.342231   -0.378175    0.017625   -0.011233    0.001313
O    -1.322377    0.971089   -0.534604    0.031605   -0.009617   -0.038436
H     0.310503    0.416662   -1.243151    1.549260   -0.532234    1.133504
H    -3.329630    0.260953    0.995534   -0.007272   -0.000978    0.007409
H    -2.335375   -0.502106    2.246773    0.004814   -0.000531   -0.005661
H    -2.152010    1.224257    1.899848    0.001290   -0.002107    0.002599
H     0.254507   -0.964429    1.676061   -0.031413    0.011656    0.011179
H     0.278559    0.815722    1.589336   -0.018476   -0.006259    0.030010
H     3.122069   -0.277299    0.913875   -0.028868    0.016817    0.009313
H     3.173727    0.228567   -0.856768   -0.009217   -0.002920    0.007768
H    -1.495805   -1.017452   -0.083560    0.007551    0.006002   -0.009283
17
* Frequency(6) -1954.8892
C    -2.344203    0.247425    1.455739   -0.001898    0.001230   -0.001604
C     0.132815   -0.100528    1.017224    0.013431    0.000627    0.009234
C     2.606208   -0.195586   -0.037156   -0.012677   -0.014698    0.003794
C     1.152811   -0.172355   -0.076965   -0.064396    0.062125   -0.082438
C    -1.285470   -0.073149    0.426117   -0.003395   -0.010968    0.005924
O    -0.562237    0.586380   -1.631984   -0.089948    0.024252    0.011212
O     1.810637   -1.343508   -0.378026    0.017625   -0.011233    0.001313
O    -1.318786    0.969996   -0.538972    0.031605   -0.009617   -0.038436
H     0.486569    0.356176   -1.114334    1.549260   -0.532234    1.133504
H    -3.330457    0.260842    0.996376   -0.007272   -0.000978    0.007409
H    -2.334828   -0.502167    2.246130    0.004814   -0.000531   -0.005661
H    -2.151863    1.224018    1.900143    0.001290   -0.002107    0.002599
H     0.250937   -0.963105    1.677332   -0.031413    0.011656    0.011179
H     0.276460    0.815011    1.592747   -0.018476   -0.006259    0.030010
H     3.118788   -0.275388    0.914934   -0.028868    0.016817    0.009313
H     3.172679    0.228235   -0.855886   -0.009217   -0.002920    0.007768
H    -1.494947   -1.016770   -0.084615    0.007551    0.006002   -0.009283
