15
* (null), Energy   -1000.0000000
C     3.291453    0.195876    0.584154    0.066811   -0.129589   -0.127554
C    -2.363975    0.965030    1.584776   -0.340920   -0.158968   -0.216461
C     2.046684    0.378023    0.177290    0.050018    0.001349   -0.019056
C    -0.267245    0.212897    0.428353    0.060583    0.395289    0.269131
C    -1.399751   -0.188462    1.301776    0.103550    0.125718    0.197081
O     0.983161   -0.031653    0.915614    0.077030   -0.190566   -0.085861
H     3.507716   -0.289113    1.524776    0.104136   -0.369678   -0.258819
H     4.107887    0.535815   -0.032360    0.043863   -0.001497   -0.088576
H    -2.765553    1.368949    0.654624   -0.284826   -0.464417   -0.373476
H    -3.204155    0.632506    2.193862   -0.355535   -0.331444   -0.333699
H    -1.856178    1.773675    2.110002   -0.721525    0.107400   -0.259740
H     1.794971    0.855659   -0.763593    0.007166    0.251148    0.119456
H    -0.351526    0.999924   -0.311894    0.118984    0.746137    0.640462
H    -0.985054   -0.575829    2.233805    0.114508    0.501279    0.353356
H    -1.958672   -1.014254    0.848015    0.465033   -0.200131    0.334830
15
* Frequency(6)  -69.3003
C     3.299046    0.181149    0.569659    0.066811   -0.129589   -0.127554
C    -2.402719    0.946964    1.560177   -0.340920   -0.158968   -0.216461
C     2.052368    0.378176    0.175124    0.050018    0.001349   -0.019056
C    -0.260360    0.257819    0.458939    0.060583    0.395289    0.269131
C    -1.387983   -0.174175    1.324174    0.103550    0.125718    0.197081
O     0.991915   -0.053310    0.905857    0.077030   -0.190566   -0.085861
H     3.519551   -0.331125    1.495362    0.104136   -0.369678   -0.258819
H     4.112871    0.535645   -0.042426    0.043863   -0.001497   -0.088576
H    -2.797922    1.316170    0.612180   -0.284826   -0.464417   -0.373476
H    -3.244560    0.594839    2.155939   -0.355535   -0.331444   -0.333699
H    -1.938175    1.785881    2.080484   -0.721525    0.107400   -0.259740
H     1.795785    0.884200   -0.750018    0.007166    0.251148    0.119456
H    -0.338005    1.084718   -0.239109    0.118984    0.746137    0.640462
H    -0.972041   -0.518861    2.273962    0.114508    0.501279    0.353356
H    -1.905823   -1.036998    0.886066    0.465033   -0.200131    0.334830
15
* Frequency(6)  -69.3003
C     3.305816    0.168018    0.556734    0.066811   -0.129589   -0.127554
C    -2.437264    0.930856    1.538243   -0.340920   -0.158968   -0.216461
C     2.057437    0.378313    0.173193    0.050018    0.001349   -0.019056
C    -0.254221    0.297874    0.486210    0.060583    0.395289    0.269131
C    -1.377490   -0.161436    1.344144    0.103550    0.125718    0.197081
O     0.999721   -0.072620    0.897156    0.077030   -0.190566   -0.085861
H     3.530103   -0.368585    1.469136    0.104136   -0.369678   -0.258819
H     4.117316    0.535493   -0.051401    0.043863   -0.001497   -0.088576
H    -2.826783    1.269111    0.574336   -0.284826   -0.464417   -0.373476
H    -3.280586    0.561253    2.122126   -0.355535   -0.331444   -0.333699
H    -2.011287    1.796763    2.054164   -0.721525    0.107400   -0.259740
H     1.796511    0.909649   -0.737913    0.007166    0.251148    0.119456
H    -0.325948    1.160324   -0.174211    0.118984    0.746137    0.640462
H    -0.960438   -0.468067    2.309768    0.114508    0.501279    0.353356
H    -1.858702   -1.057277    0.919994    0.465033   -0.200131    0.334830
15
* Frequency(6)  -69.3003
C     3.311029    0.157905    0.546780    0.066811   -0.129589   -0.127554
C    -2.463868    0.918451    1.521352   -0.340920   -0.158968   -0.216461
C     2.061340    0.378418    0.171706    0.050018    0.001349   -0.019056
C    -0.249494    0.328720    0.507211    0.060583    0.395289    0.269131
C    -1.369410   -0.151626    1.359523    0.103550    0.125718    0.197081
O     1.005732   -0.087491    0.890456    0.077030   -0.190566   -0.085861
H     3.538229   -0.397432    1.448939    0.104136   -0.369678   -0.258819
H     4.120739    0.535376   -0.058313    0.043863   -0.001497   -0.088576
H    -2.849010    1.232870    0.545192   -0.284826   -0.464417   -0.373476
H    -3.308330    0.535390    2.096086   -0.355535   -0.331444   -0.333699
H    -2.067590    1.805144    2.033896   -0.721525    0.107400   -0.259740
H     1.797070    0.929247   -0.728592    0.007166    0.251148    0.119456
H    -0.316663    1.218548   -0.124233    0.118984    0.746137    0.640462
H    -0.951502   -0.428950    2.337341    0.114508    0.501279    0.353356
H    -1.822414   -1.072894    0.946122    0.465033   -0.200131    0.334830
15
* Frequency(6)  -69.3003
C     3.314121    0.151908    0.540877    0.066811   -0.129589   -0.127554
C    -2.479646    0.911094    1.511333   -0.340920   -0.158968   -0.216461
C     2.063655    0.378481    0.170824    0.050018    0.001349   -0.019056
C    -0.246690    0.347014    0.519667    0.060583    0.395289    0.269131
C    -1.364617   -0.145807    1.368644    0.103550    0.125718    0.197081
O     1.009297   -0.096311    0.886483    0.077030   -0.190566   -0.085861
H     3.543049   -0.414541    1.436961    0.104136   -0.369678   -0.258819
H     4.122769    0.535307   -0.062413    0.043863   -0.001497   -0.088576
H    -2.862192    1.211376    0.527907   -0.284826   -0.464417   -0.373476
H    -3.324785    0.520050    2.080642   -0.355535   -0.331444   -0.333699
H    -2.100984    1.810115    2.021875   -0.721525    0.107400   -0.259740
H     1.797402    0.940871   -0.723063    0.007166    0.251148    0.119456
H    -0.311156    1.253081   -0.094592    0.118984    0.746137    0.640462
H    -0.946203   -0.405750    2.353695    0.114508    0.501279    0.353356
H    -1.800891   -1.082157    0.961619    0.465033   -0.200131    0.334830
15
* Frequency(6)  -69.3003
C     3.314757    0.150675    0.539663    0.066811   -0.129589   -0.127554
C    -2.482890    0.909581    1.509274   -0.340920   -0.158968   -0.216461
C     2.064131    0.378493    0.170643    0.050018    0.001349   -0.019056
C    -0.246114    0.350775    0.522227    0.060583    0.395289    0.269131
C    -1.363632   -0.144611    1.370519    0.103550    0.125718    0.197081
O     1.010030   -0.098124    0.885666    0.077030   -0.190566   -0.085861
H     3.544039   -0.418059    1.434498    0.104136   -0.369678   -0.258819
H     4.123186    0.535292   -0.063255    0.043863   -0.001497   -0.088576
H    -2.864902    1.206958    0.524354   -0.284826   -0.464417   -0.373476
H    -3.328168    0.516896    2.077467   -0.355535   -0.331444   -0.333699
H    -2.107849    1.811137    2.019403   -0.721525    0.107400   -0.259740
H     1.797470    0.943260   -0.721926    0.007166    0.251148    0.119456
H    -0.310024    1.260180   -0.088498    0.118984    0.746137    0.640462
H    -0.945113   -0.400981    2.357057    0.114508    0.501279    0.353356
H    -1.796466   -1.084061    0.964805    0.465033   -0.200131    0.334830
15
* Frequency(6)  -69.3003
C     3.312867    0.154340    0.543271    0.066811   -0.129589   -0.127554
C    -2.473247    0.914078    1.515396   -0.340920   -0.158968   -0.216461
C     2.062716    0.378455    0.171182    0.050018    0.001349   -0.019056
C    -0.247827    0.339595    0.514615    0.060583    0.395289    0.269131
C    -1.366561   -0.148167    1.364945    0.103550    0.125718    0.197081
O     1.007851   -0.092734    0.888094    0.077030   -0.190566   -0.085861
H     3.541094   -0.407603    1.441819    0.104136   -0.369678   -0.258819
H     4.121946    0.535335   -0.060750    0.043863   -0.001497   -0.088576
H    -2.856846    1.220093    0.534917   -0.284826   -0.464417   -0.373476
H    -3.318112    0.526271    2.086905   -0.355535   -0.331444   -0.333699
H    -2.087441    1.808099    2.026750   -0.721525    0.107400   -0.259740
H     1.797268    0.936157   -0.725305    0.007166    0.251148    0.119456
H    -0.313390    1.239076   -0.106613    0.118984    0.746137    0.640462
H    -0.948352   -0.415159    2.347063    0.114508    0.501279    0.353356
H    -1.809619   -1.078400    0.955334    0.465033   -0.200131    0.334830
15
* Frequency(6)  -69.3003
C     3.308657    0.162506    0.551309    0.066811   -0.129589   -0.127554
C    -2.451763    0.924095    1.529037   -0.340920   -0.158968   -0.216461
C     2.059564    0.378370    0.172383    0.050018    0.001349   -0.019056
C    -0.251645    0.314685    0.497655    0.060583    0.395289    0.269131
C    -1.373086   -0.156089    1.352525    0.103550    0.125718    0.197081
O     1.002997   -0.080725    0.893505    0.077030   -0.190566   -0.085861
H     3.534532   -0.384307    1.458129    0.104136   -0.369678   -0.258819
H     4.119181    0.535429   -0.055168    0.043863   -0.001497   -0.088576
H    -2.838897    1.249359    0.558453   -0.284826   -0.464417   -0.373476
H    -3.295707    0.547158    2.107934   -0.355535   -0.331444   -0.333699
H    -2.041973    1.801331    2.043118   -0.721525    0.107400   -0.259740
H     1.796816    0.920330   -0.732833    0.007166    0.251148    0.119456
H    -0.320888    1.192057   -0.146973    0.118984    0.746137    0.640462
H    -0.955568   -0.446748    2.324795    0.114508    0.501279    0.353356
H    -1.838925   -1.065789    0.934234    0.465033   -0.200131    0.334830
15
* Frequency(6)  -69.3003
C     3.302583    0.174289    0.562906    0.066811   -0.129589   -0.127554
C    -2.420766    0.938549    1.548718   -0.340920   -0.158968   -0.216461
C     2.055016    0.378248    0.174115    0.050018    0.001349   -0.019056
C    -0.257153    0.278744    0.473186    0.060583    0.395289    0.269131
C    -1.382501   -0.167520    1.334606    0.103550    0.125718    0.197081
O     0.995993   -0.063398    0.901312    0.077030   -0.190566   -0.085861
H     3.525064   -0.350695    1.481661    0.104136   -0.369678   -0.258819
H     4.115193    0.535565   -0.047115    0.043863   -0.001497   -0.088576
H    -2.813000    1.291585    0.592410   -0.284826   -0.464417   -0.373476
H    -3.263381    0.577293    2.138274   -0.355535   -0.331444   -0.333699
H    -1.976370    1.791566    2.066734   -0.721525    0.107400   -0.259740
H     1.796165    0.897495   -0.743694    0.007166    0.251148    0.119456
H    -0.331706    1.124216   -0.205205    0.118984    0.746137    0.640462
H    -0.965979   -0.492325    2.292668    0.114508    0.501279    0.353356
H    -1.881206   -1.047592    0.903791    0.465033   -0.200131    0.334830
15
* Frequency(6)  -69.3003
C     3.295302    0.188411    0.576806    0.066811   -0.129589   -0.127554
C    -2.383615    0.955873    1.572306   -0.340920   -0.158968   -0.216461
C     2.049566    0.378101    0.176192    0.050018    0.001349   -0.019056
C    -0.263755    0.235668    0.443857    0.060583    0.395289    0.269131
C    -1.393785   -0.181220    1.313130    0.103550    0.125718    0.197081
O     0.987599   -0.042632    0.910668    0.077030   -0.190566   -0.085861
H     3.513715   -0.310410    1.509866    0.104136   -0.369678   -0.258819
H     4.110413    0.535729   -0.037463    0.043863   -0.001497   -0.088576
H    -2.781961    1.342194    0.633109   -0.284826   -0.464417   -0.373476
H    -3.224637    0.613412    2.174639   -0.355535   -0.331444   -0.333699
H    -1.897743    1.779862    2.095039   -0.721525    0.107400   -0.259740
H     1.795384    0.870127   -0.756712    0.007166    0.251148    0.119456
H    -0.344672    1.042907   -0.274998    0.118984    0.746137    0.640462
H    -0.978458   -0.546951    2.254161    0.114508    0.501279    0.353356
H    -1.931882   -1.025783    0.867303    0.465033   -0.200131    0.334830
15
* Frequency(6)  -69.3003
C     3.287604    0.203342    0.591503    0.066811   -0.129589   -0.127554
C    -2.344336    0.974188    1.597246   -0.340920   -0.158968   -0.216461
C     2.043803    0.377945    0.178388    0.050018    0.001349   -0.019056
C    -0.270735    0.190125    0.412849    0.060583    0.395289    0.269131
C    -1.405716   -0.195705    1.290423    0.103550    0.125718    0.197081
O     0.978724   -0.020675    0.920561    0.077030   -0.190566   -0.085861
H     3.501717   -0.267817    1.539686    0.104136   -0.369678   -0.258819
H     4.105360    0.535901   -0.027257    0.043863   -0.001497   -0.088576
H    -2.749145    1.395703    0.676139   -0.284826   -0.464417   -0.373476
H    -3.183674    0.651599    2.213086   -0.355535   -0.331444   -0.333699
H    -1.814612    1.767488    2.124965   -0.721525    0.107400   -0.259740
H     1.794558    0.841191   -0.770475    0.007166    0.251148    0.119456
H    -0.358381    0.956940   -0.348790    0.118984    0.746137    0.640462
H    -0.991651   -0.604707    2.213449    0.114508    0.501279    0.353356
H    -1.985462   -1.002725    0.828726    0.465033   -0.200131    0.334830
15
* Frequency(6)  -69.3003
C     3.280324    0.217463    0.605403    0.066811   -0.129589   -0.127554
C    -2.307185    0.991512    1.620835   -0.340920   -0.158968   -0.216461
C     2.038352    0.377798    0.180464    0.050018    0.001349   -0.019056
C    -0.277337    0.147049    0.383521    0.060583    0.395289    0.269131
C    -1.417000   -0.209404    1.268946    0.103550    0.125718    0.197081
O     0.970329    0.000091    0.929917    0.077030   -0.190566   -0.085861
H     3.490369   -0.227532    1.567890    0.104136   -0.369678   -0.258819
H     4.100580    0.536064   -0.017605    0.043863   -0.001497   -0.088576
H    -2.718106    1.446312    0.716838   -0.284826   -0.464417   -0.373476
H    -3.144930    0.687718    2.249450   -0.355535   -0.331444   -0.333699
H    -1.735985    1.755784    2.153270   -0.721525    0.107400   -0.259740
H     1.793777    0.813822   -0.783492    0.007166    0.251148    0.119456
H    -0.371347    0.875631   -0.418583    0.118984    0.746137    0.640462
H    -1.004129   -0.659333    2.174943    0.114508    0.501279    0.353356
H    -2.036138   -0.980916    0.792238    0.465033   -0.200131    0.334830
15
* Frequency(6)  -69.3003
C     3.274249    0.229246    0.617000    0.066811   -0.129589   -0.127554
C    -2.276188    1.005965    1.640516   -0.340920   -0.158968   -0.216461
C     2.033804    0.377675    0.182197    0.050018    0.001349   -0.019056
C    -0.282846    0.111108    0.359051    0.060583    0.395289    0.269131
C    -1.426415   -0.220835    1.251027    0.103550    0.125718    0.197081
O     0.963326    0.017418    0.937724    0.077030   -0.190566   -0.085861
H     3.480901   -0.193920    1.591423    0.104136   -0.369678   -0.258819
H     4.096592    0.536200   -0.009551    0.043863   -0.001497   -0.088576
H    -2.692210    1.488538    0.750795   -0.284826   -0.464417   -0.373476
H    -3.112604    0.717854    2.279791   -0.355535   -0.331444   -0.333699
H    -1.670383    1.746019    2.176886   -0.721525    0.107400   -0.259740
H     1.793126    0.790987   -0.794354    0.007166    0.251148    0.119456
H    -0.382165    0.807791   -0.476815    0.118984    0.746137    0.640462
H    -1.014540   -0.704910    2.142815    0.114508    0.501279    0.353356
H    -2.078420   -0.962720    0.761795    0.465033   -0.200131    0.334830
15
* Frequency(6)  -69.3003
C     3.270039    0.237412    0.625038    0.066811   -0.129589   -0.127554
C    -2.254704    1.015983    1.654156   -0.340920   -0.158968   -0.216461
C     2.030652    0.377590    0.183398    0.050018    0.001349   -0.019056
C    -0.286664    0.086198    0.342091    0.060583    0.395289    0.269131
C    -1.432940   -0.228757    1.238608    0.103550    0.125718    0.197081
O     0.958471    0.029427    0.943135    0.077030   -0.190566   -0.085861
H     3.474339   -0.170624    1.607733    0.104136   -0.369678   -0.258819
H     4.093828    0.536295   -0.003970    0.043863   -0.001497   -0.088576
H    -2.674261    1.517804    0.774330   -0.284826   -0.464417   -0.373476
H    -3.090199    0.738740    2.300820   -0.355535   -0.331444   -0.333699
H    -1.624914    1.739251    2.193254   -0.721525    0.107400   -0.259740
H     1.792674    0.775161   -0.801881    0.007166    0.251148    0.119456
H    -0.389663    0.760772   -0.517175    0.118984    0.746137    0.640462
H    -1.021756   -0.736499    2.120547    0.114508    0.501279    0.353356
H    -2.107725   -0.950108    0.740695    0.465033   -0.200131    0.334830
15
* Frequency(6)  -69.3003
C     3.268149    0.241078    0.628646    0.066811   -0.129589   -0.127554
C    -2.245061    1.020479    1.660279   -0.340920   -0.158968   -0.216461
C     2.029237    0.377552    0.183937    0.050018    0.001349   -0.019056
C    -0.288377    0.075018    0.334479    0.060583    0.395289    0.269131
C    -1.435869   -0.232313    1.233033    0.103550    0.125718    0.197081
O     0.956293    0.034817    0.945563    0.077030   -0.190566   -0.085861
H     3.471393   -0.160168    1.615053    0.104136   -0.369678   -0.258819
H     4.092587    0.536337   -0.001464    0.043863   -0.001497   -0.088576
H    -2.666205    1.530939    0.784894   -0.284826   -0.464417   -0.373476
H    -3.080143    0.748115    2.310258   -0.355535   -0.331444   -0.333699
H    -1.604507    1.736213    2.200600   -0.721525    0.107400   -0.259740
H     1.792471    0.768057   -0.805260    0.007166    0.251148    0.119456
H    -0.393029    0.739668   -0.535290    0.118984    0.746137    0.640462
H    -1.024995   -0.750677    2.110553    0.114508    0.501279    0.353356
H    -2.120878   -0.944448    0.731224    0.465033   -0.200131    0.334830
15
* Frequency(6)  -69.3003
C     3.268785    0.239845    0.627432    0.066811   -0.129589   -0.127554
C    -2.248305    1.018967    1.658219   -0.340920   -0.158968   -0.216461
C     2.029713    0.377565    0.183755    0.050018    0.001349   -0.019056
C    -0.287801    0.078779    0.337040    0.060583    0.395289    0.269131
C    -1.434884   -0.231117    1.234909    0.103550    0.125718    0.197081
O     0.957026    0.033004    0.944746    0.077030   -0.190566   -0.085861
H     3.472384   -0.163685    1.612591    0.104136   -0.369678   -0.258819
H     4.093004    0.536323   -0.002307    0.043863   -0.001497   -0.088576
H    -2.668915    1.526521    0.781340   -0.284826   -0.464417   -0.373476
H    -3.083526    0.744961    2.307083   -0.355535   -0.331444   -0.333699
H    -1.611371    1.737235    2.198129   -0.721525    0.107400   -0.259740
H     1.792539    0.770447   -0.804124    0.007166    0.251148    0.119456
H    -0.391897    0.746767   -0.529196    0.118984    0.746137    0.640462
H    -1.023906   -0.745908    2.113915    0.114508    0.501279    0.353356
H    -2.116453   -0.946352    0.734410    0.465033   -0.200131    0.334830
15
* Frequency(6)  -69.3003
C     3.271877    0.233847    0.621529    0.066811   -0.129589   -0.127554
C    -2.264083    1.011609    1.648201   -0.340920   -0.158968   -0.216461
C     2.032028    0.377627    0.182874    0.050018    0.001349   -0.019056
C    -0.284997    0.097074    0.349496    0.060583    0.395289    0.269131
C    -1.430091   -0.225299    1.244030    0.103550    0.125718    0.197081
O     0.960591    0.024184    0.940772    0.077030   -0.190566   -0.085861
H     3.477204   -0.180795    1.600612    0.104136   -0.369678   -0.258819
H     4.095034    0.536254   -0.006407    0.043863   -0.001497   -0.088576
H    -2.682097    1.505027    0.764055   -0.284826   -0.464417   -0.373476
H    -3.099981    0.729622    2.291639   -0.355535   -0.331444   -0.333699
H    -1.644765    1.742206    2.186108   -0.721525    0.107400   -0.259740
H     1.792871    0.782070   -0.798595    0.007166    0.251148    0.119456
H    -0.386390    0.781300   -0.499554    0.118984    0.746137    0.640462
H    -1.018606   -0.722708    2.130269    0.114508    0.501279    0.353356
H    -2.094931   -0.955614    0.749907    0.465033   -0.200131    0.334830
15
* Frequency(6)  -69.3003
C     3.277090    0.223735    0.611575    0.066811   -0.129589   -0.127554
C    -2.290686    0.999205    1.631310   -0.340920   -0.158968   -0.216461
C     2.035931    0.377733    0.181386    0.050018    0.001349   -0.019056
C    -0.280269    0.127919    0.370497    0.060583    0.395289    0.269131
C    -1.422011   -0.215488    1.259409    0.103550    0.125718    0.197081
O     0.966602    0.009313    0.934072    0.077030   -0.190566   -0.085861
H     3.485330   -0.209642    1.580415    0.104136   -0.369678   -0.258819
H     4.098457    0.536137   -0.013318    0.043863   -0.001497   -0.088576
H    -2.704323    1.468786    0.734911   -0.284826   -0.464417   -0.373476
H    -3.127724    0.703758    2.265599   -0.355535   -0.331444   -0.333699
H    -1.701068    1.750587    2.165839   -0.721525    0.107400   -0.259740
H     1.793430    0.801668   -0.789273    0.007166    0.251148    0.119456
H    -0.377105    0.839524   -0.449577    0.118984    0.746137    0.640462
H    -1.009670   -0.683591    2.157843    0.114508    0.501279    0.353356
H    -2.058642   -0.971231    0.776035    0.465033   -0.200131    0.334830
15
* Frequency(6)  -69.3003
C     3.283860    0.210603    0.598650    0.066811   -0.129589   -0.127554
C    -2.325232    0.983096    1.609376   -0.340920   -0.158968   -0.216461
C     2.041000    0.377869    0.179455    0.050018    0.001349   -0.019056
C    -0.274130    0.167974    0.397768    0.060583    0.395289    0.269131
C    -1.411518   -0.202749    1.279379    0.103550    0.125718    0.197081
O     0.974407   -0.009997    0.925372    0.077030   -0.190566   -0.085861
H     3.495882   -0.247102    1.554189    0.104136   -0.369678   -0.258819
H     4.102902    0.535985   -0.022294    0.043863   -0.001497   -0.088576
H    -2.733184    1.421727    0.697067   -0.284826   -0.464417   -0.373476
H    -3.163751    0.670173    2.231785   -0.355535   -0.331444   -0.333699
H    -1.774180    1.761470    2.139520   -0.721525    0.107400   -0.259740
H     1.794156    0.827117   -0.777169    0.007166    0.251148    0.119456
H    -0.365048    0.915129   -0.384679    0.118984    0.746137    0.640462
H    -0.998067   -0.632797    2.193648    0.114508    0.501279    0.353356
H    -2.011521   -0.991510    0.809963    0.465033   -0.200131    0.334830
15
* Frequency(6)  -69.3003
C     3.291453    0.195876    0.584154    0.066811   -0.129589   -0.127554
C    -2.363975    0.965030    1.584776   -0.340920   -0.158968   -0.216461
C     2.046684    0.378023    0.177290    0.050018    0.001349   -0.019056
C    -0.267245    0.212897    0.428353    0.060583    0.395289    0.269131
C    -1.399751   -0.188462    1.301776    0.103550    0.125718    0.197081
O     0.983161   -0.031653    0.915614    0.077030   -0.190566   -0.085861
H     3.507716   -0.289113    1.524776    0.104136   -0.369678   -0.258819
H     4.107887    0.535815   -0.032360    0.043863   -0.001497   -0.088576
H    -2.765553    1.368949    0.654624   -0.284826   -0.464417   -0.373476
H    -3.204155    0.632506    2.193862   -0.355535   -0.331444   -0.333699
H    -1.856178    1.773675    2.110002   -0.721525    0.107400   -0.259740
H     1.794971    0.855659   -0.763593    0.007166    0.251148    0.119456
H    -0.351526    0.999924   -0.311894    0.118984    0.746137    0.640462
H    -0.985054   -0.575829    2.233805    0.114508    0.501279    0.353356
H    -1.958672   -1.014254    0.848015    0.465033   -0.200131    0.334830
