15
Coordinates from ORCA-job freq E -271.058105072285
  C           3.29145307354442      0.19587617471632      0.58415446822963
  C          -2.36397547326167      0.96503037192432      1.58477638143766
  C           2.04668407258595      0.37802278901202      0.17728981439144
  C          -0.26724527401364      0.21289655770838      0.42835331480144
  C          -1.39975052170528     -0.18846218147750      1.30177630834342
  O           0.98316135760902     -0.03165344296790      0.91561443947962
  H           3.50771639797151     -0.28911346632178      1.52477570546330
  H           4.10788656776867      0.53581481528200     -0.03235990583173
  H          -2.76555319882337      1.36894851432422      0.65462375218243
  H          -3.20415546460729      0.63250558266676      2.19386225882518
  H          -1.85617769840672      1.77367504722651      2.11000180261958
  H           1.79497080858206      0.85565871017885     -0.76359322120679
  H          -0.35152645949191      0.99992386111644     -0.31189385185483
  H          -0.98505411900096     -0.57582909006121      2.23380514441617
  H          -1.95867206875078     -1.01425424332751      0.84801458870327
