17
Coordinates from ORCA-job freq E -421.350475551438
  C           1.93661130417234     -0.66497887568925     -1.19737890121841
  C           1.64463450908965     -0.07802059541988      0.18377831610991
  C           0.19764267558195     -0.46813719977454      0.07346246051128
  O          -0.64507433776904     -0.90362529254390      1.11402519946024
  C          -1.05235644587603      0.21770118838955      0.33484639526519
  C          -1.16216942033281      1.53550658565848      1.03602632969210
  O          -2.19748505463612      0.02794093011687     -0.42216901678842
  O          -2.11731320330534     -1.16391721390191     -1.17042095343819
  H           2.58321147383838     -1.53205095453591     -1.25587010936583
  H           1.99559521983227      0.02176545877290     -2.03308868335937
  H           1.83656840513011      0.98803177750110      0.29621999731315
  H           2.13866066896939     -0.61779136369543      0.98993658751321
  H           0.59440782575313     -1.09563815904926     -1.09466085467781
  H          -0.30341214134435      1.67012869652344      1.68886990250529
  H          -2.07329363681268      1.56189079578767      1.63233359541081
  H          -1.19628754939015      2.34288544065166      0.30684783607678
  H          -2.17994029290068     -1.84168921879164     -0.48275610100993
