9
Coordinates from ORCA-job freq E -192.432756775461
  C           1.35530111476023      0.19417885044208     -0.05979760275297
  C           0.03486898645068      0.02822123472988      0.51459046721758
  O          -0.61706550775896     -1.22775157152805      0.28342862044099
  C          -1.17183579029673     -0.09500103580037     -0.33662871559339
  H           2.10567208825009      0.78707691531705      0.43673346794079
  H           1.59250758117410     -0.29079907325286     -0.99442852656024
  H          -0.11854069373464      0.41681565113868      1.51502193397221
  H          -2.12798284691679      0.23503812470356      0.05456901862565
  H          -1.05292393192797     -0.04778009574995     -1.41348866329061
