15
Coordinates from ORCA-job freq E -270.984556340885
  C      -0.704352      1.517234     -2.365162
  C       0.115234      1.670255     -1.128643
  C      -0.101144      0.748680      0.055840
  C      -0.263868      2.599870      1.869993
  C       0.101807      1.233306      1.431956
  O       1.068349      2.227265      1.657779
  H       0.856325      0.684506     -0.697751
  H      -1.650595      2.064871     -2.287696
  H      -0.174917      1.899380     -3.237800
  H      -0.947368      0.470276     -2.539779
  H       0.554273      2.631057     -0.919456
  H      -0.819009     -0.047176     -0.065556
  H      -0.542252      2.779716      2.902058
  H      -0.681514      3.287238      1.144409
  H       0.075727      0.458184      2.198544
15
Coordinates from ORCA-job freq E -270.985375244707
  C      -0.691666      1.507399     -2.370696
  C       0.094252      1.666405     -1.110558
  C      -0.139018      0.768934      0.053365
  C      -0.260809      2.602536      1.885555
  C       0.093892      1.241008      1.430963
  O       1.073441      2.237833      1.624602
  H       0.815233      0.696894     -0.703397
  H      -1.654130      2.026821     -2.303528
  H      -0.157471      1.913288     -3.229345
  H      -0.905551      0.455809     -2.567660
  H       0.576808      2.612972     -0.906922
  H      -0.851620     -0.034237     -0.074703
  H      -0.505304      2.775730      2.927585
  H      -0.705602      3.290475      1.174451
  H       0.104238      0.462797      2.189025
15
Coordinates from ORCA-job freq E -270.984746691624
  C      -0.691082      1.503498     -2.359739
  C       0.094955      1.664816     -1.099334
  C      -0.142929      0.771711      0.050560
  C      -0.258398      2.601357      1.877487
  C       0.088098      1.236761      1.430662
  O       1.079377      2.227564      1.626169
  H       0.813883      0.742063     -0.731635
  H      -1.649707      2.030874     -2.296610
  H      -0.153578      1.895846     -3.221823
  H      -0.915284      0.452507     -2.549862
  H       0.566454      2.613281     -0.882509
  H      -0.835045     -0.046853     -0.091138
  H      -0.507035      2.780614      2.917103
  H      -0.689450      3.290664      1.159617
  H       0.086433      0.459960      2.189789
15
Coordinates from ORCA-job freq E -270.989355916074
  C      -0.685181      1.501059     -2.395916
  C       0.026519      1.697305     -1.098359
  C      -0.177242      0.797965      0.048003
  C      -0.236819      2.606620      1.907997
  C       0.081615      1.245740      1.432651
  O       1.086607      2.223493      1.606008
  H       0.784290      0.674711     -0.634812
  H      -1.678226      1.966446     -2.374840
  H      -0.132673      1.934504     -3.228005
  H      -0.837094      0.439419     -2.606576
  H       0.542368      2.631235     -0.911382
  H      -0.859096     -0.033925     -0.076379
  H      -0.447426      2.773617      2.958208
  H      -0.688858      3.309078      1.214820
  H       0.107912      0.457395      2.177317
15
Coordinates from ORCA-job freq E -270.990665276772
  C      -0.682655      1.501683     -2.410568
  C      -0.034674      1.719854     -1.082721
  C      -0.216075      0.804491      0.055693
  C      -0.213580      2.610493      1.913014
  C       0.058593      1.240497      1.441600
  O       1.099172      2.192549      1.588150
  H       0.806747      0.689248     -0.611019
  H      -1.686905      1.941913     -2.435751
  H      -0.104294      1.937234     -3.223352
  H      -0.805379      0.435436     -2.621153
  H       0.470169      2.658759     -0.886323
  H      -0.838399     -0.071815     -0.080394
  H      -0.395210      2.791007      2.966204
  H      -0.655243      3.321234      1.221452
  H       0.084427      0.452079      2.183904
15
Coordinates from ORCA-job freq E -270.988243091997
  C      -0.684470      1.505612     -2.392843
  C       0.010292      1.698877     -1.084319
  C      -0.201335      0.791802      0.057647
  C      -0.230243      2.609454      1.898083
  C       0.065166      1.239431      1.439889
  O       1.092344      2.207049      1.591609
  H       0.817020      0.693053     -0.653429
  H      -1.681086      1.962554     -2.380729
  H      -0.125857      1.941409     -3.219236
  H      -0.829846      0.444216     -2.610066
  H       0.511998      2.636120     -0.877216
  H      -0.845606     -0.066780     -0.084089
  H      -0.428066      2.794854      2.947380
  H      -0.671534      3.309203      1.195765
  H       0.087917      0.457809      2.190290
15
Coordinates from ORCA-job freq E -270.987424086517
  C      -0.685705      1.507354     -2.381548
  C       0.039914      1.686673     -1.088144
  C      -0.193464      0.785517      0.059019
  C      -0.239730      2.608771      1.889084
  C       0.067233      1.238127      1.438819
  O       1.088137      2.213467      1.595405
  H       0.824353      0.698937     -0.680088
  H      -1.678418      1.971457     -2.344578
  H      -0.142174      1.945305     -3.216830
  H      -0.842282      0.448856     -2.601695
  H       0.537844      2.623067     -0.873031
  H      -0.847837     -0.063357     -0.087404
  H      -0.446861      2.798105      2.935785
  H      -0.678794      3.302183      1.179743
  H       0.084480      0.460203      2.194199
15
Coordinates from ORCA-job freq E -270.987248386752
  C      -0.686213      1.507108     -2.374063
  C       0.057681      1.680251     -1.090573
  C      -0.193567      0.784460      0.059803
  C      -0.243206      2.609622      1.884001
  C       0.064564      1.237177      1.438259
  O       1.086449      2.213586      1.597689
  H       0.830771      0.704845     -0.698787
  H      -1.680842      1.964947     -2.319331
  H      -0.157103      1.954998     -3.213360
  H      -0.839027      0.449656     -2.599608
  H       0.554663      2.614632     -0.868250
  H      -0.850314     -0.060761     -0.092671
  H      -0.453660      2.802874      2.929254
  H      -0.678716      3.300056      1.170018
  H       0.075215      0.461212      2.196356
15
Coordinates from ORCA-job freq E -270.987275614174
  C      -0.686466      1.505861     -2.374256
  C       0.057315      1.682020     -1.091255
  C      -0.196548      0.787011      0.059345
  C      -0.240133      2.611180      1.884552
  C       0.061271      1.237238      1.438281
  O       1.087691      2.208932      1.599901
  H       0.831827      0.703975     -0.698009
  H      -1.686765      1.950635     -2.316075
  H      -0.164107      1.964649     -3.211920
  H      -0.825879      0.447579     -2.604610
  H       0.555624      2.615378     -0.868046
  H      -0.851584     -0.059233     -0.094963
  H      -0.450553      2.805189      2.929677
  H      -0.672004      3.303416      1.170097
  H       0.067004      0.460832      2.196016
15
Coordinates from ORCA-job freq E -270.987315933866
  C      -0.686405      1.502392     -2.374975
  C       0.059331      1.685075     -1.094208
  C      -0.201987      0.793342      0.058377
  C      -0.234830      2.614209      1.887576
  C       0.055328      1.238179      1.438051
  O       1.089249      2.201509      1.604942
  H       0.830287      0.701898     -0.698983
  H      -1.698033      1.919448     -2.307849
  H      -0.180115      1.983650     -3.209836
  H      -0.797808      0.442944     -2.615043
  H       0.563411      2.615242     -0.871197
  H      -0.857987     -0.051612     -0.098825
  H      -0.445881      2.807416      2.932773
  H      -0.660774      3.310718      1.173668
  H       0.052908      0.460252      2.194265
15
Coordinates from ORCA-job freq E -270.987310854098
  C      -0.685983      1.501578     -2.375303
  C       0.060015      1.685420     -1.094720
  C      -0.203136      0.794735      0.058386
  C      -0.234009      2.614705      1.888566
  C       0.054791      1.238623      1.438035
  O       1.089470      2.201007      1.605601
  H       0.827894      0.700874     -0.699917
  H      -1.700123      1.912027     -2.305940
  H      -0.183410      1.988079     -3.209341
  H      -0.790919      0.442030     -2.618091
  H       0.566547      2.614465     -0.872679
  H      -0.861442     -0.048489     -0.098886
  H      -0.445359      2.807065      2.933861
  H      -0.659446      3.312207      1.175294
  H       0.051802      0.460337      2.193868
15
Coordinates from ORCA-job freq E -270.987311894450
  C      -0.685604      1.501290     -2.375375
  C       0.060459      1.685422     -1.094739
  C      -0.203762      0.795109      0.058522
  C      -0.233643      2.614907      1.888827
  C       0.054748      1.238808      1.438082
  O       1.089618      2.200916      1.605605
  H       0.826344      0.699903     -0.700611
  H      -1.701194      1.907833     -2.304653
  H      -0.185066      1.990938     -3.208756
  H      -0.786851      0.441808     -2.620177
  H       0.568033      2.614022     -0.873301
  H      -0.864011     -0.046642     -0.098645
  H      -0.445107      2.807008      2.934170
  H      -0.658943      3.312835      1.175877
  H       0.051673      0.460507      2.193910
15
Coordinates from ORCA-job freq E -270.987322977735
  C      -0.685473      1.501338     -2.375317
  C       0.060473      1.685342     -1.094561
  C      -0.203882      0.794932      0.058589
  C      -0.233634      2.614884      1.888693
  C       0.054853      1.238786      1.438106
  O       1.089654      2.200972      1.605318
  H       0.826165      0.699606     -0.700683
  H      -1.701232      1.907434     -2.304508
  H      -0.185024      1.991395     -3.208508
  H      -0.786344      0.441912     -2.620565
  H       0.567848      2.614064     -0.873197
  H      -0.864612     -0.046460     -0.098493
  H      -0.444961      2.807097      2.934044
  H      -0.659042      3.312773      1.175777
  H       0.051905      0.460589      2.194040
15
Coordinates from ORCA-job freq E -270.987323531432
  C      -0.685359      1.501348     -2.375302
  C       0.060472      1.685299     -1.094453
  C      -0.204006      0.794840      0.058621
  C      -0.233632      2.614861      1.888649
  C       0.054927      1.238783      1.438111
  O       1.089667      2.201039      1.605074
  H       0.826013      0.699383     -0.700680
  H      -1.701229      1.907165     -2.304488
  H      -0.184934      1.991658     -3.208355
  H      -0.785980      0.441958     -2.620827
  H       0.567687      2.614122     -0.873170
  H      -0.865110     -0.046277     -0.098371
  H      -0.444784      2.807122      2.934026
  H      -0.659186      3.312729      1.175803
  H       0.052148      0.460632      2.194098
15
Coordinates from ORCA-job freq E -270.987313814772
  C      -0.685287      1.501358     -2.375259
  C       0.060490      1.685287     -1.094367
  C      -0.204077      0.794770      0.058640
  C      -0.233618      2.614835      1.888576
  C       0.054996      1.238757      1.438111
  O       1.089696      2.201050      1.604949
  H       0.825948      0.699255     -0.700681
  H      -1.701237      1.906974     -2.304432
  H      -0.184903      1.991847     -3.208231
  H      -0.785729      0.441989     -2.620963
  H       0.567540      2.614210     -0.873133
  H      -0.865451     -0.046140     -0.098301
  H      -0.444698      2.807154      2.933954
  H      -0.659235      3.312667      1.175733
  H       0.052258      0.460650      2.194141
15
Coordinates from ORCA-job freq E -270.987323734921
  C      -0.685206      1.501332     -2.375256
  C       0.060519      1.685282     -1.094333
  C      -0.204176      0.794773      0.058641
  C      -0.233616      2.614816      1.888589
  C       0.055040      1.238762      1.438102
  O       1.089699      2.201092      1.604818
  H       0.825855      0.699148     -0.700677
  H      -1.701221      1.906781     -2.304422
  H      -0.184866      1.991955     -3.208176
  H      -0.785492      0.441972     -2.621070
  H       0.567472      2.614270     -0.873164
  H      -0.865810     -0.045943     -0.098244
  H      -0.444585      2.807121      2.933992
  H      -0.659337      3.312647      1.175806
  H       0.052417      0.460657      2.194130
15
Coordinates from ORCA-job freq E -270.987309951350
  C      -0.685128      1.501297     -2.375277
  C       0.060520      1.685278     -1.094303
  C      -0.204296      0.794789      0.058647
  C      -0.233608      2.614805      1.888630
  C       0.055073      1.238773      1.438096
  O       1.089702      2.201149      1.604677
  H       0.825742      0.699056     -0.700674
  H      -1.701208      1.906587     -2.304465
  H      -0.184810      1.992054     -3.208127
  H      -0.785247      0.441942     -2.621203
  H       0.567411      2.614310     -0.873182
  H      -0.866152     -0.045761     -0.098189
  H      -0.444433      2.807089      2.934064
  H      -0.659452      3.312634      1.175919
  H       0.052579      0.460662      2.194122
15
Coordinates from ORCA-job freq E -270.987321290676
  C      -0.685075      1.501286     -2.375299
  C       0.060501      1.685272     -1.094276
  C      -0.204369      0.794776      0.058658
  C      -0.233617      2.614781      1.888651
  C       0.055127      1.238773      1.438097
  O       1.089700      2.201215      1.604553
  H       0.825692      0.699016     -0.700649
  H      -1.701144      1.906621     -2.304574
  H      -0.184672      1.992015     -3.208118
  H      -0.785226      0.441936     -2.621233
  H       0.567293      2.614360     -0.873182
  H      -0.866349     -0.045692     -0.098119
  H      -0.444331      2.807053      2.934110
  H      -0.659584      3.312586      1.175989
  H       0.052749      0.460665      2.194126
15
Coordinates from ORCA-job freq E -270.987314928074
  C      -0.685058      1.501267     -2.375297
  C       0.060508      1.685295     -1.094270
  C      -0.204384      0.794775      0.058653
  C      -0.233604      2.614763      1.888647
  C       0.055159      1.238758      1.438093
  O       1.089719      2.201197      1.604566
  H       0.825706      0.699032     -0.700648
  H      -1.701128      1.906600     -2.304600
  H      -0.184643      1.991983     -3.208115
  H      -0.785196      0.441913     -2.621214
  H       0.567183      2.614455     -0.873198
  H      -0.866449     -0.045625     -0.098097
  H      -0.444326      2.807029      2.934107
  H      -0.659557      3.312576      1.175986
  H       0.052763      0.460645      2.194123
