15
* (null), Energy   -1000.0000000
C    -0.685058    1.501267   -2.375297    0.004352    0.003789    0.000488
C     0.060508    1.685295   -1.094270   -0.105031    0.118070   -0.035719
C    -0.204384    0.794775    0.058653    0.129727   -0.032551   -0.089011
C    -0.233604    2.614763    1.888647   -0.003986   -0.004937   -0.003419
C     0.055159    1.238758    1.438093    0.006074    0.016493    0.009333
O     1.089719    2.201197    1.604566   -0.002949   -0.004149    0.000089
H     0.825706    0.699032   -0.700648   -0.325196   -1.190222    1.544374
H    -1.701128    1.906600   -2.304600   -0.031504   -0.026707   -0.040404
H    -0.184643    1.991983   -3.208115   -0.010986    0.005460   -0.009673
H    -0.785196    0.441913   -2.621214    0.012096   -0.011707    0.002846
H     0.567183    2.614455   -0.873198    0.108436   -0.010977   -0.059533
H    -0.866449   -0.045625   -0.098097   -0.092640    0.107670   -0.007422
H    -0.444326    2.807029    2.934107   -0.001044   -0.003653   -0.003968
H    -0.659557    3.312576    1.175986    0.004000   -0.000913   -0.004006
H     0.052763    0.460645    2.194123    0.012658   -0.004973   -0.013666
15
* Frequency(6) -1786.6596
C    -0.684563    1.501697   -2.375242    0.004352    0.003789    0.000488
C     0.048572    1.698713   -1.098330   -0.105031    0.118070   -0.035719
C    -0.189641    0.791076    0.048537    0.129727   -0.032551   -0.089011
C    -0.234057    2.614202    1.888259   -0.003986   -0.004937   -0.003419
C     0.055849    1.240633    1.439153    0.006074    0.016493    0.009333
O     1.089384    2.200726    1.604576   -0.002949   -0.004149    0.000089
H     0.788749    0.563769   -0.525138   -0.325196   -1.190222    1.544374
H    -1.704708    1.903565   -2.309192   -0.031504   -0.026707   -0.040404
H    -0.185891    1.992603   -3.209214   -0.010986    0.005460   -0.009673
H    -0.783822    0.440583   -2.620890    0.012096   -0.011707    0.002846
H     0.579506    2.613208   -0.879964    0.108436   -0.010977   -0.059533
H    -0.876977   -0.033389   -0.098941   -0.092640    0.107670   -0.007422
H    -0.444445    2.806614    2.933656   -0.001044   -0.003653   -0.003968
H    -0.659102    3.312472    1.175531    0.004000   -0.000913   -0.004006
H     0.054201    0.460080    2.192570    0.012658   -0.004973   -0.013666
15
* Frequency(6) -1786.6596
C    -0.684122    1.502081   -2.375192    0.004352    0.003789    0.000488
C     0.037929    1.710677   -1.101949   -0.105031    0.118070   -0.035719
C    -0.176496    0.787777    0.039518    0.129727   -0.032551   -0.089011
C    -0.234461    2.613702    1.887912   -0.003986   -0.004937   -0.003419
C     0.056465    1.242304    1.440099    0.006074    0.016493    0.009333
O     1.089085    2.200305    1.604585   -0.002949   -0.004149    0.000089
H     0.755797    0.443164   -0.368647   -0.325196   -1.190222    1.544374
H    -1.707901    1.900858   -2.313286   -0.031504   -0.026707   -0.040404
H    -0.187004    1.993157   -3.210194   -0.010986    0.005460   -0.009673
H    -0.782596    0.439396   -2.620602    0.012096   -0.011707    0.002846
H     0.590494    2.612095   -0.885996    0.108436   -0.010977   -0.059533
H    -0.886364   -0.022479   -0.099693   -0.092640    0.107670   -0.007422
H    -0.444550    2.806244    2.933254   -0.001044   -0.003653   -0.003968
H    -0.658697    3.312380    1.175125    0.004000   -0.000913   -0.004006
H     0.055484    0.459576    2.191185    0.012658   -0.004973   -0.013666
15
* Frequency(6) -1786.6596
C    -0.683783    1.502377   -2.375154    0.004352    0.003789    0.000488
C     0.029733    1.719891   -1.104736   -0.105031    0.118070   -0.035719
C    -0.166373    0.785237    0.032572    0.129727   -0.032551   -0.089011
C    -0.234772    2.613317    1.887646   -0.003986   -0.004937   -0.003419
C     0.056939    1.243591    1.440827    0.006074    0.016493    0.009333
O     1.088855    2.199981    1.604592   -0.002949   -0.004149    0.000089
H     0.730421    0.350287   -0.248133   -0.325196   -1.190222    1.544374
H    -1.710359    1.898774   -2.316439   -0.031504   -0.026707   -0.040404
H    -0.187862    1.993583   -3.210949   -0.010986    0.005460   -0.009673
H    -0.781652    0.438483   -2.620380    0.012096   -0.011707    0.002846
H     0.598955    2.611239   -0.890642    0.108436   -0.010977   -0.059533
H    -0.893593   -0.014077   -0.100272   -0.092640    0.107670   -0.007422
H    -0.444632    2.805959    2.932945   -0.001044   -0.003653   -0.003968
H    -0.658384    3.312309    1.174812    0.004000   -0.000913   -0.004006
H     0.056472    0.459188    2.190119    0.012658   -0.004973   -0.013666
15
* Frequency(6) -1786.6596
C    -0.683581    1.502552   -2.375132    0.004352    0.003789    0.000488
C     0.024872    1.725355   -1.106389   -0.105031    0.118070   -0.035719
C    -0.160369    0.783731    0.028452    0.129727   -0.032551   -0.089011
C    -0.234956    2.613088    1.887487   -0.003986   -0.004937   -0.003419
C     0.057220    1.244354    1.441259    0.006074    0.016493    0.009333
O     1.088719    2.199789    1.604596   -0.002949   -0.004149    0.000089
H     0.715370    0.295201   -0.176657   -0.325196   -1.190222    1.544374
H    -1.711817    1.897538   -2.318309   -0.031504   -0.026707   -0.040404
H    -0.188370    1.993835   -3.211397   -0.010986    0.005460   -0.009673
H    -0.781092    0.437941   -2.620248    0.012096   -0.011707    0.002846
H     0.603974    2.610731   -0.893397    0.108436   -0.010977   -0.059533
H    -0.897881   -0.009094   -0.100615   -0.092640    0.107670   -0.007422
H    -0.444680    2.805790    2.932761   -0.001044   -0.003653   -0.003968
H    -0.658199    3.312266    1.174627    0.004000   -0.000913   -0.004006
H     0.057058    0.458957    2.189486    0.012658   -0.004973   -0.013666
15
* Frequency(6) -1786.6596
C    -0.683540    1.502589   -2.375127    0.004352    0.003789    0.000488
C     0.023873    1.726478   -1.106729   -0.105031    0.118070   -0.035719
C    -0.159134    0.783421    0.027605    0.129727   -0.032551   -0.089011
C    -0.234994    2.613042    1.887455   -0.003986   -0.004937   -0.003419
C     0.057278    1.244511    1.441348    0.006074    0.016493    0.009333
O     1.088691    2.199750    1.604597   -0.002949   -0.004149    0.000089
H     0.712276    0.283877   -0.161963   -0.325196   -1.190222    1.544374
H    -1.712117    1.897284   -2.318693   -0.031504   -0.026707   -0.040404
H    -0.188475    1.993887   -3.211489   -0.010986    0.005460   -0.009673
H    -0.780977    0.437830   -2.620221    0.012096   -0.011707    0.002846
H     0.605006    2.610626   -0.893964    0.108436   -0.010977   -0.059533
H    -0.898762   -0.008070   -0.100686   -0.092640    0.107670   -0.007422
H    -0.444690    2.805755    2.932723   -0.001044   -0.003653   -0.003968
H    -0.658161    3.312258    1.174589    0.004000   -0.000913   -0.004006
H     0.057178    0.458910    2.189356    0.012658   -0.004973   -0.013666
15
* Frequency(6) -1786.6596
C    -0.683663    1.502481   -2.375141    0.004352    0.003789    0.000488
C     0.026843    1.723139   -1.105719   -0.105031    0.118070   -0.035719
C    -0.162803    0.784342    0.030123    0.129727   -0.032551   -0.089011
C    -0.234881    2.613181    1.887552   -0.003986   -0.004937   -0.003419
C     0.057106    1.244045    1.441084    0.006074    0.016493    0.009333
O     1.088774    2.199867    1.604594   -0.002949   -0.004149    0.000089
H     0.721474    0.317541   -0.205644   -0.325196   -1.190222    1.544374
H    -1.711226    1.898040   -2.317550   -0.031504   -0.026707   -0.040404
H    -0.188164    1.993733   -3.211215   -0.010986    0.005460   -0.009673
H    -0.781319    0.438161   -2.620301    0.012096   -0.011707    0.002846
H     0.601939    2.610937   -0.892280    0.108436   -0.010977   -0.059533
H    -0.896142   -0.011115   -0.100476   -0.092640    0.107670   -0.007422
H    -0.444661    2.805859    2.932836   -0.001044   -0.003653   -0.003968
H    -0.658274    3.312283    1.174702    0.004000   -0.000913   -0.004006
H     0.056820    0.459051    2.189743    0.012658   -0.004973   -0.013666
15
* Frequency(6) -1786.6596
C    -0.683937    1.502243   -2.375171    0.004352    0.003789    0.000488
C     0.033462    1.715699   -1.103468   -0.105031    0.118070   -0.035719
C    -0.170979    0.786393    0.035732    0.129727   -0.032551   -0.089011
C    -0.234630    2.613492    1.887767   -0.003986   -0.004937   -0.003419
C     0.056723    1.243005    1.440496    0.006074    0.016493    0.009333
O     1.088960    2.200129    1.604589   -0.002949   -0.004149    0.000089
H     0.741967    0.392546   -0.302966   -0.325196   -1.190222    1.544374
H    -1.709240    1.899723   -2.315004   -0.031504   -0.026707   -0.040404
H    -0.187472    1.993389   -3.210606   -0.010986    0.005460   -0.009673
H    -0.782082    0.438899   -2.620481    0.012096   -0.011707    0.002846
H     0.595105    2.611629   -0.888528    0.108436   -0.010977   -0.059533
H    -0.890304   -0.017900   -0.100008   -0.092640    0.107670   -0.007422
H    -0.444595    2.806089    2.933086   -0.001044   -0.003653   -0.003968
H    -0.658527    3.312341    1.174954    0.004000   -0.000913   -0.004006
H     0.056022    0.459364    2.190604    0.012658   -0.004973   -0.013666
15
* Frequency(6) -1786.6596
C    -0.684333    1.501898   -2.375216    0.004352    0.003789    0.000488
C     0.043012    1.704963   -1.100220   -0.105031    0.118070   -0.035719
C    -0.182773    0.789352    0.043825    0.129727   -0.032551   -0.089011
C    -0.234268    2.613941    1.888078   -0.003986   -0.004937   -0.003419
C     0.056171    1.241506    1.439647    0.006074    0.016493    0.009333
O     1.089228    2.200506    1.604581   -0.002949   -0.004149    0.000089
H     0.771534    0.500763   -0.443383   -0.325196   -1.190222    1.544374
H    -1.706376    1.902151   -2.311331   -0.031504   -0.026707   -0.040404
H    -0.186473    1.992893   -3.209726   -0.010986    0.005460   -0.009673
H    -0.783181    0.439963   -2.620740    0.012096   -0.011707    0.002846
H     0.585246    2.612627   -0.883115    0.108436   -0.010977   -0.059533
H    -0.881881   -0.027690   -0.099333   -0.092640    0.107670   -0.007422
H    -0.444500    2.806421    2.933446   -0.001044   -0.003653   -0.003968
H    -0.658890    3.312424    1.175319    0.004000   -0.000913   -0.004006
H     0.054871    0.459816    2.191847    0.012658   -0.004973   -0.013666
15
* Frequency(6) -1786.6596
C    -0.684807    1.501485   -2.375269    0.004352    0.003789    0.000488
C     0.054457    1.692097   -1.096328   -0.105031    0.118070   -0.035719
C    -0.196910    0.792900    0.053525    0.129727   -0.032551   -0.089011
C    -0.233834    2.614479    1.888450   -0.003986   -0.004937   -0.003419
C     0.055509    1.239708    1.438630    0.006074    0.016493    0.009333
O     1.089549    2.200958    1.604571   -0.002949   -0.004149    0.000089
H     0.806972    0.630465   -0.611679   -0.325196   -1.190222    1.544374
H    -1.702943    1.905061   -2.306928   -0.031504   -0.026707   -0.040404
H    -0.185276    1.992298   -3.208672   -0.010986    0.005460   -0.009673
H    -0.784500    0.441239   -2.621050    0.012096   -0.011707    0.002846
H     0.573429    2.613823   -0.876628    0.108436   -0.010977   -0.059533
H    -0.871786   -0.039423   -0.098525   -0.092640    0.107670   -0.007422
H    -0.444386    2.806819    2.933879   -0.001044   -0.003653   -0.003968
H    -0.659326    3.312523    1.175755    0.004000   -0.000913   -0.004006
H     0.053492    0.460358    2.193336    0.012658   -0.004973   -0.013666
15
* Frequency(6) -1786.6596
C    -0.685309    1.501049   -2.375325    0.004352    0.003789    0.000488
C     0.066559    1.678493   -1.092212   -0.105031    0.118070   -0.035719
C    -0.211857    0.796650    0.063780    0.129727   -0.032551   -0.089011
C    -0.233374    2.615048    1.888844   -0.003986   -0.004937   -0.003419
C     0.054809    1.237808    1.437555    0.006074    0.016493    0.009333
O     1.089889    2.201436    1.604561   -0.002949   -0.004149    0.000089
H     0.844440    0.767598   -0.789616   -0.325196   -1.190222    1.544374
H    -1.699313    1.908138   -2.302272   -0.031504   -0.026707   -0.040404
H    -0.184010    1.991668   -3.207558   -0.010986    0.005460   -0.009673
H    -0.785893    0.442588   -2.621378    0.012096   -0.011707    0.002846
H     0.560936    2.615087   -0.869769    0.108436   -0.010977   -0.059533
H    -0.861112   -0.051828   -0.097670   -0.092640    0.107670   -0.007422
H    -0.444266    2.807240    2.934336   -0.001044   -0.003653   -0.003968
H    -0.659787    3.312629    1.176217    0.004000   -0.000913   -0.004006
H     0.052034    0.460931    2.194910    0.012658   -0.004973   -0.013666
15
* Frequency(6) -1786.6596
C    -0.685783    1.500636   -2.375378    0.004352    0.003789    0.000488
C     0.078004    1.665627   -1.088320   -0.105031    0.118070   -0.035719
C    -0.225994    0.800197    0.073480    0.129727   -0.032551   -0.089011
C    -0.232940    2.615586    1.889217   -0.003986   -0.004937   -0.003419
C     0.054147    1.236011    1.436538    0.006074    0.016493    0.009333
O     1.090211    2.201888    1.604551   -0.002949   -0.004149    0.000089
H     0.879878    0.897301   -0.957912   -0.325196   -1.190222    1.544374
H    -1.695880    1.911049   -2.297869   -0.031504   -0.026707   -0.040404
H    -0.182813    1.991073   -3.206503   -0.010986    0.005460   -0.009673
H    -0.787211    0.443863   -2.621688    0.012096   -0.011707    0.002846
H     0.549119    2.616284   -0.863281    0.108436   -0.010977   -0.059533
H    -0.851017   -0.063561   -0.096861   -0.092640    0.107670   -0.007422
H    -0.444152    2.807638    2.934768   -0.001044   -0.003653   -0.003968
H    -0.660223    3.312728    1.176653    0.004000   -0.000913   -0.004006
H     0.050654    0.461473    2.196400    0.012658   -0.004973   -0.013666
15
* Frequency(6) -1786.6596
C    -0.686179    1.500291   -2.375423    0.004352    0.003789    0.000488
C     0.087554    1.654892   -1.085072   -0.105031    0.118070   -0.035719
C    -0.237789    0.803157    0.081573    0.129727   -0.032551   -0.089011
C    -0.232577    2.616035    1.889528   -0.003986   -0.004937   -0.003419
C     0.053595    1.234511    1.435689    0.006074    0.016493    0.009333
O     1.090479    2.202265    1.604543   -0.002949   -0.004149    0.000089
H     0.909445    1.005518   -1.098329   -0.325196   -1.190222    1.544374
H    -1.693016    1.913477   -2.294196   -0.031504   -0.026707   -0.040404
H    -0.181814    1.990577   -3.205624   -0.010986    0.005460   -0.009673
H    -0.788311    0.444928   -2.621947    0.012096   -0.011707    0.002846
H     0.539260    2.617282   -0.857869    0.108436   -0.010977   -0.059533
H    -0.842594   -0.073351   -0.096186   -0.092640    0.107670   -0.007422
H    -0.444057    2.807970    2.935129   -0.001044   -0.003653   -0.003968
H    -0.660587    3.312811    1.177018    0.004000   -0.000913   -0.004006
H     0.049503    0.461925    2.197642    0.012658   -0.004973   -0.013666
15
* Frequency(6) -1786.6596
C    -0.686453    1.500052   -2.375454    0.004352    0.003789    0.000488
C     0.094173    1.647451   -1.082821   -0.105031    0.118070   -0.035719
C    -0.245964    0.805208    0.087183    0.129727   -0.032551   -0.089011
C    -0.232326    2.616346    1.889743   -0.003986   -0.004937   -0.003419
C     0.053212    1.233472    1.435101    0.006074    0.016493    0.009333
O     1.090665    2.202527    1.604537   -0.002949   -0.004149    0.000089
H     0.929938    1.080523   -1.195651   -0.325196   -1.190222    1.544374
H    -1.691030    1.915160   -2.291650   -0.031504   -0.026707   -0.040404
H    -0.181121    1.990233   -3.205014   -0.010986    0.005460   -0.009673
H    -0.789073    0.445665   -2.622126    0.012096   -0.011707    0.002846
H     0.532427    2.617973   -0.854117    0.108436   -0.010977   -0.059533
H    -0.836756   -0.080136   -0.095718   -0.092640    0.107670   -0.007422
H    -0.443991    2.808200    2.935379   -0.001044   -0.003653   -0.003968
H    -0.660839    3.312868    1.177270    0.004000   -0.000913   -0.004006
H     0.048706    0.462239    2.198503    0.012658   -0.004973   -0.013666
15
* Frequency(6) -1786.6596
C    -0.686576    1.499945   -2.375467    0.004352    0.003789    0.000488
C     0.097143    1.644112   -1.081811   -0.105031    0.118070   -0.035719
C    -0.249633    0.806129    0.089700    0.129727   -0.032551   -0.089011
C    -0.232214    2.616485    1.889840   -0.003986   -0.004937   -0.003419
C     0.053041    1.233005    1.434837    0.006074    0.016493    0.009333
O     1.090748    2.202644    1.604535   -0.002949   -0.004149    0.000089
H     0.939136    1.114187   -1.239332   -0.325196   -1.190222    1.544374
H    -1.690139    1.915915   -2.290507   -0.031504   -0.026707   -0.040404
H    -0.180811    1.990079   -3.204741   -0.010986    0.005460   -0.009673
H    -0.789416    0.445997   -2.622207    0.012096   -0.011707    0.002846
H     0.529360    2.618284   -0.852433    0.108436   -0.010977   -0.059533
H    -0.834135   -0.083181   -0.095508   -0.092640    0.107670   -0.007422
H    -0.443962    2.808304    2.935491   -0.001044   -0.003653   -0.003968
H    -0.660952    3.312894    1.177383    0.004000   -0.000913   -0.004006
H     0.048348    0.462379    2.198890    0.012658   -0.004973   -0.013666
15
* Frequency(6) -1786.6596
C    -0.686534    1.499981   -2.375463    0.004352    0.003789    0.000488
C     0.096144    1.645235   -1.082151   -0.105031    0.118070   -0.035719
C    -0.248399    0.805819    0.088853    0.129727   -0.032551   -0.089011
C    -0.232252    2.616438    1.889807   -0.003986   -0.004937   -0.003419
C     0.053098    1.233162    1.434926    0.006074    0.016493    0.009333
O     1.090720    2.202605    1.604536   -0.002949   -0.004149    0.000089
H     0.936042    1.102862   -1.224638   -0.325196   -1.190222    1.544374
H    -1.690439    1.915661   -2.290891   -0.031504   -0.026707   -0.040404
H    -0.180915    1.990131   -3.204833   -0.010986    0.005460   -0.009673
H    -0.789301    0.445885   -2.622179    0.012096   -0.011707    0.002846
H     0.530391    2.618179   -0.853000    0.108436   -0.010977   -0.059533
H    -0.835017   -0.082157   -0.095579   -0.092640    0.107670   -0.007422
H    -0.443972    2.808269    2.935453   -0.001044   -0.003653   -0.003968
H    -0.660914    3.312886    1.177345    0.004000   -0.000913   -0.004006
H     0.048468    0.462332    2.198760    0.012658   -0.004973   -0.013666
15
* Frequency(6) -1786.6596
C    -0.686333    1.500157   -2.375440    0.004352    0.003789    0.000488
C     0.091283    1.650700   -1.083804   -0.105031    0.118070   -0.035719
C    -0.242395    0.804312    0.084734    0.129727   -0.032551   -0.089011
C    -0.232436    2.616210    1.889649   -0.003986   -0.004937   -0.003419
C     0.053379    1.233926    1.435358    0.006074    0.016493    0.009333
O     1.090584    2.202413    1.604540   -0.002949   -0.004149    0.000089
H     0.920991    1.047777   -1.153162   -0.325196   -1.190222    1.544374
H    -1.691897    1.914425   -2.292761   -0.031504   -0.026707   -0.040404
H    -0.181424    1.990383   -3.205281   -0.010986    0.005460   -0.009673
H    -0.788741    0.445343   -2.622048    0.012096   -0.011707    0.002846
H     0.535410    2.617671   -0.855755    0.108436   -0.010977   -0.059533
H    -0.839304   -0.077173   -0.095922   -0.092640    0.107670   -0.007422
H    -0.444020    2.808100    2.935270   -0.001044   -0.003653   -0.003968
H    -0.660729    3.312843    1.177160    0.004000   -0.000913   -0.004006
H     0.049054    0.462102    2.198127    0.012658   -0.004973   -0.013666
15
* Frequency(6) -1786.6596
C    -0.685993    1.500452   -2.375402    0.004352    0.003789    0.000488
C     0.083087    1.659913   -1.086591   -0.105031    0.118070   -0.035719
C    -0.232271    0.801772    0.077788    0.129727   -0.032551   -0.089011
C    -0.232747    2.615825    1.889382   -0.003986   -0.004937   -0.003419
C     0.053853    1.235213    1.436086    0.006074    0.016493    0.009333
O     1.090353    2.202089    1.604547   -0.002949   -0.004149    0.000089
H     0.895615    0.954899   -1.032649   -0.325196   -1.190222    1.544374
H    -1.694355    1.912341   -2.295914   -0.031504   -0.026707   -0.040404
H    -0.182281    1.990809   -3.206035   -0.010986    0.005460   -0.009673
H    -0.787797    0.444430   -2.621826    0.012096   -0.011707    0.002846
H     0.543872    2.616815   -0.860400    0.108436   -0.010977   -0.059533
H    -0.846533   -0.068772   -0.096502   -0.092640    0.107670   -0.007422
H    -0.444102    2.807815    2.934960   -0.001044   -0.003653   -0.003968
H    -0.660416    3.312772    1.176847    0.004000   -0.000913   -0.004006
H     0.050042    0.461714    2.197061    0.012658   -0.004973   -0.013666
15
* Frequency(6) -1786.6596
C    -0.685552    1.500836   -2.375353    0.004352    0.003789    0.000488
C     0.072444    1.671877   -1.090211   -0.105031    0.118070   -0.035719
C    -0.219126    0.798474    0.068768    0.129727   -0.032551   -0.089011
C    -0.233151    2.615325    1.889036   -0.003986   -0.004937   -0.003419
C     0.054469    1.236884    1.437032    0.006074    0.016493    0.009333
O     1.090055    2.201669    1.604556   -0.002949   -0.004149    0.000089
H     0.862663    0.834294   -0.876158   -0.325196   -1.190222    1.544374
H    -1.697548    1.909635   -2.300008   -0.031504   -0.026707   -0.040404
H    -0.183394    1.991363   -3.207016   -0.010986    0.005460   -0.009673
H    -0.786571    0.443244   -2.621537    0.012096   -0.011707    0.002846
H     0.554859    2.615702   -0.866433    0.108436   -0.010977   -0.059533
H    -0.855921   -0.057861   -0.097254   -0.092640    0.107670   -0.007422
H    -0.444207    2.807445    2.934558   -0.001044   -0.003653   -0.003968
H    -0.660011    3.312680    1.176441    0.004000   -0.000913   -0.004006
H     0.051324    0.461210    2.195676    0.012658   -0.004973   -0.013666
15
* Frequency(6) -1786.6596
C    -0.685058    1.501267   -2.375297    0.004352    0.003789    0.000488
C     0.060508    1.685295   -1.094270   -0.105031    0.118070   -0.035719
C    -0.204384    0.794775    0.058653    0.129727   -0.032551   -0.089011
C    -0.233604    2.614763    1.888647   -0.003986   -0.004937   -0.003419
C     0.055159    1.238758    1.438093    0.006074    0.016493    0.009333
O     1.089719    2.201197    1.604566   -0.002949   -0.004149    0.000089
H     0.825706    0.699032   -0.700648   -0.325196   -1.190222    1.544374
H    -1.701128    1.906600   -2.304600   -0.031504   -0.026707   -0.040404
H    -0.184643    1.991983   -3.208115   -0.010986    0.005460   -0.009673
H    -0.785196    0.441913   -2.621214    0.012096   -0.011707    0.002846
H     0.567183    2.614455   -0.873198    0.108436   -0.010977   -0.059533
H    -0.866449   -0.045625   -0.098097   -0.092640    0.107670   -0.007422
H    -0.444326    2.807029    2.934107   -0.001044   -0.003653   -0.003968
H    -0.659557    3.312576    1.175986    0.004000   -0.000913   -0.004006
H     0.052763    0.460645    2.194123    0.012658   -0.004973   -0.013666
