17
Coordinates from ORCA-job freq E -421.367625953657
  C          -2.38823882825451     -0.28656826050285      0.37821820127897
  C           0.11791168621998     -0.54028666281158     -0.09128315839041
  C           2.28200783021863     -0.04114207671467     -1.44857651889295
  C           1.33304796123519      0.35955655411863     -0.03823862480054
  C          -0.98220816356279      0.06467128003096      0.80196830072850
  O           0.51995968704535      1.64611849934188      1.00389186395608
  O           1.64587586158814      1.13882215370512     -1.15652756058406
  O          -0.79214735589773      1.45410080677002      0.66156763532685
  H           2.10065232019211      0.25502016369250      0.71858944135172
  H          -2.56857991376982      0.05455809003455     -0.64104486224000
  H          -2.52960287023001     -1.36645978046038      0.41541042004993
  H          -3.11659116075466      0.18020758568377      1.03873827789649
  H          -0.24236059235592     -0.57054084657137     -1.12060182451135
  H           0.36470875505810     -1.55370238286733      0.22201524909348
  H           3.35399014957556     -0.06951366706025     -1.29844705854879
  H           1.81822645708357     -0.69381957093530     -2.17673984025830
  H          -0.79662882339117     -0.20731488545370      1.84528705854437
