17
* (null), Energy   -1000.0000000
C    -2.304211    0.477977   -1.787947   -0.101028    0.066272    0.069850
C    -0.157570    0.367324   -1.341316   -0.066480   -0.048397   -0.106262
C    -1.394993    0.942861   -0.659850   -0.023532    0.000971   -0.007526
C     0.619240   -0.741202   -0.748195    0.010928   -0.005180    0.017811
C     0.964817   -0.840690    0.679548    0.001891    0.002867   -0.007152
O     1.521711    1.142836    1.559605   -0.000095   -0.000016    0.000134
O    -0.063053   -1.610653    0.173636   -0.000747   -0.000026   -0.001992
O     0.517939    0.134781    1.567311   -0.000551    0.000862    0.000618
H    -1.089920   -0.078452   -2.252734    1.924549   -0.124403    0.414750
H    -2.996401   -0.329798   -1.580784    0.070351   -0.096243   -0.061870
H    -2.628133    1.208549   -2.520282    0.077967   -0.038777   -0.094694
H     0.441713    1.072101   -1.910145    0.074118    0.064859    0.158830
H    -1.356727    2.017966   -0.506073    0.010259   -0.002062    0.001791
H    -1.611044    0.456722    0.285353    0.005319   -0.006375   -0.003423
H     1.271791   -1.274052   -1.432719   -0.012095   -0.007027   -0.001516
H     1.854731   -1.362000    1.023534   -0.005050   -0.000828    0.002587
H     1.822342    1.117072    2.475220    0.000320    0.000827   -0.000251
17
* Frequency(6) -1932.8457
C    -2.315692    0.485508   -1.780009   -0.101028    0.066272    0.069850
C    -0.165125    0.361824   -1.353392   -0.066480   -0.048397   -0.106262
C    -1.397667    0.942972   -0.660705   -0.023532    0.000971   -0.007526
C     0.620482   -0.741790   -0.746171    0.010928   -0.005180    0.017811
C     0.965032   -0.840365    0.678735    0.001891    0.002867   -0.007152
O     1.521701    1.142835    1.559621   -0.000095   -0.000016    0.000134
O    -0.063138   -1.610656    0.173410   -0.000747   -0.000026   -0.001992
O     0.517876    0.134879    1.567381   -0.000551    0.000862    0.000618
H    -0.871204   -0.092590   -2.205600    1.924549   -0.124403    0.414750
H    -2.988406   -0.340735   -1.587815    0.070351   -0.096243   -0.061870
H    -2.619272    1.204142   -2.531043    0.077967   -0.038777   -0.094694
H     0.450136    1.079472   -1.892095    0.074118    0.064859    0.158830
H    -1.355561    2.017731   -0.505870    0.010259   -0.002062    0.001791
H    -1.610439    0.455997    0.284964    0.005319   -0.006375   -0.003423
H     1.270417   -1.274850   -1.432891   -0.012095   -0.007027   -0.001516
H     1.854157   -1.362094    1.023828   -0.005050   -0.000828    0.002587
H     1.822379    1.117166    2.475192    0.000320    0.000827   -0.000251
17
* Frequency(6) -1932.8457
C    -2.325929    0.492224   -1.772931   -0.101028    0.066272    0.069850
C    -0.171862    0.356920   -1.364160   -0.066480   -0.048397   -0.106262
C    -1.400052    0.943070   -0.661467   -0.023532    0.000971   -0.007526
C     0.621590   -0.742315   -0.744366    0.010928   -0.005180    0.017811
C     0.965223   -0.840074    0.678010    0.001891    0.002867   -0.007152
O     1.521691    1.142833    1.559634   -0.000095   -0.000016    0.000134
O    -0.063213   -1.610658    0.173208   -0.000747   -0.000026   -0.001992
O     0.517820    0.134966    1.567443   -0.000551    0.000862    0.000618
H    -0.676191   -0.105196   -2.163573    1.924549   -0.124403    0.414750
H    -2.981277   -0.350487   -1.594084    0.070351   -0.096243   -0.061870
H    -2.611372    1.200213   -2.540639    0.077967   -0.038777   -0.094694
H     0.457646    1.086045   -1.876001    0.074118    0.064859    0.158830
H    -1.354522    2.017523   -0.505688    0.010259   -0.002062    0.001791
H    -1.609900    0.455351    0.284617    0.005319   -0.006375   -0.003423
H     1.269191   -1.275562   -1.433045   -0.012095   -0.007027   -0.001516
H     1.853646   -1.362178    1.024090   -0.005050   -0.000828    0.002587
H     1.822411    1.117250    2.475166    0.000320    0.000827   -0.000251
17
* Frequency(6) -1932.8457
C    -2.333813    0.497395   -1.767480   -0.101028    0.066272    0.069850
C    -0.177049    0.353143   -1.372452   -0.066480   -0.048397   -0.106262
C    -1.401888    0.943146   -0.662055   -0.023532    0.000971   -0.007526
C     0.622442   -0.742719   -0.742976    0.010928   -0.005180    0.017811
C     0.965371   -0.839850    0.677452    0.001891    0.002867   -0.007152
O     1.521683    1.142832    1.559645   -0.000095   -0.000016    0.000134
O    -0.063272   -1.610661    0.173053   -0.000747   -0.000026   -0.001992
O     0.517777    0.135033    1.567492   -0.000551    0.000862    0.000618
H    -0.526011   -0.114903   -2.131209    1.924549   -0.124403    0.414750
H    -2.975787   -0.357998   -1.598912    0.070351   -0.096243   -0.061870
H    -2.605288    1.197187   -2.548028    0.077967   -0.038777   -0.094694
H     0.463430    1.091106   -1.863607    0.074118    0.064859    0.158830
H    -1.353721    2.017362   -0.505548    0.010259   -0.002062    0.001791
H    -1.609485    0.454854    0.284350    0.005319   -0.006375   -0.003423
H     1.268247   -1.276111   -1.433163   -0.012095   -0.007027   -0.001516
H     1.853251   -1.362242    1.024292   -0.005050   -0.000828    0.002587
H     1.822436    1.117315    2.475147    0.000320    0.000827   -0.000251
17
* Frequency(6) -1932.8457
C    -2.338489    0.500462   -1.764248   -0.101028    0.066272    0.069850
C    -0.180126    0.350903   -1.377370   -0.066480   -0.048397   -0.106262
C    -1.402977    0.943191   -0.662403   -0.023532    0.000971   -0.007526
C     0.622948   -0.742959   -0.742152    0.010928   -0.005180    0.017811
C     0.965459   -0.839718    0.677121    0.001891    0.002867   -0.007152
O     1.521679    1.142831    1.559651   -0.000095   -0.000016    0.000134
O    -0.063306   -1.610662    0.172960   -0.000747   -0.000026   -0.001992
O     0.517752    0.135073    1.567520   -0.000551    0.000862    0.000618
H    -0.436939   -0.120661   -2.112013    1.924549   -0.124403    0.414750
H    -2.972531   -0.362452   -1.601775    0.070351   -0.096243   -0.061870
H    -2.601680    1.195393   -2.552411    0.077967   -0.038777   -0.094694
H     0.466861    1.094108   -1.856256    0.074118    0.064859    0.158830
H    -1.353246    2.017266   -0.505466    0.010259   -0.002062    0.001791
H    -1.609239    0.454559    0.284192    0.005319   -0.006375   -0.003423
H     1.267688   -1.276436   -1.433233   -0.012095   -0.007027   -0.001516
H     1.853018   -1.362281    1.024411   -0.005050   -0.000828    0.002587
H     1.822451    1.117353    2.475135    0.000320    0.000827   -0.000251
17
* Frequency(6) -1932.8457
C    -2.339450    0.501093   -1.763583   -0.101028    0.066272    0.069850
C    -0.180759    0.350443   -1.378381   -0.066480   -0.048397   -0.106262
C    -1.403201    0.943200   -0.662474   -0.023532    0.000971   -0.007526
C     0.623052   -0.743008   -0.741983    0.010928   -0.005180    0.017811
C     0.965477   -0.839690    0.677053    0.001891    0.002867   -0.007152
O     1.521678    1.142831    1.559652   -0.000095   -0.000016    0.000134
O    -0.063313   -1.610662    0.172941   -0.000747   -0.000026   -0.001992
O     0.517747    0.135082    1.567526   -0.000551    0.000862    0.000618
H    -0.418628   -0.121844   -2.108067    1.924549   -0.124403    0.414750
H    -2.971862   -0.363368   -1.602364    0.070351   -0.096243   -0.061870
H    -2.600938    1.195024   -2.553311    0.077967   -0.038777   -0.094694
H     0.467566    1.094725   -1.854745    0.074118    0.064859    0.158830
H    -1.353149    2.017247   -0.505449    0.010259   -0.002062    0.001791
H    -1.609188    0.454498    0.284159    0.005319   -0.006375   -0.003423
H     1.267572   -1.276503   -1.433247   -0.012095   -0.007027   -0.001516
H     1.852970   -1.362288    1.024436   -0.005050   -0.000828    0.002587
H     1.822454    1.117361    2.475133    0.000320    0.000827   -0.000251
17
* Frequency(6) -1932.8457
C    -2.336593    0.499218   -1.765559   -0.101028    0.066272    0.069850
C    -0.178878    0.351812   -1.375375   -0.066480   -0.048397   -0.106262
C    -1.402535    0.943172   -0.662262   -0.023532    0.000971   -0.007526
C     0.622743   -0.742862   -0.742486    0.010928   -0.005180    0.017811
C     0.965423   -0.839771    0.677256    0.001891    0.002867   -0.007152
O     1.521681    1.142831    1.559649   -0.000095   -0.000016    0.000134
O    -0.063292   -1.610661    0.172998   -0.000747   -0.000026   -0.001992
O     0.517762    0.135057    1.567509   -0.000551    0.000862    0.000618
H    -0.473062   -0.118326   -2.119798    1.924549   -0.124403    0.414750
H    -2.973852   -0.360645   -1.600614    0.070351   -0.096243   -0.061870
H    -2.603143    1.196120   -2.550633    0.077967   -0.038777   -0.094694
H     0.465469    1.092890   -1.859237    0.074118    0.064859    0.158830
H    -1.353439    2.017305   -0.505499    0.010259   -0.002062    0.001791
H    -1.609339    0.454678    0.284256    0.005319   -0.006375   -0.003423
H     1.267915   -1.276304   -1.433205   -0.012095   -0.007027   -0.001516
H     1.853113   -1.362265    1.024363   -0.005050   -0.000828    0.002587
H     1.822445    1.117338    2.475140    0.000320    0.000827   -0.000251
17
* Frequency(6) -1932.8457
C    -2.330226    0.495042   -1.769960   -0.101028    0.066272    0.069850
C    -0.174689    0.354861   -1.368679   -0.066480   -0.048397   -0.106262
C    -1.401053    0.943111   -0.661787   -0.023532    0.000971   -0.007526
C     0.622054   -0.742536   -0.743609    0.010928   -0.005180    0.017811
C     0.965304   -0.839952    0.677706    0.001891    0.002867   -0.007152
O     1.521687    1.142832    1.559640   -0.000095   -0.000016    0.000134
O    -0.063245   -1.610660    0.173123   -0.000747   -0.000026   -0.001992
O     0.517797    0.135003    1.567470   -0.000551    0.000862    0.000618
H    -0.594342   -0.110486   -2.145935    1.924549   -0.124403    0.414750
H    -2.978285   -0.354580   -1.596715    0.070351   -0.096243   -0.061870
H    -2.608056    1.198564   -2.544666    0.077967   -0.038777   -0.094694
H     0.460799    1.088803   -1.869246    0.074118    0.064859    0.158830
H    -1.354085    2.017435   -0.505612    0.010259   -0.002062    0.001791
H    -1.609674    0.455080    0.284472    0.005319   -0.006375   -0.003423
H     1.268677   -1.275861   -1.433109   -0.012095   -0.007027   -0.001516
H     1.853431   -1.362213    1.024200   -0.005050   -0.000828    0.002587
H     1.822425    1.117286    2.475156    0.000320    0.000827   -0.000251
17
* Frequency(6) -1932.8457
C    -2.321040    0.489016   -1.776311   -0.101028    0.066272    0.069850
C    -0.168644    0.359262   -1.359017   -0.066480   -0.048397   -0.106262
C    -1.398913    0.943023   -0.661103   -0.023532    0.000971   -0.007526
C     0.621061   -0.742065   -0.745228    0.010928   -0.005180    0.017811
C     0.965132   -0.840213    0.678356    0.001891    0.002867   -0.007152
O     1.521696    1.142834    1.559628   -0.000095   -0.000016    0.000134
O    -0.063177   -1.610657    0.173305   -0.000747   -0.000026   -0.001992
O     0.517847    0.134924    1.567413   -0.000551    0.000862    0.000618
H    -0.769325   -0.099175   -2.183644    1.924549   -0.124403    0.414750
H    -2.984682   -0.345830   -1.591090    0.070351   -0.096243   -0.061870
H    -2.615145    1.202090   -2.536056    0.077967   -0.038777   -0.094694
H     0.454060    1.082906   -1.883687    0.074118    0.064859    0.158830
H    -1.355018    2.017622   -0.505775    0.010259   -0.002062    0.001791
H    -1.610157    0.455660    0.284783    0.005319   -0.006375   -0.003423
H     1.269777   -1.275222   -1.432971   -0.012095   -0.007027   -0.001516
H     1.853890   -1.362137    1.023965   -0.005050   -0.000828    0.002587
H     1.822396    1.117210    2.475178    0.000320    0.000827   -0.000251
17
* Frequency(6) -1932.8457
C    -2.310031    0.481794   -1.783923   -0.101028    0.066272    0.069850
C    -0.161400    0.364536   -1.347438   -0.066480   -0.048397   -0.106262
C    -1.396349    0.942917   -0.660283   -0.023532    0.000971   -0.007526
C     0.619870   -0.741500   -0.747169    0.010928   -0.005180    0.017811
C     0.964926   -0.840525    0.679136    0.001891    0.002867   -0.007152
O     1.521706    1.142835    1.559613   -0.000095   -0.000016    0.000134
O    -0.063096   -1.610654    0.173522   -0.000747   -0.000026   -0.001992
O     0.517907    0.134830    1.567346   -0.000551    0.000862    0.000618
H    -0.979050   -0.085619   -2.228841    1.924549   -0.124403    0.414750
H    -2.992348   -0.335342   -1.584348    0.070351   -0.096243   -0.061870
H    -2.623641    1.206315   -2.525737    0.077967   -0.038777   -0.094694
H     0.445983    1.075838   -1.900996    0.074118    0.064859    0.158830
H    -1.356136    2.017847   -0.505970    0.010259   -0.002062    0.001791
H    -1.610737    0.456354    0.285156    0.005319   -0.006375   -0.003423
H     1.271095   -1.274456   -1.432806   -0.012095   -0.007027   -0.001516
H     1.854440   -1.362047    1.023683   -0.005050   -0.000828    0.002587
H     1.822361    1.117120    2.475206    0.000320    0.000827   -0.000251
17
* Frequency(6) -1932.8457
C    -2.298391    0.474159   -1.791971   -0.101028    0.066272    0.069850
C    -0.153740    0.370112   -1.335194   -0.066480   -0.048397   -0.106262
C    -1.393637    0.942805   -0.659416   -0.023532    0.000971   -0.007526
C     0.618611   -0.740903   -0.749221    0.010928   -0.005180    0.017811
C     0.964708   -0.840856    0.679960    0.001891    0.002867   -0.007152
O     1.521717    1.142837    1.559598   -0.000095   -0.000016    0.000134
O    -0.063010   -1.610651    0.173751   -0.000747   -0.000026   -0.001992
O     0.517970    0.134731    1.567275   -0.000551    0.000862    0.000618
H    -1.200789   -0.071286   -2.276627    1.924549   -0.124403    0.414750
H    -3.000454   -0.324253   -1.577219    0.070351   -0.096243   -0.061870
H    -2.632625    1.210783   -2.514826    0.077967   -0.038777   -0.094694
H     0.437443    1.068365   -1.919295    0.074118    0.064859    0.158830
H    -1.357318    2.018085   -0.506176    0.010259   -0.002062    0.001791
H    -1.611350    0.457089    0.285550    0.005319   -0.006375   -0.003423
H     1.272488   -1.273647   -1.432632   -0.012095   -0.007027   -0.001516
H     1.855022   -1.361952    1.023385   -0.005050   -0.000828    0.002587
H     1.822324    1.117025    2.475235    0.000320    0.000827   -0.000251
17
* Frequency(6) -1932.8457
C    -2.287382    0.466937   -1.799583   -0.101028    0.066272    0.069850
C    -0.146496    0.375386   -1.323615   -0.066480   -0.048397   -0.106262
C    -1.391073    0.942700   -0.658596   -0.023532    0.000971   -0.007526
C     0.617420   -0.740339   -0.751162    0.010928   -0.005180    0.017811
C     0.964502   -0.841168    0.680739    0.001891    0.002867   -0.007152
O     1.521727    1.142839    1.559583   -0.000095   -0.000016    0.000134
O    -0.062928   -1.610649    0.173968   -0.000747   -0.000026   -0.001992
O     0.518030    0.134637    1.567208   -0.000551    0.000862    0.000618
H    -1.410514   -0.057729   -2.321824    1.924549   -0.124403    0.414750
H    -3.008120   -0.313765   -1.570477    0.070351   -0.096243   -0.061870
H    -2.641121    1.215009   -2.504507    0.077967   -0.038777   -0.094694
H     0.429366    1.061297   -1.936604    0.074118    0.064859    0.158830
H    -1.358436    2.018309   -0.506372    0.010259   -0.002062    0.001791
H    -1.611930    0.457784    0.285923    0.005319   -0.006375   -0.003423
H     1.273806   -1.272881   -1.432466   -0.012095   -0.007027   -0.001516
H     1.855573   -1.361862    1.023103   -0.005050   -0.000828    0.002587
H     1.822289    1.116935    2.475262    0.000320    0.000827   -0.000251
17
* Frequency(6) -1932.8457
C    -2.278196    0.460911   -1.805934   -0.101028    0.066272    0.069850
C    -0.140451    0.379786   -1.313953   -0.066480   -0.048397   -0.106262
C    -1.388933    0.942611   -0.657912   -0.023532    0.000971   -0.007526
C     0.616426   -0.739868   -0.752782    0.010928   -0.005180    0.017811
C     0.964330   -0.841429    0.681389    0.001891    0.002867   -0.007152
O     1.521736    1.142840    1.559571   -0.000095   -0.000016    0.000134
O    -0.062860   -1.610646    0.174149   -0.000747   -0.000026   -0.001992
O     0.518080    0.134559    1.567151   -0.000551    0.000862    0.000618
H    -1.585497   -0.046418   -2.359534    1.924549   -0.124403    0.414750
H    -3.014516   -0.305015   -1.564852    0.070351   -0.096243   -0.061870
H    -2.648210    1.218534   -2.495897    0.077967   -0.038777   -0.094694
H     0.422627    1.055400   -1.951045    0.074118    0.064859    0.158830
H    -1.359369    2.018497   -0.506534    0.010259   -0.002062    0.001791
H    -1.612413    0.458363    0.286234    0.005319   -0.006375   -0.003423
H     1.274906   -1.272242   -1.432329   -0.012095   -0.007027   -0.001516
H     1.856032   -1.361786    1.022867   -0.005050   -0.000828    0.002587
H     1.822260    1.116859    2.475285    0.000320    0.000827   -0.000251
17
* Frequency(6) -1932.8457
C    -2.271829    0.456735   -1.810336   -0.101028    0.066272    0.069850
C    -0.136262    0.382836   -1.307257   -0.066480   -0.048397   -0.106262
C    -1.387450    0.942550   -0.657437   -0.023532    0.000971   -0.007526
C     0.615737   -0.739542   -0.753904    0.010928   -0.005180    0.017811
C     0.964211   -0.841609    0.681840    0.001891    0.002867   -0.007152
O     1.521742    1.142841    1.559562   -0.000095   -0.000016    0.000134
O    -0.062813   -1.610645    0.174275   -0.000747   -0.000026   -0.001992
O     0.518115    0.134504    1.567113   -0.000551    0.000862    0.000618
H    -1.706777   -0.038579   -2.385670    1.924549   -0.124403    0.414750
H    -3.018950   -0.298950   -1.560953    0.070351   -0.096243   -0.061870
H    -2.653123    1.220978   -2.489930    0.077967   -0.038777   -0.094694
H     0.417956    1.051313   -1.961054    0.074118    0.064859    0.158830
H    -1.360015    2.018627   -0.506647    0.010259   -0.002062    0.001791
H    -1.612749    0.458765    0.286450    0.005319   -0.006375   -0.003423
H     1.275668   -1.271799   -1.432233   -0.012095   -0.007027   -0.001516
H     1.856350   -1.361734    1.022704   -0.005050   -0.000828    0.002587
H     1.822240    1.116807    2.475301    0.000320    0.000827   -0.000251
17
* Frequency(6) -1932.8457
C    -2.268972    0.454861   -1.812311   -0.101028    0.066272    0.069850
C    -0.134382    0.384205   -1.304251   -0.066480   -0.048397   -0.106262
C    -1.386785    0.942523   -0.657225   -0.023532    0.000971   -0.007526
C     0.615428   -0.739395   -0.754408    0.010928   -0.005180    0.017811
C     0.964157   -0.841691    0.682042    0.001891    0.002867   -0.007152
O     1.521745    1.142842    1.559559   -0.000095   -0.000016    0.000134
O    -0.062792   -1.610644    0.174331   -0.000747   -0.000026   -0.001992
O     0.518131    0.134480    1.567095   -0.000551    0.000862    0.000618
H    -1.761211   -0.035060   -2.397401    1.924549   -0.124403    0.414750
H    -3.020939   -0.296228   -1.559203    0.070351   -0.096243   -0.061870
H    -2.655328    1.222075   -2.487252    0.077967   -0.038777   -0.094694
H     0.415860    1.049478   -1.965546    0.074118    0.064859    0.158830
H    -1.360306    2.018685   -0.506698    0.010259   -0.002062    0.001791
H    -1.612899    0.458945    0.286547    0.005319   -0.006375   -0.003423
H     1.276010   -1.271600   -1.432190   -0.012095   -0.007027   -0.001516
H     1.856493   -1.361711    1.022631   -0.005050   -0.000828    0.002587
H     1.822231    1.116784    2.475308    0.000320    0.000827   -0.000251
17
* Frequency(6) -1932.8457
C    -2.269933    0.455491   -1.811647   -0.101028    0.066272    0.069850
C    -0.135014    0.383745   -1.305262   -0.066480   -0.048397   -0.106262
C    -1.387009    0.942532   -0.657296   -0.023532    0.000971   -0.007526
C     0.615532   -0.739444   -0.754239    0.010928   -0.005180    0.017811
C     0.964175   -0.841663    0.681974    0.001891    0.002867   -0.007152
O     1.521744    1.142842    1.559560   -0.000095   -0.000016    0.000134
O    -0.062799   -1.610644    0.174312   -0.000747   -0.000026   -0.001992
O     0.518125    0.134488    1.567101   -0.000551    0.000862    0.000618
H    -1.742900   -0.036244   -2.393455    1.924549   -0.124403    0.414750
H    -3.020270   -0.297143   -1.559792    0.070351   -0.096243   -0.061870
H    -2.654586    1.221706   -2.488153    0.077967   -0.038777   -0.094694
H     0.416565    1.050095   -1.964035    0.074118    0.064859    0.158830
H    -1.360208    2.018665   -0.506681    0.010259   -0.002062    0.001791
H    -1.612848    0.458884    0.286514    0.005319   -0.006375   -0.003423
H     1.275895   -1.271667   -1.432205   -0.012095   -0.007027   -0.001516
H     1.856445   -1.361719    1.022656   -0.005050   -0.000828    0.002587
H     1.822234    1.116792    2.475305    0.000320    0.000827   -0.000251
17
* Frequency(6) -1932.8457
C    -2.274609    0.458558   -1.808414   -0.101028    0.066272    0.069850
C    -0.138091    0.381505   -1.310180   -0.066480   -0.048397   -0.106262
C    -1.388098    0.942577   -0.657644   -0.023532    0.000971   -0.007526
C     0.616038   -0.739684   -0.753414    0.010928   -0.005180    0.017811
C     0.964263   -0.841531    0.681643    0.001891    0.002867   -0.007152
O     1.521739    1.142841    1.559566   -0.000095   -0.000016    0.000134
O    -0.062834   -1.610645    0.174220   -0.000747   -0.000026   -0.001992
O     0.518100    0.134528    1.567130   -0.000551    0.000862    0.000618
H    -1.653828   -0.042001   -2.374259    1.924549   -0.124403    0.414750
H    -3.017014   -0.301598   -1.562655    0.070351   -0.096243   -0.061870
H    -2.650978    1.219911   -2.492535    0.077967   -0.038777   -0.094694
H     0.419996    1.053097   -1.956684    0.074118    0.064859    0.158830
H    -1.359733    2.018570   -0.506598    0.010259   -0.002062    0.001791
H    -1.612602    0.458589    0.286356    0.005319   -0.006375   -0.003423
H     1.275335   -1.271992   -1.432275   -0.012095   -0.007027   -0.001516
H     1.856211   -1.361757    1.022776   -0.005050   -0.000828    0.002587
H     1.822249    1.116830    2.475294    0.000320    0.000827   -0.000251
17
* Frequency(6) -1932.8457
C    -2.282493    0.463730   -1.802963   -0.101028    0.066272    0.069850
C    -0.143279    0.377728   -1.318472   -0.066480   -0.048397   -0.106262
C    -1.389934    0.942653   -0.658232   -0.023532    0.000971   -0.007526
C     0.616891   -0.740088   -0.752024    0.010928   -0.005180    0.017811
C     0.964410   -0.841307    0.681085    0.001891    0.002867   -0.007152
O     1.521732    1.142840    1.559577   -0.000095   -0.000016    0.000134
O    -0.062892   -1.610647    0.174065   -0.000747   -0.000026   -0.001992
O     0.518057    0.134595    1.567178   -0.000551    0.000862    0.000618
H    -1.503648   -0.051709   -2.341895    1.924549   -0.124403    0.414750
H    -3.011524   -0.309108   -1.567483    0.070351   -0.096243   -0.061870
H    -2.644894    1.216885   -2.499925    0.077967   -0.038777   -0.094694
H     0.425779    1.058158   -1.944290    0.074118    0.064859    0.158830
H    -1.358933    2.018409   -0.506458    0.010259   -0.002062    0.001791
H    -1.612187    0.458092    0.286089    0.005319   -0.006375   -0.003423
H     1.274392   -1.272541   -1.432393   -0.012095   -0.007027   -0.001516
H     1.855817   -1.361822    1.022977   -0.005050   -0.000828    0.002587
H     1.822274    1.116895    2.475274    0.000320    0.000827   -0.000251
17
* Frequency(6) -1932.8457
C    -2.292730    0.470445   -1.795885   -0.101028    0.066272    0.069850
C    -0.150015    0.372824   -1.329240   -0.066480   -0.048397   -0.106262
C    -1.392319    0.942751   -0.658994   -0.023532    0.000971   -0.007526
C     0.617998   -0.740613   -0.750219    0.010928   -0.005180    0.017811
C     0.964602   -0.841016    0.680360    0.001891    0.002867   -0.007152
O     1.521722    1.142838    1.559590   -0.000095   -0.000016    0.000134
O    -0.062968   -1.610650    0.173863   -0.000747   -0.000026   -0.001992
O     0.518001    0.134683    1.567240   -0.000551    0.000862    0.000618
H    -1.308635   -0.064315   -2.299868    1.924549   -0.124403    0.414750
H    -3.004396   -0.318860   -1.573752    0.070351   -0.096243   -0.061870
H    -2.636994    1.212956   -2.509520    0.077967   -0.038777   -0.094694
H     0.433290    1.064731   -1.928196    0.074118    0.064859    0.158830
H    -1.357893    2.018200   -0.506277    0.010259   -0.002062    0.001791
H    -1.611648    0.457446    0.285742    0.005319   -0.006375   -0.003423
H     1.273166   -1.273253   -1.432547   -0.012095   -0.007027   -0.001516
H     1.855305   -1.361905    1.023240   -0.005050   -0.000828    0.002587
H     1.822306    1.116978    2.475249    0.000320    0.000827   -0.000251
17
* Frequency(6) -1932.8457
C    -2.304211    0.477977   -1.787947   -0.101028    0.066272    0.069850
C    -0.157570    0.367324   -1.341316   -0.066480   -0.048397   -0.106262
C    -1.394993    0.942861   -0.659850   -0.023532    0.000971   -0.007526
C     0.619240   -0.741202   -0.748195    0.010928   -0.005180    0.017811
C     0.964817   -0.840690    0.679548    0.001891    0.002867   -0.007152
O     1.521711    1.142836    1.559605   -0.000095   -0.000016    0.000134
O    -0.063053   -1.610653    0.173636   -0.000747   -0.000026   -0.001992
O     0.517939    0.134781    1.567311   -0.000551    0.000862    0.000618
H    -1.089920   -0.078452   -2.252734    1.924549   -0.124403    0.414750
H    -2.996401   -0.329798   -1.580784    0.070351   -0.096243   -0.061870
H    -2.628133    1.208549   -2.520282    0.077967   -0.038777   -0.094694
H     0.441713    1.072101   -1.910145    0.074118    0.064859    0.158830
H    -1.356727    2.017966   -0.506073    0.010259   -0.002062    0.001791
H    -1.611044    0.456722    0.285353    0.005319   -0.006375   -0.003423
H     1.271791   -1.274052   -1.432719   -0.012095   -0.007027   -0.001516
H     1.854731   -1.362000    1.023534   -0.005050   -0.000828    0.002587
H     1.822342    1.117072    2.475220    0.000320    0.000827   -0.000251
