17
Coordinates from ORCA-job freq E -421.377426617268
  C      -1.328010      2.580379     -0.839217
  C       2.867880      0.076751     -0.003067
  C       1.472493     -0.026895     -0.215236
  C       0.511656      1.088325      0.033117
  C      -0.227536      1.598184     -1.227924
  O       2.891532      0.070420     -1.311395
  O       1.197525      1.445176     -3.074634
  O       0.654277      2.292924     -2.089564
  H      -0.898602      3.425306     -0.308425
  H      -1.816371      2.950014     -1.736173
  H      -2.063699      2.092149     -0.206452
  H       3.645979     -0.175061      0.684357
  H       1.070317     -0.906937     -0.707522
  H       1.019544      1.932696      0.501117
  H      -0.243005      0.697863      0.722916
  H      -0.657722      0.748440     -1.773860
  H       1.997775      1.058062     -2.664700
17
Coordinates from ORCA-job freq E -421.378888664552
  C      -1.316723      2.601371     -0.831288
  C       2.877027      0.072084      0.010465
  C       1.492069     -0.006055     -0.269056
  C       0.503480      1.077435     -0.004125
  C      -0.253767      1.595739     -1.235340
  O       2.980541      0.116528     -1.283814
  O       1.162804      1.349194     -3.042399
  O       0.614403      2.275723     -2.124979
  H      -0.856410      3.453650     -0.331579
  H      -1.840711      2.961060     -1.713596
  H      -2.034503      2.144721     -0.151586
  H       3.621455     -0.185767      0.745955
  H       1.123665     -0.890181     -0.781030
  H       0.982592      1.917484      0.498609
  H      -0.239403      0.645015      0.678789
  H      -0.702545      0.759225     -1.777610
  H       1.980058      1.060569     -2.604078
17
Coordinates from ORCA-job freq E -421.379020913032
  C      -1.323334      2.607180     -0.824853
  C       2.876706      0.048249      0.043959
  C       1.505789      0.011892     -0.307331
  C       0.514625      1.088645     -0.025790
  C      -0.277125      1.589219     -1.239444
  O       3.052695      0.175032     -1.235459
  O       1.158048      1.291766     -3.019888
  O       0.561218      2.252890     -2.168885
  H      -0.844732      3.472936     -0.366950
  H      -1.882280      2.941967     -1.695508
  H      -2.013807      2.169918     -0.105022
  H       3.575038     -0.280530      0.797635
  H       1.154714     -0.833983     -0.892287
  H       0.995050      1.935371      0.464379
  H      -0.204463      0.650895      0.680339
  H      -0.745501      0.744712     -1.752967
  H       1.991392      1.081637     -2.568590
17
Coordinates from ORCA-job freq E -421.379123809711
  C      -1.308958      2.618629     -0.814506
  C       2.866792      0.043932      0.069640
  C       1.511985      0.005397     -0.332454
  C       0.508102      1.069283     -0.041155
  C      -0.292838      1.577333     -1.244408
  O       3.075960      0.219596     -1.200722
  O       1.136060      1.253074     -3.026348
  O       0.544259      2.227636     -2.186005
  H      -0.803258      3.469932     -0.357900
  H      -1.870666      2.971719     -1.676339
  H      -2.001444      2.196373     -0.087185
  H       3.561000     -0.240353      0.844642
  H       1.185065     -0.830804     -0.943188
  H       0.983517      1.915715      0.454569
  H      -0.204335      0.622751      0.666461
  H      -0.784239      0.741766     -1.750042
  H       1.987031      1.085816     -2.591720
17
Coordinates from ORCA-job freq E -421.379130563506
  C      -1.307990      2.618734     -0.817603
  C       2.869327      0.049118      0.060080
  C       1.509329      0.003736     -0.322722
  C       0.503965      1.066106     -0.033095
  C      -0.286289      1.580579     -1.241821
  O       3.065765      0.210773     -1.213683
  O       1.137504      1.266133     -3.030403
  O       0.557843      2.234295     -2.174315
  H      -0.806520      3.477233     -0.369941
  H      -1.873393      2.960983     -1.681400
  H      -1.996512      2.198624     -0.085352
  H       3.569277     -0.230736      0.831644
  H       1.178908     -0.839023     -0.922597
  H       0.975366      1.908727      0.472842
  H      -0.215552      0.614671      0.663804
  H      -0.772581      0.746498     -1.754583
  H       1.985588      1.081344     -2.597517
17
Coordinates from ORCA-job freq E -421.379125566930
  C      -1.307767      2.619589     -0.817629
  C       2.870475      0.051919      0.060751
  C       1.510526      0.005944     -0.323475
  C       0.503704      1.066658     -0.033150
  C      -0.287179      1.580243     -1.241611
  O       3.069093      0.217245     -1.211799
  O       1.135455      1.259986     -3.028993
  O       0.556359      2.231466     -2.176237
  H      -0.805938      3.476215     -0.366846
  H      -1.870925      2.964513     -1.681826
  H      -1.998410      2.198988     -0.087629
  H       3.568198     -0.237674      0.830974
  H       1.181797     -0.835369     -0.926262
  H       0.973671      1.909526      0.473695
  H      -0.215301      0.613849      0.663486
  H      -0.774700      0.745852     -1.752729
  H       1.984975      1.078843     -2.597380
17
Coordinates from ORCA-job freq E -421.379106014980
  C      -1.308019      2.619239     -0.817520
  C       2.870097      0.050829      0.061585
  C       1.510407      0.005506     -0.323635
  C       0.504214      1.066941     -0.033483
  C      -0.287508      1.579897     -1.241739
  O       3.069579      0.217395     -1.210704
  O       1.135820      1.260473     -3.029288
  O       0.555052      2.231453     -2.177040
  H      -0.806113      3.475846     -0.366791
  H      -1.871257      2.964203     -1.681642
  H      -1.998585      2.198606     -0.087478
  H       3.567517     -0.238964      0.831967
  H       1.181675     -0.835025     -0.927477
  H       0.975322      1.910185      0.471671
  H      -0.214235      0.615519      0.664605
  H      -0.775268      0.745332     -1.752369
  H       1.985335      1.080359     -2.597324
17
Coordinates from ORCA-job freq E -421.379082448195
  C      -1.308287      2.619174     -0.817425
  C       2.869929      0.049902      0.062447
  C       1.510645      0.005844     -0.324400
  C       0.504693      1.067431     -0.033919
  C      -0.287982      1.579692     -1.241781
  O       3.071068      0.218759     -1.209242
  O       1.135673      1.259376     -3.028886
  O       0.553725      2.230932     -2.178091
  H      -0.806152      3.475991     -0.367352
  H      -1.872062      2.963764     -1.681348
  H      -1.998397      2.198813     -0.086797
  H       3.566284     -0.241638      0.833138
  H       1.182271     -0.833448     -0.930156
  H       0.976228      1.910885      0.470496
  H      -0.213109      0.616397      0.665103
  H      -0.776025      0.744779     -1.751603
  H       1.985530      1.081143     -2.596846
17
Coordinates from ORCA-job freq E -421.379115615501
  C      -1.308251      2.619219     -0.817409
  C       2.869891      0.049787      0.062630
  C       1.510700      0.005899     -0.324551
  C       0.504684      1.067395     -0.033937
  C      -0.288052      1.579642     -1.241763
  O       3.071330      0.219239     -1.208933
  O       1.135543      1.259123     -3.028871
  O       0.553610      2.230787     -2.178183
  H      -0.805987      3.476141     -0.367667
  H      -1.872250      2.963588     -1.681278
  H      -1.998183      2.199042     -0.086509
  H       3.566080     -0.241975      0.833387
  H       1.182484     -0.833130     -0.930762
  H       0.976173      1.910857      0.470515
  H      -0.213052      0.616302      0.665115
  H      -0.776200      0.744734     -1.751489
  H       1.985512      1.081145     -2.596956
