17
Coordinates from ORCA-job freq E -421.439680279068
  C          -2.11778890039003      0.04945686140319      0.98448586086366
  C           0.20094576457114     -0.55724545358288      0.14783530955323
  C           2.73211585070997     -0.24441811732626     -0.29016419462557
  C          -0.99918832222337      0.36248537657344      0.01599302259438
  C           1.34182855716210     -0.12968928168564     -0.73220323500638
  O          -2.33253718882380      1.08303185540470     -1.69053194530115
  O           2.06226847127244      1.00426750607180     -0.27814177342397
  O          -1.48100291074947      0.17209799607372     -1.34524516798456
  H          -1.78463664037239      0.23639693271779      2.00463583813811
  H          -2.41259578728037     -0.99683561145704      0.89829895759195
  H          -2.97923801597017      0.68066966120953      0.77679377372532
  H           0.52982780836585     -0.54500852811308      1.18831584523209
  H          -0.10459257583477     -1.57777030471903     -0.09670418388213
  H           2.93937460739696     -0.66466685103215      0.68781549756248
  H           3.52389839479664     -0.33606483605547     -1.02356128137153
  H          -0.69403960818396      1.40753947820009      0.08572331868819
  H           1.14476749555320     -0.12720768368272     -1.79951264235411
