17
Coordinates from ORCA-job freq E -421.376174490623
  C       2.397552     -0.244754     -0.851313
  C      -2.673126      0.158107     -0.320204
  C      -1.295297      0.616984      0.149916
  C      -0.209716     -0.027526     -0.668907
  C       1.126974     -0.316951     -0.084882
  O       2.640288      0.381002      1.436512
  O       0.212680     -1.325861     -0.311983
  O       1.336725     -0.046493      1.270702
  H       3.036997     -0.010083      0.365901
  H       2.650180     -1.132282     -1.411459
  H       2.605528      0.688204     -1.356506
  H      -3.445852      0.614415      0.292316
  H      -2.839129      0.441088     -1.357328
  H      -2.752782     -0.922573     -0.237901
  H      -1.143991      0.348261      1.196186
  H      -1.206641      1.701519      0.053326
  H      -0.249703      0.143922     -1.742584
17
Coordinates from ORCA-job freq E -421.377846819050
  C       2.406651     -0.253744     -0.845661
  C      -2.675401      0.165572     -0.321415
  C      -1.297560      0.609005      0.161351
  C      -0.207129     -0.012805     -0.664527
  C       1.119304     -0.319484     -0.090828
  O       2.617619      0.433550      1.405723
  O       0.212128     -1.330437     -0.330799
  O       1.347093     -0.104157      1.277192
  H       3.031502      0.038872      0.345009
  H       2.703905     -1.167204     -1.341681
  H       2.593627      0.652732     -1.406356
  H      -3.453538      0.611815      0.293201
  H      -2.838586      0.468848     -1.354511
  H      -2.764685     -0.916945     -0.262552
  H      -1.147067      0.324882      1.203322
  H      -1.204620      1.695190      0.090107
  H      -0.252558      0.171287     -1.735784
17
Coordinates from ORCA-job freq E -421.378977940609
  C       2.418048     -0.269439     -0.835753
  C      -2.671515      0.150561     -0.311032
  C      -1.302496      0.629563      0.162202
  C      -0.204213      0.041873     -0.675503
  C       1.106450     -0.303461     -0.107724
  O       2.598088      0.434259      1.394675
  O       0.193352     -1.300869     -0.377197
  O       1.338085     -0.141306      1.270977
  H       3.025216      0.045139      0.335246
  H       2.745368     -1.213036     -1.253554
  H       2.610890      0.598032     -1.454168
  H      -3.460743      0.563953      0.313358
  H      -2.857229      0.454386     -1.340894
  H      -2.727404     -0.935675     -0.260321
  H      -1.135896      0.343584      1.200838
  H      -1.236169      1.718296      0.102654
  H      -0.249146      0.251118     -1.742015
17
Coordinates from ORCA-job freq E -421.379361431608
  C       2.421692     -0.275009     -0.833390
  C      -2.669588      0.153480     -0.307976
  C      -1.299256      0.627783      0.165787
  C      -0.201571      0.048500     -0.677270
  C       1.105222     -0.315663     -0.111652
  O       2.567798      0.463394      1.386595
  O       0.188046     -1.303380     -0.396035
  O       1.341851     -0.184840      1.270444
  H       3.014729      0.081672      0.330677
  H       2.772572     -1.224654     -1.218946
  H       2.598683      0.575174     -1.480214
  H      -3.458039      0.565969      0.318451
  H      -2.856289      0.463065     -1.336275
  H      -2.729447     -0.932930     -0.263046
  H      -1.129316      0.337034      1.202449
  H      -1.233108      1.716949      0.113382
  H      -0.243294      0.270435     -1.741193
17
Coordinates from ORCA-job freq E -421.379921163595
  C       2.427100     -0.283985     -0.829478
  C      -2.665950      0.150628     -0.303430
  C      -1.299089      0.632207      0.172528
  C      -0.198352      0.075684     -0.680920
  C       1.098280     -0.316539     -0.121966
  O       2.543837      0.474770      1.378449
  O       0.176981     -1.291483     -0.431417
  O       1.336361     -0.213981      1.263072
  H       3.001695      0.117919      0.314438
  H       2.818698     -1.248572     -1.131818
  H       2.587785      0.518912     -1.538137
  H      -3.458017      0.543345      0.331410
  H      -2.860775      0.473828     -1.326315
  H      -2.713941     -0.937264     -0.275957
  H      -1.122503      0.329302      1.204541
  H      -1.243138      1.722566      0.136756
  H      -0.238289      0.319643     -1.739966
17
Coordinates from ORCA-job freq E -421.380507715350
  C       2.431291     -0.295385     -0.825796
  C      -2.655553      0.149731     -0.291919
  C      -1.289008      0.639894      0.176461
  C      -0.190700      0.097449     -0.687133
  C       1.096040     -0.343781     -0.134934
  O       2.466440      0.509299      1.373814
  O       0.158343     -1.286996     -0.483721
  O       1.341933     -0.308865      1.251767
  H       2.963508      0.194275      0.308455
  H       2.864611     -1.262918     -1.057838
  H       2.569148      0.460458     -1.589050
  H      -3.446998      0.538124      0.346719
  H      -2.858931      0.470218     -1.314232
  H      -2.697159     -0.938531     -0.262872
  H      -1.102659      0.336535      1.206363
  H      -1.241449      1.730821      0.143366
  H      -0.218173      0.376651     -1.737660
17
Coordinates from ORCA-job freq E -421.380917147947
  C       2.433358     -0.299873     -0.825265
  C      -2.651289      0.150879     -0.287489
  C      -1.285131      0.639449      0.183469
  C      -0.187044      0.111873     -0.689266
  C       1.091907     -0.352557     -0.146338
  O       2.437314      0.516792      1.368101
  O       0.150476     -1.283015     -0.515679
  O       1.338504     -0.337363      1.240633
  H       2.938728      0.239734      0.291221
  H       2.906817     -1.264706     -0.977464
  H       2.556323      0.404290     -1.638684
  H      -3.443015      0.529348      0.356873
  H      -2.857986      0.482765     -1.305648
  H      -2.690071     -0.937829     -0.271595
  H      -1.095009      0.324832      1.209301
  H      -1.240947      1.730789      0.163729
  H      -0.212249      0.411571     -1.734109
17
Coordinates from ORCA-job freq E -421.381146036170
  C       2.434808     -0.303955     -0.825019
  C      -2.646229      0.151003     -0.281418
  C      -1.280169      0.640797      0.188502
  C      -0.183089      0.126037     -0.692891
  C       1.087976     -0.363194     -0.158592
  O       2.405597      0.519625      1.364890
  O       0.141216     -1.278147     -0.549300
  O       1.334824     -0.369669      1.228336
  H       2.909850      0.284473      0.275995
  H       2.944352     -1.259815     -0.902656
  H       2.547648      0.349089     -1.681390
  H      -3.437426      0.522040      0.368004
  H      -2.857571      0.489414     -1.296560
  H      -2.681360     -0.937951     -0.273502
  H      -1.084859      0.318524      1.210956
  H      -1.240283      1.732389      0.178043
  H      -0.204600      0.446319     -1.731607
17
Coordinates from ORCA-job freq E -421.381206924362
  C       2.435242     -0.306180     -0.824627
  C      -2.641615      0.150834     -0.276271
  C      -1.275439      0.642400      0.191400
  C      -0.179621      0.135601     -0.696022
  C       1.085024     -0.373455     -0.168127
  O       2.381365      0.517558      1.364037
  O       0.133431     -1.275308     -0.574416
  O       1.330638     -0.393956      1.218782
  H       2.885289      0.318503      0.264716
  H       2.969858     -1.251423     -0.850666
  H       2.541634      0.309346     -1.709174
  H      -3.432007      0.518032      0.376366
  H      -2.856691      0.491887     -1.289827
  H      -2.674249     -0.938216     -0.271817
  H      -1.075794      0.316490      1.211850
  H      -1.238737      1.734108      0.185594
  H      -0.197642      0.470756     -1.730008
17
Coordinates from ORCA-job freq E -421.381205246135
  C       2.435041     -0.305768     -0.824317
  C      -2.641818      0.150043     -0.276465
  C      -1.275973      0.643232      0.190503
  C      -0.179823      0.135392     -0.695975
  C       1.085068     -0.372403     -0.167121
  O       2.385067      0.515065      1.365011
  O       0.133679     -1.275147     -0.571998
  O       1.329720     -0.390757      1.219926
  H       2.889083      0.313472      0.266526
  H       2.965714     -1.252941     -0.858054
  H       2.542248      0.315532     -1.704729
  H      -3.432475      0.517718      0.375576
  H      -2.857044      0.489421     -1.290545
  H      -2.673738     -0.939021     -0.270375
  H      -1.076283      0.319262      1.211560
  H      -1.240008      1.734944      0.182763
  H      -0.197773      0.468933     -1.730495
17
Coordinates from ORCA-job freq E -421.381191979497
  C       2.435030     -0.305763     -0.824311
  C      -2.641825      0.150066     -0.276498
  C      -1.276011      0.643238      0.190590
  C      -0.179835      0.135427     -0.695874
  C       1.085073     -0.372426     -0.167074
  O       2.385087      0.515036      1.364958
  O       0.133681     -1.275112     -0.572070
  O       1.329941     -0.391185      1.219920
  H       2.888985      0.313803      0.266290
  H       2.965899     -1.252834     -0.857804
  H       2.542067      0.315288     -1.704922
  H      -3.432584      0.517880      0.375344
  H      -2.856868      0.489308     -1.290663
  H      -2.673817     -0.938994     -0.270278
  H      -1.076361      0.319224      1.211648
  H      -1.240032      1.734951      0.182891
  H      -0.197748      0.469074     -1.730358
