17
* (null), Energy   -1000.0000000
C     1.995041   -0.191130   -0.884563    0.054993    0.049613    0.087780
C    -3.081814    0.264700   -0.336750   -0.000154    0.000059    0.000273
C    -1.716000    0.757871    0.130338   -0.000345    0.000151   -0.000147
C    -0.619823    0.250061   -0.756127   -0.001776   -0.002905    0.000277
C     0.645085   -0.257793   -0.227326   -0.003814   -0.001456   -0.032333
O     1.945098    0.629669    1.304706   -0.071662   -0.014979    0.067020
O    -0.306307   -1.160478   -0.632322   -0.004772    0.000951    0.006462
O     0.889952   -0.276552    1.159667    0.036159    0.024181    0.014433
H     2.448996    0.428436    0.206037    0.287995   -0.547737   -1.877634
H     2.525911   -1.138201   -0.918057   -0.147759   -0.068515   -0.145285
H     2.102079    0.429921   -1.765174   -0.081658   -0.092218   -0.047854
H    -3.872573    0.632513    0.315092   -0.000553    0.000415   -0.000393
H    -3.296857    0.603941   -1.350916    0.001633    0.000524    0.000405
H    -3.113806   -0.824361   -0.330531    0.001218    0.000335   -0.000342
H    -1.516350    0.433858    1.151395   -0.007717   -0.000780    0.002880
H    -1.680020    1.849585    0.122639   -0.001282    0.000497    0.001722
H    -0.637737    0.583707   -1.790610    0.004638    0.004629    0.005625
17
* Frequency(6) -2159.4934
C     2.001291   -0.185492   -0.874587    0.054993    0.049613    0.087780
C    -3.081831    0.264706   -0.336719   -0.000154    0.000059    0.000273
C    -1.716039    0.757889    0.130321   -0.000345    0.000151   -0.000147
C    -0.620025    0.249731   -0.756095   -0.001776   -0.002905    0.000277
C     0.644651   -0.257958   -0.231001   -0.003814   -0.001456   -0.032333
O     1.936954    0.627967    1.312322   -0.071662   -0.014979    0.067020
O    -0.306850   -1.160370   -0.631588   -0.004772    0.000951    0.006462
O     0.894062   -0.273804    1.161307    0.036159    0.024181    0.014433
H     2.481725    0.366189   -0.007346    0.287995   -0.547737   -1.877634
H     2.509119   -1.145987   -0.934567   -0.147759   -0.068515   -0.145285
H     2.092799    0.419441   -1.770613   -0.081658   -0.092218   -0.047854
H    -3.872636    0.632560    0.315047   -0.000553    0.000415   -0.000393
H    -3.296671    0.604001   -1.350870    0.001633    0.000524    0.000405
H    -3.113667   -0.824322   -0.330570    0.001218    0.000335   -0.000342
H    -1.517227    0.433769    1.151723   -0.007717   -0.000780    0.002880
H    -1.680166    1.849642    0.122834   -0.001282    0.000497    0.001722
H    -0.637210    0.584233   -1.789971    0.004638    0.004629    0.005625
17
* Frequency(6) -2159.4934
C     2.006863   -0.180464   -0.865693    0.054993    0.049613    0.087780
C    -3.081847    0.264712   -0.336692   -0.000154    0.000059    0.000273
C    -1.716074    0.757904    0.130306   -0.000345    0.000151   -0.000147
C    -0.620205    0.249436   -0.756067   -0.001776   -0.002905    0.000277
C     0.644265   -0.258106   -0.234277   -0.003814   -0.001456   -0.032333
O     1.929693    0.626449    1.319113   -0.071662   -0.014979    0.067020
O    -0.307333   -1.160274   -0.630933   -0.004772    0.000951    0.006462
O     0.897726   -0.271354    1.162770    0.036159    0.024181    0.014433
H     2.510908    0.310687   -0.197606    0.287995   -0.547737   -1.877634
H     2.494146   -1.152930   -0.949289   -0.147759   -0.068515   -0.145285
H     2.084524    0.410097   -1.775462   -0.081658   -0.092218   -0.047854
H    -3.872692    0.632603    0.315007   -0.000553    0.000415   -0.000393
H    -3.296506    0.604054   -1.350829    0.001633    0.000524    0.000405
H    -3.113544   -0.824288   -0.330605    0.001218    0.000335   -0.000342
H    -1.518009    0.433690    1.152015   -0.007717   -0.000780    0.002880
H    -1.680296    1.849692    0.123009   -0.001282    0.000497    0.001722
H    -0.636740    0.584702   -1.789401    0.004638    0.004629    0.005625
17
* Frequency(6) -2159.4934
C     2.011154   -0.176593   -0.858843    0.054993    0.049613    0.087780
C    -3.081859    0.264717   -0.336670   -0.000154    0.000059    0.000273
C    -1.716101    0.757916    0.130294   -0.000345    0.000151   -0.000147
C    -0.620344    0.249210   -0.756045   -0.001776   -0.002905    0.000277
C     0.643967   -0.258219   -0.236800   -0.003814   -0.001456   -0.032333
O     1.924101    0.625280    1.324343   -0.071662   -0.014979    0.067020
O    -0.307706   -1.160199   -0.630429   -0.004772    0.000951    0.006462
O     0.900547   -0.269467    1.163896    0.036159    0.024181    0.014433
H     2.533381    0.267945   -0.344125    0.287995   -0.547737   -1.877634
H     2.482616   -1.158276   -0.960626   -0.147759   -0.068515   -0.145285
H     2.078152    0.402901   -1.779196   -0.081658   -0.092218   -0.047854
H    -3.872735    0.632635    0.314977   -0.000553    0.000415   -0.000393
H    -3.296378    0.604095   -1.350797    0.001633    0.000524    0.000405
H    -3.113449   -0.824262   -0.330631    0.001218    0.000335   -0.000342
H    -1.518611    0.433629    1.152239   -0.007717   -0.000780    0.002880
H    -1.680396    1.849731    0.123143   -0.001282    0.000497    0.001722
H    -0.636378    0.585064   -1.788962    0.004638    0.004629    0.005625
17
* Frequency(6) -2159.4934
C     2.013700   -0.174297   -0.854780    0.054993    0.049613    0.087780
C    -3.081866    0.264719   -0.336658   -0.000154    0.000059    0.000273
C    -1.716117    0.757923    0.130288   -0.000345    0.000151   -0.000147
C    -0.620426    0.249075   -0.756033   -0.001776   -0.002905    0.000277
C     0.643791   -0.258287   -0.238297   -0.003814   -0.001456   -0.032333
O     1.920784    0.624587    1.327445   -0.071662   -0.014979    0.067020
O    -0.307926   -1.160155   -0.630130   -0.004772    0.000951    0.006462
O     0.902221   -0.268348    1.164564    0.036159    0.024181    0.014433
H     2.546710    0.242595   -0.431025    0.287995   -0.547737   -1.877634
H     2.475778   -1.161447   -0.967350   -0.147759   -0.068515   -0.145285
H     2.074373    0.398633   -1.781411   -0.081658   -0.092218   -0.047854
H    -3.872761    0.632654    0.314958   -0.000553    0.000415   -0.000393
H    -3.296303    0.604119   -1.350778    0.001633    0.000524    0.000405
H    -3.113392   -0.824247   -0.330647    0.001218    0.000335   -0.000342
H    -1.518968    0.433593    1.152373   -0.007717   -0.000780    0.002880
H    -1.680455    1.849754    0.123223   -0.001282    0.000497    0.001722
H    -0.636163    0.585278   -1.788701    0.004638    0.004629    0.005625
17
* Frequency(6) -2159.4934
C     2.014223   -0.173825   -0.853945    0.054993    0.049613    0.087780
C    -3.081867    0.264720   -0.336655   -0.000154    0.000059    0.000273
C    -1.716120    0.757924    0.130286   -0.000345    0.000151   -0.000147
C    -0.620443    0.249048   -0.756030   -0.001776   -0.002905    0.000277
C     0.643754   -0.258301   -0.238604   -0.003814   -0.001456   -0.032333
O     1.920102    0.624444    1.328083   -0.071662   -0.014979    0.067020
O    -0.307972   -1.160146   -0.630068   -0.004772    0.000951    0.006462
O     0.902565   -0.268118    1.164701    0.036159    0.024181    0.014433
H     2.549450    0.237383   -0.448890    0.287995   -0.547737   -1.877634
H     2.474372   -1.162099   -0.968733   -0.147759   -0.068515   -0.145285
H     2.073596    0.397755   -1.781866   -0.081658   -0.092218   -0.047854
H    -3.872766    0.632658    0.314955   -0.000553    0.000415   -0.000393
H    -3.296287    0.604124   -1.350774    0.001633    0.000524    0.000405
H    -3.113381   -0.824244   -0.330650    0.001218    0.000335   -0.000342
H    -1.519042    0.433586    1.152400   -0.007717   -0.000780    0.002880
H    -1.680467    1.849758    0.123239   -0.001282    0.000497    0.001722
H    -0.636119    0.585322   -1.788648    0.004638    0.004629    0.005625
17
* Frequency(6) -2159.4934
C     2.012667   -0.175228   -0.856428    0.054993    0.049613    0.087780
C    -3.081863    0.264718   -0.336663   -0.000154    0.000059    0.000273
C    -1.716110    0.757920    0.130290   -0.000345    0.000151   -0.000147
C    -0.620393    0.249130   -0.756038   -0.001776   -0.002905    0.000277
C     0.643862   -0.258259   -0.237690   -0.003814   -0.001456   -0.032333
O     1.922129    0.624868    1.326187   -0.071662   -0.014979    0.067020
O    -0.307837   -1.160173   -0.630251   -0.004772    0.000951    0.006462
O     0.901542   -0.268801    1.164293    0.036159    0.024181    0.014433
H     2.541305    0.252875   -0.395783    0.287995   -0.547737   -1.877634
H     2.478551   -1.160161   -0.964623   -0.147759   -0.068515   -0.145285
H     2.075906    0.400364   -1.780512   -0.081658   -0.092218   -0.047854
H    -3.872750    0.632646    0.314966   -0.000553    0.000415   -0.000393
H    -3.296333    0.604109   -1.350786    0.001633    0.000524    0.000405
H    -3.113415   -0.824253   -0.330641    0.001218    0.000335   -0.000342
H    -1.518823    0.433608    1.152319   -0.007717   -0.000780    0.002880
H    -1.680431    1.849744    0.123191   -0.001282    0.000497    0.001722
H    -0.636250    0.585191   -1.788807    0.004638    0.004629    0.005625
17
* Frequency(6) -2159.4934
C     2.009202   -0.178354   -0.861960    0.054993    0.049613    0.087780
C    -3.081853    0.264715   -0.336680   -0.000154    0.000059    0.000273
C    -1.716088    0.757910    0.130300   -0.000345    0.000151   -0.000147
C    -0.620281    0.249313   -0.756055   -0.001776   -0.002905    0.000277
C     0.644103   -0.258168   -0.235652   -0.003814   -0.001456   -0.032333
O     1.926645    0.625812    1.321963   -0.071662   -0.014979    0.067020
O    -0.307536   -1.160233   -0.630658   -0.004772    0.000951    0.006462
O     0.899263   -0.270325    1.163384    0.036159    0.024181    0.014433
H     2.523156    0.287392   -0.277460    0.287995   -0.547737   -1.877634
H     2.487862   -1.155843   -0.955468   -0.147759   -0.068515   -0.145285
H     2.081051    0.406175   -1.777497   -0.081658   -0.092218   -0.047854
H    -3.872715    0.632620    0.314991   -0.000553    0.000415   -0.000393
H    -3.296436    0.604076   -1.350811    0.001633    0.000524    0.000405
H    -3.113492   -0.824274   -0.330619    0.001218    0.000335   -0.000342
H    -1.518337    0.433657    1.152137   -0.007717   -0.000780    0.002880
H    -1.680350    1.849713    0.123082   -0.001282    0.000497    0.001722
H    -0.636542    0.584899   -1.789162    0.004638    0.004629    0.005625
17
* Frequency(6) -2159.4934
C     2.004202   -0.182865   -0.869941    0.054993    0.049613    0.087780
C    -3.081839    0.264709   -0.336705   -0.000154    0.000059    0.000273
C    -1.716057    0.757897    0.130313   -0.000345    0.000151   -0.000147
C    -0.620119    0.249577   -0.756080   -0.001776   -0.002905    0.000277
C     0.644449   -0.258035   -0.232713   -0.003814   -0.001456   -0.032333
O     1.933161    0.627174    1.315870   -0.071662   -0.014979    0.067020
O    -0.307102   -1.160320   -0.631246   -0.004772    0.000951    0.006462
O     0.895976   -0.272524    1.162071    0.036159    0.024181    0.014433
H     2.496971    0.337193   -0.106742    0.287995   -0.547737   -1.877634
H     2.501297   -1.149614   -0.942258   -0.147759   -0.068515   -0.145285
H     2.088476    0.414560   -1.773146   -0.081658   -0.092218   -0.047854
H    -3.872665    0.632582    0.315026   -0.000553    0.000415   -0.000393
H    -3.296585    0.604028   -1.350848    0.001633    0.000524    0.000405
H    -3.113603   -0.824305   -0.330588    0.001218    0.000335   -0.000342
H    -1.517635    0.433728    1.151875   -0.007717   -0.000780    0.002880
H    -1.680234    1.849668    0.122926   -0.001282    0.000497    0.001722
H    -0.636964    0.584478   -1.789673    0.004638    0.004629    0.005625
17
* Frequency(6) -2159.4934
C     1.998209   -0.188272   -0.879506    0.054993    0.049613    0.087780
C    -3.081823    0.264703   -0.336735   -0.000154    0.000059    0.000273
C    -1.716019    0.757880    0.130329   -0.000345    0.000151   -0.000147
C    -0.619926    0.249894   -0.756111   -0.001776   -0.002905    0.000277
C     0.644865   -0.257877   -0.229189   -0.003814   -0.001456   -0.032333
O     1.940970    0.628806    1.308566   -0.071662   -0.014979    0.067020
O    -0.306582   -1.160423   -0.631950   -0.004772    0.000951    0.006462
O     0.892035   -0.275159    1.160499    0.036159    0.024181    0.014433
H     2.465587    0.396882    0.097870    0.287995   -0.547737   -1.877634
H     2.517399   -1.142148   -0.926426   -0.147759   -0.068515   -0.145285
H     2.097375    0.424609   -1.767931   -0.081658   -0.092218   -0.047854
H    -3.872605    0.632537    0.315069   -0.000553    0.000415   -0.000393
H    -3.296763    0.603971   -1.350892    0.001633    0.000524    0.000405
H    -3.113736   -0.824341   -0.330551    0.001218    0.000335   -0.000342
H    -1.516794    0.433813    1.151561   -0.007717   -0.000780    0.002880
H    -1.680094    1.849614    0.122738   -0.001282    0.000497    0.001722
H    -0.637470    0.583974   -1.790286    0.004638    0.004629    0.005625
17
* Frequency(6) -2159.4934
C     1.991873   -0.193988   -0.889620    0.054993    0.049613    0.087780
C    -3.081805    0.264696   -0.336766   -0.000154    0.000059    0.000273
C    -1.715980    0.757863    0.130346   -0.000345    0.000151   -0.000147
C    -0.619721    0.250228   -0.756143   -0.001776   -0.002905    0.000277
C     0.645304   -0.257709   -0.225464   -0.003814   -0.001456   -0.032333
O     1.949227    0.630532    1.300845   -0.071662   -0.014979    0.067020
O    -0.306033   -1.160533   -0.632695   -0.004772    0.000951    0.006462
O     0.887869   -0.277945    1.158836    0.036159    0.024181    0.014433
H     2.432405    0.459990    0.314204    0.287995   -0.547737   -1.877634
H     2.534423   -1.134254   -0.909687   -0.147759   -0.068515   -0.145285
H     2.106783    0.435234   -1.762418   -0.081658   -0.092218   -0.047854
H    -3.872541    0.632489    0.315114   -0.000553    0.000415   -0.000393
H    -3.296951    0.603911   -1.350939    0.001633    0.000524    0.000405
H    -3.113876   -0.824380   -0.330511    0.001218    0.000335   -0.000342
H    -1.515905    0.433903    1.151229   -0.007717   -0.000780    0.002880
H    -1.679946    1.849556    0.122539   -0.001282    0.000497    0.001722
H    -0.638004    0.583440   -1.790934    0.004638    0.004629    0.005625
17
* Frequency(6) -2159.4934
C     1.985880   -0.199394   -0.899186    0.054993    0.049613    0.087780
C    -3.081788    0.264690   -0.336796   -0.000154    0.000059    0.000273
C    -1.715942    0.757846    0.130362   -0.000345    0.000151   -0.000147
C    -0.619528    0.250545   -0.756173   -0.001776   -0.002905    0.000277
C     0.645720   -0.257550   -0.221940   -0.003814   -0.001456   -0.032333
O     1.957036    0.632164    1.293541   -0.071662   -0.014979    0.067020
O    -0.305513   -1.160636   -0.633399   -0.004772    0.000951    0.006462
O     0.883929   -0.280580    1.157263    0.036159    0.024181    0.014433
H     2.401021    0.519679    0.518817    0.287995   -0.547737   -1.877634
H     2.550525   -1.126787   -0.893855   -0.147759   -0.068515   -0.145285
H     2.115681    0.445283   -1.757203   -0.081658   -0.092218   -0.047854
H    -3.872481    0.632444    0.315157   -0.000553    0.000415   -0.000393
H    -3.297129    0.603854   -1.350983    0.001633    0.000524    0.000405
H    -3.114009   -0.824416   -0.330474    0.001218    0.000335   -0.000342
H    -1.515065    0.433988    1.150916   -0.007717   -0.000780    0.002880
H    -1.679807    1.849502    0.122352   -0.001282    0.000497    0.001722
H    -0.638509    0.582936   -1.791547    0.004638    0.004629    0.005625
17
* Frequency(6) -2159.4934
C     1.980880   -0.203905   -0.907167    0.054993    0.049613    0.087780
C    -3.081774    0.264684   -0.336820   -0.000154    0.000059    0.000273
C    -1.715911    0.757833    0.130375   -0.000345    0.000151   -0.000147
C    -0.619366    0.250809   -0.756198   -0.001776   -0.002905    0.000277
C     0.646067   -0.257418   -0.219001   -0.003814   -0.001456   -0.032333
O     1.963552    0.633526    1.287448   -0.071662   -0.014979    0.067020
O    -0.305079   -1.160723   -0.633986   -0.004772    0.000951    0.006462
O     0.880641   -0.282779    1.155950    0.036159    0.024181    0.014433
H     2.374836    0.569480    0.689534    0.287995   -0.547737   -1.877634
H     2.563959   -1.120558   -0.880645   -0.147759   -0.068515   -0.145285
H     2.123106    0.453668   -1.752852   -0.081658   -0.092218   -0.047854
H    -3.872431    0.632406    0.315193   -0.000553    0.000415   -0.000393
H    -3.297277    0.603806   -1.351020    0.001633    0.000524    0.000405
H    -3.114119   -0.824447   -0.330443    0.001218    0.000335   -0.000342
H    -1.514363    0.434059    1.150654   -0.007717   -0.000780    0.002880
H    -1.679690    1.849457    0.122195   -0.001282    0.000497    0.001722
H    -0.638931    0.582515   -1.792059    0.004638    0.004629    0.005625
17
* Frequency(6) -2159.4934
C     1.977415   -0.207032   -0.912698    0.054993    0.049613    0.087780
C    -3.081765    0.264681   -0.336838   -0.000154    0.000059    0.000273
C    -1.715889    0.757823    0.130385   -0.000345    0.000151   -0.000147
C    -0.619254    0.250992   -0.756215   -0.001776   -0.002905    0.000277
C     0.646307   -0.257326   -0.216963   -0.003814   -0.001456   -0.032333
O     1.968068    0.634470    1.283224   -0.071662   -0.014979    0.067020
O    -0.304778   -1.160783   -0.634394   -0.004772    0.000951    0.006462
O     0.878363   -0.284302    1.155041    0.036159    0.024181    0.014433
H     2.356688    0.603997    0.807858    0.287995   -0.547737   -1.877634
H     2.573270   -1.116240   -0.871490   -0.147759   -0.068515   -0.145285
H     2.128252    0.459479   -1.749836   -0.081658   -0.092218   -0.047854
H    -3.872396    0.632380    0.315218   -0.000553    0.000415   -0.000393
H    -3.297380    0.603773   -1.351046    0.001633    0.000524    0.000405
H    -3.114196   -0.824468   -0.330421    0.001218    0.000335   -0.000342
H    -1.513877    0.434108    1.150472   -0.007717   -0.000780    0.002880
H    -1.679609    1.849426    0.122087   -0.001282    0.000497    0.001722
H    -0.639223    0.582223   -1.792413    0.004638    0.004629    0.005625
17
* Frequency(6) -2159.4934
C     1.975859   -0.208435   -0.915181    0.054993    0.049613    0.087780
C    -3.081760    0.264679   -0.336845   -0.000154    0.000059    0.000273
C    -1.715879    0.757819    0.130389   -0.000345    0.000151   -0.000147
C    -0.619204    0.251074   -0.756223   -0.001776   -0.002905    0.000277
C     0.646415   -0.257285   -0.216049   -0.003814   -0.001456   -0.032333
O     1.970095    0.634894    1.281329   -0.071662   -0.014979    0.067020
O    -0.304643   -1.160810   -0.634576   -0.004772    0.000951    0.006462
O     0.877340   -0.284986    1.154633    0.036159    0.024181    0.014433
H     2.348542    0.619489    0.860965    0.287995   -0.547737   -1.877634
H     2.577450   -1.114302   -0.867380   -0.147759   -0.068515   -0.145285
H     2.130561    0.462087   -1.748483   -0.081658   -0.092218   -0.047854
H    -3.872380    0.632369    0.315229   -0.000553    0.000415   -0.000393
H    -3.297426    0.603758   -1.351057    0.001633    0.000524    0.000405
H    -3.114231   -0.824478   -0.330412    0.001218    0.000335   -0.000342
H    -1.513658    0.434130    1.150391   -0.007717   -0.000780    0.002880
H    -1.679573    1.849412    0.122038   -0.001282    0.000497    0.001722
H    -0.639354    0.582092   -1.792572    0.004638    0.004629    0.005625
17
* Frequency(6) -2159.4934
C     1.976382   -0.207963   -0.914346    0.054993    0.049613    0.087780
C    -3.081762    0.264680   -0.336843   -0.000154    0.000059    0.000273
C    -1.715882    0.757820    0.130387   -0.000345    0.000151   -0.000147
C    -0.619221    0.251046   -0.756221   -0.001776   -0.002905    0.000277
C     0.646379   -0.257299   -0.216356   -0.003814   -0.001456   -0.032333
O     1.969413    0.634751    1.281966   -0.071662   -0.014979    0.067020
O    -0.304688   -1.160801   -0.634515   -0.004772    0.000951    0.006462
O     0.877684   -0.284756    1.154770    0.036159    0.024181    0.014433
H     2.351282    0.614278    0.843100    0.287995   -0.547737   -1.877634
H     2.576044   -1.114954   -0.868763   -0.147759   -0.068515   -0.145285
H     2.129784    0.461210   -1.748938   -0.081658   -0.092218   -0.047854
H    -3.872385    0.632372    0.315225   -0.000553    0.000415   -0.000393
H    -3.297411    0.603763   -1.351053    0.001633    0.000524    0.000405
H    -3.114219   -0.824474   -0.330415    0.001218    0.000335   -0.000342
H    -1.513732    0.434123    1.150418   -0.007717   -0.000780    0.002880
H    -1.679585    1.849416    0.122054   -0.001282    0.000497    0.001722
H    -0.639310    0.582137   -1.792519    0.004638    0.004629    0.005625
17
* Frequency(6) -2159.4934
C     1.978928   -0.205667   -0.910283    0.054993    0.049613    0.087780
C    -3.081769    0.264682   -0.336830   -0.000154    0.000059    0.000273
C    -1.715898    0.757827    0.130381   -0.000345    0.000151   -0.000147
C    -0.619303    0.250912   -0.756208   -0.001776   -0.002905    0.000277
C     0.646202   -0.257366   -0.217853   -0.003814   -0.001456   -0.032333
O     1.966096    0.634058    1.285068   -0.071662   -0.014979    0.067020
O    -0.304909   -1.160757   -0.634216   -0.004772    0.000951    0.006462
O     0.879358   -0.283637    1.155438    0.036159    0.024181    0.014433
H     2.364611    0.588928    0.756200    0.287995   -0.547737   -1.877634
H     2.569205   -1.118125   -0.875487   -0.147759   -0.068515   -0.145285
H     2.126005    0.456942   -1.751153   -0.081658   -0.092218   -0.047854
H    -3.872411    0.632392    0.315207   -0.000553    0.000415   -0.000393
H    -3.297335    0.603788   -1.351034    0.001633    0.000524    0.000405
H    -3.114163   -0.824459   -0.330431    0.001218    0.000335   -0.000342
H    -1.514089    0.434086    1.150551   -0.007717   -0.000780    0.002880
H    -1.679645    1.849439    0.122134   -0.001282    0.000497    0.001722
H    -0.639096    0.582351   -1.792258    0.004638    0.004629    0.005625
17
* Frequency(6) -2159.4934
C     1.983219   -0.201795   -0.903434    0.054993    0.049613    0.087780
C    -3.081781    0.264687   -0.336809   -0.000154    0.000059    0.000273
C    -1.715925    0.757839    0.130369   -0.000345    0.000151   -0.000147
C    -0.619442    0.250685   -0.756186   -0.001776   -0.002905    0.000277
C     0.645905   -0.257480   -0.220376   -0.003814   -0.001456   -0.032333
O     1.960504    0.632889    1.290298   -0.071662   -0.014979    0.067020
O    -0.305282   -1.160682   -0.633711   -0.004772    0.000951    0.006462
O     0.882179   -0.281750    1.156564    0.036159    0.024181    0.014433
H     2.387084    0.546186    0.609681    0.287995   -0.547737   -1.877634
H     2.557675   -1.123472   -0.886824   -0.147759   -0.068515   -0.145285
H     2.119633    0.449746   -1.754887   -0.081658   -0.092218   -0.047854
H    -3.872454    0.632424    0.315176   -0.000553    0.000415   -0.000393
H    -3.297208    0.603829   -1.351003    0.001633    0.000524    0.000405
H    -3.114068   -0.824433   -0.330457    0.001218    0.000335   -0.000342
H    -1.514691    0.434026    1.150776   -0.007717   -0.000780    0.002880
H    -1.679745    1.849478    0.122268   -0.001282    0.000497    0.001722
H    -0.638734    0.582712   -1.791819    0.004638    0.004629    0.005625
17
* Frequency(6) -2159.4934
C     1.988791   -0.196768   -0.894539    0.054993    0.049613    0.087780
C    -3.081796    0.264693   -0.336781   -0.000154    0.000059    0.000273
C    -1.715960    0.757854    0.130354   -0.000345    0.000151   -0.000147
C    -0.619622    0.250391   -0.756158   -0.001776   -0.002905    0.000277
C     0.645518   -0.257627   -0.223652   -0.003814   -0.001456   -0.032333
O     1.953242    0.631371    1.297089   -0.071662   -0.014979    0.067020
O    -0.305765   -1.160586   -0.633057   -0.004772    0.000951    0.006462
O     0.885843   -0.279300    1.158027    0.036159    0.024181    0.014433
H     2.416267    0.490684    0.419421    0.287995   -0.547737   -1.877634
H     2.542703   -1.130414   -0.901546   -0.147759   -0.068515   -0.145285
H     2.111359    0.440402   -1.759736   -0.081658   -0.092218   -0.047854
H    -3.872510    0.632466    0.315136   -0.000553    0.000415   -0.000393
H    -3.297042    0.603882   -1.350962    0.001633    0.000524    0.000405
H    -3.113944   -0.824399   -0.330492    0.001218    0.000335   -0.000342
H    -1.515473    0.433946    1.151068   -0.007717   -0.000780    0.002880
H    -1.679875    1.849529    0.122443   -0.001282    0.000497    0.001722
H    -0.638264    0.583181   -1.791249    0.004638    0.004629    0.005625
17
* Frequency(6) -2159.4934
C     1.995041   -0.191130   -0.884563    0.054993    0.049613    0.087780
C    -3.081814    0.264700   -0.336750   -0.000154    0.000059    0.000273
C    -1.716000    0.757871    0.130338   -0.000345    0.000151   -0.000147
C    -0.619823    0.250061   -0.756127   -0.001776   -0.002905    0.000277
C     0.645085   -0.257793   -0.227326   -0.003814   -0.001456   -0.032333
O     1.945098    0.629669    1.304706   -0.071662   -0.014979    0.067020
O    -0.306307   -1.160478   -0.632322   -0.004772    0.000951    0.006462
O     0.889952   -0.276552    1.159667    0.036159    0.024181    0.014433
H     2.448996    0.428436    0.206037    0.287995   -0.547737   -1.877634
H     2.525911   -1.138201   -0.918057   -0.147759   -0.068515   -0.145285
H     2.102079    0.429921   -1.765174   -0.081658   -0.092218   -0.047854
H    -3.872573    0.632513    0.315092   -0.000553    0.000415   -0.000393
H    -3.296857    0.603941   -1.350916    0.001633    0.000524    0.000405
H    -3.113806   -0.824361   -0.330531    0.001218    0.000335   -0.000342
H    -1.516350    0.433858    1.151395   -0.007717   -0.000780    0.002880
H    -1.680020    1.849585    0.122639   -0.001282    0.000497    0.001722
H    -0.637737    0.583707   -1.790610    0.004638    0.004629    0.005625
