17
Coordinates from ORCA-job freq E -421.354983062629
  C          -2.66544666352103      0.16612698739852     -0.38096862393994
  C          -1.39465772015537     -0.58011207440274      0.00200079195819
  C          -0.21397384937967      0.36631373867339      0.20335125758863
  C           2.34329955687361     -0.04131283524223      0.01701608972705
  C           1.03739522539587     -0.37019899856887      0.56184763813471
  O           3.94634997249243      1.11855256974987     -0.18659698997501
  O           1.70818605583040     -1.08570093980465     -0.54329539185679
  O           3.59881912303621     -0.11492667882224      0.51729053231362
  H           2.72638136192651      1.06371890495678     -0.59042659534630
  H          -2.94534718955491      0.88288693472043      0.39241472303872
  H          -2.52582725809016      0.71837173085747     -1.31116334618070
  H          -3.50010532391538     -0.51919598693636     -0.52101605642045
  H          -1.13642025756483     -1.30408717195382     -0.77341047021371
  H          -1.55978156916436     -1.14953935330649      0.92009042035125
  H          -0.03668001821985      0.94684969394236     -0.70462103506572
  H          -0.43508868063169      1.07675460647418      1.00497338021102
  H           1.01739223464220     -0.96947612773560      1.46731167567545
