17
Coordinates from ORCA-job freq E -421.393801805951
  C      -1.743669      0.615213     -1.071431
  C       2.131822      0.331783     -0.063560
  C      -0.045017     -1.009066     -0.074623
  C      -1.047377      0.133100      0.195156
  C       1.212268     -0.542512     -0.780602
  O       0.478408      1.002668      1.743068
  O       2.446286     -0.983391     -0.217598
  O      -0.420633      1.294753      0.721818
  H       1.370753      0.744444      1.213523
  H      -2.404842      1.441506     -0.827318
  H      -2.326051     -0.191140     -1.506658
  H      -1.009190      0.963773     -1.791672
  H       2.773819      1.110260     -0.439305
  H       0.253573     -1.446522      0.881215
  H      -0.546305     -1.779842     -0.659437
  H      -1.793603     -0.238179      0.914450
  H       1.198428     -0.547982     -1.867176
17
Coordinates from ORCA-job freq E -421.390475842449
  C      -1.766755      0.613193     -1.054174
  C       2.132808      0.343613     -0.047257
  C      -0.047662     -0.995991     -0.097021
  C      -1.052771      0.135071      0.198913
  C       1.234519     -0.546776     -0.775185
  O       0.472962      1.002056      1.727025
  O       2.449395     -0.976364     -0.140761
  O      -0.443064      1.307100      0.733212
  H       1.408351      0.755350      1.145950
  H      -2.416237      1.450880     -0.810787
  H      -2.370763     -0.190343     -1.469081
  H      -1.045447      0.942486     -1.799582
  H       2.803231      1.099753     -0.433207
  H       0.235460     -1.473394      0.841743
  H      -0.553665     -1.739425     -0.713345
  H      -1.786880     -0.243470      0.921609
  H       1.275186     -0.584870     -1.858205
17
Coordinates from ORCA-job freq E -421.389542112321
  C      -1.781748      0.608974     -1.049282
  C       2.115421      0.356791     -0.016378
  C      -0.052088     -0.995593     -0.104206
  C      -1.053454      0.132499      0.193077
  C       1.235265     -0.538168     -0.758519
  O       0.480222      0.977400      1.700942
  O       2.450084     -0.962765     -0.106554
  O      -0.422183      1.304674      0.709889
  H       1.458433      0.732465      1.076253
  H      -2.401267      1.472589     -0.814441
  H      -2.420407     -0.183572     -1.435815
  H      -1.069112      0.897638     -1.821966
  H       2.791069      1.119884     -0.388190
  H       0.220236     -1.492069      0.826162
  H      -0.553407     -1.729501     -0.736236
  H      -1.772172     -0.230485      0.934457
  H       1.303778     -0.571892     -1.839344
17
Coordinates from ORCA-job freq E -421.389877186262
  C      -1.798620      0.599057     -1.054501
  C       2.129076      0.336863      0.010155
  C      -0.046402     -0.989641     -0.106083
  C      -1.047176      0.136616      0.177850
  C       1.230706     -0.515620     -0.758751
  O       0.461222      0.982239      1.694250
  O       2.447974     -0.984486     -0.137695
  O      -0.391110      1.309766      0.662006
  H       1.455379      0.701459      1.101889
  H      -2.406316      1.471876     -0.821766
  H      -2.453123     -0.195230     -1.410771
  H      -1.104245      0.865885     -1.851769
  H       2.815723      1.101928     -0.338862
  H       0.234059     -1.472933      0.828452
  H      -0.538944     -1.738504     -0.727885
  H      -1.748677     -0.205331      0.943909
  H       1.289145     -0.505077     -1.840577
17
Coordinates from ORCA-job freq E -421.389931022847
  C      -1.793328      0.600430     -1.058291
  C       2.122245      0.334325      0.006117
  C      -0.046808     -0.991360     -0.100785
  C      -1.046581      0.137168      0.176468
  C       1.222836     -0.514295     -0.764261
  O       0.464697      0.979323      1.696430
  O       2.445714     -0.983458     -0.151013
  O      -0.385933      1.308500      0.661866
  H       1.455820      0.682198      1.108562
  H      -2.410713      1.466397     -0.825760
  H      -2.436872     -0.197512     -1.426262
  H      -1.093999      0.879250     -1.847294
  H       2.803368      1.107685     -0.335448
  H       0.241920     -1.456830      0.840315
  H      -0.538562     -1.752910     -0.707340
  H      -1.749492     -0.201091      0.942883
  H       1.274356     -0.498954     -1.846338
17
Coordinates from ORCA-job freq E -421.389784009869
  C      -1.792805      0.600778     -1.060947
  C       2.135193      0.307842      0.012833
  C      -0.047154     -0.986615     -0.090652
  C      -1.051284      0.138879      0.177227
  C       1.215443     -0.510814     -0.766586
  O       0.470945      0.994600      1.686205
  O       2.440163     -1.009283     -0.178826
  O      -0.397253      1.314670      0.663887
  H       1.455143      0.687680      1.085649
  H      -2.458804      1.427276     -0.819181
  H      -2.385935     -0.216892     -1.468372
  H      -1.089413      0.939182     -1.822492
  H       2.822135      1.080146     -0.320054
  H       0.254461     -1.429519      0.857255
  H      -0.537699     -1.764389     -0.677108
  H      -1.757633     -0.201843      0.939672
  H       1.253166     -0.472832     -1.848660
17
Coordinates from ORCA-job freq E -421.389973815947
  C      -1.781730      0.604373     -1.061824
  C       2.121615      0.329475     -0.004206
  C      -0.048557     -0.992866     -0.089088
  C      -1.049450      0.135738      0.179568
  C       1.213534     -0.516976     -0.766756
  O       0.467321      0.976585      1.701092
  O       2.443184     -0.987695     -0.168574
  O      -0.392510      1.306161      0.673963
  H       1.453344      0.685301      1.106459
  H      -2.428515      1.447557     -0.825601
  H      -2.393967     -0.203024     -1.461209
  H      -1.072417      0.920408     -1.827362
  H       2.798710      1.104200     -0.350608
  H       0.249398     -1.441912      0.857042
  H      -0.541675     -1.765351     -0.680390
  H      -1.761740     -0.204353      0.936743
  H       1.252124     -0.498754     -1.849400
17
Coordinates from ORCA-job freq E -421.389992812447
  C      -1.781861      0.604494     -1.061650
  C       2.121411      0.330126     -0.004283
  C      -0.048497     -0.992729     -0.089423
  C      -1.049434      0.135807      0.179647
  C       1.214051     -0.517364     -0.766871
  O       0.466677      0.976905      1.701532
  O       2.443261     -0.987327     -0.167547
  O      -0.392798      1.306333      0.674401
  H       1.453897      0.684773      1.106634
  H      -2.428276      1.447978     -0.825482
  H      -2.394491     -0.202822     -1.460626
  H      -1.072635      0.919997     -1.827507
  H       2.798424      1.104528     -0.351574
  H       0.249157     -1.442447      0.856491
  H      -0.541863     -1.764750     -0.681155
  H      -1.761644     -0.204528      0.936773
  H       1.253289     -0.500103     -1.849512
17
Coordinates from ORCA-job freq E -421.389974345896
  C      -1.781900      0.604447     -1.061649
  C       2.121447      0.330115     -0.004188
  C      -0.048476     -0.992729     -0.089450
  C      -1.049441      0.135795      0.179644
  C       1.214084     -0.517315     -0.766838
  O       0.466654      0.976911      1.701502
  O       2.443285     -0.987339     -0.167554
  O      -0.392801      1.306334      0.674359
  H       1.453951      0.684818      1.106604
  H      -2.428104      1.448107     -0.825523
  H      -2.394772     -0.202781     -1.460433
  H      -1.072703      0.919689     -1.827640
  H       2.798464      1.104521     -0.351461
  H       0.249139     -1.442539      0.856441
  H      -0.541804     -1.764695     -0.681286
  H      -1.761643     -0.204503      0.936794
  H       1.253289     -0.499968     -1.849474
