15
Coordinates from ORCA-job freq E -270.959597661160
  C      -4.036491     -2.151757      3.146407
  C      -2.793706     -1.525713      1.054551
  C      -2.936915     -1.287524      2.527225
  C      -1.546512      0.679337     -0.003687
  C      -2.533094     -0.382910      0.150354
  O      -1.692294     -0.353970     -0.963265
  H      -3.621716     -0.822159      0.300854
  H      -4.094926     -1.984897      4.219179
  H      -5.003371     -1.914113      2.708006
  H      -3.831072     -3.205299      2.972357
  H      -2.475706     -2.508250      0.733540
  H      -1.990104     -1.513151      3.035358
  H      -3.155512     -0.231406      2.704338
  H      -1.863917      1.663672     -0.328785
  H      -0.620099      0.650226      0.562776
15
Coordinates from ORCA-job freq E -270.958400016913
  C      -4.032758     -2.155412      3.144177
  C      -2.790637     -1.505705      1.045760
  C      -2.946413     -1.277309      2.519781
  C      -1.538079      0.679880     -0.003984
  C      -2.510392     -0.387419      0.170356
  O      -1.690229     -0.375746     -0.951380
  H      -3.600004     -0.837067      0.353638
  H      -4.091495     -1.995803      4.220712
  H      -5.005538     -1.929412      2.708750
  H      -3.818540     -3.209289      2.965897
  H      -2.526889     -2.501243      0.703262
  H      -1.994692     -1.486603      3.019944
  H      -3.173644     -0.224138      2.701734
  H      -1.863231      1.656468     -0.342641
  H      -0.612895      0.660884      0.563200
15
Coordinates from ORCA-job freq E -270.954797124464
  C      -4.049706     -2.124400      3.135824
  C      -2.784238     -1.529819      1.037066
  C      -2.921606     -1.300300      2.512875
  C      -1.571796      0.688818      0.009107
  C      -2.518519     -0.404440      0.178721
  O      -1.697767     -0.361325     -0.943604
  H      -3.578518     -0.907691      0.362211
  H      -4.104116     -1.957322      4.210933
  H      -5.009311     -1.854329      2.696879
  H      -3.883883     -3.187394      2.962864
  H      -2.435942     -2.499321      0.697983
  H      -1.980910     -1.562206      3.010206
  H      -3.094004     -0.237661      2.700242
  H      -1.923595      1.659187     -0.320671
  H      -0.641526      0.690290      0.568571
15
Coordinates from ORCA-job freq E -270.959266937175
  C      -4.058445     -2.115159      3.133031
  C      -2.768048     -1.533174      1.037778
  C      -2.912182     -1.312995      2.517256
  C      -1.575700      0.707725      0.003627
  C      -2.497232     -0.402687      0.183781
  O      -1.690547     -0.361268     -0.942264
  H      -3.589379     -0.959117      0.397250
  H      -4.119376     -1.950072      4.208688
  H      -5.010284     -1.828750      2.686206
  H      -3.913584     -3.182131      2.960480
  H      -2.433807     -2.503948      0.686704
  H      -1.976717     -1.592957      3.012158
  H      -3.060979     -0.248179      2.710986
  H      -1.946267      1.667438     -0.334952
  H      -0.642889      0.727359      0.558478
15
Coordinates from ORCA-job freq E -270.961460611678
  C      -4.062492     -2.106201      3.131566
  C      -2.751843     -1.543980      1.042236
  C      -2.898968     -1.323895      2.521975
  C      -1.586283      0.713445      0.004779
  C      -2.499530     -0.403866      0.176921
  O      -1.688214     -0.357105     -0.943858
  H      -3.612905     -0.966053      0.380073
  H      -4.128658     -1.937932      4.206709
  H      -5.006337     -1.805640      2.676957
  H      -3.933965     -3.175949      2.962073
  H      -2.406773     -2.511943      0.692701
  H      -1.970900     -1.621473      3.019417
  H      -3.029488     -0.257036      2.716998
  H      -1.962022      1.670922     -0.334617
  H      -0.657058      0.738792      0.565278
15
Coordinates from ORCA-job freq E -270.961890146177
  C      -4.055548     -2.117836      3.133936
  C      -2.751470     -1.535321      1.046704
  C      -2.906114     -1.314990      2.524972
  C      -1.575479      0.708661      0.001574
  C      -2.498467     -0.399666      0.173644
  O      -1.685892     -0.363766     -0.945878
  H      -3.625342     -0.931609      0.371225
  H      -4.125197     -1.951546      4.209121
  H      -5.004441     -1.834208      2.678819
  H      -3.908234     -3.185152      2.963948
  H      -2.440244     -2.513915      0.695238
  H      -1.972934     -1.592626      3.024968
  H      -3.057151     -0.250241      2.717251
  H      -1.940958      1.668709     -0.341318
  H      -0.647965      0.725592      0.565002
15
Coordinates from ORCA-job freq E -270.962521796345
  C      -4.050034     -2.125270      3.135491
  C      -2.751096     -1.529843      1.049549
  C      -2.910785     -1.309035      2.526782
  C      -1.568150      0.706022      0.000996
  C      -2.496406     -0.397827      0.172148
  O      -1.682003     -0.368940     -0.945102
  H      -3.637851     -0.910393      0.364529
  H      -4.122100     -1.960363      4.210597
  H      -5.002154     -1.853309      2.679948
  H      -3.890565     -3.190865      2.965566
  H      -2.465883     -2.514723      0.694390
  H      -1.974004     -1.572207      3.028648
  H      -3.075722     -0.245758      2.716179
  H      -1.927368      1.666706     -0.346021
  H      -0.641314      0.717892      0.565508
15
Coordinates from ORCA-job freq E -270.963387496577
  C      -4.041085     -2.136153      3.138615
  C      -2.753604     -1.522050      1.052378
  C      -2.918785     -1.300020      2.528398
  C      -1.556100      0.702846      0.001700
  C      -2.490972     -0.395877      0.170459
  O      -1.672691     -0.376734     -0.942037
  H      -3.658301     -0.883777      0.354719
  H      -4.115535     -1.973021      4.213640
  H      -4.998565     -1.882430      2.683627
  H      -3.863585     -3.199036      2.969309
  H      -2.507981     -2.514156      0.689075
  H      -1.976207     -1.539807      3.032274
  H      -3.104818     -0.239147      2.712279
  H      -1.907437      1.663575     -0.352169
  H      -0.629769      0.707872      0.566941
15
Coordinates from ORCA-job freq E -270.964064827475
  C      -4.025194     -2.153916      3.146064
  C      -2.769165     -1.509904      1.052453
  C      -2.935926     -1.284306      2.527154
  C      -1.533771      0.697088      0.005277
  C      -2.480089     -0.393119      0.167272
  O      -1.652772     -0.388392     -0.935707
  H      -3.686022     -0.848624      0.339067
  H      -4.098922     -1.991875      4.221093
  H      -4.993402     -1.933216      2.696324
  H      -3.816189     -3.211435      2.978795
  H      -2.581047     -2.508619      0.674687
  H      -1.982815     -1.482213      3.030846
  H      -3.158129     -0.228498      2.700958
  H      -1.873045      1.658299     -0.357822
  H      -0.608947      0.690817      0.572748
15
Coordinates from ORCA-job freq E -270.964306065595
  C      -4.007605     -2.172028      3.156613
  C      -2.801427     -1.497324      1.046199
  C      -2.959487     -1.266431      2.520198
  C      -1.509504      0.687099      0.011203
  C      -2.472790     -0.389571      0.161098
  O      -1.631272     -0.398820     -0.930229
  H      -3.699858     -0.814760      0.320445
  H      -4.073603     -2.007925      4.231770
  H      -4.989259     -1.989553      2.718968
  H      -3.762218     -3.222082      2.991826
  H      -2.650833     -2.498181      0.657648
  H      -1.994395     -1.419281      3.017396
  H      -3.220538     -0.217943      2.685758
  H      -1.832424      1.652016     -0.356905
  H      -0.590225      0.666871      0.587219
15
Coordinates from ORCA-job freq E -270.964454479321
  C      -3.979160     -2.196301      3.172126
  C      -2.856608     -1.478067      1.033798
  C      -2.996582     -1.239743      2.506840
  C      -1.477909      0.665975      0.023023
  C      -2.470654     -0.385741      0.149268
  O      -1.601233     -0.416458     -0.920525
  H      -3.711721     -0.755717      0.282472
  H      -4.030016     -2.027207      4.247215
  H      -4.979095     -2.071147      2.756493
  H      -3.679099     -3.232211      3.009152
  H      -2.741245     -2.479809      0.635371
  H      -2.015465     -1.328930      2.988667
  H      -3.313111     -0.205257      2.666020
  H      -1.769675      1.638247     -0.352123
  H      -0.573864      0.624452      0.621412
15
Coordinates from ORCA-job freq E -270.964472521890
  C      -3.975911     -2.196890      3.173589
  C      -2.865088     -1.475849      1.029404
  C      -2.999297     -1.237888      2.503592
  C      -1.476174      0.664711      0.026515
  C      -2.469509     -0.386498      0.147485
  O      -1.593721     -0.419153     -0.916445
  H      -3.715221     -0.757079      0.278834
  H      -4.024857     -2.025438      4.248319
  H      -4.977434     -2.076962      2.760229
  H      -3.671670     -3.231798      3.012174
  H      -2.753227     -2.477939      0.631340
  H      -2.015122     -1.323947      2.979642
  H      -3.317453     -0.204275      2.665620
  H      -1.764244      1.636481     -0.352642
  H      -0.576508      0.624610      0.631550
15
Coordinates from ORCA-job freq E -270.964491545388
  C      -3.973502     -2.198136      3.175254
  C      -2.870963     -1.474406      1.027553
  C      -3.001855     -1.236101      2.502017
  C      -1.475818      0.661837      0.028252
  C      -2.471986     -0.387129      0.144255
  O      -1.589126     -0.421236     -0.914715
  H      -3.715713     -0.748912      0.269676
  H      -4.019417     -2.026374      4.250075
  H      -4.976676     -2.080938      2.765221
  H      -3.666357     -3.231976      3.012848
  H      -2.756141     -2.477169      0.631668
  H      -2.015673     -1.319756      2.974435
  H      -3.322414     -0.203552      2.665721
  H      -1.759234      1.634296     -0.352928
  H      -0.580560      0.621639      0.639875
15
Coordinates from ORCA-job freq E -270.964512676270
  C      -3.965116     -2.199615      3.179107
  C      -2.891309     -1.469130      1.018755
  C      -3.007269     -1.231762      2.495317
  C      -1.474570      0.656956      0.036622
  C      -2.472805     -0.390784      0.135691
  O      -1.566859     -0.429417     -0.903855
  H      -3.723963     -0.741291      0.249696
  H      -4.004286     -2.024180      4.253494
  H      -4.972363     -2.091840      2.776536
  H      -3.650280     -3.231238      3.017629
  H      -2.781426     -2.474183      0.627317
  H      -2.013476     -1.310547      2.952758
  H      -3.330649     -0.201313      2.666125
  H      -1.747165      1.628255     -0.355548
  H      -0.593900      0.622175      0.669563
15
Coordinates from ORCA-job freq E -270.964529881703
  C      -3.961534     -2.200024      3.180599
  C      -2.899221     -1.467033      1.015800
  C      -3.008598     -1.230098      2.493108
  C      -1.474932      0.655185      0.039917
  C      -2.472636     -0.393466      0.130583
  O      -1.554706     -0.433336     -0.898900
  H      -3.726559     -0.737174      0.240319
  H      -3.997332     -2.024299      4.255078
  H      -4.970446     -2.094572      2.781619
  H      -3.645074     -3.231032      3.018394
  H      -2.794044     -2.473369      0.626158
  H      -2.012076     -1.307858      2.944827
  H      -3.332643     -0.200292      2.666204
  H      -1.744319      1.625419     -0.357300
  H      -0.601315      0.624035      0.682802
15
Coordinates from ORCA-job freq E -270.964562066844
  C      -3.950969     -2.199410      3.184243
  C      -2.920639     -1.462033      1.006764
  C      -3.009828     -1.226017      2.486201
  C      -1.478752      0.650878      0.050992
  C      -2.470054     -0.404329      0.114443
  O      -1.514677     -0.445308     -0.881503
  H      -3.731792     -0.728514      0.213341
  H      -3.975776     -2.023749      4.259026
  H      -4.964649     -2.097678      2.796428
  H      -3.632936     -3.229403      3.018949
  H      -2.836539     -2.471718      0.620552
  H      -2.006159     -1.303133      2.922040
  H      -3.333173     -0.197209      2.665647
  H      -1.741041      1.616272     -0.362854
  H      -0.628450      0.633438      0.724939
15
Coordinates from ORCA-job freq E -270.964601580656
  C      -3.938602     -2.196121      3.187676
  C      -2.942985     -1.458063      0.995528
  C      -3.007338     -1.222690      2.477107
  C      -1.487967      0.646630      0.066189
  C      -2.464148     -0.421673      0.093563
  O      -1.462046     -0.459116     -0.856613
  H      -3.733501     -0.721923      0.181414
  H      -3.949106     -2.020853      4.262719
  H      -4.957511     -2.094423      2.813723
  H      -3.623011     -3.226166      3.018139
  H      -2.893439     -2.470531      0.610863
  H      -1.996342     -1.302692      2.895210
  H      -3.325591     -0.193712      2.663819
  H      -1.743705      1.604307     -0.369529
  H      -0.670143      0.649113      0.779399
15
Coordinates from ORCA-job freq E -270.964643315850
  C      -3.927161     -2.190058      3.190361
  C      -2.960390     -1.456799      0.984007
  C      -3.000128     -1.221929      2.467223
  C      -1.502849      0.643596      0.083021
  C      -2.454942     -0.443776      0.071444
  O      -1.405305     -0.470774     -0.827484
  H      -3.729779     -0.718904      0.149770
  H      -3.922618     -2.014803      4.265430
  H      -4.950487     -2.082990      2.830130
  H      -3.619329     -3.221772      3.016870
  H      -2.955021     -2.469921      0.598286
  H      -1.983255     -1.309772      2.869128
  H      -3.307835     -0.191103      2.660475
  H      -1.753864      1.591693     -0.376080
  H      -0.722471      0.669397      0.836626
15
Coordinates from ORCA-job freq E -270.964680203448
  C      -3.926932     -2.186822      3.190435
  C      -2.958168     -1.459856      0.982210
  C      -2.995013     -1.224609      2.465405
  C      -1.509186      0.644960      0.086585
  C      -2.452141     -0.450510      0.068073
  O      -1.393933     -0.469511     -0.821988
  H      -3.726052     -0.721488      0.145117
  H      -3.919694     -2.010970      4.265385
  H      -4.950166     -2.073871      2.831737
  H      -3.625311     -3.220369      3.016949
  H      -2.965787     -2.472119      0.594325
  H      -1.978394     -1.318299      2.866489
  H      -3.296239     -0.191840      2.658582
  H      -1.762776      1.590136     -0.377025
  H      -0.735643      0.677255      0.846929
15
Coordinates from ORCA-job freq E -270.964727372351
  C      -3.928804     -2.175793      3.189571
  C      -2.948673     -1.470238      0.977659
  C      -2.977631     -1.235092      2.461191
  C      -1.528290      0.650942      0.095115
  C      -2.441803     -0.468382      0.059634
  O      -1.364389     -0.462005     -0.809411
  H      -3.714971     -0.736355      0.137955
  H      -3.917335     -1.996468      4.263900
  H      -4.949753     -2.043356      2.830959
  H      -3.647961     -3.215691      3.019122
  H      -2.991563     -2.479559      0.584913
  H      -1.962712     -1.350634      2.860757
  H      -3.255494     -0.195818      2.654271
  H      -1.794469      1.588052     -0.377648
  H      -0.771589      0.702485      0.871220
15
Coordinates from ORCA-job freq E -270.964743274943
  C      -3.931169     -2.172583      3.188692
  C      -2.944187     -1.473428      0.977820
  C      -2.972106     -1.238960      2.461459
  C      -1.533603      0.653206      0.095324
  C      -2.439612     -0.471682      0.058237
  O      -1.360252     -0.458721     -0.808746
  H      -3.712012     -0.740612      0.139217
  H      -3.920053     -1.992799      4.262956
  H      -4.950531     -2.032885      2.828336
  H      -3.657636     -3.214588      3.019152
  H      -2.990034     -2.482767      0.585376
  H      -1.958355     -1.363100      2.861368
  H      -3.241905     -0.197624      2.654767
  H      -1.804936      1.588672     -0.377899
  H      -0.779045      0.709957      0.873148
15
Coordinates from ORCA-job freq E -270.964776582999
  C      -3.940480     -2.159315      3.184868
  C      -2.926243     -1.486430      0.978582
  C      -2.950741     -1.254087      2.462613
  C      -1.554831      0.661835      0.096637
  C      -2.432979     -0.483726      0.054451
  O      -1.347505     -0.445899     -0.805298
  H      -3.701937     -0.757416      0.142087
  H      -3.929442     -1.979600      4.259144
  H      -4.953283     -1.989574      2.818935
  H      -3.697048     -3.209021      3.016843
  H      -2.977321     -2.496242      0.587947
  H      -1.942536     -1.411935      2.864650
  H      -3.188881     -0.205322      2.656724
  H      -1.844887      1.590771     -0.378651
  H      -0.807323      0.738047      0.879676
15
Coordinates from ORCA-job freq E -270.964789391604
  C      -3.943774     -2.155092      3.183777
  C      -2.920449     -1.490583      0.978930
  C      -2.944680     -1.258738      2.463178
  C      -1.560794      0.664762      0.096992
  C      -2.432017     -0.486326      0.054690
  O      -1.346643     -0.441510     -0.804843
  H      -3.700062     -0.764063      0.142075
  H      -3.932170     -1.976535      4.258277
  H      -4.954460     -1.975411      2.816828
  H      -3.710269     -3.206932      3.015086
  H      -2.968486     -2.500780      0.588970
  H      -1.938611     -1.426497      2.866529
  H      -3.173344     -0.207943      2.657323
  H      -1.856257      1.591984     -0.378303
  H      -0.813420      0.745750      0.879699
15
Coordinates from ORCA-job freq E -270.964801327993
  C      -3.951957     -2.145337      3.181237
  C      -2.906943     -1.499789      0.980248
  C      -2.931436     -1.269652      2.465001
  C      -1.573656      0.671924      0.096955
  C      -2.429759     -0.490892      0.056089
  O      -1.346857     -0.430978     -0.805431
  H      -3.695723     -0.781773      0.143533
  H      -3.938670     -1.970499      4.256359
  H      -4.957497     -1.942082      2.812522
  H      -3.741916     -3.201742      3.009927
  H      -2.944393     -2.510919      0.591526
  H      -1.930760     -1.460062      2.871692
  H      -3.138400     -0.214516      2.659386
  H      -1.882241      1.595353     -0.377416
  H      -0.825228      0.763052      0.877578
15
Coordinates from ORCA-job freq E -270.964799968030
  C      -3.954812     -2.143099      3.180575
  C      -2.902966     -1.501776      0.981359
  C      -2.928576     -1.272540      2.466198
  C      -1.576388      0.674105      0.095761
  C      -2.429488     -0.490893      0.057011
  O      -1.348763     -0.428426     -0.806902
  H      -3.694382     -0.787077      0.145269
  H      -3.940388     -1.970655      4.256069
  H      -4.959010     -1.932677      2.812267
  H      -3.751576     -3.200479      3.007040
  H      -2.934006     -2.513137      0.592581
  H      -1.929597     -1.468776      2.874260
  H      -3.130228     -0.216435      2.660830
  H      -1.888574      1.596634     -0.378019
  H      -0.826683      0.767319      0.874907
15
Coordinates from ORCA-job freq E -270.964810123322
  C      -3.960619     -2.139458      3.179195
  C      -2.894729     -1.505245      0.984429
  C      -2.923935     -1.277633      2.469209
  C      -1.580863      0.678285      0.092463
  C      -2.430054     -0.489673      0.059808
  O      -1.354786     -0.424454     -0.810323
  H      -3.692074     -0.796607      0.149329
  H      -3.943222     -1.973418      4.255664
  H      -4.962366     -1.914583      2.812831
  H      -3.770634     -3.198273      2.999411
  H      -2.910380     -2.516779      0.594947
  H      -1.928456     -1.483889      2.880836
  H      -3.116773     -0.219970      2.664182
  H      -1.899179      1.599184     -0.380320
  H      -0.827366      0.774598      0.867546
15
Coordinates from ORCA-job freq E -270.964812666114
  C      -3.961821     -2.139681      3.178963
  C      -2.892971     -1.505366      0.985646
  C      -2.924136     -1.277919      2.470307
  C      -1.580362      0.679036      0.091006
  C      -2.430985     -0.488098      0.061357
  O      -1.358246     -0.424380     -0.811858
  H      -3.692160     -0.798079      0.150964
  H      -3.943698     -1.975758      4.255761
  H      -4.963390     -1.912681      2.813466
  H      -3.773404     -3.198396      2.996998
  H      -2.904234     -2.516694      0.595500
  H      -1.929277     -1.484278      2.883444
  H      -3.117180     -0.220266      2.665140
  H      -1.899105      1.600005     -0.381311
  H      -0.824468      0.774641      0.863826
15
Coordinates from ORCA-job freq E -270.964824135172
  C      -3.963257     -2.141498      3.178813
  C      -2.891089     -1.504335      0.987801
  C      -2.926269     -1.277077      2.472245
  C      -1.577177      0.679727      0.088002
  C      -2.433120     -0.483871      0.064534
  O      -1.366126     -0.425129     -0.815688
  H      -3.693196     -0.799528      0.155005
  H      -3.944879     -1.980430      4.256047
  H      -4.965091     -1.914252      2.814235
  H      -3.774148     -3.199583      2.993894
  H      -2.895381     -2.515196      0.596346
  H      -1.931911     -1.480535      2.888042
  H      -3.122635     -0.219975      2.666713
  H      -1.895356      1.601722     -0.382594
  H      -0.815803      0.772046      0.855812
15
Coordinates from ORCA-job freq E -270.964796916782
  C      -3.963038     -2.143373      3.178941
  C      -2.891659     -1.502846      0.988613
  C      -2.928475     -1.275588      2.472935
  C      -1.574287      0.679167      0.086610
  C      -2.434364     -0.481449      0.065683
  O      -1.370037     -0.426228     -0.817917
  H      -3.694211     -0.797970      0.157297
  H      -3.945665     -1.982382      4.256205
  H      -4.965420     -1.919249      2.813919
  H      -3.770464     -3.200810      2.993933
  H      -2.894300     -2.513579      0.596797
  H      -1.933717     -1.475530      2.889481
  H      -3.128520     -0.219116      2.667242
  H      -1.890932      1.602319     -0.382717
  H      -0.810346      0.768719      0.852184
15
Coordinates from ORCA-job freq E -270.964814503138
  C      -3.961775     -2.147150      3.179302
  C      -2.893903     -1.499751      0.989618
  C      -2.932957     -1.272235      2.473706
  C      -1.568668      0.677418      0.084690
  C      -2.436652     -0.477452      0.067246
  O      -1.376253     -0.428633     -0.821381
  H      -3.696483     -0.793185      0.160710
  H      -3.946887     -1.985121      4.256451
  H      -4.965385     -1.930841      2.812889
  H      -3.760989     -3.203257      2.995368
  H      -2.895460     -2.510358      0.597473
  H      -1.937036     -1.464718      2.891005
  H      -3.140625     -0.217117      2.667645
  H      -1.881597      1.602956     -0.382432
  H      -0.800765      0.761532      0.846918
15
Coordinates from ORCA-job freq E -270.964817749186
  C      -3.961064     -2.147970      3.179470
  C      -2.894992     -1.499046      0.989428
  C      -2.933988     -1.271360      2.473500
  C      -1.567499      0.676743      0.084776
  C      -2.436942     -0.477069      0.067196
  O      -1.376659     -0.429148     -0.821675
  H      -3.697050     -0.791416      0.160809
  H      -3.946957     -1.984963      4.256465
  H      -4.965012     -1.934248      2.812498
  H      -3.757825     -3.203773      2.996558
  H      -2.897692     -2.509696      0.597415
  H      -1.937592     -1.461956      2.890534
  H      -3.143434     -0.216581      2.667343
  H      -1.879397      1.602817     -0.381963
  H      -0.799333      0.759750      0.846853
15
Coordinates from ORCA-job freq E -270.964824961471
  C      -3.960671     -2.148314      3.179566
  C      -2.895598     -1.498736      0.989253
  C      -2.934408     -1.270991      2.473347
  C      -1.567030      0.676423      0.084900
  C      -2.436906     -0.477081      0.067063
  O      -1.376471     -0.429344     -0.821683
  H      -3.697232     -0.790521      0.160741
  H      -3.946974     -1.984705      4.256476
  H      -4.964771     -1.935869      2.812256
  H      -3.756253     -3.203999      2.997280
  H      -2.899315     -2.509420      0.597336
  H      -1.937761     -1.460785      2.890153
  H      -3.144587     -0.216352      2.667180
  H      -1.878546      1.602684     -0.381732
  H      -0.798914      0.759096      0.847072
15
Coordinates from ORCA-job freq E -270.964820795731
  C      -3.960407     -2.148534      3.179614
  C      -2.896006     -1.498522      0.989154
  C      -2.934648     -1.270754      2.473265
  C      -1.566752      0.676214      0.084967
  C      -2.436809     -0.477149      0.066954
  O      -1.376239     -0.429479     -0.821667
  H      -3.697300     -0.789912      0.160729
  H      -3.947008     -1.984547      4.256465
  H      -4.964592     -1.936910      2.812063
  H      -3.755227     -3.204139      2.997729
  H      -2.900542     -2.509227      0.597305
  H      -1.937842     -1.460069      2.889912
  H      -3.145273     -0.216202      2.667106
  H      -1.878076      1.602566     -0.381625
  H      -0.798714      0.758750      0.847237
15
Coordinates from ORCA-job freq E -270.964819019042
  C      -3.960140     -2.148794      3.179677
  C      -2.896440     -1.498280      0.989061
  C      -2.934949     -1.270479      2.473177
  C      -1.566422      0.675995      0.085019
  C      -2.436768     -0.477144      0.066873
  O      -1.376095     -0.429674     -0.821654
  H      -3.697402     -0.789260      0.160702
  H      -3.946988     -1.984456      4.256478
  H      -4.964437     -1.938026      2.811940
  H      -3.754166     -3.204308      2.998158
  H      -2.901646     -2.509003      0.597261
  H      -1.937978     -1.459238      2.889671
  H      -3.146097     -0.216030      2.667024
  H      -1.877469      1.602457     -0.381543
  H      -0.798438      0.758328      0.847365
15
Coordinates from ORCA-job freq E -270.964818107883
  C      -3.959944     -2.149023      3.179724
  C      -2.896772     -1.498062      0.989024
  C      -2.935189     -1.270266      2.473150
  C      -1.566148      0.675836      0.085008
  C      -2.436717     -0.477130      0.066823
  O      -1.375987     -0.429849     -0.821662
  H      -3.697466     -0.788717      0.160724
  H      -3.947025     -1.984438      4.256490
  H      -4.964320     -1.938923      2.811817
  H      -3.753329     -3.204458      2.998463
  H      -2.902527     -2.508792      0.597254
  H      -1.938091     -1.458598      2.889530
  H      -3.146754     -0.215907      2.667038
  H      -1.876992      1.602371     -0.381560
  H      -0.798175      0.758042      0.847385
15
Coordinates from ORCA-job freq E -270.964818282772
  C      -3.959891     -2.148991      3.179744
  C      -2.896870     -1.498071      0.988947
  C      -2.935121     -1.270312      2.473094
  C      -1.566249      0.675830      0.085084
  C      -2.436538     -0.477331      0.066719
  O      -1.375582     -0.429839     -0.821500
  H      -3.697357     -0.788600      0.160587
  H      -3.946981     -1.984290      4.256496
  H      -4.964266     -1.938922      2.811803
  H      -3.753278     -3.204450      2.998603
  H      -2.903076     -2.508805      0.597191
  H      -1.937994     -1.458733      2.889370
  H      -3.146571     -0.215933      2.667015
  H      -1.877174      1.602279     -0.381598
  H      -0.798487      0.758253      0.847650
15
Coordinates from ORCA-job freq E -270.964812704505
  C      -3.959915     -2.148755      3.179733
  C      -2.896829     -1.498244      0.988845
  C      -2.934814     -1.270531      2.473016
  C      -1.566648      0.675919      0.085237
  C      -2.436257     -0.477722      0.066552
  O      -1.374879     -0.429728     -0.821156
  H      -3.697124     -0.788765      0.160291
  H      -3.946860     -1.984061      4.256486
  H      -4.964222     -1.938245      2.811868
  H      -3.753785     -3.204302      2.998578
  H      -2.903477     -2.508986      0.597121
  H      -1.937723     -1.459448      2.889152
  H      -3.145743     -0.216061      2.667000
  H      -1.877851      1.602154     -0.381690
  H      -0.799308      0.758862      0.848174
15
Coordinates from ORCA-job freq E -270.964813505968
  C      -3.959970     -2.148573      3.179728
  C      -2.896751     -1.498383      0.988789
  C      -2.934560     -1.270732      2.472984
  C      -1.566978      0.676026      0.085314
  C      -2.436017     -0.478022      0.066435
  O      -1.374308     -0.429638     -0.820878
  H      -3.696910     -0.788929      0.160078
  H      -3.946758     -1.983953      4.256487
  H      -4.964221     -1.937622      2.811959
  H      -3.754299     -3.204198      2.998496
  H      -2.903729     -2.509130      0.597079
  H      -1.937516     -1.460073      2.889031
  H      -3.145037     -0.216184      2.667031
  H      -1.878421      1.602063     -0.381851
  H      -0.799961      0.759436      0.848524
15
Coordinates from ORCA-job freq E -270.964821622378
  C      -3.959877     -2.148824      3.179754
  C      -2.896922     -1.498164      0.988856
  C      -2.934824     -1.270536      2.473049
  C      -1.566659      0.675924      0.085177
  C      -2.436052     -0.477857      0.066504
  O      -1.374496     -0.429819     -0.821015
  H      -3.696982     -0.788551      0.160251
  H      -3.946801     -1.984166      4.256506
  H      -4.964200     -1.938329      2.811922
  H      -3.753723     -3.204361      2.998562
  H      -2.904063     -2.508901      0.597125
  H      -1.937699     -1.459436      2.889119
  H      -3.145749     -0.216079      2.667104
  H      -1.877920      1.602043     -0.381948
  H      -0.799471      0.759142      0.848240
15
Coordinates from ORCA-job freq E -270.964828321235
  C      -3.959656     -2.149310      3.179819
  C      -2.897314     -1.497745      0.988937
  C      -2.935401     -1.270087      2.473111
  C      -1.565953      0.675667      0.084984
  C      -2.436262     -0.477436      0.066650
  O      -1.375100     -0.430151     -0.821372
  H      -3.697254     -0.787817      0.160560
  H      -3.946926     -1.984452      4.256546
  H      -4.964149     -1.939935      2.811790
  H      -3.752361     -3.204663      2.998842
  H      -2.904550     -2.508467      0.597176
  H      -1.938108     -1.458013      2.889215
  H      -3.147309     -0.215815      2.667145
  H      -1.876741      1.602064     -0.381899
  H      -0.798353      0.758245      0.847702
15
Coordinates from ORCA-job freq E -270.964821770247
  C      -3.959673     -2.149207      3.179813
  C      -2.897295     -1.497819      0.988902
  C      -2.935260     -1.270196      2.473091
  C      -1.566133      0.675718      0.085049
  C      -2.436130     -0.477608      0.066598
  O      -1.374805     -0.430097     -0.821222
  H      -3.697149     -0.787900      0.160432
  H      -3.946901     -1.984341      4.256538
  H      -4.964118     -1.939631      2.811786
  H      -3.752590     -3.204599      2.998838
  H      -2.904724     -2.508540      0.597143
  H      -1.937985     -1.458352      2.889137
  H      -3.146933     -0.215888      2.667163
  H      -1.877056      1.602015     -0.381952
  H      -0.798686      0.758531      0.847892
15
Coordinates from ORCA-job freq E -270.964817453395
  C      -3.959725     -2.149071      3.179805
  C      -2.897228     -1.497921      0.988870
  C      -2.935072     -1.270347      2.473075
  C      -1.566365      0.675804      0.085098
  C      -2.435972     -0.477802      0.066531
  O      -1.374450     -0.430025     -0.821046
  H      -3.697010     -0.788043      0.160292
  H      -3.946862     -1.984241      4.256537
  H      -4.964123     -1.939181      2.811820
  H      -3.752971     -3.204523      2.998792
  H      -2.904823     -2.508646      0.597113
  H      -1.937837     -1.458833      2.889063
  H      -3.146408     -0.215979      2.667202
  H      -1.877476      1.601965     -0.382050
  H      -0.799114      0.758929      0.848104
15
Coordinates from ORCA-job freq E -270.964828058412
  C      -3.959702     -2.149085      3.179814
  C      -2.897283     -1.497899      0.988862
  C      -2.935066     -1.270345      2.473074
  C      -1.566372      0.675798      0.085104
  C      -2.435926     -0.477840      0.066514
  O      -1.374350     -0.430046     -0.821006
  H      -3.696987     -0.787981      0.160259
  H      -3.946873     -1.984217      4.256540
  H      -4.964095     -1.939236      2.811795
  H      -3.752915     -3.204537      2.998837
  H      -2.905003     -2.508626      0.597105
  H      -1.937811     -1.458832      2.889015
  H      -3.146393     -0.215978      2.667220
  H      -1.877484      1.601933     -0.382086
  H      -0.799176      0.758977      0.848160
15
Coordinates from ORCA-job freq E -270.964831887599
  C      -3.959587     -2.149292      3.179852
  C      -2.897505     -1.497714      0.988875
  C      -2.935310     -1.270156      2.473082
  C      -1.566092      0.675689      0.085044
  C      -2.435992     -0.477692      0.066557
  O      -1.374497     -0.430217     -0.821076
  H      -3.697095     -0.787637      0.160326
  H      -3.946882     -1.984330      4.256563
  H      -4.964057     -1.939915      2.811766
  H      -3.752318     -3.204668      2.998975
  H      -2.905327     -2.508432      0.597113
  H      -1.937968     -1.458249      2.888991
  H      -3.147034     -0.215871      2.667238
  H      -1.876982      1.601917     -0.382120
  H      -0.798792      0.758654      0.848020
15
Coordinates from ORCA-job freq E -270.964829634209
  C      -3.959490     -2.149492      3.179892
  C      -2.897688     -1.497543      0.988888
  C      -2.935558     -1.269977      2.473094
  C      -1.565809      0.675590      0.084979
  C      -2.436052     -0.477539      0.066604
  O      -1.374674     -0.430362     -0.821175
  H      -3.697196     -0.787329      0.160399
  H      -3.946878     -1.984453      4.256592
  H      -4.964041     -1.940561      2.811775
  H      -3.751774     -3.204789      2.999095
  H      -2.905579     -2.508255      0.597105
  H      -1.938138     -1.457677      2.888998
  H      -3.147682     -0.215768      2.667248
  H      -1.876504      1.601912     -0.382128
  H      -0.798373      0.758328      0.847843
15
Coordinates from ORCA-job freq E -270.964819955937
  C      -3.959473     -2.149564      3.179893
  C      -2.897733     -1.497470      0.988929
  C      -2.935625     -1.269924      2.473137
  C      -1.565719      0.675569      0.084923
  C      -2.436043     -0.477500      0.066636
  O      -1.374731     -0.430417     -0.821223
  H      -3.697205     -0.787217      0.160460
  H      -3.946917     -1.984533      4.256593
  H      -4.964034     -1.940752      2.811741
  H      -3.751616     -3.204832      2.999089
  H      -2.905674     -2.508178      0.597132
  H      -1.938192     -1.457523      2.889055
  H      -3.147872     -0.215746      2.667307
  H      -1.876395      1.601900     -0.382179
  H      -0.798207      0.758273      0.847715
