15
Coordinates from ORCA-job freq E -271.043111044163
  C          -2.23750347929252     -0.29466272880402     -0.06994957386764
  C           2.74525906591059     -0.11392083655596      0.55546277730248
  C          -0.91467725693454      0.44880720572870     -0.19774289045365
  C           0.28397191081659     -0.49196046892142     -0.12155685746797
  C           1.58884047522606      0.23834047702774     -0.23938814082291
  O           2.02038129297291      0.96595849252588      0.94405941073086
  H          -3.08548854521391      0.38701624180078     -0.12338374644071
  H          -2.29319220205870     -0.82483042632283      0.88181106887933
  H          -2.34832504637113     -1.03197947716116     -0.86661247586030
  H           3.81303784790796     -0.05638770493862      0.38177674106720
  H          -0.82591322547045      1.19502945568759      0.59448822968852
  H          -0.88571618723469      0.99410379252058     -1.14488655573451
  H           0.22862528508262     -1.23296522885032     -0.92465861335273
  H           0.27648900761446     -1.03966874860130      0.82322855298163
  H           1.72768705704476      0.82050795486437     -1.14743292664959
