17
Coordinates from ORCA-job freq E -421.397003103068
  C          -1.86369044159062      0.10465191705849     -0.81983324138871
  C          -0.86576307473417     -0.85701093748359     -0.23207006013943
  C          -0.00811249991076     -0.34484202905552      0.90439749797009
  C           0.83376796263557      0.84048671950597      0.47847634766691
  C           1.87020354420142      0.62012413053765     -0.52866816324285
  O           1.00441083776679     -0.92220244478917     -1.89734261416370
  O           2.22816362149264      0.78850367274359      0.79715152952633
  O           2.01646196961688     -0.69704228823821     -0.97677475746618
  H           0.03204617438603     -1.04117018156359     -1.19387528779706
  H          -2.61464309913837      0.37792688150431     -0.07094294597256
  H          -1.37894370965097      1.02332108130034     -1.15275994218724
  H          -2.38557340162582     -0.32925566647627     -1.67089104188966
  H          -1.24976480406458     -1.86225150894735     -0.06913016685632
  H          -0.64294784714721     -0.06560784659226      1.75210999152013
  H           0.66674976247237     -1.12721362957864      1.24857085741566
  H           0.40371966703843      1.83161303853671      0.56841197429942
  H           2.20060533825241      1.36916109153753     -1.23956097729479
