17
Coordinates from ORCA-job freq E -421.377126677633
  C      -2.882703     -0.919653      1.251113
  C      -0.531889     -1.193025     -0.104398
  C       0.830619     -0.980875      0.472982
  C       1.656264     -0.011075     -0.377337
  C      -1.710778     -0.596676      0.423818
  O      -1.576946      0.153778     -0.639387
  O       3.752155      0.936778     -0.543553
  O       2.925685      0.066143      0.229232
  H      -3.464854     -0.017671      1.426287
  H      -3.528708     -1.648052      0.749059
  H      -2.564410     -1.343961      2.201381
  H      -0.566826     -1.682276     -1.072143
  H       1.350776     -1.942960      0.494004
  H       0.765830     -0.593197      1.490321
  H       1.753814     -0.380100     -1.405881
  H       1.181727      0.977408     -0.401387
  H       4.484564      1.111280      0.061384
17
Coordinates from ORCA-job freq E -421.379029100221
  C      -2.885510     -0.891665      1.231173
  C      -0.502802     -1.205667     -0.093594
  C       0.860858     -1.007362      0.480354
  C       1.658312     -0.012219     -0.353407
  C      -1.683903     -0.607911      0.422940
  O      -1.558395      0.129600     -0.633683
  O       3.675129      0.964274     -0.571501
  O       2.944207      0.031406      0.221260
  H      -3.436081      0.030571      1.410388
  H      -3.553376     -1.589870      0.714143
  H      -2.606396     -1.334653      2.185740
  H      -0.561779     -1.740318     -1.036992
  H       1.389707     -1.965758      0.468349
  H       0.800152     -0.654722      1.509354
  H       1.729184     -0.342693     -1.393501
  H       1.196308      0.976769     -0.327307
  H       4.408708      1.156088      0.021777
17
Coordinates from ORCA-job freq E -421.379283177776
  C      -2.880829     -0.879563      1.226867
  C      -0.498964     -1.213113     -0.090913
  C       0.864754     -1.018518      0.481856
  C       1.652293     -0.004349     -0.338698
  C      -1.676034     -0.602416      0.419631
  O      -1.553667      0.120365     -0.647099
  O       3.711891      0.887817     -0.609070
  O       2.933506      0.056402      0.249507
  H      -3.405447      0.048794      1.447481
  H      -3.570429     -1.538098      0.686694
  H      -2.607679     -1.368132      2.160618
  H      -0.570802     -1.775336     -1.017084
  H       1.404870     -1.969635      0.449137
  H       0.801028     -0.682957      1.516611
  H       1.736970     -0.334828     -1.377202
  H       1.175398      0.977568     -0.319645
  H       4.357462      1.231868      0.016802
17
Coordinates from ORCA-job freq E -421.379808802818
  C      -2.864689     -0.820727      1.204910
  C      -0.478815     -1.275968     -0.072702
  C       0.888807     -1.077496      0.489990
  C       1.627728      0.002245     -0.293415
  C      -1.643794     -0.611969      0.400557
  O      -1.500490      0.047817     -0.703862
  O       3.681393      0.898971     -0.642110
  O       2.955114      0.002063      0.193223
  H      -3.342416      0.135316      1.416038
  H      -3.583479     -1.443762      0.660916
  H      -2.623060     -1.315928      2.143342
  H      -0.561579     -1.888034     -0.966126
  H       1.454471     -2.008137      0.392234
  H       0.837688     -0.799338      1.543011
  H       1.634232     -0.240838     -1.358746
  H       1.162784      0.980384     -0.158370
  H       4.230427      1.351269      0.006603
17
Coordinates from ORCA-job freq E -421.380179205703
  C      -2.837716     -0.778703      1.200851
  C      -0.472867     -1.312613     -0.080550
  C       0.896834     -1.117100      0.476675
  C       1.620943     -0.000133     -0.268888
  C      -1.622817     -0.614800      0.377708
  O      -1.475045      0.010333     -0.744759
  O       3.701717      0.839219     -0.633781
  O       2.952237     -0.019664      0.208150
  H      -3.288321      0.190639      1.410282
  H      -3.579395     -1.388074      0.672565
  H      -2.595936     -1.271820      2.140569
  H      -0.568726     -1.943603     -0.959015
  H       1.477672     -2.033479      0.346930
  H       0.844172     -0.874193      1.538816
  H       1.615131     -0.194333     -1.343298
  H       1.153227      0.969597     -0.085293
  H       4.053211      1.474595     -0.001466
17
Coordinates from ORCA-job freq E -421.380555501207
  C      -2.801453     -0.714266      1.197382
  C      -0.464062     -1.367705     -0.082815
  C       0.914653     -1.182369      0.455179
  C       1.609132     -0.027183     -0.261670
  C      -1.589025     -0.620101      0.359972
  O      -1.432417     -0.041754     -0.786785
  O       3.670198      0.897234     -0.592084
  O       2.950626     -0.037256      0.192525
  H      -3.203416      0.278623      1.395810
  H      -3.577336     -1.294465      0.685393
  H      -2.573054     -1.203903      2.141958
  H      -0.586683     -2.030084     -0.934021
  H       1.503447     -2.085645      0.281826
  H       0.878827     -0.975387      1.526057
  H       1.586673     -0.176513     -1.342491
  H       1.126355      0.924844     -0.028515
  H       3.861856      1.591798      0.047772
17
Coordinates from ORCA-job freq E -421.380816453318
  C      -2.762385     -0.661762      1.206017
  C      -0.463782     -1.408216     -0.094708
  C       0.925267     -1.232825      0.420510
  C       1.601218     -0.055526     -0.276536
  C      -1.563611     -0.622030      0.345034
  O      -1.413171     -0.080406     -0.820119
  O       3.626052      0.963923     -0.523300
  O       2.930213     -0.029014      0.209460
  H      -3.135514      0.346310      1.383257
  H      -3.562036     -1.235892      0.724764
  H      -2.528820     -1.130129      2.160061
  H      -0.614905     -2.091403     -0.924281
  H       1.514940     -2.129742      0.221808
  H       0.905400     -1.045658      1.495980
  H       1.605696     -0.195396     -1.359011
  H       1.084997      0.879544     -0.045118
  H       3.724763      1.664091      0.131676
17
Coordinates from ORCA-job freq E -421.380954108415
  C      -2.698505     -0.581969      1.212104
  C      -0.462214     -1.473988     -0.108722
  C       0.941378     -1.305192      0.369777
  C       1.577929     -0.085063     -0.288798
  C      -1.525549     -0.631723      0.316739
  O      -1.389827     -0.156364     -0.878605
  O       3.537887      1.065771     -0.431356
  O       2.892079     -0.009181      0.228746
  H      -3.029806      0.447248      1.345836
  H      -3.532611     -1.150081      0.785409
  H      -2.453066     -1.007629      2.182994
  H      -0.654522     -2.194595     -0.896518
  H       1.538391     -2.184469      0.124348
  H       0.946405     -1.156647      1.452374
  H       1.609787     -0.196466     -1.374226
  H       1.014101      0.818956     -0.044507
  H       3.562464      1.737260      0.259897
17
Coordinates from ORCA-job freq E -421.380945350882
  C      -2.695764     -0.580668      1.217207
  C      -0.464252     -1.470109     -0.113791
  C       0.940280     -1.306021      0.364730
  C       1.586161     -0.091430     -0.294272
  C      -1.528005     -0.630999      0.315383
  O      -1.396215     -0.153280     -0.879755
  O       3.547498      1.061605     -0.413744
  O       2.891284     -0.007583      0.244935
  H      -3.021619      0.449398      1.358148
  H      -3.535092     -1.142651      0.792620
  H      -2.446700     -1.012309      2.184518
  H      -0.657654     -2.190506     -0.901608
  H       1.531769     -2.190056      0.122661
  H       0.945035     -1.155646      1.447126
  H       1.637090     -0.212149     -1.377969
  H       1.017364      0.814050     -0.067291
  H       3.523142      1.754222      0.256594
17
Coordinates from ORCA-job freq E -421.380953089331
  C      -2.695406     -0.580315      1.217214
  C      -0.464256     -1.471117     -0.113558
  C       0.940279     -1.306293      0.364644
  C       1.585471     -0.091617     -0.295157
  C      -1.527631     -0.631406      0.315457
  O      -1.395645     -0.154080     -0.879782
  O       3.544713      1.064276     -0.414153
  O       2.890721     -0.007035      0.243568
  H      -3.020606      0.449956      1.358153
  H      -3.535048     -1.141700      0.792467
  H      -2.446729     -1.012161      2.184530
  H      -0.657690     -2.191538     -0.901337
  H       1.532145     -2.190250      0.123259
  H       0.944876     -1.155050      1.446908
  H       1.636041     -0.212538     -1.378857
  H       1.016384      0.813699     -0.068256
  H       3.526699      1.753036      0.260394
17
Coordinates from ORCA-job freq E -421.380948380562
  C      -2.695805     -0.580703      1.217147
  C      -0.464262     -1.470903     -0.113380
  C       0.940227     -1.305893      0.364882
  C       1.585513     -0.091386     -0.295168
  C      -1.527820     -0.631395      0.315631
  O      -1.395808     -0.153942     -0.879544
  O       3.545031      1.064053     -0.414747
  O       2.891052     -0.007263      0.242983
  H      -3.021293      0.449474      1.358093
  H      -3.535196     -1.142268      0.792140
  H      -2.447240     -1.012557      2.184487
  H      -0.657507     -2.191264     -0.901262
  H       1.532129     -2.189891      0.123732
  H       0.944732     -1.154418      1.447107
  H       1.635567     -0.212265     -1.378900
  H       1.016845      0.814107     -0.067974
  H       3.528156      1.752383      0.260266
