17
Coordinates from ORCA-job freq E -421.405743572979
  C           2.69230580212160      0.34813292788240     -0.47110127916724
  C           0.29630448514573     -0.13165762536082      0.06615074532925
  C           1.32005482877869     -0.05585684933280     -1.01122260151132
  C          -1.97579519017680      0.18268245161490      1.05922604913457
  C          -0.98223961003853      0.37269112778537     -0.01442042342603
  O          -2.26773205308729     -0.93323728437774      0.28795003738294
  O          -2.69272898208057      1.26600664217343     -1.25473277192071
  O          -1.30984761483897      1.00892682717942     -1.17205042549473
  H           3.43347556877343      0.35531485364729     -1.26862070304177
  H           2.65687502304593      1.34348434907249     -0.02932907626559
  H           3.02857372744440     -0.34941743508158      0.29657056103049
  H           0.54749278108287     -0.64319303439440      0.98634984086738
  H           1.39649928035954     -1.04501734787787     -1.47731008068055
  H           0.99514744348343      0.63044121763101     -1.79126779257367
  H          -1.54101768843203     -0.02944459035769      2.03746454007005
  H          -2.75530760342052      0.94144515154333      1.11143425021707
  H          -3.05244219816090      0.36233561825323     -1.19515686995012
