17
Coordinates from ORCA-job freq E -421.383862864593
  C          -1.78074552098628      0.99272613739531      0.11471712834752
  C           2.31073613793603      0.14640599091663     -0.05091566593296
  C          -1.45009211021215     -0.42052113763524     -0.35587648813375
  C           1.02905818826779      0.00916614877693     -0.72272234454114
  C          -0.02689345165834     -0.85092152379173     -0.04390865225324
  O           1.37755576968722     -1.25756520326292      1.69843614919176
  O           2.22797727947111     -0.68164675882744     -1.14034617092397
  O           0.13789303014428     -0.74598337964421      1.36666815455305
  H           2.10022155876363     -0.54958500302659      1.08450455247639
  H          -1.67377318472721      1.07486667469235      1.19442583009966
  H          -2.80522716893694      1.25126299476227     -0.14837721537327
  H          -1.12578186749492      1.73520569251503     -0.34302272387608
  H           3.00761694621356      0.97729562007315     -0.03789038918008
  H          -1.59095259956527     -0.50844347374882     -1.43526084868491
  H          -2.12711786883726     -1.13565754462434      0.11222092456870
  H           0.69750375028910      0.76575319950460     -1.42449506891289
  H           0.14725511164561     -1.89078543407495     -0.33473517142482
