17
Coordinates from ORCA-job freq E -421.310568934465
  C          -1.36121200744609      0.73233766155817     -1.35683461501979
  C          -0.37112267522111     -0.83905489611222      0.39284921967810
  C           2.21176635885698      0.38241040731751      0.89813550185030
  C          -1.05016948447408      0.50754059486857      0.10830337480817
  C           1.44126711339433     -0.28103108488583     -0.13649464786633
  O          -2.00640699421515     -1.17261799782312      0.84467661146886
  O           2.42279608646143     -0.98387592487631      0.48994212907804
  O          -2.22825951083385      0.24818463764094      0.84928715713036
  H           0.04742881180564     -1.04288194928398      1.37004323107602
  H          -1.88934711798019     -0.13451192676098     -1.75348418100899
  H          -2.00230140662893      1.60637241109233     -1.46146017763715
  H          -0.45579799140714      0.90200048348418     -1.94028672542293
  H          -0.29480299729335     -1.61255041632406     -0.36149134828002
  H           3.02193673997075      1.05501603038886      0.64745077891312
  H           1.77003610963123      0.49696708420481      1.88124414917205
  H          -0.52101530156807      1.35929378769246      0.54262138265748
  H           1.48496726694760     -0.13692290218133     -1.21105984059726
