17
Coordinates from ORCA-job freq E -421.363604104671
  C          -0.51392295236358     -0.80553279522744     -0.37625800460772
  C           1.85714701691637     -0.10654220722966     -0.63019203817540
  C           0.21358936422318     -1.05773669785897      0.93343937273217
  C          -1.43798307085216      0.37319495862129     -0.42368403724548
  C           1.62331732876627     -0.52075737837038      0.74769520497254
  O          -3.37107116305206      1.20983320510471      0.48149973691770
  O           1.66186796087188      0.85300771103023      0.34689165268775
  O          -2.55792687238530      0.04771047194309      0.39627422665638
  H           0.60408757052040     -0.42615366580521     -1.07444852383788
  H          -0.89461926953223     -1.68863099342504     -0.88088793281361
  H           2.75846413410353     -0.09264226900007     -1.23107408418298
  H          -0.27854251555099     -0.56289617899904      1.77274345806527
  H           0.26722467826317     -2.12236994832074      1.16076027013588
  H          -1.78028278020470      0.57510813349492     -1.44269250956159
  H          -0.95298846152873      1.26604227806368     -0.02293245517661
  H           2.41840649830983     -0.80723302056268      1.42361349302958
  H          -4.11142646650487      0.97412439654132     -0.08885182959599
