17
* (null), Energy   -1000.0000000
C    -0.092743   -0.851870   -0.565983   -0.091988   -0.030123    0.080620
C     2.278327   -0.152879   -0.819917   -0.104816   -0.042082   -0.056013
C     0.634770   -1.104074    0.743714    0.005121    0.003321   -0.011775
C    -1.016803    0.326858   -0.613409    0.014625    0.003891   -0.011063
C     2.044498   -0.567095    0.557970    0.015364    0.017922    0.005308
O    -2.949891    1.163496    0.291775   -0.000721    0.001281   -0.000158
O     2.083048    0.806670    0.157167   -0.004426    0.003471    0.021876
O    -2.136747    0.001373    0.206549   -0.000893   -0.002234    0.001525
H     1.025268   -0.472491   -1.264174    1.872086    0.552900   -0.311439
H    -0.473439   -1.734968   -1.070613    0.155149    0.014306   -0.158629
H     3.179644   -0.138980   -1.420799   -0.020465   -0.050797    0.071540
H     0.142638   -0.609233    1.583018   -0.002289    0.018168   -0.017136
H     0.688405   -2.168707    0.971035   -0.000864   -0.000664   -0.016656
H    -1.359103    0.528771   -1.632418   -0.000256    0.000266   -0.004327
H    -0.531808    1.219705   -0.212657    0.006804    0.001022    0.001039
H     2.839587   -0.853570    1.233888    0.012790   -0.015137   -0.016657
H    -3.690246    0.927787   -0.278577   -0.000414    0.000853   -0.000972
17
* Frequency(6) -1754.8577
C    -0.103197   -0.855293   -0.556821   -0.091988   -0.030123    0.080620
C     2.266415   -0.157662   -0.826283   -0.104816   -0.042082   -0.056013
C     0.635352   -1.103697    0.742376    0.005121    0.003321   -0.011775
C    -1.015141    0.327300   -0.614666    0.014625    0.003891   -0.011063
C     2.046244   -0.565058    0.558573    0.015364    0.017922    0.005308
O    -2.949973    1.163642    0.291757   -0.000721    0.001281   -0.000158
O     2.082545    0.807065    0.159653   -0.004426    0.003471    0.021876
O    -2.136848    0.001119    0.206722   -0.000893   -0.002234    0.001525
H     1.238021   -0.409657   -1.299567    1.872086    0.552900   -0.311439
H    -0.455807   -1.733342   -1.088640    0.155149    0.014306   -0.158629
H     3.177319   -0.144752   -1.412669   -0.020465   -0.050797    0.071540
H     0.142378   -0.607169    1.581071   -0.002289    0.018168   -0.017136
H     0.688307   -2.168783    0.969142   -0.000864   -0.000664   -0.016656
H    -1.359132    0.528801   -1.632909   -0.000256    0.000266   -0.004327
H    -0.531035    1.219821   -0.212539    0.006804    0.001022    0.001039
H     2.841040   -0.855291    1.231996    0.012790   -0.015137   -0.016657
H    -3.690293    0.927884   -0.278687   -0.000414    0.000853   -0.000972
17
* Frequency(6) -1754.8577
C    -0.112518   -0.858346   -0.548652   -0.091988   -0.030123    0.080620
C     2.255794   -0.161926   -0.831958   -0.104816   -0.042082   -0.056013
C     0.635871   -1.103360    0.741183    0.005121    0.003321   -0.011775
C    -1.013659    0.327694   -0.615787    0.014625    0.003891   -0.011063
C     2.047800   -0.563242    0.559111    0.015364    0.017922    0.005308
O    -2.950046    1.163771    0.291741   -0.000721    0.001281   -0.000158
O     2.082097    0.807417    0.161869   -0.004426    0.003471    0.021876
O    -2.136939    0.000893    0.206877   -0.000893   -0.002234    0.001525
H     1.427719   -0.353631   -1.331125    1.872086    0.552900   -0.311439
H    -0.440086   -1.731893   -1.104714    0.155149    0.014306   -0.158629
H     3.175245   -0.149900   -1.405420   -0.020465   -0.050797    0.071540
H     0.142146   -0.605328    1.579335   -0.002289    0.018168   -0.017136
H     0.688219   -2.168850    0.967455   -0.000864   -0.000664   -0.016656
H    -1.359158    0.528828   -1.633348   -0.000256    0.000266   -0.004327
H    -0.530346    1.219925   -0.212434    0.006804    0.001022    0.001039
H     2.842336   -0.856824    1.230308    0.012790   -0.015137   -0.016657
H    -3.690335    0.927971   -0.278786   -0.000414    0.000853   -0.000972
17
* Frequency(6) -1754.8577
C    -0.119696   -0.860696   -0.542361   -0.091988   -0.030123    0.080620
C     2.247615   -0.165210   -0.836329   -0.104816   -0.042082   -0.056013
C     0.636270   -1.103101    0.740264    0.005121    0.003321   -0.011775
C    -1.012517    0.327998   -0.616651    0.014625    0.003891   -0.011063
C     2.048999   -0.561843    0.559526    0.015364    0.017922    0.005308
O    -2.950102    1.163871    0.291729   -0.000721    0.001281   -0.000158
O     2.081751    0.807688    0.163576   -0.004426    0.003471    0.021876
O    -2.137008    0.000719    0.206996   -0.000893   -0.002234    0.001525
H     1.573805   -0.310487   -1.355428    1.872086    0.552900   -0.311439
H    -0.427979   -1.730776   -1.117093    0.155149    0.014306   -0.158629
H     3.173648   -0.153863   -1.399837   -0.020465   -0.050797    0.071540
H     0.141967   -0.603910    1.577997   -0.002289    0.018168   -0.017136
H     0.688152   -2.168902    0.966155   -0.000864   -0.000664   -0.016656
H    -1.359178    0.528849   -1.633685   -0.000256    0.000266   -0.004327
H    -0.529815    1.220004   -0.212353    0.006804    0.001022    0.001039
H     2.843334   -0.858006    1.229008    0.012790   -0.015137   -0.016657
H    -3.690368    0.928037   -0.278862   -0.000414    0.000853   -0.000972
17
* Frequency(6) -1754.8577
C    -0.123953   -0.862090   -0.538630   -0.091988   -0.030123    0.080620
C     2.242764   -0.167158   -0.838922   -0.104816   -0.042082   -0.056013
C     0.636507   -1.102947    0.739719    0.005121    0.003321   -0.011775
C    -1.011841    0.328178   -0.617163    0.014625    0.003891   -0.011063
C     2.049711   -0.561014    0.559771    0.015364    0.017922    0.005308
O    -2.950136    1.163930    0.291721   -0.000721    0.001281   -0.000158
O     2.081547    0.807848    0.164589   -0.004426    0.003471    0.021876
O    -2.137050    0.000615    0.207067   -0.000893   -0.002234    0.001525
H     1.660448   -0.284897   -1.369842    1.872086    0.552900   -0.311439
H    -0.420799   -1.730114   -1.124434    0.155149    0.014306   -0.158629
H     3.172701   -0.156214   -1.396526   -0.020465   -0.050797    0.071540
H     0.141861   -0.603069    1.577204   -0.002289    0.018168   -0.017136
H     0.688112   -2.168933    0.965384   -0.000864   -0.000664   -0.016656
H    -1.359189    0.528861   -1.633886   -0.000256    0.000266   -0.004327
H    -0.529500    1.220052   -0.212305    0.006804    0.001022    0.001039
H     2.843926   -0.858706    1.228237    0.012790   -0.015137   -0.016657
H    -3.690387    0.928077   -0.278907   -0.000414    0.000853   -0.000972
17
* Frequency(6) -1754.8577
C    -0.124828   -0.862377   -0.537862   -0.091988   -0.030123    0.080620
C     2.241767   -0.167558   -0.839455   -0.104816   -0.042082   -0.056013
C     0.636556   -1.102916    0.739607    0.005121    0.003321   -0.011775
C    -1.011701    0.328215   -0.617268    0.014625    0.003891   -0.011063
C     2.049857   -0.560843    0.559822    0.015364    0.017922    0.005308
O    -2.950143    1.163943    0.291720   -0.000721    0.001281   -0.000158
O     2.081505    0.807881    0.164797   -0.004426    0.003471    0.021876
O    -2.137058    0.000594    0.207081   -0.000893   -0.002234    0.001525
H     1.678260   -0.279637   -1.372805    1.872086    0.552900   -0.311439
H    -0.419322   -1.729978   -1.125944    0.155149    0.014306   -0.158629
H     3.172506   -0.156698   -1.395846   -0.020465   -0.050797    0.071540
H     0.141839   -0.602896    1.577041   -0.002289    0.018168   -0.017136
H     0.688104   -2.168939    0.965226   -0.000864   -0.000664   -0.016656
H    -1.359192    0.528864   -1.633927   -0.000256    0.000266   -0.004327
H    -0.529435    1.220062   -0.212295    0.006804    0.001022    0.001039
H     2.844048   -0.858850    1.228079    0.012790   -0.015137   -0.016657
H    -3.690391    0.928085   -0.278916   -0.000414    0.000853   -0.000972
17
* Frequency(6) -1754.8577
C    -0.122227   -0.861525   -0.540143   -0.091988   -0.030123    0.080620
C     2.244732   -0.166368   -0.837870   -0.104816   -0.042082   -0.056013
C     0.636411   -1.103010    0.739940    0.005121    0.003321   -0.011775
C    -1.012115    0.328105   -0.616955    0.014625    0.003891   -0.011063
C     2.049422   -0.561350    0.559672    0.015364    0.017922    0.005308
O    -2.950122    1.163906    0.291724   -0.000721    0.001281   -0.000158
O     2.081630    0.807783    0.164178   -0.004426    0.003471    0.021876
O    -2.137033    0.000657    0.207038   -0.000893   -0.002234    0.001525
H     1.625310   -0.295275   -1.363996    1.872086    0.552900   -0.311439
H    -0.423711   -1.730383   -1.121457    0.155149    0.014306   -0.158629
H     3.173085   -0.155261   -1.397869   -0.020465   -0.050797    0.071540
H     0.141904   -0.603410    1.577526   -0.002289    0.018168   -0.017136
H     0.688128   -2.168920    0.965697   -0.000864   -0.000664   -0.016656
H    -1.359185    0.528856   -1.633804   -0.000256    0.000266   -0.004327
H    -0.529627    1.220033   -0.212324    0.006804    0.001022    0.001039
H     2.843686   -0.858422    1.228550    0.012790   -0.015137   -0.016657
H    -3.690379    0.928061   -0.278888   -0.000414    0.000853   -0.000972
17
* Frequency(6) -1754.8577
C    -0.116430   -0.859627   -0.545223   -0.091988   -0.030123    0.080620
C     2.251337   -0.163716   -0.834341   -0.104816   -0.042082   -0.056013
C     0.636088   -1.103219    0.740682    0.005121    0.003321   -0.011775
C    -1.013037    0.327860   -0.616258    0.014625    0.003891   -0.011063
C     2.048454   -0.562480    0.559337    0.015364    0.017922    0.005308
O    -2.950077    1.163826    0.291734   -0.000721    0.001281   -0.000158
O     2.081909    0.807564    0.162800   -0.004426    0.003471    0.021876
O    -2.136977    0.000798    0.206942   -0.000893   -0.002234    0.001525
H     1.507336   -0.330117   -1.344370    1.872086    0.552900   -0.311439
H    -0.433488   -1.731284   -1.111460    0.155149    0.014306   -0.158629
H     3.174375   -0.152060   -1.402377   -0.020465   -0.050797    0.071540
H     0.142048   -0.604555    1.578606   -0.002289    0.018168   -0.017136
H     0.688183   -2.168878    0.966746   -0.000864   -0.000664   -0.016656
H    -1.359169    0.528839   -1.633532   -0.000256    0.000266   -0.004327
H    -0.530056    1.219968   -0.212390    0.006804    0.001022    0.001039
H     2.842880   -0.857468    1.229599    0.012790   -0.015137   -0.016657
H    -3.690353    0.928007   -0.278827   -0.000414    0.000853   -0.000972
17
* Frequency(6) -1754.8577
C    -0.108066   -0.856888   -0.552553   -0.091988   -0.030123    0.080620
C     2.260867   -0.159890   -0.829248   -0.104816   -0.042082   -0.056013
C     0.635623   -1.103521    0.741753    0.005121    0.003321   -0.011775
C    -1.014367    0.327506   -0.615252    0.014625    0.003891   -0.011063
C     2.047057   -0.564109    0.558854    0.015364    0.017922    0.005308
O    -2.950011    1.163709    0.291748   -0.000721    0.001281   -0.000158
O     2.082311    0.807249    0.160811   -0.004426    0.003471    0.021876
O    -2.136895    0.001001    0.206803   -0.000893   -0.002234    0.001525
H     1.337123   -0.380388   -1.316054    1.872086    0.552900   -0.311439
H    -0.447594   -1.732585   -1.097038    0.155149    0.014306   -0.158629
H     3.176235   -0.147441   -1.408882   -0.020465   -0.050797    0.071540
H     0.142256   -0.606207    1.580164   -0.002289    0.018168   -0.017136
H     0.688261   -2.168818    0.968261   -0.000864   -0.000664   -0.016656
H    -1.359145    0.528815   -1.633138   -0.000256    0.000266   -0.004327
H    -0.530675    1.219875   -0.212484    0.006804    0.001022    0.001039
H     2.841717   -0.856092    1.231114    0.012790   -0.015137   -0.016657
H    -3.690315    0.927929   -0.278739   -0.000414    0.000853   -0.000972
17
* Frequency(6) -1754.8577
C    -0.098042   -0.853605   -0.561339   -0.091988   -0.030123    0.080620
C     2.272289   -0.155304   -0.823144   -0.104816   -0.042082   -0.056013
C     0.635065   -1.103883    0.743036    0.005121    0.003321   -0.011775
C    -1.015960    0.327082   -0.614046    0.014625    0.003891   -0.011063
C     2.045383   -0.566062    0.558276    0.015364    0.017922    0.005308
O    -2.949932    1.163570    0.291766   -0.000721    0.001281   -0.000158
O     2.082793    0.806870    0.158427   -0.004426    0.003471    0.021876
O    -2.136798    0.001245    0.206637   -0.000893   -0.002234    0.001525
H     1.133115   -0.440639   -1.282115    1.872086    0.552900   -0.311439
H    -0.464501   -1.734144   -1.079751    0.155149    0.014306   -0.158629
H     3.178465   -0.141906   -1.416678   -0.020465   -0.050797    0.071540
H     0.142506   -0.608187    1.582031   -0.002289    0.018168   -0.017136
H     0.688355   -2.168745    0.970076   -0.000864   -0.000664   -0.016656
H    -1.359117    0.528786   -1.632667   -0.000256    0.000266   -0.004327
H    -0.531416    1.219764   -0.212598    0.006804    0.001022    0.001039
H     2.840324   -0.854442    1.232929    0.012790   -0.015137   -0.016657
H    -3.690270    0.927836   -0.278633   -0.000414    0.000853   -0.000972
17
* Frequency(6) -1754.8577
C    -0.087443   -0.850135   -0.570627   -0.091988   -0.030123    0.080620
C     2.284365   -0.150455   -0.816690   -0.104816   -0.042082   -0.056013
C     0.634475   -1.104265    0.744393    0.005121    0.003321   -0.011775
C    -1.017645    0.326634   -0.612772    0.014625    0.003891   -0.011063
C     2.043612   -0.568127    0.557664    0.015364    0.017922    0.005308
O    -2.949849    1.163422    0.291784   -0.000721    0.001281   -0.000158
O     2.083303    0.806471    0.155906   -0.004426    0.003471    0.021876
O    -2.136695    0.001502    0.206461   -0.000893   -0.002234    0.001525
H     0.917420   -0.504342   -1.246232    1.872086    0.552900   -0.311439
H    -0.482377   -1.735792   -1.061475    0.155149    0.014306   -0.158629
H     3.180823   -0.136053   -1.424920   -0.020465   -0.050797    0.071540
H     0.142770   -0.610280    1.584006   -0.002289    0.018168   -0.017136
H     0.688455   -2.168669    0.971995   -0.000864   -0.000664   -0.016656
H    -1.359088    0.528756   -1.632168   -0.000256    0.000266   -0.004327
H    -0.532200    1.219646   -0.212717    0.006804    0.001022    0.001039
H     2.838850   -0.852698    1.234848    0.012790   -0.015137   -0.016657
H    -3.690222    0.927738   -0.278521   -0.000414    0.000853   -0.000972
17
* Frequency(6) -1754.8577
C    -0.077419   -0.846852   -0.579413   -0.091988   -0.030123    0.080620
C     2.295788   -0.145869   -0.810586   -0.104816   -0.042082   -0.056013
C     0.633916   -1.104627    0.745676    0.005121    0.003321   -0.011775
C    -1.019239    0.326210   -0.611566    0.014625    0.003891   -0.011063
C     2.041938   -0.570080    0.557086    0.015364    0.017922    0.005308
O    -2.949771    1.163283    0.291801   -0.000721    0.001281   -0.000158
O     2.083785    0.806092    0.153523   -0.004426    0.003471    0.021876
O    -2.136598    0.001745    0.206295   -0.000893   -0.002234    0.001525
H     0.713413   -0.564594   -1.212294    1.872086    0.552900   -0.311439
H    -0.499284   -1.737351   -1.044188    0.155149    0.014306   -0.158629
H     3.183053   -0.130518   -1.432716   -0.020465   -0.050797    0.071540
H     0.143019   -0.612260    1.585873   -0.002289    0.018168   -0.017136
H     0.688549   -2.168597    0.973810   -0.000864   -0.000664   -0.016656
H    -1.359060    0.528727   -1.631697   -0.000256    0.000266   -0.004327
H    -0.532942    1.219535   -0.212831    0.006804    0.001022    0.001039
H     2.837456   -0.851049    1.236663    0.012790   -0.015137   -0.016657
H    -3.690177    0.927645   -0.278415   -0.000414    0.000853   -0.000972
17
* Frequency(6) -1754.8577
C    -0.069056   -0.844113   -0.586743   -0.091988   -0.030123    0.080620
C     2.305318   -0.142043   -0.805494   -0.104816   -0.042082   -0.056013
C     0.633451   -1.104929    0.746747    0.005121    0.003321   -0.011775
C    -1.020569    0.325856   -0.610560    0.014625    0.003891   -0.011063
C     2.040541   -0.571710    0.556603    0.015364    0.017922    0.005308
O    -2.949705    1.163166    0.291815   -0.000721    0.001281   -0.000158
O     2.084188    0.805777    0.151534   -0.004426    0.003471    0.021876
O    -2.136517    0.001948    0.206157   -0.000893   -0.002234    0.001525
H     0.543199   -0.614865   -1.183977    1.872086    0.552900   -0.311439
H    -0.513390   -1.738652   -1.029765    0.155149    0.014306   -0.158629
H     3.184914   -0.125899   -1.439221   -0.020465   -0.050797    0.071540
H     0.143227   -0.613912    1.587431   -0.002289    0.018168   -0.017136
H     0.688627   -2.168536    0.975324   -0.000864   -0.000664   -0.016656
H    -1.359037    0.528702   -1.631303   -0.000256    0.000266   -0.004327
H    -0.533560    1.219442   -0.212925    0.006804    0.001022    0.001039
H     2.836293   -0.849672    1.238178    0.012790   -0.015137   -0.016657
H    -3.690140    0.927567   -0.278327   -0.000414    0.000853   -0.000972
17
* Frequency(6) -1754.8577
C    -0.063259   -0.842215   -0.591823   -0.091988   -0.030123    0.080620
C     2.311923   -0.139391   -0.801964   -0.104816   -0.042082   -0.056013
C     0.633128   -1.105138    0.747489    0.005121    0.003321   -0.011775
C    -1.021491    0.325611   -0.609863    0.014625    0.003891   -0.011063
C     2.039573   -0.572839    0.556269    0.015364    0.017922    0.005308
O    -2.949660    1.163085    0.291825   -0.000721    0.001281   -0.000158
O     2.084467    0.805558    0.150155   -0.004426    0.003471    0.021876
O    -2.136460    0.002089    0.206061   -0.000893   -0.002234    0.001525
H     0.425225   -0.649707   -1.164351    1.872086    0.552900   -0.311439
H    -0.523167   -1.739554   -1.019769    0.155149    0.014306   -0.158629
H     3.186204   -0.122698   -1.443729   -0.020465   -0.050797    0.071540
H     0.143372   -0.615057    1.588511   -0.002289    0.018168   -0.017136
H     0.688682   -2.168494    0.976374   -0.000864   -0.000664   -0.016656
H    -1.359020    0.528686   -1.631031   -0.000256    0.000266   -0.004327
H    -0.533989    1.219377   -0.212991    0.006804    0.001022    0.001039
H     2.835487   -0.848719    1.239227    0.012790   -0.015137   -0.016657
H    -3.690113    0.927514   -0.278265   -0.000414    0.000853   -0.000972
17
* Frequency(6) -1754.8577
C    -0.060657   -0.841363   -0.594104   -0.091988   -0.030123    0.080620
C     2.314888   -0.138201   -0.800379   -0.104816   -0.042082   -0.056013
C     0.632983   -1.105232    0.747822    0.005121    0.003321   -0.011775
C    -1.021904    0.325501   -0.609550    0.014625    0.003891   -0.011063
C     2.039138   -0.573346    0.556119    0.015364    0.017922    0.005308
O    -2.949639    1.163049    0.291830   -0.000721    0.001281   -0.000158
O     2.084592    0.805460    0.149536   -0.004426    0.003471    0.021876
O    -2.136435    0.002152    0.206017   -0.000893   -0.002234    0.001525
H     0.372276   -0.665345   -1.155542    1.872086    0.552900   -0.311439
H    -0.527556   -1.739958   -1.015282    0.155149    0.014306   -0.158629
H     3.186783   -0.121261   -1.445752   -0.020465   -0.050797    0.071540
H     0.143436   -0.615570    1.588996   -0.002289    0.018168   -0.017136
H     0.688706   -2.168476    0.976845   -0.000864   -0.000664   -0.016656
H    -1.359013    0.528678   -1.630908   -0.000256    0.000266   -0.004327
H    -0.534182    1.219349   -0.213020    0.006804    0.001022    0.001039
H     2.835125   -0.848290    1.239698    0.012790   -0.015137   -0.016657
H    -3.690102    0.927490   -0.278238   -0.000414    0.000853   -0.000972
17
* Frequency(6) -1754.8577
C    -0.061532   -0.841650   -0.593336   -0.091988   -0.030123    0.080620
C     2.313890   -0.138601   -0.800912   -0.104816   -0.042082   -0.056013
C     0.633032   -1.105201    0.747710    0.005121    0.003321   -0.011775
C    -1.021765    0.325538   -0.609656    0.014625    0.003891   -0.011063
C     2.039285   -0.573175    0.556169    0.015364    0.017922    0.005308
O    -2.949646    1.163061    0.291828   -0.000721    0.001281   -0.000158
O     2.084550    0.805493    0.149744   -0.004426    0.003471    0.021876
O    -2.136444    0.002131    0.206032   -0.000893   -0.002234    0.001525
H     0.390087   -0.660084   -1.158505    1.872086    0.552900   -0.311439
H    -0.526080   -1.739822   -1.016792    0.155149    0.014306   -0.158629
H     3.186588   -0.121745   -1.445072   -0.020465   -0.050797    0.071540
H     0.143414   -0.615398    1.588833   -0.002289    0.018168   -0.017136
H     0.688698   -2.168482    0.976687   -0.000864   -0.000664   -0.016656
H    -1.359016    0.528681   -1.630949   -0.000256    0.000266   -0.004327
H    -0.534117    1.219358   -0.213010    0.006804    0.001022    0.001039
H     2.835247   -0.848434    1.239540    0.012790   -0.015137   -0.016657
H    -3.690106    0.927498   -0.278247   -0.000414    0.000853   -0.000972
17
* Frequency(6) -1754.8577
C    -0.065790   -0.843044   -0.589605   -0.091988   -0.030123    0.080620
C     2.309039   -0.140549   -0.803505   -0.104816   -0.042082   -0.056013
C     0.633269   -1.105047    0.747165    0.005121    0.003321   -0.011775
C    -1.021088    0.325718   -0.610168    0.014625    0.003891   -0.011063
C     2.039996   -0.572346    0.556415    0.015364    0.017922    0.005308
O    -2.949680    1.163121    0.291821   -0.000721    0.001281   -0.000158
O     2.084345    0.805653    0.150757   -0.004426    0.003471    0.021876
O    -2.136485    0.002028    0.206102   -0.000893   -0.002234    0.001525
H     0.476731   -0.634495   -1.172919    1.872086    0.552900   -0.311439
H    -0.518899   -1.739160   -1.024133    0.155149    0.014306   -0.158629
H     3.185641   -0.124096   -1.441761   -0.020465   -0.050797    0.071540
H     0.143309   -0.614557    1.588040   -0.002289    0.018168   -0.017136
H     0.688658   -2.168513    0.975916   -0.000864   -0.000664   -0.016656
H    -1.359028    0.528693   -1.631150   -0.000256    0.000266   -0.004327
H    -0.533802    1.219406   -0.212962    0.006804    0.001022    0.001039
H     2.835839   -0.849135    1.238769    0.012790   -0.015137   -0.016657
H    -3.690125    0.927537   -0.278292   -0.000414    0.000853   -0.000972
17
* Frequency(6) -1754.8577
C    -0.072968   -0.845394   -0.583314   -0.091988   -0.030123    0.080620
C     2.300860   -0.143833   -0.807876   -0.104816   -0.042082   -0.056013
C     0.633669   -1.104788    0.746246    0.005121    0.003321   -0.011775
C    -1.019947    0.326021   -0.611031    0.014625    0.003891   -0.011063
C     2.041195   -0.570947    0.556829    0.015364    0.017922    0.005308
O    -2.949736    1.163221    0.291809   -0.000721    0.001281   -0.000158
O     2.084000    0.805924    0.152464   -0.004426    0.003471    0.021876
O    -2.136555    0.001853    0.206221   -0.000893   -0.002234    0.001525
H     0.622817   -0.591350   -1.197222    1.872086    0.552900   -0.311439
H    -0.506792   -1.738044   -1.036512    0.155149    0.014306   -0.158629
H     3.184044   -0.128059   -1.436178   -0.020465   -0.050797    0.071540
H     0.143130   -0.613139    1.586702   -0.002289    0.018168   -0.017136
H     0.688591   -2.168564    0.974616   -0.000864   -0.000664   -0.016656
H    -1.359047    0.528714   -1.631487   -0.000256    0.000266   -0.004327
H    -0.533271    1.219485   -0.212881    0.006804    0.001022    0.001039
H     2.836837   -0.850316    1.237469    0.012790   -0.015137   -0.016657
H    -3.690157    0.927604   -0.278368   -0.000414    0.000853   -0.000972
17
* Frequency(6) -1754.8577
C    -0.082289   -0.848447   -0.575145   -0.091988   -0.030123    0.080620
C     2.290239   -0.148097   -0.813551   -0.104816   -0.042082   -0.056013
C     0.634188   -1.104451    0.745053    0.005121    0.003321   -0.011775
C    -1.018465    0.326416   -0.612152    0.014625    0.003891   -0.011063
C     2.042751   -0.569131    0.557367    0.015364    0.017922    0.005308
O    -2.949809    1.163350    0.291793   -0.000721    0.001281   -0.000158
O     2.083551    0.806276    0.154681   -0.004426    0.003471    0.021876
O    -2.136645    0.001627    0.206376   -0.000893   -0.002234    0.001525
H     0.812515   -0.535325   -1.228780    1.872086    0.552900   -0.311439
H    -0.491071   -1.736594   -1.052586    0.155149    0.014306   -0.158629
H     3.181970   -0.133207   -1.428929   -0.020465   -0.050797    0.071540
H     0.142898   -0.611298    1.584966   -0.002289    0.018168   -0.017136
H     0.688503   -2.168632    0.972928   -0.000864   -0.000664   -0.016656
H    -1.359073    0.528741   -1.631926   -0.000256    0.000266   -0.004327
H    -0.532581    1.219589   -0.212776    0.006804    0.001022    0.001039
H     2.838133   -0.851850    1.235781    0.012790   -0.015137   -0.016657
H    -3.690199    0.927690   -0.278466   -0.000414    0.000853   -0.000972
17
* Frequency(6) -1754.8577
C    -0.092743   -0.851870   -0.565983   -0.091988   -0.030123    0.080620
C     2.278327   -0.152879   -0.819917   -0.104816   -0.042082   -0.056013
C     0.634770   -1.104074    0.743714    0.005121    0.003321   -0.011775
C    -1.016803    0.326858   -0.613409    0.014625    0.003891   -0.011063
C     2.044498   -0.567095    0.557970    0.015364    0.017922    0.005308
O    -2.949891    1.163496    0.291775   -0.000721    0.001281   -0.000158
O     2.083048    0.806670    0.157167   -0.004426    0.003471    0.021876
O    -2.136747    0.001373    0.206549   -0.000893   -0.002234    0.001525
H     1.025268   -0.472491   -1.264174    1.872086    0.552900   -0.311439
H    -0.473439   -1.734968   -1.070613    0.155149    0.014306   -0.158629
H     3.179644   -0.138980   -1.420799   -0.020465   -0.050797    0.071540
H     0.142638   -0.609233    1.583018   -0.002289    0.018168   -0.017136
H     0.688405   -2.168707    0.971035   -0.000864   -0.000664   -0.016656
H    -1.359103    0.528771   -1.632418   -0.000256    0.000266   -0.004327
H    -0.531808    1.219705   -0.212657    0.006804    0.001022    0.001039
H     2.839587   -0.853570    1.233888    0.012790   -0.015137   -0.016657
H    -3.690246    0.927787   -0.278577   -0.000414    0.000853   -0.000972
