15
Coordinates from ORCA-job freq E -270.974777296031
  C      -5.141669     -1.390402      1.249234
  C      -4.269189     -0.888789      0.144528
  C      -2.771112     -1.192120      0.212933
  C      -1.304442      1.099420      0.146632
  C      -2.455938      0.266417      0.471468
  O      -1.635547      0.756162      1.476680
  H      -3.746264      0.423005      0.377893
  H      -4.685176     -1.190691      2.217163
  H      -5.287738     -2.472254      1.167257
  H      -6.120944     -0.916504      1.218984
  H      -4.704693     -0.911808     -0.846665
  H      -2.494500     -1.843586      1.039564
  H      -2.343554     -1.578888     -0.710485
  H      -0.394505      0.645873     -0.233460
  H      -1.450906      2.140966     -0.115086
15
Coordinates from ORCA-job freq E -270.973405046946
  C      -5.125588     -1.337700      1.245213
  C      -4.234379     -0.920737      0.115159
  C      -2.743877     -1.236314      0.194830
  C      -1.352823      1.107407      0.158269
  C      -2.465133      0.221192      0.480926
  O      -1.635870      0.694956      1.488788
  H      -3.753882      0.346871      0.426470
  H      -4.665503     -1.105726      2.207567
  H      -5.303105     -2.418073      1.218015
  H      -6.093438     -0.840535      1.193302
  H      -4.672183     -0.913761     -0.879322
  H      -2.473152     -1.895319      1.019795
  H      -2.302961     -1.605756     -0.729273
  H      -0.443520      0.696936     -0.268387
  H      -1.540762      2.153359     -0.054713
15
Coordinates from ORCA-job freq E -270.973873830840
  C      -5.143875     -1.393434      1.245170
  C      -4.253769     -0.871874      0.160028
  C      -2.765976     -1.197328      0.228611
  C      -1.310225      1.102636      0.131491
  C      -2.458088      0.265261      0.460626
  O      -1.643553      0.762351      1.467731
  H      -3.740748      0.421078      0.394596
  H      -4.687281     -1.247368      2.225268
  H      -5.314922     -2.467345      1.116805
  H      -6.114729     -0.899429      1.233344
  H      -4.679108     -0.880644     -0.839804
  H      -2.485067     -1.834693      1.067097
  H      -2.348323     -1.603270     -0.691251
  H      -0.398533      0.649467     -0.244264
  H      -1.461979      2.141392     -0.138810
15
Coordinates from ORCA-job freq E -270.972156977214
  C      -5.122693     -1.363855      1.261736
  C      -4.247746     -0.890204      0.140749
  C      -2.757178     -1.218641      0.191065
  C      -1.327674      1.100405      0.164663
  C      -2.468648      0.239617      0.453338
  O      -1.690760      0.735979      1.491511
  H      -3.753926      0.375871      0.305376
  H      -4.655798     -1.165295      2.228102
  H      -5.288227     -2.444368      1.193127
  H      -6.096761     -0.877036      1.239901
  H      -4.695657     -0.878015     -0.848760
  H      -2.475219     -1.868813      1.018797
  H      -2.336220     -1.603949     -0.735708
  H      -0.401288      0.664421     -0.194318
  H      -1.488379      2.140685     -0.092940
15
Coordinates from ORCA-job freq E -270.972099593788
  C      -5.135095     -1.384594      1.255846
  C      -4.246759     -0.874872      0.161053
  C      -2.758300     -1.208194      0.215324
  C      -1.319830      1.102356      0.144018
  C      -2.464432      0.253273      0.452864
  O      -1.676847      0.761985      1.477896
  H      -3.740631      0.395775      0.321865
  H      -4.669000     -1.243612      2.232353
  H      -5.320694     -2.456960      1.131641
  H      -6.100631     -0.880272      1.253659
  H      -4.682266     -0.854954     -0.834074
  H      -2.478367     -1.845982      1.053235
  H      -2.338940     -1.611630     -0.704714
  H      -0.398393      0.655346     -0.214093
  H      -1.475992      2.139135     -0.130234
15
Coordinates from ORCA-job freq E -270.972189333367
  C      -5.126682     -1.368891      1.258172
  C      -4.249085     -0.879862      0.145721
  C      -2.759558     -1.213665      0.199113
  C      -1.322940      1.101320      0.157286
  C      -2.465113      0.244553      0.453844
  O      -1.680650      0.741220      1.486770
  H      -3.754589      0.382285      0.323296
  H      -4.662471     -1.183675      2.228418
  H      -5.291290     -2.448378      1.173673
  H      -6.101236     -0.882818      1.240336
  H      -4.691758     -0.882158     -0.846316
  H      -2.478801     -1.861126      1.029283
  H      -2.340789     -1.605336     -0.726028
  H      -0.399021      0.662151     -0.204087
  H      -1.482192      2.141181     -0.102843
15
Coordinates from ORCA-job freq E -270.972368924001
  C      -5.117589     -1.355340      1.262388
  C      -4.252215     -0.886763      0.131146
  C      -2.760324     -1.218735      0.183048
  C      -1.324700      1.099606      0.171836
  C      -2.465617      0.236245      0.453359
  O      -1.688792      0.722610      1.496323
  H      -3.774112      0.371493      0.307304
  H      -4.653021     -1.129184      2.224170
  H      -5.262962     -2.439677      1.215972
  H      -6.100100     -0.886307      1.233583
  H      -4.703803     -0.901978     -0.856808
  H      -2.479128     -1.875426      1.005868
  H      -2.340794     -1.598646     -0.746454
  H      -0.397453      0.666860     -0.188705
  H      -1.485566      2.142043     -0.076391
15
Coordinates from ORCA-job freq E -270.973194150447
  C      -5.106886     -1.337471      1.266728
  C      -4.260220     -0.900146      0.108050
  C      -2.763145     -1.223016      0.161776
  C      -1.324371      1.097578      0.191471
  C      -2.463270      0.226031      0.454567
  O      -1.692035      0.692450      1.509038
  H      -3.802921      0.361139      0.293215
  H      -4.643841     -1.047701      2.212549
  H      -5.219724     -2.426287      1.279108
  H      -6.102038     -0.897517      1.222244
  H      -4.723317     -0.938243     -0.873953
  H      -2.481402     -1.892840      0.973807
  H      -2.341066     -1.585402     -0.773368
  H      -0.394721      0.673761     -0.173420
  H      -1.487221      2.144465     -0.035173
15
Coordinates from ORCA-job freq E -270.974104951080
  C      -5.097057     -1.323803      1.271159
  C      -4.269559     -0.914535      0.087290
  C      -2.767659     -1.224090      0.142927
  C      -1.320670      1.094584      0.209684
  C      -2.459862      0.218852      0.455150
  O      -1.694433      0.664263      1.520487
  H      -3.836880      0.363131      0.272684
  H      -4.636799     -0.974678      2.198455
  H      -5.175982     -2.413393      1.338098
  H      -6.104609     -0.914696      1.215484
  H      -4.743174     -0.974967     -0.888410
  H      -2.484835     -1.905864      0.944765
  H      -2.342776     -1.570225     -0.797131
  H      -0.389361      0.676573     -0.157495
  H      -1.482519      2.145647      0.003490
15
Coordinates from ORCA-job freq E -270.974552096291
  C      -5.096131     -1.320442      1.272265
  C      -4.280891     -0.927115      0.072886
  C      -2.774017     -1.218357      0.134558
  C      -1.309758      1.093715      0.217479
  C      -2.449987      0.218404      0.456900
  O      -1.681491      0.642284      1.525627
  H      -3.867692      0.381007      0.267800
  H      -4.643367     -0.927947      2.185905
  H      -5.144662     -2.408720      1.377250
  H      -6.114240     -0.939827      1.208627
  H      -4.758199     -1.009878     -0.899208
  H      -2.489986     -1.907207      0.930089
  H      -2.346290     -1.555297     -0.807666
  H      -0.380648      0.677567     -0.157006
  H      -1.468817      2.148614      0.031132
15
Coordinates from ORCA-job freq E -270.974490770942
  C      -5.101895     -1.328818      1.270396
  C      -4.279246     -0.922904      0.080575
  C      -2.773738     -1.215373      0.143285
  C      -1.307260      1.095331      0.208675
  C      -2.448040      0.223175      0.456604
  O      -1.675893      0.652358      1.520633
  H      -3.860067      0.389378      0.275264
  H      -4.648698     -0.957738      2.192555
  H      -5.161433     -2.418487      1.354885
  H      -6.116462     -0.938216      1.210222
  H      -4.751479     -0.997759     -0.894624
  H      -2.490369     -1.898732      0.943806
  H      -2.346341     -1.560247     -0.796336
  H      -0.379779      0.675558     -0.165700
  H      -1.465476      2.149274      0.016399
15
Coordinates from ORCA-job freq E -270.974115166270
  C      -5.134155     -1.359809      1.246103
  C      -4.261874     -0.892276      0.119833
  C      -2.765517     -1.209261      0.200231
  C      -1.310342      1.108605      0.150907
  C      -2.433948      0.236362      0.467703
  O      -1.616929      0.693134      1.487460
  H      -3.806040      0.394660      0.387361
  H      -4.682751     -1.118650      2.210595
  H      -5.264358     -2.446516      1.211033
  H      -6.122503     -0.904698      1.206881
  H      -4.696934     -0.935065     -0.874439
  H      -2.492971     -1.859233      1.031464
  H      -2.337290     -1.603038     -0.719691
  H      -0.396497      0.685609     -0.251807
  H      -1.484066      2.156975     -0.056995
15
Coordinates from ORCA-job freq E -270.974472151796
  C      -5.119833     -1.350231      1.260217
  C      -4.272173     -0.908181      0.102060
  C      -2.770262     -1.210065      0.173556
  C      -1.305062      1.102165      0.178326
  C      -2.437503      0.231209      0.463622
  O      -1.642919      0.674650      1.505019
  H      -3.838158      0.402187      0.311167
  H      -4.666347     -1.046489      2.206253
  H      -5.215368     -2.440723      1.282512
  H      -6.121769     -0.926599      1.211817
  H      -4.726449     -0.955306     -0.883402
  H      -2.496152     -1.876437      0.991479
  H      -2.338928     -1.581723     -0.754206
  H      -0.385051      0.678913     -0.209906
  H      -1.470203      2.153430     -0.021873
15
Coordinates from ORCA-job freq E -270.974461379105
  C      -5.125240     -1.354632      1.255722
  C      -4.270701     -0.906984      0.105179
  C      -2.769129     -1.208951      0.181982
  C      -1.305236      1.104386      0.169902
  C      -2.433216      0.232352      0.468666
  O      -1.627278      0.676265      1.500774
  H      -3.833188      0.405645      0.330962
  H      -4.673208     -1.063418      2.206314
  H      -5.228165     -2.444642      1.266745
  H      -6.124296     -0.924152      1.208091
  H      -4.719182     -0.948441     -0.883174
  H      -2.498398     -1.871101      1.004455
  H      -2.335477     -1.586776     -0.742220
  H      -0.389351      0.681826     -0.228626
  H      -1.474112      2.155424     -0.028134
15
Coordinates from ORCA-job freq E -270.974466833911
  C      -5.143697     -1.375666      1.240088
  C      -4.259134     -0.887855      0.130405
  C      -2.763603     -1.205869      0.219838
  C      -1.310860      1.109988      0.134085
  C      -2.420745      0.236367      0.487894
  O      -1.577301      0.695292      1.482323
  H      -3.803208      0.416131      0.377820
  H      -4.698882     -1.155514      2.212574
  H      -5.279913     -2.460986      1.184263
  H      -6.129417     -0.914239      1.203584
  H      -4.684646     -0.892004     -0.868733
  H      -2.510351     -1.850511      1.061685
  H      -2.322144     -1.613178     -0.688237
  H      -0.408847      0.686802     -0.293915
  H      -1.493427      2.158040     -0.067034
15
Coordinates from ORCA-job freq E -270.974514493164
  C      -5.154347     -1.381995      1.227149
  C      -4.251462     -0.879050      0.139423
  C      -2.758812     -1.207003      0.242267
  C      -1.317921      1.113337      0.113400
  C      -2.408748      0.233495      0.507466
  O      -1.531304      0.694114      1.470529
  H      -3.792119      0.413615      0.426380
  H      -4.721809     -1.182811      2.209598
  H      -5.297117     -2.465118      1.149562
  H      -6.136480     -0.913351      1.185934
  H      -4.662541     -0.862298     -0.865547
  H      -2.519462     -1.845817      1.092615
  H      -2.310513     -1.626673     -0.656760
  H      -0.430012      0.695457     -0.347891
  H      -1.513528      2.160900     -0.077487
15
Coordinates from ORCA-job freq E -270.974577546839
  C      -5.160872     -1.387413      1.219787
  C      -4.246940     -0.872544      0.146782
  C      -2.756025     -1.206796      0.256427
  C      -1.321624      1.114366      0.100890
  C      -2.400650      0.232319      0.520688
  O      -1.502394      0.694319      1.463102
  H      -3.787085      0.415080      0.448860
  H      -4.737512     -1.200443      2.208604
  H      -5.304565     -2.469315      1.128271
  H      -6.141912     -0.916772      1.174978
  H      -4.649454     -0.839458     -0.861243
  H      -2.526198     -1.842557      1.111696
  H      -2.303472     -1.633914     -0.637028
  H      -0.443649      0.698286     -0.380556
  H      -1.523823      2.161643     -0.084621
15
Coordinates from ORCA-job freq E -270.974613229702
  C      -5.168117     -1.393390      1.211957
  C      -4.242721     -0.866705      0.154562
  C      -2.753223     -1.205844      0.271070
  C      -1.325013      1.115316      0.088032
  C      -2.392112      0.231970      0.534125
  O      -1.472155      0.694542      1.454450
  H      -3.781333      0.418567      0.474780
  H      -4.754659     -1.219031      2.207225
  H      -5.312378     -2.473862      1.105879
  H      -6.148037     -0.920806      1.162979
  H      -4.635992     -0.818279     -0.856550
  H      -2.532050     -1.837818      1.131462
  H      -2.297137     -1.640660     -0.616931
  H      -0.458381      0.700342     -0.414433
  H      -1.532867      2.162458     -0.091968
15
Coordinates from ORCA-job freq E -270.974623706426
  C      -5.175489     -1.399737      1.203818
  C      -4.237988     -0.860483      0.163672
  C      -2.750216     -1.204739      0.286466
  C      -1.329007      1.115997      0.074698
  C      -2.383963      0.232043      0.547295
  O      -1.442639      0.695751      1.444624
  H      -3.773507      0.422555      0.501548
  H      -4.772247     -1.240651      2.205765
  H      -5.321206     -2.478190      1.080668
  H      -6.153751     -0.924104      1.151148
  H      -4.621401     -0.796091     -0.850400
  H      -2.537179     -1.832144      1.152314
  H      -2.291327     -1.647854     -0.596034
  H      -0.474351      0.701518     -0.448258
  H      -1.541904      2.162929     -0.100686
15
Coordinates from ORCA-job freq E -270.974660857336
  C      -5.185857     -1.408101      1.191012
  C      -4.229747     -0.850671      0.178043
  C      -2.745144     -1.203892      0.309977
  C      -1.336984      1.116626      0.054737
  C      -2.372042      0.231410      0.566827
  O      -1.399478      0.697315      1.428338
  H      -3.759710      0.426024      0.543599
  H      -4.798679     -1.272628      2.202634
  H      -5.333846     -2.482965      1.041761
  H      -6.161239     -0.927294      1.132411
  H      -4.597878     -0.761736     -0.839908
  H      -2.544081     -1.824280      1.183828
  H      -2.282687     -1.659445     -0.564345
  H      -0.501228      0.703276     -0.498756
  H      -1.557576      2.163163     -0.113519
15
Coordinates from ORCA-job freq E -270.974680739884
  C      -5.192040     -1.412711      1.182390
  C      -4.223833     -0.844001      0.187492
  C      -2.741548     -1.203837      0.325240
  C      -1.343241      1.116594      0.042063
  C      -2.363998      0.230283      0.579990
  O      -1.371167      0.697449      1.416972
  H      -3.750984      0.426880      0.571537
  H      -4.816534     -1.290628      2.200056
  H      -5.339698     -2.485387      1.017772
  H      -6.165998     -0.929736      1.118417
  H      -4.581978     -0.738249     -0.832447
  H      -2.548625     -1.820254      1.203801
  H      -2.276896     -1.666876     -0.544020
  H      -0.520770      0.704345     -0.531795
  H      -1.568868      2.162927     -0.120829
15
Coordinates from ORCA-job freq E -270.974704182650
  C      -5.200426     -1.418585      1.169840
  C      -4.215170     -0.834418      0.200957
  C      -2.736096     -1.203897      0.346616
  C      -1.352963      1.115632      0.024671
  C      -2.351532      0.227959      0.600251
  O      -1.328978      0.695846      1.399704
  H      -3.740249      0.427860      0.612215
  H      -4.844439     -1.310228      2.196039
  H      -5.342759     -2.489094      0.987513
  H      -6.173772     -0.936105      1.094219
  H      -4.559217     -0.703156     -0.820948
  H      -2.555351     -1.816108      1.230810
  H      -2.268438     -1.675961     -0.516253
  H      -0.551752      0.705080     -0.579746
  H      -1.585034      2.161975     -0.129251
15
Coordinates from ORCA-job freq E -270.974714400447
  C      -5.201233     -1.419459      1.169140
  C      -4.214939     -0.833701      0.202219
  C      -2.735828     -1.203361      0.347777
  C      -1.353113      1.114913      0.023699
  C      -2.350569      0.228080      0.602676
  O      -1.324725      0.695095      1.398498
  H      -3.740604      0.429854      0.615201
  H      -4.848636     -1.308776      2.196283
  H      -5.339575     -2.490622      0.987790
  H      -6.175727     -0.939913      1.090012
  H      -4.558223     -0.699697     -0.819631
  H      -2.555951     -1.816256      1.231685
  H      -2.268164     -1.674762     -0.515458
  H      -0.554417      0.703859     -0.583751
  H      -1.584471      2.161544     -0.129501
15
Coordinates from ORCA-job freq E -270.974712168313
  C      -5.201766     -1.420001      1.168806
  C      -4.214983     -0.833111      0.203186
  C      -2.735841     -1.202823      0.348272
  C      -1.353090      1.114347      0.023266
  C      -2.350667      0.228492      0.603847
  O      -1.322963      0.694938      1.397843
  H      -3.739435      0.431279      0.617661
  H      -4.851535     -1.307739      2.196601
  H      -5.337071     -2.491650      0.988026
  H      -6.177130     -0.942704      1.087201
  H      -4.557868     -0.698224     -0.818702
  H      -2.555873     -1.816200      1.231828
  H      -2.268629     -1.673567     -0.515529
  H      -0.555842      0.702564     -0.585634
  H      -1.583484      2.161198     -0.130034
15
Coordinates from ORCA-job freq E -270.974713241663
  C      -5.202009     -1.419922      1.168251
  C      -4.214527     -0.832193      0.203964
  C      -2.735659     -1.202826      0.348877
  C      -1.353810      1.113839      0.022777
  C      -2.350664      0.228292      0.605261
  O      -1.320907      0.694374      1.397035
  H      -3.738131      0.431073      0.620811
  H      -4.854408     -1.305508      2.196710
  H      -5.334164     -2.492159      0.988615
  H      -6.178248     -0.944985      1.083735
  H      -4.556910     -0.696056     -0.817919
  H      -2.556058     -1.816893      1.232028
  H      -2.268717     -1.672997     -0.515365
  H      -0.558096      0.701915     -0.588061
  H      -1.583869      2.160846     -0.130081
15
Coordinates from ORCA-job freq E -270.974706088124
  C      -5.201840     -1.419398      1.168063
  C      -4.214224     -0.831583      0.203979
  C      -2.735565     -1.203078      0.348755
  C      -1.354432      1.113429      0.022916
  C      -2.350654      0.227775      0.606361
  O      -1.319580      0.693370      1.396849
  H      -3.737933      0.430230      0.622230
  H      -4.856285     -1.301585      2.196853
  H      -5.330795     -2.492443      0.990925
  H      -6.179083     -0.947073      1.080750
  H      -4.556627     -0.694607     -0.817772
  H      -2.556451     -1.818200      1.231265
  H      -2.268646     -1.672348     -0.515980
  H      -0.559711      0.701718     -0.589374
  H      -1.584350      2.160591     -0.129184
15
Coordinates from ORCA-job freq E -270.974712685062
  C      -5.201193     -1.418564      1.168600
  C      -4.214423     -0.831745      0.202965
  C      -2.735730     -1.203398      0.347478
  C      -1.354442      1.113273      0.024009
  C      -2.350991      0.227283      0.606292
  O      -1.320426      0.692380      1.397756
  H      -3.739061      0.429330      0.620606
  H      -4.855927     -1.297148      2.197086
  H      -5.328173     -2.492357      0.994665
  H      -6.179229     -0.948150      1.079933
  H      -4.557646     -0.695347     -0.818569
  H      -2.556655     -1.819615      1.229223
  H      -2.268708     -1.671583     -0.517794
  H      -0.559358      0.701898     -0.588038
  H      -1.584214      2.160543     -0.127573
15
Coordinates from ORCA-job freq E -270.974715795659
  C      -5.200347     -1.417739      1.169655
  C      -4.215038     -0.832621      0.201392
  C      -2.736083     -1.203655      0.345529
  C      -1.353860      1.113403      0.025644
  C      -2.351663      0.227051      0.605100
  O      -1.323175      0.691841      1.399387
  H      -3.740813      0.428786      0.616739
  H      -4.853603     -1.293884      2.197366
  H      -5.327251     -2.491960      0.998367
  H      -6.178681     -0.947827      1.081468
  H      -4.559552     -0.698087     -0.819941
  H      -2.556468     -1.820612      1.226634
  H      -2.268961     -1.670901     -0.520202
  H      -0.557222      0.702305     -0.584557
  H      -1.583461      2.160700     -0.125942
15
Coordinates from ORCA-job freq E -270.974700163247
  C      -5.199720     -1.417234      1.170638
  C      -4.215717     -0.833593      0.200102
  C      -2.736439     -1.203713      0.343877
  C      -1.353117      1.113613      0.027029
  C      -2.352364      0.227123      0.603719
  O      -1.326052      0.691777      1.400841
  H      -3.742156      0.428817      0.613121
  H      -4.851105     -1.292436      2.197603
  H      -5.327526     -2.491561      1.000734
  H      -6.177987     -0.946938      1.083703
  H      -4.561316     -0.701174     -0.821140
  H      -2.556010     -1.820974      1.224599
  H      -2.269335     -1.670376     -0.522185
  H      -0.554869      0.702566     -0.581079
  H      -1.582463      2.160903     -0.124921
15
Coordinates from ORCA-job freq E -270.974713644244
  C      -5.199379     -1.417014      1.171295
  C      -4.216213     -0.834297      0.199353
  C      -2.736695     -1.203659      0.342841
  C      -1.352547      1.113767      0.027899
  C      -2.352954      0.227324      0.602667
  O      -1.328190      0.691962      1.401774
  H      -3.742749      0.429102      0.610842
  H      -4.849351     -1.292137      2.197763
  H      -5.328142     -2.491296      1.001838
  H      -6.177466     -0.946131      1.085477
  H      -4.562477     -0.703509     -0.821883
  H      -2.555532     -1.820974      1.223370
  H      -2.269712     -1.670006     -0.523451
  H      -0.553148      0.702621     -0.578626
  H      -1.581620      2.161047     -0.124519
15
Coordinates from ORCA-job freq E -270.974713415324
  C      -5.199311     -1.416985      1.171522
  C      -4.216400     -0.834538      0.199195
  C      -2.736790     -1.203573      0.342508
  C      -1.352329      1.113778      0.028185
  C      -2.353299      0.227493      0.602306
  O      -1.329037      0.692163      1.402076
  H      -3.742663      0.429395      0.610297
  H      -4.848862     -1.292230      2.197861
  H      -5.328394     -2.491229      1.002051
  H      -6.177320     -0.945875      1.086051
  H      -4.562860     -0.704471     -0.822075
  H      -2.555213     -1.820926      1.222932
  H      -2.269959     -1.669736     -0.523959
  H      -0.552550      0.702481     -0.577735
  H      -1.581192      2.161052     -0.124575
15
Coordinates from ORCA-job freq E -270.974709264764
  C      -5.199351     -1.416963      1.171475
  C      -4.216349     -0.834441      0.199328
  C      -2.736765     -1.203540      0.342561
  C      -1.352428      1.113670      0.028160
  C      -2.353439      0.227518      0.602503
  O      -1.328916      0.692188      1.402004
  H      -3.742304      0.429446      0.610827
  H      -4.849279     -1.291945      2.197913
  H      -5.328012     -2.491281      1.002118
  H      -6.177461     -0.946158      1.085569
  H      -4.562744     -0.704392     -0.821966
  H      -2.555090     -1.821052      1.222850
  H      -2.270056     -1.669494     -0.524075
  H      -0.552830      0.702274     -0.577941
  H      -1.581152      2.160969     -0.124689
15
Coordinates from ORCA-job freq E -270.974706128558
  C      -5.199455     -1.416939      1.171255
  C      -4.216166     -0.834103      0.199619
  C      -2.736678     -1.203540      0.342846
  C      -1.352712      1.113484      0.027958
  C      -2.353371      0.227428      0.603125
  O      -1.328024      0.691992      1.401701
  H      -3.741890      0.429392      0.611944
  H      -4.850342     -1.291202      2.197934
  H      -5.327027     -2.491440      1.002263
  H      -6.177857     -0.946950      1.084315
  H      -4.562346     -0.703602     -0.821686
  H      -2.555191     -1.821359      1.222965
  H      -2.270036     -1.669246     -0.523947
  H      -0.553722      0.702055     -0.578936
  H      -1.581359      2.160831     -0.124717
15
Coordinates from ORCA-job freq E -270.974701891822
  C      -5.199402     -1.416757      1.171191
  C      -4.216057     -0.833933      0.199602
  C      -2.736634     -1.203633      0.342835
  C      -1.352931      1.113363      0.028002
  C      -2.353350      0.227249      0.603510
  O      -1.327562      0.691669      1.401644
  H      -3.741870      0.429125      0.612367
  H      -4.850896     -1.289979      2.197956
  H      -5.326036     -2.491492      1.002975
  H      -6.178097     -0.947543      1.083406
  H      -4.562235     -0.703202     -0.821672
  H      -2.555307     -1.821814      1.222730
  H      -2.269986     -1.669032     -0.524116
  H      -0.554263      0.702020     -0.579383
  H      -1.581552      2.160758     -0.124406
15
Coordinates from ORCA-job freq E -270.974706723580
  C      -5.199165     -1.416449      1.171386
  C      -4.216106     -0.834061      0.199222
  C      -2.736667     -1.203773      0.342411
  C      -1.352960      1.113338      0.028390
  C      -2.353473      0.227068      0.603448
  O      -1.327954      0.691384      1.401984
  H      -3.742270      0.428795      0.611676
  H      -4.850576     -1.288681      2.198002
  H      -5.325431     -2.491368      1.004111
  H      -6.178023     -0.947631      1.083350
  H      -4.562558     -0.703603     -0.821984
  H      -2.555332     -1.822294      1.222059
  H      -2.269964     -1.668821     -0.524702
  H      -0.554093      0.702145     -0.578833
  H      -1.581602      2.160750     -0.123879
15
Coordinates from ORCA-job freq E -270.974712890621
  C      -5.198738     -1.416054      1.171922
  C      -4.216438     -0.834551      0.198407
  C      -2.736856     -1.203891      0.341440
  C      -1.352645      1.113428      0.029210
  C      -2.353835      0.226981      0.602754
  O      -1.329484      0.691197      1.402809
  H      -3.743092      0.428539      0.609709
  H      -4.849226     -1.287319      2.198108
  H      -5.325234     -2.491123      1.005796
  H      -6.177657     -0.947264      1.084349
  H      -4.563537     -0.705134     -0.822711
  H      -2.555203     -1.822701      1.220813
  H      -2.270098     -1.668515     -0.525877
  H      -0.552916      0.702367     -0.576955
  H      -1.581216      2.160840     -0.123135
15
Coordinates from ORCA-job freq E -270.974709329860
  C      -5.198530     -1.415920      1.172276
  C      -4.216691     -0.834894      0.197993
  C      -2.736991     -1.203878      0.340884
  C      -1.352350      1.113500      0.029682
  C      -2.354105      0.227053      0.602235
  O      -1.330578      0.691269      1.403327
  H      -3.743544      0.428641      0.608374
  H      -4.848276     -1.287060      2.198190
  H      -5.325462     -2.490982      1.006456
  H      -6.177387     -0.946885      1.085278
  H      -4.564164     -0.706273     -0.823099
  H      -2.555020     -1.822759      1.220136
  H      -2.270260     -1.668317     -0.526546
  H      -0.552020      0.702404     -0.575657
  H      -1.580799      2.160901     -0.122886
15
Coordinates from ORCA-job freq E -270.974706256186
  C      -5.198440     -1.415870      1.172472
  C      -4.216840     -0.835131      0.197786
  C      -2.737063     -1.203856      0.340597
  C      -1.352170      1.113560      0.029928
  C      -2.354306      0.227142      0.601886
  O      -1.331295      0.691410      1.403604
  H      -3.743661      0.428765      0.607684
  H      -4.847673     -1.287210      2.198233
  H      -5.325835     -2.490870      1.006616
  H      -6.177183     -0.946505      1.085950
  H      -4.564497     -0.707057     -0.823312
  H      -2.554840     -1.822720      1.219813
  H      -2.270381     -1.668222     -0.526897
  H      -0.551444      0.702420     -0.574862
  H      -1.580548      2.160943     -0.122861
15
Coordinates from ORCA-job freq E -270.974704657274
  C      -5.198364     -1.415823      1.172610
  C      -4.216942     -0.835264      0.197654
  C      -2.737119     -1.203838      0.340381
  C      -1.352055      1.113569      0.030114
  C      -2.354489      0.227203      0.601662
  O      -1.331821      0.691509      1.403807
  H      -3.743699      0.428836      0.607290
  H      -4.847323     -1.287162      2.198276
  H      -5.325934     -2.490813      1.006818
  H      -6.177071     -0.946347      1.086303
  H      -4.564741     -0.707559     -0.823442
  H      -2.554706     -1.822739      1.219527
  H      -2.270495     -1.668088     -0.527203
  H      -0.551073      0.702371     -0.574299
  H      -1.580343      2.160945     -0.122859
15
Coordinates from ORCA-job freq E -270.974717541074
  C      -5.198402     -1.415832      1.172584
  C      -4.216927     -0.835225      0.197721
  C      -2.737103     -1.203815      0.340417
  C      -1.352090      1.113521      0.030092
  C      -2.354528      0.227218      0.601765
  O      -1.331715      0.691510      1.403761
  H      -3.743541      0.428875      0.607557
  H      -4.847554     -1.287030      2.198300
  H      -5.325768     -2.490859      1.006855
  H      -6.177159     -0.946504      1.086058
  H      -4.564694     -0.707505     -0.823390
  H      -2.554650     -1.822790      1.219507
  H      -2.270524     -1.667961     -0.527244
  H      -0.551210      0.702282     -0.574434
  H      -1.580310      2.160916     -0.122910
15
Coordinates from ORCA-job freq E -270.974708306461
  C      -5.198629     -1.415969      1.172274
  C      -4.216704     -0.834861      0.198187
  C      -2.736974     -1.203758      0.340940
  C      -1.352359      1.113387      0.029680
  C      -2.354328      0.227202      0.602386
  O      -1.330609      0.691454      1.403297
  H      -3.743052      0.428981      0.608822
  H      -4.848647     -1.287154      2.198287
  H      -5.325341     -2.491037      1.006302
  H      -6.177519     -0.947063      1.085015
  H      -4.564111     -0.706552     -0.822974
  H      -2.554739     -1.822795      1.220025
  H      -2.270438     -1.667921     -0.526730
  H      -0.552161      0.702077     -0.575703
  H      -1.580564      2.160810     -0.123168
15
Coordinates from ORCA-job freq E -270.974713371826
  C      -5.198491     -1.415776      1.172337
  C      -4.216683     -0.834893      0.197989
  C      -2.736977     -1.203877      0.340754
  C      -1.352439      1.113369      0.029848
  C      -2.354396      0.227063      0.602385
  O      -1.330759      0.691281      1.403426
  H      -3.743217      0.428678      0.608645
  H      -4.848539     -1.286370      2.198288
  H      -5.324935     -2.490959      1.006913
  H      -6.177487     -0.947131      1.084860
  H      -4.564214     -0.706591     -0.823125
  H      -2.554791     -1.823104      1.219717
  H      -2.270401     -1.667863     -0.526993
  H      -0.552162      0.702177     -0.575515
  H      -1.580685      2.160798     -0.122889
15
Coordinates from ORCA-job freq E -270.974715042564
  C      -5.198328     -1.415615      1.172510
  C      -4.216793     -0.835015      0.197696
  C      -2.737051     -1.203921      0.340412
  C      -1.352356      1.113368      0.030142
  C      -2.354493      0.226998      0.602243
  O      -1.331150      0.691124      1.403701
  H      -3.743540      0.428562      0.608031
  H      -4.848210     -1.285591      2.198328
  H      -5.324582     -2.490910      1.007691
  H      -6.177432     -0.947207      1.084986
  H      -4.564552     -0.707008     -0.823375
  H      -2.554815     -1.823336      1.219231
  H      -2.270447     -1.667692     -0.527434
  H      -0.551864      0.702237     -0.574974
  H      -1.580563      2.160807     -0.122550
15
Coordinates from ORCA-job freq E -270.974717948507
  C      -5.198122     -1.415444      1.172790
  C      -4.216973     -0.835276      0.197308
  C      -2.737153     -1.203968      0.339926
  C      -1.352169      1.113427      0.030543
  C      -2.354687      0.226984      0.601838
  O      -1.331989      0.691082      1.404115
  H      -3.743938      0.428484      0.606984
  H      -4.847481     -1.285082      2.198387
  H      -5.324600     -2.490782      1.008432
  H      -6.177221     -0.946961      1.085600
  H      -4.565057     -0.707825     -0.823719
  H      -2.554732     -1.823481      1.218632
  H      -2.270535     -1.667571     -0.528006
  H      -0.551195      0.702348     -0.573963
  H      -1.580324      2.160865     -0.122228
15
Coordinates from ORCA-job freq E -270.974721316502
  C      -5.197953     -1.415322      1.173040
  C      -4.217152     -0.835543      0.196972
  C      -2.737251     -1.203980      0.339507
  C      -1.351973      1.113484      0.030896
  C      -2.354892      0.227016      0.601438
  O      -1.332816      0.691113      1.404491
  H      -3.744243      0.428496      0.606072
  H      -4.846741     -1.284847      2.198426
  H      -5.324779     -2.490659      1.008939
  H      -6.176998     -0.946636      1.086276
  H      -4.565516     -0.708665     -0.824032
  H      -2.554610     -1.823527      1.218141
  H      -2.270638     -1.667453     -0.528494
  H      -0.550540      0.702411     -0.573004
  H      -1.580074      2.160911     -0.122029
15
Coordinates from ORCA-job freq E -270.974716939267
  C      -5.197954     -1.415342      1.173100
  C      -4.217200     -0.835626      0.196953
  C      -2.737264     -1.203953      0.339439
  C      -1.351900      1.113503      0.030954
  C      -2.354973      0.227081      0.601317
  O      -1.333069      0.691225      1.404568
  H      -3.744228      0.428609      0.605869
  H      -4.846556     -1.285076      2.198449
  H      -5.325013     -2.490631      1.008861
  H      -6.176926     -0.946464      1.086546
  H      -4.565606     -0.708939     -0.824064
  H      -2.554500     -1.823466      1.218076
  H      -2.270690     -1.667419     -0.528587
  H      -0.550333      0.702385     -0.572736
  H      -1.579964      2.160912     -0.122106
15
Coordinates from ORCA-job freq E -270.974712815387
  C      -5.198059     -1.415423      1.172986
  C      -4.217119     -0.835520      0.197154
  C      -2.737206     -1.203915      0.339658
  C      -1.351982      1.113465      0.030784
  C      -2.354935      0.227120      0.601506
  O      -1.332756      0.691315      1.404400
  H      -3.743984      0.428703      0.606347
  H      -4.846884     -1.285406      2.198442
  H      -5.325078     -2.490672      1.008454
  H      -6.177007     -0.946521      1.086315
  H      -4.565378     -0.708674     -0.823897
  H      -2.554465     -1.823409      1.218321
  H      -2.270661     -1.667413     -0.528365
  H      -0.550628      0.702277     -0.573149
  H      -1.580034      2.160874     -0.122318
15
Coordinates from ORCA-job freq E -270.974711538914
  C      -5.198262     -1.415554      1.172710
  C      -4.216928     -0.835248      0.197536
  C      -2.737090     -1.203876      0.340132
  C      -1.352206      1.113381      0.030411
  C      -2.354746      0.227110      0.602005
  O      -1.331822      0.691293      1.403991
  H      -3.743581      0.428778      0.607428
  H      -4.847734     -1.285672      2.198405
  H      -5.324884     -2.490804      1.007872
  H      -6.177267     -0.946871      1.085534
  H      -4.564864     -0.707882     -0.823559
  H      -2.554545     -1.823372      1.218831
  H      -2.270561     -1.667443     -0.527858
  H      -0.551406      0.702149     -0.574237
  H      -1.580280      2.160811     -0.122562
15
Coordinates from ORCA-job freq E -270.974709175381
  C      -5.198336     -1.415558      1.172537
  C      -4.216782     -0.835066      0.197705
  C      -2.737016     -1.203906      0.340388
  C      -1.352404      1.113320      0.030216
  C      -2.354619      0.227029      0.602357
  O      -1.331203      0.691176      1.403754
  H      -3.743403      0.428689      0.608082
  H      -4.848254     -1.285509      2.198367
  H      -5.324578     -2.490857      1.007730
  H      -6.177426     -0.947142      1.084933
  H      -4.564543     -0.707333     -0.823401
  H      -2.554661     -1.823472      1.219076
  H      -2.270458     -1.667467     -0.527592
  H      -0.551966      0.702124     -0.574935
  H      -1.580528      2.160771     -0.122578
15
Coordinates from ORCA-job freq E -270.974707791590
  C      -5.198285     -1.415484      1.172538
  C      -4.216755     -0.835038      0.197642
  C      -2.737013     -1.203958      0.340355
  C      -1.352460      1.113307      0.030256
  C      -2.354591      0.226951      0.602425
  O      -1.331126      0.691066      1.403777
  H      -3.743498      0.428547      0.608036
  H      -4.848288     -1.285131      2.198357
  H      -5.324334     -2.490844      1.007990
  H      -6.177443     -0.947247      1.084776
  H      -4.564541     -0.707228     -0.823444
  H      -2.554735     -1.823619      1.218987
  H      -2.270429     -1.667462     -0.527644
  H      -0.552056      0.702176     -0.574982
  H      -1.580621      2.160763     -0.122433
15
Coordinates from ORCA-job freq E -270.974710260121
  C      -5.198117     -1.415351      1.172745
  C      -4.216895     -0.835213      0.197334
  C      -2.737101     -1.203997      0.339988
  C      -1.352317      1.113348      0.030556
  C      -2.354707      0.226920      0.602123
  O      -1.331724      0.690992      1.404084
  H      -3.743850      0.428446      0.607235
  H      -4.847754     -1.284646      2.198397
  H      -5.324248     -2.490764      1.008623
  H      -6.177308     -0.947132      1.085185
  H      -4.564935     -0.707751     -0.823706
  H      -2.554715     -1.823745      1.218533
  H      -2.270496     -1.667383     -0.528066
  H      -0.551550      0.702276     -0.574240
  H      -1.580460      2.160800     -0.122153
15
Coordinates from ORCA-job freq E -270.974710739437
  C      -5.197904     -1.415191      1.173047
  C      -4.217089     -0.835533      0.196916
  C      -2.737208     -1.204046      0.339472
  C      -1.352090      1.113438      0.030973
  C      -2.354927      0.226927      0.601609
  O      -1.332725      0.691010      1.404530
  H      -3.744269      0.428367      0.606107
  H      -4.846855     -1.284328      2.198443
  H      -5.324485     -2.490603      1.009270
  H      -6.177020     -0.946712      1.086005
  H      -4.565473     -0.708687     -0.824082
  H      -2.554588     -1.823821      1.217950
  H      -2.270586     -1.667304     -0.528642
  H      -0.550744      0.702411     -0.573079
  H      -1.580211      2.160873     -0.121881
15
Coordinates from ORCA-job freq E -270.974711856467
  C      -5.197831     -1.415172      1.173227
  C      -4.217239     -0.835724      0.196741
  C      -2.737280     -1.204012      0.339205
  C      -1.351901      1.113487      0.031186
  C      -2.355064      0.227004      0.601284
  O      -1.333337      0.691121      1.404778
  H      -3.744429      0.428472      0.605446
  H      -4.846349     -1.284432      2.198491
  H      -5.324760     -2.490545      1.009453
  H      -6.176869     -0.946451      1.086582
  H      -4.565802     -0.709300     -0.824252
  H      -2.554457     -1.823751      1.217663
  H      -2.270695     -1.667226     -0.528948
  H      -0.550199      0.702424     -0.572369
  H      -1.579963      2.160901     -0.121850
15
Coordinates from ORCA-job freq E -270.974710827183
  C      -5.197882     -1.415238      1.173226
  C      -4.217255     -0.835738      0.196816
  C      -2.737282     -1.203966      0.339247
  C      -1.351857      1.113496      0.031144
  C      -2.355099      0.227079      0.601235
  O      -1.333402      0.691235      1.404751
  H      -3.744316      0.428602      0.605504
  H      -4.846348     -1.284777      2.198505
  H      -5.324977     -2.490556      1.009206
  H      -6.176858     -0.946366      1.086703
  H      -4.565787     -0.709397     -0.824201
  H      -2.554369     -1.823631      1.217740
  H      -2.270747     -1.667224     -0.528909
  H      -0.550126      0.702376     -0.572335
  H      -1.579873      2.160906     -0.121993
15
Coordinates from ORCA-job freq E -270.974703919685
  C      -5.198087     -1.415403      1.172987
  C      -4.217096     -0.835490      0.197211
  C      -2.737184     -1.203904      0.339692
  C      -1.352015      1.113432      0.030783
  C      -2.354953      0.227121      0.601611
  O      -1.332674      0.691327      1.404385
  H      -3.743910      0.428734      0.606435
  H      -4.847041     -1.285328      2.198478
  H      -5.324993     -2.490668      1.008470
  H      -6.177059     -0.946578      1.086173
  H      -4.565325     -0.708731     -0.823862
  H      -2.554389     -1.823500      1.218263
  H      -2.270690     -1.667286     -0.528422
  H      -0.550717      0.702227     -0.573222
  H      -1.580043      2.160847     -0.122342
15
Coordinates from ORCA-job freq E -270.974700786856
  C      -5.198307     -1.415537      1.172650
  C      -4.216849     -0.835185      0.197631
  C      -2.737033     -1.203887      0.340251
  C      -1.352305      1.113343      0.030344
  C      -2.354713      0.227082      0.602202
  O      -1.331558      0.691276      1.403904
  H      -3.743477      0.428771      0.607708
  H      -4.848005     -1.285608      2.198417
  H      -5.324780     -2.490803      1.007801
  H      -6.177332     -0.946945      1.085253
  H      -4.564703     -0.707744     -0.823485
  H      -2.554508     -1.823477      1.218885
  H      -2.270534     -1.667375     -0.527796
  H      -0.551673      0.702112     -0.574530
  H      -1.580397      2.160778     -0.122596
15
Coordinates from ORCA-job freq E -270.974700179700
  C      -5.198430     -1.415576      1.172415
  C      -4.216656     -0.834937      0.197884
  C      -2.736929     -1.203919      0.340621
  C      -1.352554      1.113278      0.030052
  C      -2.354520      0.226992      0.602641
  O      -1.330734      0.691158      1.403567
  H      -3.743235      0.428667      0.608539
  H      -4.848680     -1.285582      2.198361
  H      -5.324504     -2.490877      1.007489
  H      -6.177534     -0.947243      1.084543
  H      -4.564257     -0.706983     -0.823249
  H      -2.554652     -1.823547      1.219280
  H      -2.270383     -1.667458     -0.527379
  H      -0.552383      0.702098     -0.575464
  H      -1.580726      2.160730     -0.122661
15
Coordinates from ORCA-job freq E -270.974709622939
  C      -5.198284     -1.415426      1.172521
  C      -4.216700     -0.835025      0.197641
  C      -2.736968     -1.204001      0.340388
  C      -1.352541      1.113294      0.030248
  C      -2.354563      0.226890      0.602518
  O      -1.331008      0.691004      1.403749
  H      -3.743517      0.428444      0.608098
  H      -4.848380     -1.284980      2.198362
  H      -5.324276     -2.490804      1.008058
  H      -6.177451     -0.947222      1.084642
  H      -4.564465     -0.707173     -0.823447
  H      -2.554712     -1.823738      1.218970
  H      -2.270364     -1.667433     -0.527640
  H      -0.552188      0.702222     -0.575099
  H      -1.580759      2.160748     -0.122370
15
Coordinates from ORCA-job freq E -270.974712274702
  C      -5.197969     -1.415201      1.172918
  C      -4.216980     -0.835403      0.197051
  C      -2.737143     -1.204061      0.339685
  C      -1.352239      1.113392      0.030821
  C      -2.354821      0.226874      0.601892
  O      -1.332248      0.690951      1.404357
  H      -3.744139      0.428302      0.606565
  H      -4.847247     -1.284269      2.198416
  H      -5.324307     -2.490639      1.009128
  H      -6.177130     -0.946877      1.085580
  H      -4.565228     -0.708286     -0.823958
  H      -2.554653     -1.823904      1.218140
  H      -2.270506     -1.667301     -0.528431
  H      -0.551160      0.702393     -0.573608
  H      -1.580406      2.160832     -0.121915
15
Coordinates from ORCA-job freq E -270.974711661504
  C      -5.197931     -1.415215      1.173050
  C      -4.217089     -0.835573      0.196938
  C      -2.737187     -1.204030      0.339515
  C      -1.352084      1.113454      0.030960
  C      -2.354913      0.226958      0.601620
  O      -1.332728      0.691084      1.404537
  H      -3.744281      0.428444      0.606004
  H      -4.846780     -1.284595      2.198439
  H      -5.324720     -2.490574      1.009091
  H      -6.176972     -0.946551      1.086165
  H      -4.565447     -0.708799     -0.824082
  H      -2.554535     -1.823783      1.218000
  H      -2.270567     -1.667304     -0.528593
  H      -0.550728      0.702407     -0.573070
  H      -1.580213      2.160879     -0.121934
15
Coordinates from ORCA-job freq E -270.974713772234
  C      -5.197931     -1.415247      1.173112
  C      -4.217152     -0.835673      0.196903
  C      -2.737211     -1.203993      0.339448
  C      -1.351990      1.113489      0.031011
  C      -2.354989      0.227035      0.601452
  O      -1.333023      0.691213      1.404617
  H      -3.744268      0.428557      0.605799
  H      -4.846524     -1.284928      2.198450
  H      -5.325051     -2.490537      1.008945
  H      -6.176869     -0.946314      1.086520
  H      -4.565555     -0.709125     -0.824131
  H      -2.554431     -1.823669      1.217966
  H      -2.270612     -1.667296     -0.528652
  H      -0.550479      0.702391     -0.572774
  H      -1.580090      2.160897     -0.122027
15
Coordinates from ORCA-job freq E -270.974710138165
  C      -5.197977     -1.415306      1.173070
  C      -4.217138     -0.835632      0.196996
  C      -2.737206     -1.203957      0.339535
  C      -1.351992      1.113477      0.030938
  C      -2.355008      0.227083      0.601476
  O      -1.332977      0.691298      1.404551
  H      -3.744117      0.428641      0.606013
  H      -4.846607     -1.285187      2.198445
  H      -5.325145     -2.490563      1.008701
  H      -6.176892     -0.946310      1.086500
  H      -4.565483     -0.709069     -0.824057
  H      -2.554400     -1.823581      1.218084
  H      -2.270644     -1.667301     -0.528561
  H      -0.550525      0.702325     -0.572872
  H      -1.580064      2.160883     -0.122179
15
Coordinates from ORCA-job freq E -270.974716472700
  C      -5.198228     -1.415511      1.172762
  C      -4.216937     -0.835283      0.197487
  C      -2.737087     -1.203879      0.340091
  C      -1.352202      1.113377      0.030482
  C      -2.354795      0.227113      0.601995
  O      -1.331976      0.691355      1.404080
  H      -3.743638      0.428782      0.607200
  H      -4.847570     -1.285694      2.198418
  H      -5.324983     -2.490744      1.007901
  H      -6.177197     -0.946727      1.085702
  H      -4.564916     -0.708101     -0.823625
  H      -2.554479     -1.823457      1.218716
  H      -2.270569     -1.667354     -0.527952
  H      -0.551321      0.702128     -0.574049
  H      -1.580279      2.160796     -0.122568
15
Coordinates from ORCA-job freq E -270.974712618901
  C      -5.198218     -1.415448      1.172692
  C      -4.216862     -0.835224      0.197486
  C      -2.737052     -1.203937      0.340148
  C      -1.352323      1.113346      0.030440
  C      -2.354751      0.227024      0.602149
  O      -1.331721      0.691219      1.403999
  H      -3.743619      0.428616      0.607515
  H      -4.847789     -1.285320      2.198390
  H      -5.324696     -2.490749      1.008062
  H      -6.177263     -0.946886      1.085341
  H      -4.564796     -0.707832     -0.823610
  H      -2.554553     -1.823594      1.218739
  H      -2.270497     -1.667354     -0.527908
  H      -0.551597      0.702161     -0.574335
  H      -1.580440      2.160778     -0.122470
15
Coordinates from ORCA-job freq E -270.974711869420
  C      -5.198163     -1.415380      1.172714
  C      -4.216864     -0.835223      0.197400
  C      -2.737064     -1.203971      0.340073
  C      -1.352348      1.113337      0.030508
  C      -2.354744      0.226966      0.602179
  O      -1.331707      0.691104      1.404048
  H      -3.743722      0.428519      0.607401
  H      -4.847765     -1.284949      2.198386
  H      -5.324479     -2.490741      1.008349
  H      -6.177271     -0.946975      1.085249
  H      -4.564846     -0.707838     -0.823671
  H      -2.554631     -1.823710      1.218618
  H      -2.270467     -1.667320     -0.527999
  H      -0.551628      0.702203     -0.574307
  H      -1.580479      2.160779     -0.122309
15
Coordinates from ORCA-job freq E -270.974715354681
  C      -5.198018     -1.415257      1.172885
  C      -4.216986     -0.835405      0.197110
  C      -2.737140     -1.204013      0.339746
  C      -1.352234      1.113376      0.030780
  C      -2.354848      0.226933      0.601941
  O      -1.332175      0.690987      1.404304
  H      -3.744002      0.428453      0.606778
  H      -4.847333     -1.284421      2.198405
  H      -5.324361     -2.490678      1.008973
  H      -6.177166     -0.946914      1.085528
  H      -4.565187     -0.708315     -0.823921
  H      -2.554625     -1.823829      1.218218
  H      -2.270512     -1.667241     -0.528377
  H      -0.551251      0.702300     -0.573726
  H      -1.580337      2.160825     -0.122006
15
Coordinates from ORCA-job freq E -270.974719483160
  C      -5.197868     -1.415152      1.173105
  C      -4.217119     -0.835614      0.196840
  C      -2.737217     -1.204047      0.339384
  C      -1.352074      1.113438      0.031066
  C      -2.355013      0.226945      0.601564
  O      -1.332921      0.691047      1.404626
  H      -3.744270      0.428391      0.605937
  H      -4.846688     -1.284275      2.198452
  H      -5.324556     -2.490559      1.009373
  H      -6.176953     -0.946594      1.086149
  H      -4.565561     -0.708961     -0.824163
  H      -2.554528     -1.823874      1.217811
  H      -2.270603     -1.667208     -0.528784
  H      -0.550644      0.702393     -0.572862
  H      -1.580159      2.160868     -0.121860
15
Coordinates from ORCA-job freq E -270.974719031120
  C      -5.197820     -1.415148      1.173228
  C      -4.217228     -0.835720      0.196734
  C      -2.737275     -1.204013      0.339201
  C      -1.351931      1.113465      0.031208
  C      -2.355109      0.227005      0.601340
  O      -1.333338      0.691127      1.404795
  H      -3.744372      0.428480      0.605505
  H      -4.846369     -1.284333      2.198493
  H      -5.324697     -2.490535      1.009502
  H      -6.176873     -0.946473      1.086521
  H      -4.565794     -0.709352     -0.824267
  H      -2.554446     -1.823816      1.217607
  H      -2.270695     -1.667150     -0.528996
  H      -0.550263      0.702380     -0.572377
  H      -1.579966      2.160883     -0.121856
15
Coordinates from ORCA-job freq E -270.974712303480
  C      -5.197938     -1.415254      1.173118
  C      -4.217162     -0.835628      0.196945
  C      -2.737229     -1.203967      0.339421
  C      -1.351981      1.113446      0.031026
  C      -2.355050      0.227057      0.601482
  O      -1.333032      0.691211      1.404613
  H      -3.744154      0.428619      0.605932
  H      -4.846678     -1.284752      2.198485
  H      -5.324824     -2.490590      1.009054
  H      -6.176955     -0.946518      1.086348
  H      -4.565575     -0.709106     -0.824088
  H      -2.554408     -1.823698      1.217888
  H      -2.270691     -1.667190     -0.528753
  H      -0.550495      0.702304     -0.572766
  H      -1.580003      2.160863     -0.122064
15
Coordinates from ORCA-job freq E -270.974710812295
  C      -5.198079     -1.415356      1.172920
  C      -4.217027     -0.835432      0.197224
  C      -2.737154     -1.203940      0.339762
  C      -1.352132      1.113394      0.030750
  C      -2.354929      0.227060      0.601794
  O      -1.332424      0.691226      1.404318
  H      -3.743857      0.428681      0.606691
  H      -4.847224     -1.285043      2.198448
  H      -5.324754     -2.490676      1.008565
  H      -6.177113     -0.946715      1.085866
  H      -4.565204     -0.708545     -0.823846
  H      -2.554460     -1.823635      1.218287
  H      -2.270638     -1.667256     -0.528371
  H      -0.551004      0.702219     -0.573498
  H      -1.580178      2.160819     -0.122271
15
Coordinates from ORCA-job freq E -270.974708273766
  C      -5.198181     -1.415401      1.172765
  C      -4.216915     -0.835274      0.197410
  C      -2.737084     -1.203947      0.340012
  C      -1.352277      1.113352      0.030548
  C      -2.354796      0.227015      0.602090
  O      -1.331860      0.691168      1.404089
  H      -3.743664      0.428624      0.607291
  H      -4.847728     -1.285036      2.198426
  H      -5.324558     -2.490745      1.008351
  H      -6.177273     -0.946951      1.085358
  H      -4.564928     -0.708032     -0.823674
  H      -2.554537     -1.823670      1.218549
  H      -2.270553     -1.667293     -0.528098
  H      -0.551463      0.702197     -0.574137
  H      -1.580358      2.160794     -0.122341
15
Coordinates from ORCA-job freq E -270.974717778001
  C      -5.198170     -1.415363      1.172720
  C      -4.216858     -0.835223      0.197416
  C      -2.737059     -1.203986      0.340057
  C      -1.352361      1.113331      0.030519
  C      -2.354750      0.226950      0.602206
  O      -1.331669      0.691070      1.404040
  H      -3.743679      0.428528      0.607446
  H      -4.847862     -1.284813      2.198405
  H      -5.324380     -2.490745      1.008441
  H      -6.177309     -0.947049      1.085129
  H      -4.564839     -0.707839     -0.823659
  H      -2.554600     -1.823757      1.218575
  H      -2.270494     -1.667305     -0.528047
  H      -0.551663      0.702217     -0.574344
  H      -1.580482      2.160783     -0.122266
15
Coordinates from ORCA-job freq E -270.974706334722
  C      -5.198155     -1.415335      1.172718
  C      -4.216847     -0.835225      0.197379
  C      -2.737053     -1.204003      0.340047
  C      -1.352384      1.113333      0.030534
  C      -2.354718      0.226917      0.602247
  O      -1.331601      0.691008      1.404048
  H      -3.743740      0.428484      0.607404
  H      -4.847867     -1.284675      2.198400
  H      -5.324313     -2.490741      1.008543
  H      -6.177318     -0.947071      1.085081
  H      -4.564833     -0.707819     -0.823688
  H      -2.554646     -1.823806      1.218549
  H      -2.270452     -1.667305     -0.528050
  H      -0.551724      0.702246     -0.574394
  H      -1.580526      2.160790     -0.122179
