17
Coordinates from ORCA-job freq E -421.387671766495
  C          -2.31224867647085     -0.66668909614797      0.36316779716496
  C           2.62931952062825      0.29250377190533     -0.42227391910237
  C          -1.15762253783381      0.21335391169459      0.74133846933901
  C           1.44018296239420     -0.21726581181708      0.32827751540160
  C           0.07403049521228      0.05181351561652     -0.11701947303578
  O          -0.78073716985767      1.95605107880404     -0.79013394737945
  O           0.61516072519356     -1.18853629536758     -0.36032096075513
  O          -0.16707446840417      0.80011463984722     -1.28333502076184
  H          -1.32233913772141      1.39833121399688      0.19169155119017
  H          -3.21598714446682     -0.39065804246743      0.90268327397610
  H          -2.50243908046871     -0.61290552240504     -0.70850443743186
  H          -2.07494946103499     -1.70666204788582      0.60555629510286
  H           3.03486812191845      1.17069332701413      0.08000398064809
  H           2.34583960822739      0.56673285279552     -1.43577922183141
  H           3.40674963945105     -0.46987387372933     -0.46206939861212
  H          -0.97879614646556      0.34502355505102      1.80444135137003
  H           1.58700174969877     -0.46109917690498      1.37614314471714
