17
Coordinates from ORCA-job freq E -421.372280423223
  C          -1.39773878714957      0.04134287800491      1.19672594657449
  C           0.09827045596974     -0.14927076900685     -0.84798809360313
  C           2.52892144232560      0.48294368451019     -0.21023998657161
  C          -1.10058374623761     -0.71181634280221     -0.09446070724587
  C           1.39312668698732     -0.43802570992257     -0.14329595822958
  O          -2.62696508666280      0.78837583767937     -0.66217546495062
  O           1.72479056983923      0.40169608686026      0.95360432405125
  O          -2.31169530602786     -0.56103829203863     -0.83348019887435
  H          -2.18311053431657      0.85526628340987      0.48678945665096
  H          -0.58820357710654      0.59047769608184      1.66317223766813
  H          -2.08075640819295     -0.45008560837402      1.88296398414108
  H          -0.02116202706582      0.92852151840049     -0.96894511133433
  H           0.11933573218724     -0.60086476364067     -1.84184469682657
  H           3.53738831026782      0.10351163420063     -0.09961669195634
  H           2.42421856083141      1.40067580001658     -0.77760005423507
  H          -0.98561091789569     -1.78883004304081      0.05593184210634
  H           1.61300963224705     -1.48755089033838      0.03620717263518
