17
* (null), Energy   -1000.0000000
C    -1.477559    1.234704   -0.544118   -0.005832   -0.010085    0.011646
C    -0.318426   -0.687357    0.666531    1.269861    0.357228   -0.762010
C     2.520479   -0.056646    0.493216   -0.060045    0.018357   -0.037883
C    -1.303012   -0.263505   -0.430484    0.006991   -0.018268    0.104664
C     1.324337   -0.215927   -0.310467   -0.483881   -0.142242    0.367181
O    -1.830555   -1.038342    1.418562   -0.455295   -0.075855    0.108235
O     1.792510    1.043553   -0.087802   -0.016870   -0.024853    0.015052
O    -2.445517   -0.888382    0.128416   -0.004724   -0.011201    0.046324
H     0.056108   -1.703303    0.699232   -0.413959   -0.194608    0.377036
H    -2.306362    1.455614   -1.215048   -0.016119   -0.024097    0.020863
H    -1.705277    1.648885    0.438078    0.019622    0.020734    0.004212
H    -0.575396    1.710214   -0.929382   -0.002162   -0.031619   -0.004804
H     0.024425    0.014066    1.418126   -0.445665   -0.128108    0.435237
H     3.502723   -0.218009    0.068305   -0.150669   -0.169273   -0.176642
H     2.438161   -0.132042    1.571037    0.116330    0.094382   -0.020202
H    -1.080488   -0.716725   -1.400338   -0.120998   -0.089696    0.093572
H     1.238728   -0.592026   -1.326167   -0.081011   -0.144076    0.348799
17
* Frequency(6) -1028.3531
C    -1.478222    1.233557   -0.542794   -0.005832   -0.010085    0.011646
C    -0.174113   -0.646760    0.579933    1.269861    0.357228   -0.762010
C     2.513655   -0.054560    0.488911   -0.060045    0.018357   -0.037883
C    -1.302218   -0.265581   -0.418589    0.006991   -0.018268    0.104664
C     1.269346   -0.232092   -0.268739   -0.483881   -0.142242    0.367181
O    -1.882297   -1.046963    1.430863   -0.455295   -0.075855    0.108235
O     1.790593    1.040728   -0.086091   -0.016870   -0.024853    0.015052
O    -2.446054   -0.889655    0.133680   -0.004724   -0.011201    0.046324
H     0.009063   -1.725419    0.742080   -0.413959   -0.194608    0.377036
H    -2.308194    1.452875   -1.212677   -0.016119   -0.024097    0.020863
H    -1.703047    1.651241    0.438556    0.019622    0.020734    0.004212
H    -0.575642    1.706620   -0.929928   -0.002162   -0.031619   -0.004804
H    -0.026223   -0.000493    1.467589   -0.445665   -0.128108    0.435237
H     3.485600   -0.237246    0.048231   -0.150669   -0.169273   -0.176642
H     2.451381   -0.121316    1.568741    0.116330    0.094382   -0.020202
H    -1.094238   -0.726918   -1.389704   -0.120998   -0.089696    0.093572
H     1.229521   -0.608399   -1.286527   -0.081011   -0.144076    0.348799
17
* Frequency(6) -1028.3531
C    -1.478813    1.232535   -0.541614   -0.005832   -0.010085    0.011646
C    -0.045439   -0.610563    0.502718    1.269861    0.357228   -0.762010
C     2.507570   -0.052700    0.485073   -0.060045    0.018357   -0.037883
C    -1.301509   -0.267433   -0.407984    0.006991   -0.018268    0.104664
C     1.220315   -0.246506   -0.231532   -0.483881   -0.142242    0.367181
O    -1.928432   -1.054649    1.441830   -0.455295   -0.075855    0.108235
O     1.788884    1.038210   -0.084566   -0.016870   -0.024853    0.015052
O    -2.446532   -0.890790    0.138374   -0.004724   -0.011201    0.046324
H    -0.032883   -1.745138    0.780285   -0.413959   -0.194608    0.377036
H    -2.309827    1.450434   -1.210563   -0.016119   -0.024097    0.020863
H    -1.701059    1.653342    0.438983    0.019622    0.020734    0.004212
H    -0.575861    1.703417   -0.930415   -0.002162   -0.031619   -0.004804
H    -0.071382   -0.013474    1.511691   -0.445665   -0.128108    0.435237
H     3.470333   -0.254398    0.030332   -0.150669   -0.169273   -0.176642
H     2.463169   -0.111752    1.566694    0.116330    0.094382   -0.020202
H    -1.106499   -0.736007   -1.380222   -0.120998   -0.089696    0.093572
H     1.221312   -0.622998   -1.251184   -0.081011   -0.144076    0.348799
17
* Frequency(6) -1028.3531
C    -1.479268    1.231748   -0.540705   -0.005832   -0.010085    0.011646
C     0.053654   -0.582687    0.443256    1.269861    0.357228   -0.762010
C     2.502885   -0.051268    0.482116   -0.060045    0.018357   -0.037883
C    -1.300964   -0.268858   -0.399816    0.006991   -0.018268    0.104664
C     1.182556   -0.257605   -0.202880   -0.483881   -0.142242    0.367181
O    -1.963960   -1.060568    1.450276   -0.455295   -0.075855    0.108235
O     1.787567    1.036271   -0.083391   -0.016870   -0.024853    0.015052
O    -2.446901   -0.891664    0.141989   -0.004724   -0.011201    0.046324
H    -0.065186   -1.760324    0.809706   -0.413959   -0.194608    0.377036
H    -2.311085    1.448553   -1.208935   -0.016119   -0.024097    0.020863
H    -1.699528    1.654960    0.439312    0.019622    0.020734    0.004212
H    -0.576030    1.700949   -0.930790   -0.002162   -0.031619   -0.004804
H    -0.106159   -0.023471    1.545654   -0.445665   -0.128108    0.435237
H     3.458576   -0.267607    0.016548   -0.150669   -0.169273   -0.176642
H     2.472246   -0.104387    1.565118    0.116330    0.094382   -0.020202
H    -1.115941   -0.743006   -1.372920   -0.120998   -0.089696    0.093572
H     1.214991   -0.634241   -1.223966   -0.081011   -0.144076    0.348799
17
* Frequency(6) -1028.3531
C    -1.479538    1.231282   -0.540166   -0.005832   -0.010085    0.011646
C     0.112425   -0.566154    0.407989    1.269861    0.357228   -0.762010
C     2.500106   -0.050418    0.480363   -0.060045    0.018357   -0.037883
C    -1.300640   -0.269704   -0.394972    0.006991   -0.018268    0.104664
C     1.160161   -0.264189   -0.185886   -0.483881   -0.142242    0.367181
O    -1.985032   -1.064079    1.455286   -0.455295   -0.075855    0.108235
O     1.786786    1.035120   -0.082695   -0.016870   -0.024853    0.015052
O    -2.447120   -0.892182    0.144133   -0.004724   -0.011201    0.046324
H    -0.084345   -1.769331    0.827156   -0.413959   -0.194608    0.377036
H    -2.311831    1.447438   -1.207969   -0.016119   -0.024097    0.020863
H    -1.698620    1.655920    0.439507    0.019622    0.020734    0.004212
H    -0.576130    1.699486   -0.931012   -0.002162   -0.031619   -0.004804
H    -0.126785   -0.029400    1.565798   -0.445665   -0.128108    0.435237
H     3.451602   -0.275441    0.008372   -0.150669   -0.169273   -0.176642
H     2.477630   -0.100019    1.564183    0.116330    0.094382   -0.020202
H    -1.121541   -0.747158   -1.368590   -0.120998   -0.089696    0.093572
H     1.211241   -0.640909   -1.207823   -0.081011   -0.144076    0.348799
17
* Frequency(6) -1028.3531
C    -1.479594    1.231186   -0.540055   -0.005832   -0.010085    0.011646
C     0.124507   -0.562755    0.400739    1.269861    0.357228   -0.762010
C     2.499535   -0.050243    0.480003   -0.060045    0.018357   -0.037883
C    -1.300574   -0.269877   -0.393977    0.006991   -0.018268    0.104664
C     1.155557   -0.265542   -0.182392   -0.483881   -0.142242    0.367181
O    -1.989364   -1.064801    1.456315   -0.455295   -0.075855    0.108235
O     1.786626    1.034884   -0.082552   -0.016870   -0.024853    0.015052
O    -2.447164   -0.892289    0.144574   -0.004724   -0.011201    0.046324
H    -0.088283   -1.771183    0.830744   -0.413959   -0.194608    0.377036
H    -2.311984    1.447209   -1.207771   -0.016119   -0.024097    0.020863
H    -1.698433    1.656117    0.439547    0.019622    0.020734    0.004212
H    -0.576150    1.699185   -0.931058   -0.002162   -0.031619   -0.004804
H    -0.131025   -0.030619    1.569939   -0.445665   -0.128108    0.435237
H     3.450169   -0.277052    0.006692   -0.150669   -0.169273   -0.176642
H     2.478737   -0.099121    1.563991    0.116330    0.094382   -0.020202
H    -1.122692   -0.748011   -1.367699   -0.120998   -0.089696    0.093572
H     1.210471   -0.642280   -1.204504   -0.081011   -0.144076    0.348799
17
* Frequency(6) -1028.3531
C    -1.479429    1.231471   -0.540385   -0.005832   -0.010085    0.011646
C     0.088590   -0.572859    0.422291    1.269861    0.357228   -0.762010
C     2.501233   -0.050763    0.481074   -0.060045    0.018357   -0.037883
C    -1.300772   -0.269361   -0.396937    0.006991   -0.018268    0.104664
C     1.169243   -0.261519   -0.192778   -0.483881   -0.142242    0.367181
O    -1.976486   -1.062655    1.453254   -0.455295   -0.075855    0.108235
O     1.787103    1.035587   -0.082977   -0.016870   -0.024853    0.015052
O    -2.447031   -0.891972    0.143264   -0.004724   -0.011201    0.046324
H    -0.076575   -1.765678    0.820079   -0.413959   -0.194608    0.377036
H    -2.311528    1.447890   -1.208361   -0.016119   -0.024097    0.020863
H    -1.698988    1.655531    0.439428    0.019622    0.020734    0.004212
H    -0.576089    1.700079   -0.930922   -0.002162   -0.031619   -0.004804
H    -0.118420   -0.026996    1.557629   -0.445665   -0.128108    0.435237
H     3.454430   -0.272264    0.011688   -0.150669   -0.169273   -0.176642
H     2.475447   -0.101790    1.564562    0.116330    0.094382   -0.020202
H    -1.119270   -0.745474   -1.370346   -0.120998   -0.089696    0.093572
H     1.212762   -0.638205   -1.214369   -0.081011   -0.144076    0.348799
17
* Frequency(6) -1028.3531
C    -1.479061    1.232107   -0.541119   -0.005832   -0.010085    0.011646
C     0.008567   -0.595370    0.470311    1.269861    0.357228   -0.762010
C     2.505017   -0.051919    0.483461   -0.060045    0.018357   -0.037883
C    -1.301212   -0.268209   -0.403533    0.006991   -0.018268    0.104664
C     1.199736   -0.252555   -0.215916   -0.483881   -0.142242    0.367181
O    -1.947795   -1.057875    1.446433   -0.455295   -0.075855    0.108235
O     1.788166    1.037153   -0.083926   -0.016870   -0.024853    0.015052
O    -2.446733   -0.891266    0.140344   -0.004724   -0.011201    0.046324
H    -0.050488   -1.753415    0.796320   -0.413959   -0.194608    0.377036
H    -2.310512    1.449409   -1.209675   -0.016119   -0.024097    0.020863
H    -1.700224    1.654224    0.439162    0.019622    0.020734    0.004212
H    -0.575953    1.702072   -0.930619   -0.002162   -0.031619   -0.004804
H    -0.090335   -0.018923    1.530201   -0.445665   -0.128108    0.435237
H     3.463925   -0.261597    0.022819   -0.150669   -0.169273   -0.176642
H     2.468116   -0.107738    1.565835    0.116330    0.094382   -0.020202
H    -1.111645   -0.739822   -1.376243   -0.120998   -0.089696    0.093572
H     1.217867   -0.629125   -1.236350   -0.081011   -0.144076    0.348799
17
* Frequency(6) -1028.3531
C    -1.478531    1.233024   -0.542178   -0.005832   -0.010085    0.011646
C    -0.106891   -0.627850    0.539594    1.269861    0.357228   -0.762010
C     2.510476   -0.053588    0.486906   -0.060045    0.018357   -0.037883
C    -1.301848   -0.266548   -0.413049    0.006991   -0.018268    0.104664
C     1.243731   -0.239622   -0.249301   -0.483881   -0.142242    0.367181
O    -1.906399   -1.050978    1.436592   -0.455295   -0.075855    0.108235
O     1.789700    1.039413   -0.085294   -0.016870   -0.024853    0.015052
O    -2.446304   -0.890248    0.136133   -0.004724   -0.011201    0.046324
H    -0.012850   -1.735721    0.762039   -0.413959   -0.194608    0.377036
H    -2.309047    1.451600   -1.211572   -0.016119   -0.024097    0.020863
H    -1.702008    1.652339    0.438779    0.019622    0.020734    0.004212
H    -0.575757    1.704947   -0.930182   -0.002162   -0.031619   -0.004804
H    -0.049815   -0.007275    1.490629   -0.445665   -0.128108    0.435237
H     3.477624   -0.246207    0.038880   -0.150669   -0.169273   -0.176642
H     2.457539   -0.116319    1.567672    0.116330    0.094382   -0.020202
H    -1.100644   -0.731666   -1.384750   -0.120998   -0.089696    0.093572
H     1.225233   -0.616026   -1.268063   -0.081011   -0.144076    0.348799
17
* Frequency(6) -1028.3531
C    -1.477895    1.234123   -0.543447   -0.005832   -0.010085    0.011646
C    -0.245272   -0.666778    0.622633    1.269861    0.357228   -0.762010
C     2.517019   -0.055589    0.491034   -0.060045    0.018357   -0.037883
C    -1.302609   -0.264558   -0.424455    0.006991   -0.018268    0.104664
C     1.296461   -0.224122   -0.289314   -0.483881   -0.142242    0.367181
O    -1.856784   -1.042712    1.424798   -0.455295   -0.075855    0.108235
O     1.791538    1.042121   -0.086935   -0.016870   -0.024853    0.015052
O    -2.445789   -0.889027    0.131085   -0.004724   -0.011201    0.046324
H     0.032260   -1.714514    0.720952   -0.413959   -0.194608    0.377036
H    -2.307290    1.454226   -1.213846   -0.016119   -0.024097    0.020863
H    -1.704147    1.650079    0.438320    0.019622    0.020734    0.004212
H    -0.575521    1.708392   -0.929659   -0.002162   -0.031619   -0.004804
H    -0.001249    0.006685    1.443200   -0.445665   -0.128108    0.435237
H     3.494043   -0.227760    0.058129   -0.150669   -0.169273   -0.176642
H     2.444862   -0.126604    1.569873    0.116330    0.094382   -0.020202
H    -1.087458   -0.721892   -1.394947   -0.120998   -0.089696    0.093572
H     1.234061   -0.600325   -1.306073   -0.081011   -0.144076    0.348799
17
* Frequency(6) -1028.3531
C    -1.477223    1.235285   -0.544788   -0.005832   -0.010085    0.011646
C    -0.391580   -0.707937    0.710429    1.269861    0.357228   -0.762010
C     2.523938   -0.057704    0.495399   -0.060045    0.018357   -0.037883
C    -1.303415   -0.262453   -0.436514    0.006991   -0.018268    0.104664
C     1.352212   -0.207733   -0.331619   -0.483881   -0.142242    0.367181
O    -1.804326   -1.033972    1.412327   -0.455295   -0.075855    0.108235
O     1.793482    1.044985   -0.088669   -0.016870   -0.024853    0.015052
O    -2.445245   -0.887737    0.125747   -0.004724   -0.011201    0.046324
H     0.079955   -1.692092    0.677511   -0.413959   -0.194608    0.377036
H    -2.305433    1.457002   -1.216250   -0.016119   -0.024097    0.020863
H    -1.706408    1.647690    0.437835    0.019622    0.020734    0.004212
H    -0.575272    1.712035   -0.929105   -0.002162   -0.031619   -0.004804
H     0.050099    0.021446    1.393053   -0.445665   -0.128108    0.435237
H     3.511403   -0.208257    0.078481   -0.150669   -0.169273   -0.176642
H     2.431459   -0.137479    1.572201    0.116330    0.094382   -0.020202
H    -1.073517   -0.711557   -1.405728   -0.120998   -0.089696    0.093572
H     1.243395   -0.583726   -1.346260   -0.081011   -0.144076    0.348799
17
* Frequency(6) -1028.3531
C    -1.476588    1.236384   -0.546057   -0.005832   -0.010085    0.011646
C    -0.529962   -0.746865    0.793468    1.269861    0.357228   -0.762010
C     2.530481   -0.059704    0.499527   -0.060045    0.018357   -0.037883
C    -1.304177   -0.260462   -0.447919    0.006991   -0.018268    0.104664
C     1.404942   -0.192233   -0.371632   -0.483881   -0.142242    0.367181
O    -1.754711   -1.025706    1.400532   -0.455295   -0.075855    0.108235
O     1.795321    1.047693   -0.090309   -0.016870   -0.024853    0.015052
O    -2.444730   -0.886516    0.120699   -0.004724   -0.011201    0.046324
H     0.125066   -1.670884    0.636424   -0.413959   -0.194608    0.377036
H    -2.303677    1.459628   -1.218523   -0.016119   -0.024097    0.020863
H    -1.708546    1.645431    0.437376    0.019622    0.020734    0.004212
H    -0.575036    1.715481   -0.928582   -0.002162   -0.031619   -0.004804
H     0.098664    0.035406    1.345624   -0.445665   -0.128108    0.435237
H     3.527822   -0.189811    0.097731   -0.150669   -0.169273   -0.176642
H     2.418782   -0.147764    1.574402    0.116330    0.094382   -0.020202
H    -1.060332   -0.701783   -1.415925   -0.120998   -0.089696    0.093572
H     1.252223   -0.568025   -1.384270   -0.081011   -0.144076    0.348799
17
* Frequency(6) -1028.3531
C    -1.476058    1.237301   -0.547116   -0.005832   -0.010085    0.011646
C    -0.645420   -0.779345    0.862751    1.269861    0.357228   -0.762010
C     2.535940   -0.061373    0.502971   -0.060045    0.018357   -0.037883
C    -1.304812   -0.258801   -0.457435    0.006991   -0.018268    0.104664
C     1.448938   -0.179300   -0.405017   -0.483881   -0.142242    0.367181
O    -1.713315   -1.018809    1.390692   -0.455295   -0.075855    0.108235
O     1.796854    1.049953   -0.091678   -0.016870   -0.024853    0.015052
O    -2.444300   -0.885498    0.116487   -0.004724   -0.011201    0.046324
H     0.162704   -1.653190    0.602143   -0.413959   -0.194608    0.377036
H    -2.302211    1.461819   -1.220420   -0.016119   -0.024097    0.020863
H    -1.710330    1.643546    0.436993    0.019622    0.020734    0.004212
H    -0.574840    1.718356   -0.928145   -0.002162   -0.031619   -0.004804
H     0.139185    0.047054    1.306052   -0.445665   -0.128108    0.435237
H     3.541521   -0.174420    0.113791   -0.150669   -0.169273   -0.176642
H     2.408205   -0.156345    1.576239    0.116330    0.094382   -0.020202
H    -1.049330   -0.693628   -1.424433   -0.120998   -0.089696    0.093572
H     1.259589   -0.554926   -1.415984   -0.081011   -0.144076    0.348799
17
* Frequency(6) -1028.3531
C    -1.475690    1.237936   -0.547850   -0.005832   -0.010085    0.011646
C    -0.725443   -0.801856    0.910771    1.269861    0.357228   -0.762010
C     2.539724   -0.062530    0.505359   -0.060045    0.018357   -0.037883
C    -1.305253   -0.257650   -0.464031    0.006991   -0.018268    0.104664
C     1.479431   -0.170336   -0.428156   -0.483881   -0.142242    0.367181
O    -1.684623   -1.014029    1.383871   -0.455295   -0.075855    0.108235
O     1.797918    1.051519   -0.092626   -0.016870   -0.024853    0.015052
O    -2.444003   -0.884792    0.113568   -0.004724   -0.011201    0.046324
H     0.188790   -1.640927    0.578384   -0.413959   -0.194608    0.377036
H    -2.301195    1.463337   -1.221735   -0.016119   -0.024097    0.020863
H    -1.711567    1.642239    0.436728    0.019622    0.020734    0.004212
H    -0.574703    1.720348   -0.927842   -0.002162   -0.031619   -0.004804
H     0.167270    0.055127    1.278624   -0.445665   -0.128108    0.435237
H     3.551016   -0.163753    0.124923   -0.150669   -0.169273   -0.176642
H     2.400874   -0.162293    1.577512    0.116330    0.094382   -0.020202
H    -1.041705   -0.687975   -1.430329   -0.120998   -0.089696    0.093572
H     1.264694   -0.545846   -1.437964   -0.081011   -0.144076    0.348799
17
* Frequency(6) -1028.3531
C    -1.475525    1.238221   -0.548180   -0.005832   -0.010085    0.011646
C    -0.761359   -0.811960    0.932324    1.269861    0.357228   -0.762010
C     2.541422   -0.063049    0.506430   -0.060045    0.018357   -0.037883
C    -1.305451   -0.257133   -0.466991    0.006991   -0.018268    0.104664
C     1.493117   -0.166313   -0.438541   -0.483881   -0.142242    0.367181
O    -1.671746   -1.011883    1.380810   -0.455295   -0.075855    0.108235
O     1.798395    1.052222   -0.093052   -0.016870   -0.024853    0.015052
O    -2.443869   -0.884475    0.112258   -0.004724   -0.011201    0.046324
H     0.200499   -1.635422    0.567720   -0.413959   -0.194608    0.377036
H    -2.300739    1.464019   -1.222325   -0.016119   -0.024097    0.020863
H    -1.712122    1.641653    0.436609    0.019622    0.020734    0.004212
H    -0.574642    1.721243   -0.927706   -0.002162   -0.031619   -0.004804
H     0.179875    0.058750    1.266314   -0.445665   -0.128108    0.435237
H     3.555277   -0.158966    0.129919   -0.150669   -0.169273   -0.176642
H     2.397584   -0.164962    1.578084    0.116330    0.094382   -0.020202
H    -1.038283   -0.685438   -1.432976   -0.120998   -0.089696    0.093572
H     1.266985   -0.541771   -1.447830   -0.081011   -0.144076    0.348799
17
* Frequency(6) -1028.3531
C    -1.475581    1.238125   -0.548069   -0.005832   -0.010085    0.011646
C    -0.749277   -0.808561    0.925074    1.269861    0.357228   -0.762010
C     2.540851   -0.062875    0.506070   -0.060045    0.018357   -0.037883
C    -1.305384   -0.257307   -0.465996    0.006991   -0.018268    0.104664
C     1.488513   -0.167666   -0.435048   -0.483881   -0.142242    0.367181
O    -1.676078   -1.012605    1.381839   -0.455295   -0.075855    0.108235
O     1.798234    1.051985   -0.092909   -0.016870   -0.024853    0.015052
O    -2.443914   -0.884582    0.112699   -0.004724   -0.011201    0.046324
H     0.196560   -1.637274    0.571307   -0.413959   -0.194608    0.377036
H    -2.300893    1.463790   -1.222127   -0.016119   -0.024097    0.020863
H    -1.711935    1.641850    0.436649    0.019622    0.020734    0.004212
H    -0.574663    1.720942   -0.927752   -0.002162   -0.031619   -0.004804
H     0.175635    0.057531    1.270455   -0.445665   -0.128108    0.435237
H     3.553844   -0.160576    0.128238   -0.150669   -0.169273   -0.176642
H     2.398691   -0.164064    1.577892    0.116330    0.094382   -0.020202
H    -1.039434   -0.686292   -1.432086   -0.120998   -0.089696    0.093572
H     1.266214   -0.543142   -1.444511   -0.081011   -0.144076    0.348799
17
* Frequency(6) -1028.3531
C    -1.475851    1.237659   -0.547530   -0.005832   -0.010085    0.011646
C    -0.690506   -0.792028    0.889806    1.269861    0.357228   -0.762010
C     2.538072   -0.062025    0.504316   -0.060045    0.018357   -0.037883
C    -1.305061   -0.258153   -0.461152    0.006991   -0.018268    0.104664
C     1.466118   -0.174250   -0.418054   -0.483881   -0.142242    0.367181
O    -1.697150   -1.016116    1.386849   -0.455295   -0.075855    0.108235
O     1.797453    1.050835   -0.092212   -0.016870   -0.024853    0.015052
O    -2.444133   -0.885100    0.114843   -0.004724   -0.011201    0.046324
H     0.177401   -1.646281    0.588757   -0.413959   -0.194608    0.377036
H    -2.301639    1.462674   -1.221161   -0.016119   -0.024097    0.020863
H    -1.711027    1.642809    0.436844    0.019622    0.020734    0.004212
H    -0.574763    1.719479   -0.927974   -0.002162   -0.031619   -0.004804
H     0.155008    0.051602    1.290599   -0.445665   -0.128108    0.435237
H     3.546870   -0.168410    0.120063   -0.150669   -0.169273   -0.176642
H     2.404075   -0.159696    1.576957    0.116330    0.094382   -0.020202
H    -1.045034   -0.690443   -1.427755   -0.120998   -0.089696    0.093572
H     1.262465   -0.549810   -1.428368   -0.081011   -0.144076    0.348799
17
* Frequency(6) -1028.3531
C    -1.476306    1.236872   -0.546621   -0.005832   -0.010085    0.011646
C    -0.591414   -0.764152    0.830344    1.269861    0.357228   -0.762010
C     2.533387   -0.060593    0.501360   -0.060045    0.018357   -0.037883
C    -1.304515   -0.259578   -0.452984    0.006991   -0.018268    0.104664
C     1.428359   -0.185349   -0.389401   -0.483881   -0.142242    0.367181
O    -1.732678   -1.022035    1.395295   -0.455295   -0.075855    0.108235
O     1.796137    1.048896   -0.091038   -0.016870   -0.024853    0.015052
O    -2.444501   -0.885974    0.118458   -0.004724   -0.011201    0.046324
H     0.145098   -1.661467    0.618178   -0.413959   -0.194608    0.377036
H    -2.302897    1.460794   -1.219533   -0.016119   -0.024097    0.020863
H    -1.709496    1.644427    0.437172    0.019622    0.020734    0.004212
H    -0.574932    1.717011   -0.928349   -0.002162   -0.031619   -0.004804
H     0.120231    0.041606    1.324562   -0.445665   -0.128108    0.435237
H     3.535113   -0.181619    0.106279   -0.150669   -0.169273   -0.176642
H     2.413153   -0.152331    1.575380    0.116330    0.094382   -0.020202
H    -1.054476   -0.697442   -1.420453   -0.120998   -0.089696    0.093572
H     1.256143   -0.561053   -1.401150   -0.081011   -0.144076    0.348799
17
* Frequency(6) -1028.3531
C    -1.476897    1.235850   -0.545441   -0.005832   -0.010085    0.011646
C    -0.462739   -0.727955    0.753130    1.269861    0.357228   -0.762010
C     2.527302   -0.058733    0.497522   -0.060045    0.018357   -0.037883
C    -1.303807   -0.261429   -0.442379    0.006991   -0.018268    0.104664
C     1.379327   -0.199762   -0.352195   -0.483881   -0.142242    0.367181
O    -1.778813   -1.029721    1.406262   -0.455295   -0.075855    0.108235
O     1.794428    1.046377   -0.089512   -0.016870   -0.024853    0.015052
O    -2.444980   -0.887109    0.123152   -0.004724   -0.011201    0.046324
H     0.103152   -1.681186    0.656383   -0.413959   -0.194608    0.377036
H    -2.304530    1.458352   -1.217419   -0.016119   -0.024097    0.020863
H    -1.707507    1.646528    0.437599    0.019622    0.020734    0.004212
H    -0.575151    1.713807   -0.928836   -0.002162   -0.031619   -0.004804
H     0.075072    0.028624    1.368664   -0.445665   -0.128108    0.435237
H     3.519846   -0.198772    0.088380   -0.150669   -0.169273   -0.176642
H     2.424940   -0.142768    1.573333    0.116330    0.094382   -0.020202
H    -1.066737   -0.706531   -1.410972   -0.120998   -0.089696    0.093572
H     1.247934   -0.575652   -1.365806   -0.081011   -0.144076    0.348799
17
* Frequency(6) -1028.3531
C    -1.477559    1.234704   -0.544118   -0.005832   -0.010085    0.011646
C    -0.318426   -0.687357    0.666531    1.269861    0.357228   -0.762010
C     2.520479   -0.056646    0.493216   -0.060045    0.018357   -0.037883
C    -1.303012   -0.263505   -0.430484    0.006991   -0.018268    0.104664
C     1.324337   -0.215927   -0.310467   -0.483881   -0.142242    0.367181
O    -1.830555   -1.038342    1.418562   -0.455295   -0.075855    0.108235
O     1.792510    1.043553   -0.087802   -0.016870   -0.024853    0.015052
O    -2.445517   -0.888382    0.128416   -0.004724   -0.011201    0.046324
H     0.056108   -1.703303    0.699232   -0.413959   -0.194608    0.377036
H    -2.306362    1.455614   -1.215048   -0.016119   -0.024097    0.020863
H    -1.705277    1.648885    0.438078    0.019622    0.020734    0.004212
H    -0.575396    1.710214   -0.929382   -0.002162   -0.031619   -0.004804
H     0.024425    0.014066    1.418126   -0.445665   -0.128108    0.435237
H     3.502723   -0.218009    0.068305   -0.150669   -0.169273   -0.176642
H     2.438161   -0.132042    1.571037    0.116330    0.094382   -0.020202
H    -1.080488   -0.716725   -1.400338   -0.120998   -0.089696    0.093572
H     1.238728   -0.592026   -1.326167   -0.081011   -0.144076    0.348799
