17
Coordinates from ORCA-job freq E -421.311303179818
  C          -1.47755940427526      1.23470354560133     -0.54411751304988
  C          -0.31842620211231     -0.68735749264571      0.66653114624096
  C           2.52047850175506     -0.05664640200426      0.49321642029004
  C          -1.30301219986603     -0.26350530743186     -0.43048402914302
  C           1.32433689615478     -0.21592747630298     -0.31046681602729
  O          -1.83055482241712     -1.03834200860019      1.41856245024218
  O           1.79251035207446      1.04355288497701     -0.08780177928854
  O          -2.44551683636376     -0.88838183274680      0.12841598913173
  H           0.05610760238248     -1.70330251811244      0.69923156806249
  H          -2.30636176571290      1.45561383498171     -1.21504780447121
  H          -1.70527723130779      1.64888486087357      0.43807783998498
  H          -0.57539641352114      1.71021384711766     -0.92938207118604
  H           0.02442480001927      0.01406557311323      1.41812647261308
  H           3.50272292921789     -0.21800879817044      0.06830534013800
  H           2.43816062001853     -0.13204153769660      1.57103719663622
  H          -1.08048764486530     -0.71672463643375     -1.40033768914487
  H           1.23872781881915     -0.59202553651949     -1.32616672102884
