17
Coordinates from ORCA-job freq E -421.455206104378
  C          -2.31818428560724     -0.13891253573708      1.32237665072281
  C           1.84828646962014     -1.13451589154363     -0.25092013300060
  C           1.18842836722931      0.23976380662746     -0.23564971118550
  C          -0.89599090355800     -0.20822376713539      1.16381560543923
  C          -0.32556316328757      0.15554276465889     -0.21358981142664
  O          -0.16127255004103     -0.55321319873900      2.07767759089132
  O          -0.83229648398743      1.58634340967596     -1.93739793122990
  O          -0.95764571061365      1.38765155931707     -0.53825397111113
  H          -2.73745454273125     -0.38505419927342      2.28603868549987
  H          -2.95914680390740      0.16098859977516      0.50841148175160
  H           1.59237744440533     -1.69705765400334      0.64467016412099
  H           2.93233913352435     -1.04052795364497     -0.29377245412357
  H           1.52942015633712     -1.70698638578486     -1.12364136865716
  H           1.47308587071130      0.79007978421895     -1.13408270098664
  H           1.51975101348670      0.81239942368700      0.63149766559026
  H          -0.67525461584453     -0.59874510588275     -0.93023591973589
  H          -0.22087739573615      2.33046734378392     -1.97694384255911
