15
Coordinates from ORCA-job freq E -271.004516820776
  C       2.334528     -0.306112      0.424307
  C       1.070637     -0.104867     -0.360749
  C      -0.873564     -1.347662      0.581545
  C       0.083100      0.897308      0.211252
  C      -1.029938      0.075966      0.863839
  O      -0.601712     -0.837192      1.841170
  H       0.266057     -1.194327     -0.126717
  H       2.914281     -1.135180      0.023237
  H       2.960135      0.589989      0.392612
  H       2.097795     -0.513354      1.466728
  H       1.215619     -0.040149     -1.433601
  H      -1.651335     -2.087178      0.474140
  H      -0.360099      1.518788     -0.567758
  H       0.549839      1.546742      0.954310
  H      -1.982856      0.552757      1.059359
15
Coordinates from ORCA-job freq E -271.005077056073
  C       2.324618     -0.321990      0.432055
  C       1.065552     -0.096937     -0.361347
  C      -0.857217     -1.335967      0.575311
  C       0.070953      0.908264      0.202178
  C      -1.027673      0.085161      0.861589
  O      -0.562386     -0.828152      1.835756
  H       0.268989     -1.176226     -0.143244
  H       2.909384     -1.146395      0.024694
  H       2.955374      0.572552      0.423499
  H       2.080442     -0.546316      1.471457
  H       1.212786     -0.041968     -1.436508
  H      -1.622486     -2.097589      0.482492
  H      -0.377711      1.520502     -0.580274
  H       0.534237      1.572094      0.935771
  H      -1.982373      0.548496      1.080245
15
Coordinates from ORCA-job freq E -271.004878715293
  C       2.321966     -0.326505      0.430701
  C       1.059863     -0.099884     -0.357317
  C      -0.851136     -1.329850      0.574623
  C       0.068369      0.909544      0.205158
  C      -1.033003      0.089194      0.858835
  O      -0.563596     -0.823315      1.839080
  H       0.284774     -1.160644     -0.141173
  H       2.904443     -1.152445      0.023729
  H       2.955050      0.566493      0.418357
  H       2.083341     -0.547878      1.471964
  H       1.201270     -0.050816     -1.433547
  H      -1.606005     -2.101356      0.477159
  H      -0.373832      1.525406     -0.578310
  H       0.532394      1.572692      0.939105
  H      -1.991408      0.544893      1.075312
15
Coordinates from ORCA-job freq E -271.004088203076
  C       2.358774     -0.318567      0.415701
  C       1.083494     -0.076941     -0.350494
  C      -0.908358     -1.341749      0.582940
  C       0.069534      0.912357      0.216373
  C      -1.079724      0.093789      0.801597
  O      -0.598706     -0.787937      1.823077
  H       0.259769     -1.224316     -0.142709
  H       2.947071     -1.129166     -0.014271
  H       2.987560      0.578386      0.422480
  H       2.138484     -0.564330      1.456556
  H       1.195361     -0.048622     -1.432082
  H      -1.622323     -2.160633      0.561680
  H      -0.319248      1.577447     -0.555158
  H       0.511404      1.548342      0.987792
  H      -2.030603      0.557469      1.030195
15
Coordinates from ORCA-job freq E -271.005286391784
  C       2.342286     -0.318212      0.418333
  C       1.064859     -0.103196     -0.348317
  C      -0.883943     -1.332578      0.582483
  C       0.071207      0.903268      0.217495
  C      -1.061439      0.092630      0.834712
  O      -0.604244     -0.813090      1.841938
  H       0.303213     -1.173920     -0.134904
  H       2.923378     -1.143913      0.009042
  H       2.973014      0.576408      0.392047
  H       2.124647     -0.532693      1.465876
  H       1.184925     -0.062005     -1.427723
  H      -1.619708     -2.124232      0.495826
  H      -0.334323      1.550917     -0.560993
  H       0.528234      1.545822      0.973424
  H      -2.019616      0.550324      1.044438
15
Coordinates from ORCA-job freq E -271.005345852201
  C       2.329812     -0.323511      0.429316
  C       1.066259     -0.096983     -0.356910
  C      -0.875267     -1.331374      0.579099
  C       0.067665      0.907240      0.202941
  C      -1.043847      0.092358      0.846228
  O      -0.564251     -0.820798      1.834876
  H       0.285096     -1.175623     -0.156999
  H       2.918215     -1.143266      0.018637
  H       2.960196      0.571711      0.426425
  H       2.093280     -0.553315      1.469468
  H       1.203976     -0.047130     -1.433851
  H      -1.619299     -2.116112      0.500666
  H      -0.357827      1.535390     -0.580401
  H       0.525215      1.567198      0.944019
  H      -1.996735      0.549744      1.080162
15
Coordinates from ORCA-job freq E -271.005420653255
  C       2.318371     -0.328562      0.438087
  C       1.066312     -0.094401     -0.363427
  C      -0.869622     -1.328638      0.577696
  C       0.065272      0.909311      0.191872
  C      -1.030254      0.092803      0.858623
  O      -0.535316     -0.830040      1.831747
  H       0.279757     -1.168900     -0.177004
  H       2.912244     -1.144566      0.027690
  H       2.948609      0.566602      0.451738
  H       2.067739     -0.568102      1.472578
  H       1.219906     -0.034750     -1.437671
  H      -1.618638     -2.108462      0.499463
  H      -0.376849      1.517989     -0.597509
  H       0.523756      1.587269      0.916266
  H      -1.978800      0.547977      1.113528
15
Coordinates from ORCA-job freq E -271.005447060010
  C       2.313097     -0.331355      0.442746
  C       1.068728     -0.090028     -0.368052
  C      -0.869276     -1.328386      0.578700
  C       0.065163      0.910961      0.185751
  C      -1.023346      0.093254      0.862620
  O      -0.520635     -0.832558      1.829025
  H       0.270055     -1.171159     -0.189842
  H       2.911600     -1.142149      0.028762
  H       2.941815      0.564596      0.470864
  H       2.053853     -0.581630      1.472377
  H       1.232354     -0.023555     -1.440297
  H      -1.618496     -2.108370      0.507223
  H      -0.386156      1.508644     -0.606999
  H       0.522427      1.599002      0.901281
  H      -1.968695      0.548263      1.129517
15
Coordinates from ORCA-job freq E -271.005445080654
  C       2.312619     -0.331969      0.442900
  C       1.069165     -0.089127     -0.368776
  C      -0.868801     -1.328107      0.579743
  C       0.065610      0.911289      0.185403
  C      -1.022824      0.093822      0.862088
  O      -0.520546     -0.831109      1.829342
  H       0.266975     -1.172681     -0.190285
  H       2.912384     -1.140671      0.026631
  H       2.940279      0.564664      0.474455
  H       2.052594     -0.585686      1.471464
  H       1.233948     -0.021810     -1.440749
  H      -1.616480     -2.109617      0.509824
  H      -0.386609      1.508086     -0.607623
  H       0.522572      1.599830      0.900555
  H      -1.968398      0.548616      1.128703
15
Coordinates from ORCA-job freq E -271.005449108422
  C       2.312353     -0.332424      0.442876
  C       1.068854     -0.089577     -0.368908
  C      -0.868394     -1.327470      0.580286
  C       0.065619      0.911253      0.185388
  C      -1.022808      0.094309      0.862596
  O      -0.521206     -0.830938      1.830182
  H       0.267727     -1.171711     -0.190031
  H       2.912612     -1.140420      0.025943
  H       2.939520      0.564533      0.475184
  H       2.052423     -0.587018      1.471250
  H       1.234127     -0.021760     -1.440786
  H      -1.615356     -2.109577      0.508952
  H      -0.387116      1.507260     -0.607960
  H       0.522794      1.600414      0.899791
  H      -1.968659      0.548656      1.128913
15
Coordinates from ORCA-job freq E -271.005438248178
  C       2.312530     -0.332498      0.442630
  C       1.068765     -0.089787     -0.368883
  C      -0.868501     -1.327287      0.580747
  C       0.065737      0.911214      0.185585
  C      -1.023183      0.094566      0.862374
  O      -0.522217     -0.830463      1.830645
  H       0.267934     -1.171841     -0.189379
  H       2.913052     -1.140004      0.025153
  H       2.939304      0.564714      0.475278
  H       2.052924     -0.587667      1.470949
  H       1.233933     -0.021883     -1.440759
  H      -1.614806     -2.109963      0.508833
  H      -0.386770      1.507427     -0.607753
  H       0.523004      1.600168      0.900109
  H      -1.969217      0.548834      1.128146
15
Coordinates from ORCA-job freq E -271.005432268104
  C       2.312731     -0.332480      0.442387
  C       1.068705     -0.089962     -0.368834
  C      -0.868625     -1.327206      0.581160
  C       0.065863      0.911168      0.185763
  C      -1.023503      0.094736      0.862086
  O      -0.523101     -0.830005      1.831011
  H       0.267972     -1.172151     -0.188716
  H       2.913489     -1.139567      0.024435
  H       2.939136      0.564984      0.475298
  H       2.053428     -0.588153      1.470665
  H       1.233680     -0.022068     -1.440735
  H      -1.614460     -2.110282      0.508797
  H      -0.386329      1.507751     -0.607493
  H       0.523197      1.599764      0.900572
  H      -1.969694      0.549001      1.127281
15
Coordinates from ORCA-job freq E -271.005445688106
  C       2.312676     -0.332557      0.442349
  C       1.068662     -0.090026     -0.368931
  C      -0.868625     -1.327083      0.581453
  C       0.065915      0.911177      0.185707
  C      -1.023510      0.094889      0.862041
  O      -0.523236     -0.829784      1.831204
  H       0.267821     -1.172328     -0.188541
  H       2.913719     -1.139261      0.024064
  H       2.938794      0.565091      0.475768
  H       2.053347     -0.588772      1.470493
  H       1.233759     -0.021993     -1.440802
  H      -1.614112     -2.110449      0.508778
  H      -0.386300      1.507738     -0.607554
  H       0.523312      1.599774      0.900468
  H      -1.969735      0.549113      1.127181
15
Coordinates from ORCA-job freq E -271.005444067811
  C       2.312673     -0.332589      0.442276
  C       1.068601     -0.090150     -0.368974
  C      -0.868647     -1.326985      0.581690
  C       0.065955      0.911164      0.185703
  C      -1.023575      0.095001      0.862011
  O      -0.523476     -0.829628      1.831405
  H       0.267878     -1.172396     -0.188297
  H       2.913915     -1.139035      0.023795
  H       2.938564      0.565202      0.475964
  H       2.053384     -0.589122      1.470350
  H       1.233719     -0.022072     -1.440840
  H      -1.613881     -2.110549      0.508614
  H      -0.386214      1.507802     -0.607533
  H       0.523431      1.599694      0.900475
  H      -1.969837      0.549190      1.127035
15
Coordinates from ORCA-job freq E -271.005442053381
  C       2.312768     -0.332561      0.442156
  C       1.068558     -0.090265     -0.368956
  C      -0.868724     -1.326943      0.581897
  C       0.066004      0.911125      0.185775
  C      -1.023716      0.095074      0.861901
  O      -0.523871     -0.829451      1.831591
  H       0.267940     -1.172526     -0.187958
  H       2.914124     -1.138837      0.023517
  H       2.938488      0.565345      0.475928
  H       2.053611     -0.589269      1.470222
  H       1.233569     -0.022212     -1.440837
  H      -1.613752     -2.110665      0.508477
  H      -0.386002      1.507970     -0.607400
  H       0.523535      1.599463      0.900689
  H      -1.970042      0.549278      1.126676
15
Coordinates from ORCA-job freq E -271.005452086633
  C       2.312771     -0.332575      0.442107
  C       1.068524     -0.090311     -0.368979
  C      -0.868737     -1.326893      0.582054
  C       0.066029      0.911125      0.185774
  C      -1.023769      0.095146      0.861824
  O      -0.524006     -0.829301      1.831697
  H       0.267908     -1.172625     -0.187793
  H       2.914239     -1.138700      0.023335
  H       2.938363      0.565415      0.476052
  H       2.053650     -0.589494      1.470135
  H       1.233507     -0.022248     -1.440859
  H      -1.613565     -2.110779      0.508425
  H      -0.385903      1.508065     -0.607371
  H       0.523599      1.599370      0.900749
  H      -1.970121      0.549336      1.126527
15
Coordinates from ORCA-job freq E -271.005441213735
  C       2.312821     -0.332560      0.442039
  C       1.068494     -0.090381     -0.368972
  C      -0.868781     -1.326861      0.582186
  C       0.066055      0.911108      0.185807
  C      -1.023854      0.095196      0.861758
  O      -0.524231     -0.829191      1.831811
  H       0.267941     -1.172702     -0.187585
  H       2.914360     -1.138579      0.023174
  H       2.938315      0.565500      0.476039
  H       2.053787     -0.589600      1.470066
  H       1.233407     -0.022348     -1.440867
  H      -1.613467     -2.110858      0.508315
  H      -0.385775      1.508173     -0.607298
  H       0.523657      1.599242      0.900870
  H      -1.970239      0.549390      1.126332
15
Coordinates from ORCA-job freq E -271.005454845392
  C       2.312817     -0.332568      0.442010
  C       1.068480     -0.090416     -0.368993
  C      -0.868792     -1.326830      0.582300
  C       0.066078      0.911107      0.185800
  C      -1.023872      0.095240      0.861737
  O      -0.524321     -0.829117      1.831893
  H       0.267928     -1.172760     -0.187484
  H       2.914432     -1.138484      0.023055
  H       2.938219      0.565547      0.476130
  H       2.053796     -0.589750      1.470006
  H       1.233390     -0.022371     -1.440885
  H      -1.613362     -2.110918      0.508254
  H      -0.385728      1.508211     -0.607294
  H       0.523704      1.599208      0.900885
  H      -1.970280      0.549429      1.126261
15
Coordinates from ORCA-job freq E -271.005446568849
  C       2.312806     -0.332583      0.441999
  C       1.068467     -0.090446     -0.369016
  C      -0.868807     -1.326796      0.582383
  C       0.066086      0.911106      0.185783
  C      -1.023880      0.095276      0.861734
  O      -0.524352     -0.829077      1.831949
  H       0.267920     -1.172782     -0.187434
  H       2.914484     -1.138426      0.022995
  H       2.938142      0.565573      0.476212
  H       2.053785     -0.589860      1.469972
  H       1.233393     -0.022374     -1.440905
  H      -1.613281     -2.110959      0.508191
  H      -0.385716      1.508223     -0.607306
  H       0.523733      1.599200      0.900858
  H      -1.970289      0.549455      1.126262
15
Coordinates from ORCA-job freq E -271.005451336670
  C       2.312808     -0.332577      0.441979
  C       1.068456     -0.090473     -0.369030
  C      -0.868826     -1.326779      0.582446
  C       0.066101      0.911097      0.185781
  C      -1.023892      0.095301      0.861717
  O      -0.524410     -0.829041      1.831992
  H       0.267905     -1.172833     -0.187361
  H       2.914532     -1.138366      0.022941
  H       2.938087      0.565615      0.476248
  H       2.053794     -0.589918      1.469937
  H       1.233373     -0.022401     -1.440920
  H      -1.613230     -2.110992      0.508136
  H      -0.385682      1.508254     -0.607290
  H       0.523770      1.599155      0.900879
  H      -1.970298      0.549488      1.126223
15
Coordinates from ORCA-job freq E -271.005445215911
  C       2.312848     -0.332553      0.441935
  C       1.068443     -0.090515     -0.369016
  C      -0.868857     -1.326773      0.582501
  C       0.066121      0.911077      0.185815
  C      -1.023941      0.095315      0.861680
  O      -0.524554     -0.829001      1.832049
  H       0.267927     -1.172877     -0.187237
  H       2.914587     -1.138326      0.022883
  H       2.938090      0.565667      0.476172
  H       2.053888     -0.589890      1.469909
  H       1.233299     -0.022468     -1.440919
  H      -1.613204     -2.111022      0.508058
  H      -0.385600      1.508323     -0.607226
  H       0.523806      1.599054      0.900979
  H      -1.970364      0.549517      1.126094
