15
* (null), Energy   -1000.0000000
C     2.654052   -0.209942    0.398813   -0.061655    0.024268   -0.012363
C    -1.518317    2.656431   -0.584368    0.201970   -0.138739    0.060632
C     1.329877   -0.304307   -0.280765    0.016078    0.051899   -0.106712
C    -0.716290    1.502438   -1.060750    0.736236   -0.345652    0.625491
C     0.251022    0.420307    0.102694   -0.306102    0.983805   -0.573264
O    -0.994888    0.264255   -0.504617   -0.426070   -0.360018   -0.004270
H     2.605798    0.449339    1.265282   -0.063106   -0.002021    0.009706
H     3.422994    0.177421   -0.274373    0.030527    0.024614    0.065728
H     2.996545   -1.189550    0.738838   -0.068261   -0.001238   -0.036988
H    -2.562255    2.561311   -0.904638    0.383775   -0.503196   -0.346649
H    -1.125441    3.593189   -0.975493    0.178036   -0.156270   -0.002389
H    -1.520841    2.701775    0.506122   -0.173013    0.100406    0.034618
H     1.225280   -0.950704   -1.143984   -0.016942   -0.020960   -0.030830
H    -0.289803    1.471995   -2.055821   -0.000384   -0.346567    0.262063
H     0.245144    0.999631    1.020995   -0.496907   -0.238998    0.186587
15
* Frequency(6) -690.3379
C     2.647045   -0.207184    0.397408   -0.061655    0.024268   -0.012363
C    -1.495364    2.640664   -0.577477    0.201970   -0.138739    0.060632
C     1.331704   -0.298409   -0.292892    0.016078    0.051899   -0.106712
C    -0.632621    1.463156   -0.989666    0.736236   -0.345652    0.625491
C     0.216236    0.532112    0.037545   -0.306102    0.983805   -0.573264
O    -1.043308    0.223341   -0.505103   -0.426070   -0.360018   -0.004270
H     2.598626    0.449110    1.266385   -0.063106   -0.002021    0.009706
H     3.426463    0.180218   -0.266904    0.030527    0.024614    0.065728
H     2.988787   -1.189690    0.734634   -0.068261   -0.001238   -0.036988
H    -2.518641    2.504126   -0.944033    0.383775   -0.503196   -0.346649
H    -1.105208    3.575430   -0.975764    0.178036   -0.156270   -0.002389
H    -1.540503    2.713186    0.510056   -0.173013    0.100406    0.034618
H     1.223355   -0.953086   -1.147488   -0.016942   -0.020960   -0.030830
H    -0.289847    1.432609   -2.026039   -0.000384   -0.346567    0.262063
H     0.188673    0.972470    1.042199   -0.496907   -0.238998    0.186587
15
* Frequency(6) -690.3379
C     2.640798   -0.204725    0.396155   -0.061655    0.024268   -0.012363
C    -1.474898    2.626605   -0.571333    0.201970   -0.138739    0.060632
C     1.333334   -0.293150   -0.303706    0.016078    0.051899   -0.106712
C    -0.558018    1.428131   -0.926285    0.736236   -0.345652    0.625491
C     0.185218    0.631800   -0.020543   -0.306102    0.983805   -0.573264
O    -1.086482    0.186860   -0.505535   -0.426070   -0.360018   -0.004270
H     2.592232    0.448905    1.267369   -0.063106   -0.002021    0.009706
H     3.429557    0.182712   -0.260243    0.030527    0.024614    0.065728
H     2.981870   -1.189816    0.730886   -0.068261   -0.001238   -0.036988
H    -2.479754    2.453137   -0.979159    0.383775   -0.503196   -0.346649
H    -1.087167    3.559595   -0.976006    0.178036   -0.156270   -0.002389
H    -1.558035    2.723360    0.513563   -0.173013    0.100406    0.034618
H     1.221638   -0.955210   -1.150612   -0.016942   -0.020960   -0.030830
H    -0.289886    1.397492   -1.999484   -0.000384   -0.346567    0.262063
H     0.138322    0.948252    1.061106   -0.496907   -0.238998    0.186587
15
* Frequency(6) -690.3379
C     2.635986   -0.202831    0.395191   -0.061655    0.024268   -0.012363
C    -1.459138    2.615779   -0.566602    0.201970   -0.138739    0.060632
C     1.334588   -0.289100   -0.312033    0.016078    0.051899   -0.106712
C    -0.500567    1.401159   -0.877475    0.736236   -0.345652    0.625491
C     0.161332    0.708570   -0.065277   -0.306102    0.983805   -0.573264
O    -1.119730    0.158767   -0.505868   -0.426070   -0.360018   -0.004270
H     2.587307    0.448747    1.268126   -0.063106   -0.002021    0.009706
H     3.431939    0.184633   -0.255114    0.030527    0.024614    0.065728
H     2.976544   -1.189912    0.728000   -0.068261   -0.001238   -0.036988
H    -2.449806    2.413871   -1.006209    0.383775   -0.503196   -0.346649
H    -1.073275    3.547401   -0.976192    0.178036   -0.156270   -0.002389
H    -1.571536    2.731195    0.516265   -0.173013    0.100406    0.034618
H     1.220316   -0.956845   -1.153018   -0.016942   -0.020960   -0.030830
H    -0.289915    1.370448   -1.979034   -0.000384   -0.346567    0.262063
H     0.099546    0.929603    1.075666   -0.496907   -0.238998    0.186587
15
* Frequency(6) -690.3379
C     2.633133   -0.201708    0.394619   -0.061655    0.024268   -0.012363
C    -1.449790    2.609358   -0.563796    0.201970   -0.138739    0.060632
C     1.335332   -0.286699   -0.316972    0.016078    0.051899   -0.106712
C    -0.466493    1.385161   -0.848527    0.736236   -0.345652    0.625491
C     0.147165    0.754103   -0.091809   -0.306102    0.983805   -0.573264
O    -1.139449    0.142104   -0.506066   -0.426070   -0.360018   -0.004270
H     2.584386    0.448654    1.268575   -0.063106   -0.002021    0.009706
H     3.433352    0.185772   -0.252072    0.030527    0.024614    0.065728
H     2.973384   -1.189970    0.726288   -0.068261   -0.001238   -0.036988
H    -2.432044    2.390582   -1.022253    0.383775   -0.503196   -0.346649
H    -1.065035    3.540168   -0.976303    0.178036   -0.156270   -0.002389
H    -1.579543    2.735842    0.517867   -0.173013    0.100406    0.034618
H     1.219532   -0.957816   -1.154445   -0.016942   -0.020960   -0.030830
H    -0.289933    1.354408   -1.966905   -0.000384   -0.346567    0.262063
H     0.076548    0.918541    1.084302   -0.496907   -0.238998    0.186587
15
* Frequency(6) -690.3379
C     2.632546   -0.201477    0.394501   -0.061655    0.024268   -0.012363
C    -1.447869    2.608038   -0.563219    0.201970   -0.138739    0.060632
C     1.335485   -0.286205   -0.317987    0.016078    0.051899   -0.106712
C    -0.459488    1.381873   -0.842575    0.736236   -0.345652    0.625491
C     0.144253    0.763463   -0.097263   -0.306102    0.983805   -0.573264
O    -1.143503    0.138679   -0.506107   -0.426070   -0.360018   -0.004270
H     2.583786    0.448635    1.268668   -0.063106   -0.002021    0.009706
H     3.433642    0.186006   -0.251447    0.030527    0.024614    0.065728
H     2.972735   -1.189981    0.725936   -0.068261   -0.001238   -0.036988
H    -2.428393    2.385794   -1.025551    0.383775   -0.503196   -0.346649
H    -1.063341    3.538682   -0.976326    0.178036   -0.156270   -0.002389
H    -1.581189    2.736797    0.518196   -0.173013    0.100406    0.034618
H     1.219371   -0.958015   -1.154738   -0.016942   -0.020960   -0.030830
H    -0.289937    1.351110   -1.964412   -0.000384   -0.346567    0.262063
H     0.071820    0.916267    1.086077   -0.496907   -0.238998    0.186587
15
* Frequency(6) -690.3379
C     2.634290   -0.202163    0.394851   -0.061655    0.024268   -0.012363
C    -1.453581    2.611962   -0.564934    0.201970   -0.138739    0.060632
C     1.335031   -0.287673   -0.314969    0.016078    0.051899   -0.106712
C    -0.480311    1.391649   -0.860267    0.736236   -0.345652    0.625491
C     0.152910    0.735637   -0.081049   -0.306102    0.983805   -0.573264
O    -1.131452    0.148862   -0.505986   -0.426070   -0.360018   -0.004270
H     2.585571    0.448692    1.268393   -0.063106   -0.002021    0.009706
H     3.432779    0.185310   -0.253306    0.030527    0.024614    0.065728
H     2.974666   -1.189946    0.726982   -0.068261   -0.001238   -0.036988
H    -2.439248    2.400026   -1.015746    0.383775   -0.503196   -0.346649
H    -1.068376    3.543101   -0.976258    0.178036   -0.156270   -0.002389
H    -1.576296    2.733957    0.517217   -0.173013    0.100406    0.034618
H     1.219850   -0.957422   -1.153866   -0.016942   -0.020960   -0.030830
H    -0.289926    1.360913   -1.971824   -0.000384   -0.346567    0.262063
H     0.085875    0.923027    1.080800   -0.496907   -0.238998    0.186587
15
* Frequency(6) -690.3379
C     2.638175   -0.203693    0.395630   -0.061655    0.024268   -0.012363
C    -1.466309    2.620705   -0.568755    0.201970   -0.138739    0.060632
C     1.334017   -0.290943   -0.308244    0.016078    0.051899   -0.106712
C    -0.526707    1.413431   -0.899683    0.736236   -0.345652    0.625491
C     0.172200    0.673641   -0.044924   -0.306102    0.983805   -0.573264
O    -1.104602    0.171549   -0.505717   -0.426070   -0.360018   -0.004270
H     2.589548    0.448819    1.267781   -0.063106   -0.002021    0.009706
H     3.430855    0.183759   -0.257448    0.030527    0.024614    0.065728
H     2.978967   -1.189868    0.729313   -0.068261   -0.001238   -0.036988
H    -2.463432    2.431736   -0.993901    0.383775   -0.503196   -0.346649
H    -1.079596    3.552949   -0.976108    0.178036   -0.156270   -0.002389
H    -1.565393    2.727630    0.515036   -0.173013    0.100406    0.034618
H     1.220917   -0.956101   -1.151923   -0.016942   -0.020960   -0.030830
H    -0.289902    1.382752   -1.988339   -0.000384   -0.346567    0.262063
H     0.117189    0.938088    1.069042   -0.496907   -0.238998    0.186587
15
* Frequency(6) -690.3379
C     2.643781   -0.205899    0.396754   -0.061655    0.024268   -0.012363
C    -1.484672    2.633319   -0.574267    0.201970   -0.138739    0.060632
C     1.332556   -0.295662   -0.298541    0.016078    0.051899   -0.106712
C    -0.593647    1.444858   -0.956554    0.736236   -0.345652    0.625491
C     0.200031    0.584191    0.007199   -0.306102    0.983805   -0.573264
O    -1.065863    0.204282   -0.505329   -0.426070   -0.360018   -0.004270
H     2.595285    0.449003    1.266899   -0.063106   -0.002021    0.009706
H     3.428079    0.181521   -0.263424    0.030527    0.024614    0.065728
H     2.985174   -1.189756    0.732676   -0.068261   -0.001238   -0.036988
H    -2.498325    2.477488   -0.962383    0.383775   -0.503196   -0.346649
H    -1.095783    3.567157   -0.975890    0.178036   -0.156270   -0.002389
H    -1.549662    2.718501    0.511888   -0.173013    0.100406    0.034618
H     1.222458   -0.954196   -1.149120   -0.016942   -0.020960   -0.030830
H    -0.289867    1.414263   -2.012166   -0.000384   -0.346567    0.262063
H     0.162368    0.959818    1.052077   -0.496907   -0.238998    0.186587
15
* Frequency(6) -690.3379
C     2.650500   -0.208544    0.398101   -0.061655    0.024268   -0.012363
C    -1.506681    2.648438   -0.580875    0.201970   -0.138739    0.060632
C     1.330803   -0.301317   -0.286913    0.016078    0.051899   -0.106712
C    -0.673877    1.482525   -1.024716    0.736236   -0.345652    0.625491
C     0.233388    0.476983    0.069669   -0.306102    0.983805   -0.573264
O    -1.019433    0.243515   -0.504863   -0.426070   -0.360018   -0.004270
H     2.602162    0.449223    1.265841   -0.063106   -0.002021    0.009706
H     3.424753    0.178839   -0.270587    0.030527    0.024614    0.065728
H     2.992612   -1.189621    0.736707   -0.068261   -0.001238   -0.036988
H    -2.540147    2.532323   -0.924608    0.383775   -0.503196   -0.346649
H    -1.115184    3.584187   -0.975630    0.178036   -0.156270   -0.002389
H    -1.530808    2.707559    0.508116   -0.173013    0.100406    0.034618
H     1.224304   -0.951912   -1.145760   -0.016942   -0.020960   -0.030830
H    -0.289825    1.452030   -2.040724   -0.000384   -0.346567    0.262063
H     0.216518    0.985863    1.031744   -0.496907   -0.238998    0.186587
15
* Frequency(6) -690.3379
C     2.657604   -0.211340    0.399525   -0.061655    0.024268   -0.012363
C    -1.529952    2.664423   -0.587860    0.201970   -0.138739    0.060632
C     1.328951   -0.307297   -0.274618    0.016078    0.051899   -0.106712
C    -0.758703    1.522350   -1.096783    0.736236   -0.345652    0.625491
C     0.268656    0.363632    0.135719   -0.306102    0.983805   -0.573264
O    -0.970343    0.284995   -0.504371   -0.426070   -0.360018   -0.004270
H     2.609433    0.449456    1.264723   -0.063106   -0.002021    0.009706
H     3.421235    0.176003   -0.278160    0.030527    0.024614    0.065728
H     3.000477   -1.189478    0.740968   -0.068261   -0.001238   -0.036988
H    -2.584364    2.590299   -0.884668    0.383775   -0.503196   -0.346649
H    -1.135697    3.602191   -0.975355    0.178036   -0.156270   -0.002389
H    -1.510874    2.695991    0.504127   -0.173013    0.100406    0.034618
H     1.226256   -0.949497   -1.142208   -0.016942   -0.020960   -0.030830
H    -0.289781    1.491960   -2.070918   -0.000384   -0.346567    0.262063
H     0.273770    1.013399    1.010246   -0.496907   -0.238998    0.186587
15
* Frequency(6) -690.3379
C     2.664323   -0.213985    0.400873   -0.061655    0.024268   -0.012363
C    -1.551961    2.679542   -0.594468    0.201970   -0.138739    0.060632
C     1.327199   -0.312953   -0.262989    0.016078    0.051899   -0.106712
C    -0.838934    1.560017   -1.164945    0.736236   -0.345652    0.625491
C     0.302013    0.256424    0.198189   -0.306102    0.983805   -0.573264
O    -0.923912    0.324227   -0.503906   -0.426070   -0.360018   -0.004270
H     2.616310    0.449676    1.263665   -0.063106   -0.002021    0.009706
H     3.417909    0.173321   -0.285322    0.030527    0.024614    0.065728
H     3.007916   -1.189343    0.744999   -0.068261   -0.001238   -0.036988
H    -2.626185    2.645134   -0.846893    0.383775   -0.503196   -0.346649
H    -1.155098    3.619221   -0.975095    0.178036   -0.156270   -0.002389
H    -1.492020    2.685049    0.500355   -0.173013    0.100406    0.034618
H     1.228102   -0.947213   -1.138849   -0.016942   -0.020960   -0.030830
H    -0.289739    1.529726   -2.099475   -0.000384   -0.346567    0.262063
H     0.327919    1.039444    0.989913   -0.496907   -0.238998    0.186587
15
* Frequency(6) -690.3379
C     2.669928   -0.216191    0.401997   -0.061655    0.024268   -0.012363
C    -1.570324    2.692156   -0.599980    0.201970   -0.138739    0.060632
C     1.325737   -0.317671   -0.253286    0.016078    0.051899   -0.106712
C    -0.905874    1.591445   -1.221816    0.736236   -0.345652    0.625491
C     0.329845    0.166974    0.250312   -0.306102    0.983805   -0.573264
O    -0.885173    0.356961   -0.503518   -0.426070   -0.360018   -0.004270
H     2.622048    0.449860    1.262783   -0.063106   -0.002021    0.009706
H     3.415133    0.171083   -0.291298    0.030527    0.024614    0.065728
H     3.014122   -1.189231    0.748362   -0.068261   -0.001238   -0.036988
H    -2.661079    2.690886   -0.815375    0.383775   -0.503196   -0.346649
H    -1.171286    3.633429   -0.974877    0.178036   -0.156270   -0.002389
H    -1.476290    2.675920    0.497207   -0.173013    0.100406    0.034618
H     1.229643   -0.945307   -1.136046   -0.016942   -0.020960   -0.030830
H    -0.289704    1.561237   -2.123303   -0.000384   -0.346567    0.262063
H     0.373099    1.061174    0.972948   -0.496907   -0.238998    0.186587
15
* Frequency(6) -690.3379
C     2.673814   -0.217720    0.402776   -0.061655    0.024268   -0.012363
C    -1.583052    2.700899   -0.603801    0.201970   -0.138739    0.060632
C     1.324724   -0.320942   -0.246562    0.016078    0.051899   -0.106712
C    -0.952269    1.613227   -1.261232    0.736236   -0.345652    0.625491
C     0.349134    0.104978    0.286437   -0.306102    0.983805   -0.573264
O    -0.858324    0.379648   -0.503249   -0.426070   -0.360018   -0.004270
H     2.626024    0.449987    1.262171   -0.063106   -0.002021    0.009706
H     3.413209    0.169532   -0.295440    0.030527    0.024614    0.065728
H     3.018424   -1.189153    0.750693   -0.068261   -0.001238   -0.036988
H    -2.685263    2.722596   -0.793530    0.383775   -0.503196   -0.346649
H    -1.182505    3.643277   -0.974727    0.178036   -0.156270   -0.002389
H    -1.465387    2.669593    0.495026   -0.173013    0.100406    0.034618
H     1.230710   -0.943986   -1.134103   -0.016942   -0.020960   -0.030830
H    -0.289680    1.583077   -2.139817   -0.000384   -0.346567    0.262063
H     0.404413    1.076235    0.961190   -0.496907   -0.238998    0.186587
15
* Frequency(6) -690.3379
C     2.675558   -0.218407    0.403126   -0.061655    0.024268   -0.012363
C    -1.588765    2.704823   -0.605516    0.201970   -0.138739    0.060632
C     1.324269   -0.322410   -0.243543    0.016078    0.051899   -0.106712
C    -0.973093    1.623003   -1.278924    0.736236   -0.345652    0.625491
C     0.357792    0.077152    0.302651   -0.306102    0.983805   -0.573264
O    -0.846273    0.389831   -0.503128   -0.426070   -0.360018   -0.004270
H     2.627809    0.450044    1.261897   -0.063106   -0.002021    0.009706
H     3.412346    0.168835   -0.297299    0.030527    0.024614    0.065728
H     3.020354   -1.189118    0.751739   -0.068261   -0.001238   -0.036988
H    -2.696118    2.736828   -0.783725    0.383775   -0.503196   -0.346649
H    -1.187541    3.647697   -0.974659    0.178036   -0.156270   -0.002389
H    -1.460493    2.666753    0.494047   -0.173013    0.100406    0.034618
H     1.231190   -0.943393   -1.133231   -0.016942   -0.020960   -0.030830
H    -0.289669    1.592879   -2.147229   -0.000384   -0.346567    0.262063
H     0.418467    1.082995    0.955912   -0.496907   -0.238998    0.186587
15
* Frequency(6) -690.3379
C     2.674971   -0.218176    0.403008   -0.061655    0.024268   -0.012363
C    -1.586843    2.703503   -0.604939    0.201970   -0.138739    0.060632
C     1.324422   -0.321916   -0.244559    0.016078    0.051899   -0.106712
C    -0.966088    1.619714   -1.272973    0.736236   -0.345652    0.625491
C     0.354880    0.086512    0.297197   -0.306102    0.983805   -0.573264
O    -0.850326    0.386405   -0.503169   -0.426070   -0.360018   -0.004270
H     2.627209    0.450025    1.261989   -0.063106   -0.002021    0.009706
H     3.412636    0.169070   -0.296674    0.030527    0.024614    0.065728
H     3.019705   -1.189129    0.751387   -0.068261   -0.001238   -0.036988
H    -2.692466    2.732041   -0.787023    0.383775   -0.503196   -0.346649
H    -1.185847    3.646210   -0.974682    0.178036   -0.156270   -0.002389
H    -1.462140    2.667708    0.494376   -0.173013    0.100406    0.034618
H     1.231028   -0.943593   -1.133524   -0.016942   -0.020960   -0.030830
H    -0.289673    1.589582   -2.144736   -0.000384   -0.346567    0.262063
H     0.413739    1.080721    0.957688   -0.496907   -0.238998    0.186587
15
* Frequency(6) -690.3379
C     2.672117   -0.217053    0.402436   -0.061655    0.024268   -0.012363
C    -1.577495    2.697082   -0.602133    0.201970   -0.138739    0.060632
C     1.325166   -0.319514   -0.249498    0.016078    0.051899   -0.106712
C    -0.932014    1.603717   -1.244024    0.736236   -0.345652    0.625491
C     0.340713    0.132044    0.270665   -0.306102    0.983805   -0.573264
O    -0.870046    0.369743   -0.503366   -0.426070   -0.360018   -0.004270
H     2.624288    0.449931    1.262438   -0.063106   -0.002021    0.009706
H     3.414049    0.170209   -0.293632    0.030527    0.024614    0.065728
H     3.016546   -1.189187    0.749675   -0.068261   -0.001238   -0.036988
H    -2.674705    2.708752   -0.803067    0.383775   -0.503196   -0.346649
H    -1.177607    3.638977   -0.974793    0.178036   -0.156270   -0.002389
H    -1.470147    2.672355    0.495978   -0.173013    0.100406    0.034618
H     1.230244   -0.944563   -1.134951   -0.016942   -0.020960   -0.030830
H    -0.289691    1.573542   -2.132607   -0.000384   -0.346567    0.262063
H     0.390742    1.069659    0.966323   -0.496907   -0.238998    0.186587
15
* Frequency(6) -690.3379
C     2.667306   -0.215159    0.401471   -0.061655    0.024268   -0.012363
C    -1.561735    2.686256   -0.597402    0.201970   -0.138739    0.060632
C     1.326421   -0.315464   -0.257825    0.016078    0.051899   -0.106712
C    -0.874562    1.576744   -1.195214    0.736236   -0.345652    0.625491
C     0.316827    0.208814    0.225931   -0.306102    0.983805   -0.573264
O    -0.903294    0.341649   -0.503699   -0.426070   -0.360018   -0.004270
H     2.619364    0.449774    1.263196   -0.063106   -0.002021    0.009706
H     3.416431    0.172129   -0.288503    0.030527    0.024614    0.065728
H     3.011219   -1.189283    0.746789   -0.068261   -0.001238   -0.036988
H    -2.644757    2.669485   -0.830117    0.383775   -0.503196   -0.346649
H    -1.163714    3.626783   -0.974979    0.178036   -0.156270   -0.002389
H    -1.483648    2.680190    0.498680   -0.173013    0.100406    0.034618
H     1.228922   -0.946198   -1.137357   -0.016942   -0.020960   -0.030830
H    -0.289721    1.546498   -2.112157   -0.000384   -0.346567    0.262063
H     0.351966    1.051009    0.980883   -0.496907   -0.238998    0.186587
15
* Frequency(6) -690.3379
C     2.661059   -0.212700    0.400218   -0.061655    0.024268   -0.012363
C    -1.541269    2.672198   -0.591258    0.201970   -0.138739    0.060632
C     1.328050   -0.310205   -0.268638    0.016078    0.051899   -0.106712
C    -0.799960    1.541719   -1.131833    0.736236   -0.345652    0.625491
C     0.285809    0.308503    0.167843   -0.306102    0.983805   -0.573264
O    -0.946467    0.305169   -0.504132   -0.426070   -0.360018   -0.004270
H     2.612969    0.449569    1.264179   -0.063106   -0.002021    0.009706
H     3.419525    0.174624   -0.281843    0.030527    0.024614    0.065728
H     3.004302   -1.189409    0.743041   -0.068261   -0.001238   -0.036988
H    -2.605869    2.618497   -0.865243    0.383775   -0.503196   -0.346649
H    -1.145674    3.610948   -0.975221    0.178036   -0.156270   -0.002389
H    -1.501179    2.690364    0.502187   -0.173013    0.100406    0.034618
H     1.227206   -0.948322   -1.140481   -0.016942   -0.020960   -0.030830
H    -0.289759    1.511380   -2.085603   -0.000384   -0.346567    0.262063
H     0.301615    1.026792    0.999790   -0.496907   -0.238998    0.186587
15
* Frequency(6) -690.3379
C     2.654052   -0.209942    0.398813   -0.061655    0.024268   -0.012363
C    -1.518317    2.656431   -0.584368    0.201970   -0.138739    0.060632
C     1.329877   -0.304307   -0.280765    0.016078    0.051899   -0.106712
C    -0.716290    1.502438   -1.060750    0.736236   -0.345652    0.625491
C     0.251022    0.420307    0.102694   -0.306102    0.983805   -0.573264
O    -0.994888    0.264255   -0.504617   -0.426070   -0.360018   -0.004270
H     2.605798    0.449339    1.265282   -0.063106   -0.002021    0.009706
H     3.422994    0.177421   -0.274373    0.030527    0.024614    0.065728
H     2.996545   -1.189550    0.738838   -0.068261   -0.001238   -0.036988
H    -2.562255    2.561311   -0.904638    0.383775   -0.503196   -0.346649
H    -1.125441    3.593189   -0.975493    0.178036   -0.156270   -0.002389
H    -1.520841    2.701775    0.506122   -0.173013    0.100406    0.034618
H     1.225280   -0.950704   -1.143984   -0.016942   -0.020960   -0.030830
H    -0.289803    1.471995   -2.055821   -0.000384   -0.346567    0.262063
H     0.245144    0.999631    1.020995   -0.496907   -0.238998    0.186587
