17
Coordinates from ORCA-job freq E -421.393417089342
  C      -2.428726      0.550556      0.090453
  C       0.801803      0.605291     -0.440045
  C       2.248423      0.059448     -0.534259
  C       0.006104     -0.260238      0.487246
  C      -1.427968     -0.387978      0.710153
  O       1.760357     -2.022025      0.277904
  O       2.221639     -1.310989     -0.825146
  O      -0.532333      0.155084      1.679910
  H       0.824555     -1.440263      0.542423
  H      -2.761209      0.148958     -0.864286
  H      -1.985175      1.530283     -0.068907
  H      -3.292626      0.659456      0.742538
  H       0.839599      1.636806     -0.081604
  H       0.351662      0.569096     -1.434399
  H       2.782941      0.248370      0.404641
  H       2.786857      0.514619     -1.366820
  H      -1.813000     -1.369852      0.973853
17
Coordinates from ORCA-job freq E -421.392951564323
  C      -2.405082      0.546644      0.082756
  C       0.799807      0.594844     -0.429347
  C       2.241335      0.067921     -0.544354
  C       0.008473     -0.295891      0.484428
  C      -1.427521     -0.408443      0.701608
  O       1.776818     -1.977747      0.310759
  O       2.197883     -1.310398     -0.831295
  O      -0.522652      0.134426      1.677924
  H       0.777729     -1.398395      0.551245
  H      -2.765842      0.144738     -0.863599
  H      -1.933766      1.510340     -0.100932
  H      -3.261250      0.696287      0.739229
  H       0.808922      1.615333     -0.042232
  H       0.345967      0.585053     -1.421236
  H       2.793320      0.236794      0.383749
  H       2.767136      0.528476     -1.379781
  H      -1.818375     -1.383362      0.974732
17
Coordinates from ORCA-job freq E -421.393117017649
  C      -2.409467      0.561814      0.099326
  C       0.795725      0.571466     -0.452642
  C       2.250910      0.085777     -0.516943
  C      -0.003156     -0.326749      0.447443
  C      -1.437662     -0.416978      0.684437
  O       1.800461     -1.973094      0.309757
  O       2.255681     -1.294378     -0.810548
  O      -0.506468      0.103738      1.653983
  H       0.760541     -1.419179      0.503476
  H      -2.868153      0.139909     -0.794942
  H      -1.909449      1.491177     -0.167782
  H      -3.201714      0.785753      0.813730
  H       0.759058      1.595095     -0.075800
  H       0.373720      0.543427     -1.457785
  H       2.768357      0.261105      0.428698
  H       2.792613      0.564337     -1.331174
  H      -1.838095     -1.386600      0.960421
17
Coordinates from ORCA-job freq E -421.393193178365
  C      -2.409223      0.574460      0.113026
  C       0.789898      0.556921     -0.473069
  C       2.252544      0.095054     -0.505797
  C      -0.008756     -0.343734      0.424776
  C      -1.441381     -0.421550      0.675166
  O       1.821763     -1.961162      0.326945
  O       2.277999     -1.287455     -0.794622
  O      -0.494947      0.084208      1.640611
  H       0.754258     -1.439271      0.483497
  H      -2.891607      0.165135     -0.774876
  H      -1.900228      1.497615     -0.159265
  H      -3.184838      0.806173      0.843116
  H       0.726205      1.584734     -0.111133
  H       0.386926      0.508377     -1.485026
  H       2.747971      0.276411      0.449753
  H       2.804637      0.579225     -1.309494
  H      -1.848319     -1.388522      0.950047
17
Coordinates from ORCA-job freq E -421.393143354501
  C      -2.411527      0.601132      0.148983
  C       0.777549      0.517387     -0.526875
  C       2.255830      0.112830     -0.471380
  C      -0.022471     -0.371611      0.377908
  C      -1.447770     -0.419695      0.673083
  O       1.829045     -1.964640      0.321597
  O       2.355885     -1.266942     -0.754544
  O      -0.459672      0.057156      1.611358
  H       0.748136     -1.463507      0.416222
  H      -2.912495      0.218798     -0.740664
  H      -1.894801      1.523640     -0.110148
  H      -3.172835      0.825820      0.896038
  H       0.661077      1.558175     -0.218184
  H       0.422944      0.404763     -1.551674
  H       2.685037      0.316827      0.511799
  H       2.835200      0.616595     -1.243217
  H      -1.866229     -1.380109      0.953352
17
Coordinates from ORCA-job freq E -421.393211795702
  C      -2.410243      0.584621      0.128027
  C       0.784921      0.542646     -0.495851
  C       2.254169      0.101355     -0.493841
  C      -0.013034     -0.354317      0.404746
  C      -1.442815     -0.420808      0.674161
  O       1.825472     -1.959760      0.330883
  O       2.305942     -1.281502     -0.777769
  O      -0.479773      0.074741      1.628126
  H       0.747469     -1.450475      0.458647
  H      -2.893192      0.190262     -0.766332
  H      -1.900242      1.511429     -0.129310
  H      -3.185372      0.805494      0.861945
  H       0.700840      1.575962     -0.153911
  H       0.400436      0.469228     -1.513439
  H       2.724160      0.292661      0.472633
  H       2.817941      0.590511     -1.286328
  H      -1.853778     -1.385429      0.951268
17
Coordinates from ORCA-job freq E -421.393210196212
  C      -2.409513      0.584198      0.126466
  C       0.784479      0.542900     -0.493464
  C       2.253357      0.099826     -0.497294
  C      -0.012829     -0.353151      0.408907
  C      -1.443016     -0.420404      0.675734
  O       1.826611     -1.959245      0.332927
  O       2.303923     -1.283428     -0.778567
  O      -0.481988      0.076704      1.631000
  H       0.749483     -1.449686      0.461604
  H      -2.882325      0.193182     -0.774777
  H      -1.900422      1.514290     -0.120638
  H      -3.192477      0.797992      0.854109
  H       0.704379      1.575726     -0.149074
  H       0.395794      0.472288     -1.509633
  H       2.727522      0.293220      0.466742
  H       2.814005      0.587234     -1.293085
  H      -1.854079     -1.385025      0.952699
17
Coordinates from ORCA-job freq E -421.393221566103
  C      -2.409531      0.584120      0.126389
  C       0.784544      0.543006     -0.493298
  C       2.253344      0.099677     -0.497536
  C      -0.012781     -0.353000      0.409113
  C      -1.442981     -0.420330      0.675851
  O       1.826579     -1.959173      0.333121
  O       2.303596     -1.283619     -0.778651
  O      -0.482051      0.076916      1.631142
  H       0.749477     -1.449518      0.461921
  H      -2.881442      0.193378     -0.775455
  H      -1.900689      1.514592     -0.119816
  H      -3.193197      0.797112      0.853505
  H       0.704712      1.575815     -0.148774
  H       0.395653      0.472600     -1.509405
  H       2.727902      0.293102      0.466298
  H       2.813769      0.586895     -1.293602
  H      -1.854003     -1.384954      0.952850
17
Coordinates from ORCA-job freq E -421.393207851069
  C      -2.409388      0.583779      0.125830
  C       0.784633      0.543457     -0.492441
  C       2.253205      0.099358     -0.498247
  C      -0.012598     -0.352603      0.410058
  C      -1.442904     -0.420301      0.676088
  O       1.826495     -1.959115      0.333272
  O       2.302509     -1.284006     -0.779193
  O      -0.482584      0.077395      1.631777
  H       0.749690     -1.449087      0.463000
  H      -2.879941      0.193112     -0.776759
  H      -1.900741      1.514622     -0.119399
  H      -3.194096      0.796069      0.852017
  H       0.705690      1.576081     -0.147192
  H       0.394795      0.473962     -1.508253
  H       2.728939      0.292684      0.465029
  H       2.812996      0.586197     -1.294991
  H      -1.853799     -1.384983      0.953058
