15
Coordinates from ORCA-job freq E -271.032698955327
  C           2.57890170452610      0.44951479513739      0.73485281687521
  C          -1.86170765199133      0.36480092955481      0.02626781177478
  C           1.23045010008716      0.55570428266426      0.79571778254736
  C           0.13687476470980     -0.94105478097640      0.87598403082295
  C          -1.29124524431776     -0.98505075059091      0.45421520932221
  O           0.49817553677996     -0.01454949892198      1.83956610752816
  H           3.11525990787536     -0.16786919991875      1.44044399899393
  H           3.12625065168092      0.95627001008290     -0.04434686395687
  H          -2.93417753822760      0.29013041910283     -0.14573554756092
  H          -1.69643739798029      1.11349899121093      0.80097026907064
  H          -1.39534229900032      0.71163632750485     -0.89566002402754
  H           0.67402012458301      1.24793249248588      0.17633178731218
  H           0.75182244728875     -1.83321316597902      0.85410510981502
  H          -1.87829114033421     -1.36429755337810      1.30224837694742
  H          -1.39457596567956     -1.71778629797867     -0.34694786546459
