17
* (null), Energy   -1000.0000000
C     2.326512   -0.202805    0.186937   -0.001518    0.000285   -0.003471
C     0.184813    0.058064   -1.156837   -0.010420   -0.116879   -0.000752
C     1.645856    0.392315   -1.041628    0.003815    0.023956    0.004252
C    -1.794171    1.177402    0.220108    0.000072    0.001497    0.003931
C    -0.657022    0.272814    0.080458   -0.001945    0.024405   -0.017270
O    -0.571654   -1.919962   -0.130994   -0.045438   -0.011575    0.093984
O    -0.517487    1.405894    0.847379   -0.003474   -0.002777    0.004708
O    -0.597898   -0.910630    0.835456    0.006938   -0.038235   -0.025088
H    -0.010049   -1.237183   -1.013979    0.735198    1.488998   -1.086087
H     1.886634    0.184087    1.105080    0.003877   -0.000012    0.004785
H     2.221116   -1.287817    0.200892   -0.001483   -0.004249   -0.004456
H     3.387524    0.041337    0.186954    0.000422   -0.002932    0.007284
H    -0.289960    0.347406   -2.090245    0.018858    0.166607    0.057360
H     1.729718    1.485863   -1.012280    0.045429   -0.002292    0.004474
H     2.151625    0.073667   -1.954717   -0.012310   -0.012608    0.007667
H    -2.584541    0.901678    0.905997   -0.003861    0.008474    0.003395
H    -2.043335    1.873485   -0.571294   -0.000832   -0.012124   -0.004066
17
* Frequency(6) -2089.9441
C     2.326339   -0.202773    0.186542   -0.001518    0.000285   -0.003471
C     0.183629    0.044782   -1.156922   -0.010420   -0.116879   -0.000752
C     1.646289    0.395038   -1.041145    0.003815    0.023956    0.004252
C    -1.794162    1.177572    0.220554    0.000072    0.001497    0.003931
C    -0.657243    0.275587    0.078495   -0.001945    0.024405   -0.017270
O    -0.576818   -1.921277   -0.120313   -0.045438   -0.011575    0.093984
O    -0.517881    1.405578    0.847914   -0.003474   -0.002777    0.004708
O    -0.597110   -0.914975    0.832605    0.006938   -0.038235   -0.025088
H     0.073502   -1.067966   -1.137407    0.735198    1.488998   -1.086087
H     1.887075    0.184086    1.105623    0.003877   -0.000012    0.004785
H     2.220947   -1.288300    0.200385   -0.001483   -0.004249   -0.004456
H     3.387572    0.041004    0.187781    0.000422   -0.002932    0.007284
H    -0.287817    0.366340   -2.083727    0.018858    0.166607    0.057360
H     1.734881    1.485602   -1.011772    0.045429   -0.002292    0.004474
H     2.150226    0.072234   -1.953845   -0.012310   -0.012608    0.007667
H    -2.584980    0.902641    0.906383   -0.003861    0.008474    0.003395
H    -2.043429    1.872107   -0.571756   -0.000832   -0.012124   -0.004066
17
* Frequency(6) -2089.9441
C     2.326185   -0.202744    0.186191   -0.001518    0.000285   -0.003471
C     0.182573    0.032938   -1.156999   -0.010420   -0.116879   -0.000752
C     1.646676    0.397465   -1.040714    0.003815    0.023956    0.004252
C    -1.794155    1.177724    0.220953    0.000072    0.001497    0.003931
C    -0.657440    0.278060    0.076745   -0.001945    0.024405   -0.017270
O    -0.581422   -1.922450   -0.110790   -0.045438   -0.011575    0.093984
O    -0.518233    1.405297    0.848391   -0.003474   -0.002777    0.004708
O    -0.596407   -0.918849    0.830063    0.006938   -0.038235   -0.025088
H     0.148000   -0.917086   -1.247460    0.735198    1.488998   -1.086087
H     1.887467    0.184084    1.106108    0.003877   -0.000012    0.004785
H     2.220797   -1.288730    0.199934   -0.001483   -0.004249   -0.004456
H     3.387614    0.040707    0.188520    0.000422   -0.002932    0.007284
H    -0.285906    0.383222   -2.077915    0.018858    0.166607    0.057360
H     1.739484    1.485370   -1.011319    0.045429   -0.002292    0.004474
H     2.148978    0.070956   -1.953069   -0.012310   -0.012608    0.007667
H    -2.585371    0.903500    0.906727   -0.003861    0.008474    0.003395
H    -2.043514    1.870879   -0.572168   -0.000832   -0.012124   -0.004066
17
* Frequency(6) -2089.9441
C     2.326067   -0.202722    0.185920   -0.001518    0.000285   -0.003471
C     0.181760    0.023818   -1.157057   -0.010420   -0.116879   -0.000752
C     1.646974    0.399334   -1.040382    0.003815    0.023956    0.004252
C    -1.794149    1.177841    0.221260    0.000072    0.001497    0.003931
C    -0.657592    0.279965    0.075398   -0.001945    0.024405   -0.017270
O    -0.584968   -1.923353   -0.103456   -0.045438   -0.011575    0.093984
O    -0.518504    1.405080    0.848758   -0.003474   -0.002777    0.004708
O    -0.595865   -0.921833    0.828105    0.006938   -0.038235   -0.025088
H     0.205370   -0.800894   -1.332211    0.735198    1.488998   -1.086087
H     1.887770    0.184084    1.106482    0.003877   -0.000012    0.004785
H     2.220681   -1.289062    0.199586   -0.001483   -0.004249   -0.004456
H     3.387647    0.040478    0.189088    0.000422   -0.002932    0.007284
H    -0.284434    0.396223   -2.073439    0.018858    0.166607    0.057360
H     1.743029    1.485191   -1.010969    0.045429   -0.002292    0.004474
H     2.148018    0.069973   -1.952470   -0.012310   -0.012608    0.007667
H    -2.585673    0.904161    0.906992   -0.003861    0.008474    0.003395
H    -2.043579    1.869933   -0.572485   -0.000832   -0.012124   -0.004066
17
* Frequency(6) -2089.9441
C     2.325997   -0.202708    0.185759   -0.001518    0.000285   -0.003471
C     0.181278    0.018408   -1.157092   -0.010420   -0.116879   -0.000752
C     1.647150    0.400443   -1.040185    0.003815    0.023956    0.004252
C    -1.794146    1.177910    0.221441    0.000072    0.001497    0.003931
C    -0.657682    0.281094    0.074598   -0.001945    0.024405   -0.017270
O    -0.587071   -1.923889   -0.099106   -0.045438   -0.011575    0.093984
O    -0.518665    1.404951    0.848976   -0.003474   -0.002777    0.004708
O    -0.595544   -0.923603    0.826944    0.006938   -0.038235   -0.025088
H     0.239396   -0.731981   -1.382477    0.735198    1.488998   -1.086087
H     1.887949    0.184083    1.106703    0.003877   -0.000012    0.004785
H     2.220613   -1.289259    0.199380   -0.001483   -0.004249   -0.004456
H     3.387667    0.040342    0.189425    0.000422   -0.002932    0.007284
H    -0.283561    0.403934   -2.070784    0.018858    0.166607    0.057360
H     1.745132    1.485085   -1.010762    0.045429   -0.002292    0.004474
H     2.147448    0.069389   -1.952116   -0.012310   -0.012608    0.007667
H    -2.585851    0.904553    0.907149   -0.003861    0.008474    0.003395
H    -2.043617    1.869371   -0.572673   -0.000832   -0.012124   -0.004066
17
* Frequency(6) -2089.9441
C     2.325982   -0.202706    0.185726   -0.001518    0.000285   -0.003471
C     0.181179    0.017296   -1.157099   -0.010420   -0.116879   -0.000752
C     1.647187    0.400671   -1.040145    0.003815    0.023956    0.004252
C    -1.794145    1.177924    0.221479    0.000072    0.001497    0.003931
C    -0.657700    0.281326    0.074434   -0.001945    0.024405   -0.017270
O    -0.587503   -1.923999   -0.098212   -0.045438   -0.011575    0.093984
O    -0.518698    1.404925    0.849021   -0.003474   -0.002777    0.004708
O    -0.595478   -0.923966    0.826706    0.006938   -0.038235   -0.025088
H     0.246391   -0.717813   -1.392811    0.735198    1.488998   -1.086087
H     1.887986    0.184083    1.106749    0.003877   -0.000012    0.004785
H     2.220599   -1.289299    0.199337   -0.001483   -0.004249   -0.004456
H     3.387671    0.040314    0.189494    0.000422   -0.002932    0.007284
H    -0.283382    0.405519   -2.070238    0.018858    0.166607    0.057360
H     1.745564    1.485064   -1.010720    0.045429   -0.002292    0.004474
H     2.147331    0.069269   -1.952043   -0.012310   -0.012608    0.007667
H    -2.585888    0.904634    0.907182   -0.003861    0.008474    0.003395
H    -2.043625    1.869256   -0.572712   -0.000832   -0.012124   -0.004066
17
* Frequency(6) -2089.9441
C     2.326025   -0.202714    0.185824   -0.001518    0.000285   -0.003471
C     0.181474    0.020602   -1.157078   -0.010420   -0.116879   -0.000752
C     1.647079    0.399993   -1.040265    0.003815    0.023956    0.004252
C    -1.794147    1.177882    0.221368    0.000072    0.001497    0.003931
C    -0.657645    0.280636    0.074923   -0.001945    0.024405   -0.017270
O    -0.586218   -1.923672   -0.100870   -0.045438   -0.011575    0.093984
O    -0.518600    1.405003    0.848888   -0.003474   -0.002777    0.004708
O    -0.595675   -0.922885    0.827415    0.006938   -0.038235   -0.025088
H     0.225597   -0.759928   -1.362092    0.735198    1.488998   -1.086087
H     1.887877    0.184083    1.106613    0.003877   -0.000012    0.004785
H     2.220641   -1.289179    0.199463   -0.001483   -0.004249   -0.004456
H     3.387659    0.040397    0.189288    0.000422   -0.002932    0.007284
H    -0.283915    0.400807   -2.071860    0.018858    0.166607    0.057360
H     1.744279    1.485128   -1.010846    0.045429   -0.002292    0.004474
H     2.147679    0.069626   -1.952259   -0.012310   -0.012608    0.007667
H    -2.585779    0.904394    0.907086   -0.003861    0.008474    0.003395
H    -2.043602    1.869599   -0.572597   -0.000832   -0.012124   -0.004066
17
* Frequency(6) -2089.9441
C     2.326121   -0.202732    0.186043   -0.001518    0.000285   -0.003471
C     0.182130    0.027968   -1.157031   -0.010420   -0.116879   -0.000752
C     1.646838    0.398484   -1.040533    0.003815    0.023956    0.004252
C    -1.794152    1.177788    0.221120    0.000072    0.001497    0.003931
C    -0.657523    0.279098    0.076011   -0.001945    0.024405   -0.017270
O    -0.583355   -1.922942   -0.106793   -0.045438   -0.011575    0.093984
O    -0.518381    1.405178    0.848591   -0.003474   -0.002777    0.004708
O    -0.596112   -0.920475    0.828996    0.006938   -0.038235   -0.025088
H     0.179267   -0.853761   -1.293650    0.735198    1.488998   -1.086087
H     1.887632    0.184084    1.106312    0.003877   -0.000012    0.004785
H     2.220734   -1.288911    0.199744   -0.001483   -0.004249   -0.004456
H     3.387632    0.040582    0.188829    0.000422   -0.002932    0.007284
H    -0.285104    0.390308   -2.075475    0.018858    0.166607    0.057360
H     1.741416    1.485273   -1.011128    0.045429   -0.002292    0.004474
H     2.148455    0.070420   -1.952743   -0.012310   -0.012608    0.007667
H    -2.585535    0.903860    0.906872   -0.003861    0.008474    0.003395
H    -2.043549    1.870363   -0.572341   -0.000832   -0.012124   -0.004066
17
* Frequency(6) -2089.9441
C     2.326259   -0.202758    0.186359   -0.001518    0.000285   -0.003471
C     0.183077    0.038594   -1.156962   -0.010420   -0.116879   -0.000752
C     1.646491    0.396306   -1.040920    0.003815    0.023956    0.004252
C    -1.794159    1.177652    0.220763    0.000072    0.001497    0.003931
C    -0.657346    0.276879    0.077581   -0.001945    0.024405   -0.017270
O    -0.579224   -1.921890   -0.115338   -0.045438   -0.011575    0.093984
O    -0.518065    1.405431    0.848163   -0.003474   -0.002777    0.004708
O    -0.596743   -0.916999    0.831277    0.006938   -0.038235   -0.025088
H     0.112421   -0.989143   -1.194901    0.735198    1.488998   -1.086087
H     1.887280    0.184085    1.105877    0.003877   -0.000012    0.004785
H     2.220869   -1.288525    0.200149   -0.001483   -0.004249   -0.004456
H     3.387594    0.040849    0.188167    0.000422   -0.002932    0.007284
H    -0.286818    0.375160   -2.080690    0.018858    0.166607    0.057360
H     1.737286    1.485481   -1.011535    0.045429   -0.002292    0.004474
H     2.149574    0.071567   -1.953440   -0.012310   -0.012608    0.007667
H    -2.585184    0.903090    0.906563   -0.003861    0.008474    0.003395
H    -2.043473    1.871465   -0.571971   -0.000832   -0.012124   -0.004066
17
* Frequency(6) -2089.9441
C     2.326424   -0.202789    0.186737   -0.001518    0.000285   -0.003471
C     0.184213    0.051331   -1.156880   -0.010420   -0.116879   -0.000752
C     1.646076    0.393695   -1.041383    0.003815    0.023956    0.004252
C    -1.794166    1.177488    0.220334    0.000072    0.001497    0.003931
C    -0.657134    0.274220    0.079463   -0.001945    0.024405   -0.017270
O    -0.574272   -1.920628   -0.125580   -0.045438   -0.011575    0.093984
O    -0.517687    1.405734    0.847650   -0.003474   -0.002777    0.004708
O    -0.597499   -0.912833    0.834011    0.006938   -0.038235   -0.025088
H     0.032304   -1.151404   -1.076546    0.735198    1.488998   -1.086087
H     1.886857    0.184086    1.105355    0.003877   -0.000012    0.004785
H     2.221030   -1.288062    0.200635   -0.001483   -0.004249   -0.004456
H     3.387548    0.041168    0.187373    0.000422   -0.002932    0.007284
H    -0.288873    0.357004   -2.086941    0.018858    0.166607    0.057360
H     1.732335    1.485731   -1.012023    0.045429   -0.002292    0.004474
H     2.150915    0.072940   -1.954275   -0.012310   -0.012608    0.007667
H    -2.584764    0.902166    0.906193   -0.003861    0.008474    0.003395
H    -2.043383    1.872786   -0.571528   -0.000832   -0.012124   -0.004066
17
* Frequency(6) -2089.9441
C     2.326599   -0.202821    0.187137   -0.001518    0.000285   -0.003471
C     0.185413    0.064797   -1.156794   -0.010420   -0.116879   -0.000752
C     1.645636    0.390935   -1.041873    0.003815    0.023956    0.004252
C    -1.794175    1.177316    0.219881    0.000072    0.001497    0.003931
C    -0.656910    0.271408    0.081453   -0.001945    0.024405   -0.017270
O    -0.569037   -1.919295   -0.136408   -0.045438   -0.011575    0.093984
O    -0.517287    1.406054    0.847108   -0.003474   -0.002777    0.004708
O    -0.598298   -0.908427    0.836901    0.006938   -0.038235   -0.025088
H    -0.052402   -1.322961   -0.951411    0.735198    1.488998   -1.086087
H     1.886411    0.184088    1.104804    0.003877   -0.000012    0.004785
H     2.221201   -1.287572    0.201148   -0.001483   -0.004249   -0.004456
H     3.387499    0.041506    0.186534    0.000422   -0.002932    0.007284
H    -0.291046    0.337808   -2.093550    0.018858    0.166607    0.057360
H     1.727101    1.485995   -1.012538    0.045429   -0.002292    0.004474
H     2.152334    0.074393   -1.955158   -0.012310   -0.012608    0.007667
H    -2.584319    0.901190    0.905802   -0.003861    0.008474    0.003395
H    -2.043287    1.874183   -0.571059   -0.000832   -0.012124   -0.004066
17
* Frequency(6) -2089.9441
C     2.326765   -0.202852    0.187515   -0.001518    0.000285   -0.003471
C     0.186549    0.077534   -1.156712   -0.010420   -0.116879   -0.000752
C     1.645220    0.388325   -1.042336    0.003815    0.023956    0.004252
C    -1.794183    1.177153    0.219453    0.000072    0.001497    0.003931
C    -0.656698    0.268748    0.083335   -0.001945    0.024405   -0.017270
O    -0.564085   -1.918033   -0.146650   -0.045438   -0.011575    0.093984
O    -0.516908    1.406356    0.846595   -0.003474   -0.002777    0.004708
O    -0.599054   -0.904261    0.839635    0.006938   -0.038235   -0.025088
H    -0.132520   -1.485223   -0.833057    0.735198    1.488998   -1.086087
H     1.885988    0.184089    1.104282    0.003877   -0.000012    0.004785
H     2.221363   -1.287109    0.201634   -0.001483   -0.004249   -0.004456
H     3.387453    0.041825    0.185740    0.000422   -0.002932    0.007284
H    -0.293101    0.319653   -2.099800    0.018858    0.166607    0.057360
H     1.722151    1.486245   -1.013026    0.045429   -0.002292    0.004474
H     2.153675    0.075767   -1.955994   -0.012310   -0.012608    0.007667
H    -2.583898    0.900267    0.905432   -0.003861    0.008474    0.003395
H    -2.043196    1.875504   -0.570616   -0.000832   -0.012124   -0.004066
17
* Frequency(6) -2089.9441
C     2.326903   -0.202878    0.187831   -0.001518    0.000285   -0.003471
C     0.187496    0.088161   -1.156643   -0.010420   -0.116879   -0.000752
C     1.644873    0.386147   -1.042723    0.003815    0.023956    0.004252
C    -1.794189    1.177017    0.219095    0.000072    0.001497    0.003931
C    -0.656521    0.266529    0.084905   -0.001945    0.024405   -0.017270
O    -0.559954   -1.916981   -0.155195   -0.045438   -0.011575    0.093984
O    -0.516592    1.406609    0.846167   -0.003474   -0.002777    0.004708
O    -0.599685   -0.900784    0.841916    0.006938   -0.038235   -0.025088
H    -0.199365   -1.620605   -0.734308    0.735198    1.488998   -1.086087
H     1.885636    0.184090    1.103847    0.003877   -0.000012    0.004785
H     2.221498   -1.286723    0.202039   -0.001483   -0.004249   -0.004456
H     3.387415    0.042092    0.185078    0.000422   -0.002932    0.007284
H    -0.294816    0.304504   -2.105016    0.018858    0.166607    0.057360
H     1.718020    1.486453   -1.013432    0.045429   -0.002292    0.004474
H     2.154795    0.076913   -1.956691   -0.012310   -0.012608    0.007667
H    -2.583547    0.899496    0.905123   -0.003861    0.008474    0.003395
H    -2.043121    1.876607   -0.570247   -0.000832   -0.012124   -0.004066
17
* Frequency(6) -2089.9441
C     2.326998   -0.202896    0.188049   -0.001518    0.000285   -0.003471
C     0.188153    0.095526   -1.156596   -0.010420   -0.116879   -0.000752
C     1.644633    0.384637   -1.042991    0.003815    0.023956    0.004252
C    -1.794194    1.176922    0.218848    0.000072    0.001497    0.003931
C    -0.656399    0.264991    0.085994   -0.001945    0.024405   -0.017270
O    -0.557091   -1.916252   -0.161118   -0.045438   -0.011575    0.093984
O    -0.516373    1.406784    0.845870   -0.003474   -0.002777    0.004708
O    -0.600122   -0.898375    0.843497    0.006938   -0.038235   -0.025088
H    -0.245695   -1.714438   -0.665865    0.735198    1.488998   -1.086087
H     1.885391    0.184091    1.103546    0.003877   -0.000012    0.004785
H     2.221591   -1.286455    0.202320   -0.001483   -0.004249   -0.004456
H     3.387389    0.042277    0.184619    0.000422   -0.002932    0.007284
H    -0.296004    0.294005   -2.108630    0.018858    0.166607    0.057360
H     1.715158    1.486598   -1.013714    0.045429   -0.002292    0.004474
H     2.155570    0.077708   -1.957174   -0.012310   -0.012608    0.007667
H    -2.583303    0.898962    0.904909   -0.003861    0.008474    0.003395
H    -2.043068    1.877371   -0.569990   -0.000832   -0.012124   -0.004066
17
* Frequency(6) -2089.9441
C     2.327041   -0.202904    0.188147   -0.001518    0.000285   -0.003471
C     0.188448    0.098832   -1.156575   -0.010420   -0.116879   -0.000752
C     1.644525    0.383959   -1.043111    0.003815    0.023956    0.004252
C    -1.794196    1.176880    0.218737    0.000072    0.001497    0.003931
C    -0.656344    0.264301    0.086482   -0.001945    0.024405   -0.017270
O    -0.555806   -1.915924   -0.163776   -0.045438   -0.011575    0.093984
O    -0.516275    1.406862    0.845737   -0.003474   -0.002777    0.004708
O    -0.600318   -0.897293    0.844207    0.006938   -0.038235   -0.025088
H    -0.266490   -1.756552   -0.635147    0.735198    1.488998   -1.086087
H     1.885282    0.184091    1.103410    0.003877   -0.000012    0.004785
H     2.221633   -1.286335    0.202446   -0.001483   -0.004249   -0.004456
H     3.387377    0.042360    0.184413    0.000422   -0.002932    0.007284
H    -0.296537    0.289293   -2.110253    0.018858    0.166607    0.057360
H     1.713873    1.486662   -1.013841    0.045429   -0.002292    0.004474
H     2.155919    0.078065   -1.957391   -0.012310   -0.012608    0.007667
H    -2.583194    0.898722    0.904813   -0.003861    0.008474    0.003395
H    -2.043045    1.877714   -0.569875   -0.000832   -0.012124   -0.004066
17
* Frequency(6) -2089.9441
C     2.327027   -0.202902    0.188114   -0.001518    0.000285   -0.003471
C     0.188348    0.097720   -1.156582   -0.010420   -0.116879   -0.000752
C     1.644561    0.384187   -1.043070    0.003815    0.023956    0.004252
C    -1.794195    1.176894    0.218774    0.000072    0.001497    0.003931
C    -0.656362    0.264533    0.086318   -0.001945    0.024405   -0.017270
O    -0.556238   -1.916034   -0.162882   -0.045438   -0.011575    0.093984
O    -0.516308    1.406836    0.845782   -0.003474   -0.002777    0.004708
O    -0.600252   -0.897657    0.843968    0.006938   -0.038235   -0.025088
H    -0.259495   -1.742385   -0.645480    0.735198    1.488998   -1.086087
H     1.885319    0.184091    1.103456    0.003877   -0.000012    0.004785
H     2.221619   -1.286375    0.202404   -0.001483   -0.004249   -0.004456
H     3.387381    0.042332    0.184482    0.000422   -0.002932    0.007284
H    -0.296358    0.290878   -2.109707    0.018858    0.166607    0.057360
H     1.714305    1.486641   -1.013798    0.045429   -0.002292    0.004474
H     2.155801    0.077945   -1.957318   -0.012310   -0.012608    0.007667
H    -2.583231    0.898803    0.904845   -0.003861    0.008474    0.003395
H    -2.043053    1.877598   -0.569914   -0.000832   -0.012124   -0.004066
17
* Frequency(6) -2089.9441
C     2.326956   -0.202889    0.187954   -0.001518    0.000285   -0.003471
C     0.187866    0.092311   -1.156617   -0.010420   -0.116879   -0.000752
C     1.644738    0.385296   -1.042874    0.003815    0.023956    0.004252
C    -1.794192    1.176963    0.218956    0.000072    0.001497    0.003931
C    -0.656452    0.265663    0.085518   -0.001945    0.024405   -0.017270
O    -0.558341   -1.916570   -0.158532   -0.045438   -0.011575    0.093984
O    -0.516469    1.406707    0.846000   -0.003474   -0.002777    0.004708
O    -0.599931   -0.899427    0.842807    0.006938   -0.038235   -0.025088
H    -0.225468   -1.673472   -0.695746    0.735198    1.488998   -1.086087
H     1.885498    0.184090    1.103677    0.003877   -0.000012    0.004785
H     2.221550   -1.286572    0.202197   -0.001483   -0.004249   -0.004456
H     3.387400    0.042196    0.184819    0.000422   -0.002932    0.007284
H    -0.295485    0.298589   -2.107052    0.018858    0.166607    0.057360
H     1.716407    1.486534   -1.013591    0.045429   -0.002292    0.004474
H     2.155232    0.077361   -1.956963   -0.012310   -0.012608    0.007667
H    -2.583410    0.899195    0.905002   -0.003861    0.008474    0.003395
H    -2.043091    1.877037   -0.570102   -0.000832   -0.012124   -0.004066
17
* Frequency(6) -2089.9441
C     2.326838   -0.202866    0.187683   -0.001518    0.000285   -0.003471
C     0.187053    0.083190   -1.156675   -0.010420   -0.116879   -0.000752
C     1.645036    0.387165   -1.042542    0.003815    0.023956    0.004252
C    -1.794186    1.177080    0.219263    0.000072    0.001497    0.003931
C    -0.656604    0.267567    0.084171   -0.001945    0.024405   -0.017270
O    -0.561887   -1.917473   -0.151198   -0.045438   -0.011575    0.093984
O    -0.516740    1.406491    0.846367   -0.003474   -0.002777    0.004708
O    -0.599390   -0.902410    0.840849    0.006938   -0.038235   -0.025088
H    -0.168098   -1.557279   -0.780498    0.735198    1.488998   -1.086087
H     1.885801    0.184090    1.104051    0.003877   -0.000012    0.004785
H     2.221434   -1.286903    0.201850   -0.001483   -0.004249   -0.004456
H     3.387433    0.041967    0.185388    0.000422   -0.002932    0.007284
H    -0.294014    0.311590   -2.102576    0.018858    0.166607    0.057360
H     1.719952    1.486356   -1.013242    0.045429   -0.002292    0.004474
H     2.154271    0.076377   -1.956365   -0.012310   -0.012608    0.007667
H    -2.583711    0.899857    0.905267   -0.003861    0.008474    0.003395
H    -2.043156    1.876091   -0.570420   -0.000832   -0.012124   -0.004066
17
* Frequency(6) -2089.9441
C     2.326684   -0.202837    0.187331   -0.001518    0.000285   -0.003471
C     0.185997    0.071347   -1.156752   -0.010420   -0.116879   -0.000752
C     1.645422    0.389593   -1.042111    0.003815    0.023956    0.004252
C    -1.794179    1.177232    0.219661    0.000072    0.001497    0.003931
C    -0.656801    0.270040    0.082421   -0.001945    0.024405   -0.017270
O    -0.566491   -1.918646   -0.141675   -0.045438   -0.011575    0.093984
O    -0.517092    1.406209    0.846844   -0.003474   -0.002777    0.004708
O    -0.598687   -0.906285    0.838307    0.006938   -0.038235   -0.025088
H    -0.093601   -1.406400   -0.890551    0.735198    1.488998   -1.086087
H     1.886193    0.184088    1.104536    0.003877   -0.000012    0.004785
H     2.221284   -1.287334    0.201398   -0.001483   -0.004249   -0.004456
H     3.387476    0.041670    0.186126    0.000422   -0.002932    0.007284
H    -0.292103    0.328472   -2.096764    0.018858    0.166607    0.057360
H     1.724556    1.486123   -1.012789    0.045429   -0.002292    0.004474
H     2.153024    0.075100   -1.955588   -0.012310   -0.012608    0.007667
H    -2.584102    0.900715    0.905611   -0.003861    0.008474    0.003395
H    -2.043240    1.874863   -0.570832   -0.000832   -0.012124   -0.004066
17
* Frequency(6) -2089.9441
C     2.326512   -0.202805    0.186937   -0.001518    0.000285   -0.003471
C     0.184813    0.058064   -1.156837   -0.010420   -0.116879   -0.000752
C     1.645856    0.392315   -1.041628    0.003815    0.023956    0.004252
C    -1.794171    1.177402    0.220108    0.000072    0.001497    0.003931
C    -0.657022    0.272814    0.080458   -0.001945    0.024405   -0.017270
O    -0.571654   -1.919962   -0.130994   -0.045438   -0.011575    0.093984
O    -0.517487    1.405894    0.847379   -0.003474   -0.002777    0.004708
O    -0.597898   -0.910630    0.835456    0.006938   -0.038235   -0.025088
H    -0.010049   -1.237183   -1.013979    0.735198    1.488998   -1.086087
H     1.886634    0.184087    1.105080    0.003877   -0.000012    0.004785
H     2.221116   -1.287817    0.200892   -0.001483   -0.004249   -0.004456
H     3.387524    0.041337    0.186954    0.000422   -0.002932    0.007284
H    -0.289960    0.347406   -2.090245    0.018858    0.166607    0.057360
H     1.729718    1.485863   -1.012280    0.045429   -0.002292    0.004474
H     2.151625    0.073667   -1.954717   -0.012310   -0.012608    0.007667
H    -2.584541    0.901678    0.905997   -0.003861    0.008474    0.003395
H    -2.043335    1.873485   -0.571294   -0.000832   -0.012124   -0.004066
