17
Coordinates from ORCA-job freq E -421.379868437191
  C           1.96346558202499     -0.35864353812054      0.25205662753192
  C          -0.17823288873260     -0.09777421598650     -1.09171719068145
  C           1.28280976363100      0.23647663509073     -0.97650814957876
  C          -2.15721670722992      1.02156364680887      0.28522749101628
  C          -1.02006818080289      0.11697520911437      0.14557790680484
  O          -0.93470054601406     -2.07580013459325     -0.06587422943275
  O          -0.88053276604991      1.25005502416427      0.91249893422559
  O          -0.96094435579129     -1.06646839554969      0.90057603815805
  H          -0.37309514440883     -1.39302135226703     -0.94885891392282
  H           1.52358785769168      0.02824846623602      1.17019943922512
  H           1.85806970091824     -1.44365536765981      0.26601145565246
  H           3.02447762651113     -0.11450149486965      0.25207348447596
  H          -0.65300574510194      0.19156778248588     -2.02512561396210
  H           1.36667230793312      1.33002443329850     -0.94716057242840
  H           1.78857857220629     -0.08217168639276     -1.88959695456397
  H          -2.94758714309145      0.74583962018125      0.97111713211054
  H          -2.40638093369359      1.71764636805934     -0.50617388463052
