17
Coordinates from ORCA-job freq E -421.372579275667
  C      -1.975071      0.883921      0.349481
  C      -1.629029     -0.557709     -0.012454
  C       2.235080      0.097980     -0.645924
  C       0.932450     -0.580295     -0.271012
  C      -0.391639     -0.599095     -0.875379
  O       2.045698      0.419658      1.579296
  O       2.955496      0.220001      0.560552
  O       0.457103     -1.744570     -0.787647
  H       1.164634     -0.271467      1.063203
  H      -2.871857      0.909836      0.961666
  H      -1.162130      1.342269      0.907274
  H      -2.154027      1.470916     -0.548309
  H      -1.447345     -1.136877      0.894591
  H      -2.459323     -1.019681     -0.549961
  H       2.001824      1.084498     -1.074380
  H       2.867009     -0.481168     -1.322564
  H      -0.508210     -0.224799     -1.890387
17
Coordinates from ORCA-job freq E -421.374049314739
  C      -2.006956      0.883234      0.342243
  C      -1.624798     -0.551640     -0.009012
  C       2.254301      0.091701     -0.642072
  C       0.933021     -0.562245     -0.263721
  C      -0.389328     -0.578630     -0.866010
  O       2.068132      0.426943      1.549795
  O       2.987087      0.127382      0.560260
  O       0.466313     -1.734735     -0.766782
  H       1.163501     -0.254665      1.039551
  H      -2.903543      0.898743      0.957773
  H      -1.203874      1.369786      0.894276
  H      -2.204879      1.465794     -0.556784
  H      -1.424607     -1.123539      0.898369
  H      -2.443534     -1.043570     -0.537194
  H       2.046873      1.100311     -1.017855
  H       2.841461     -0.482238     -1.358437
  H      -0.498507     -0.219213     -1.886354
17
Coordinates from ORCA-job freq E -421.374564979346
  C      -2.041627      0.889071      0.309668
  C      -1.625147     -0.547206      0.005778
  C       2.256478      0.104672     -0.639456
  C       0.933689     -0.545205     -0.248235
  C      -0.388612     -0.569044     -0.845890
  O       2.147247      0.353854      1.554529
  O       3.030683      0.041714      0.533688
  O       0.475833     -1.725781     -0.741356
  H       1.201516     -0.278717      1.045936
  H      -2.943410      0.909096      0.918210
  H      -1.252625      1.410934      0.851325
  H      -2.244552      1.441503     -0.608180
  H      -1.412912     -1.087164      0.929639
  H      -2.429541     -1.076994     -0.507541
  H       2.056749      1.140795     -0.929090
  H       2.793561     -0.429704     -1.421651
  H      -0.496664     -0.218407     -1.869323
17
Coordinates from ORCA-job freq E -421.374777457275
  C      -2.102669      0.895066      0.263814
  C      -1.621409     -0.533970      0.030793
  C       2.268362      0.116133     -0.636245
  C       0.940339     -0.517340     -0.232443
  C      -0.385920     -0.544951     -0.820029
  O       2.262877      0.229090      1.563820
  O       3.086851     -0.078712      0.491844
  O       0.482584     -1.702316     -0.718514
  H       1.250883     -0.299539      1.053492
  H      -3.005018      0.905873      0.872395
  H      -1.339210      1.479562      0.778257
  H      -2.330924      1.393210     -0.679327
  H      -1.387173     -1.020161      0.978676
  H      -2.399686     -1.124262     -0.456324
  H       2.097076      1.180177     -0.818524
  H       2.743039     -0.366021     -1.489310
  H      -0.499337     -0.198420     -1.844327
17
Coordinates from ORCA-job freq E -421.374799490386
  C      -2.123326      0.895578      0.250783
  C      -1.618829     -0.528842      0.041001
  C       2.273821      0.117620     -0.635848
  C       0.944631     -0.510290     -0.228886
  C      -0.384482     -0.533607     -0.811518
  O       2.293022      0.189558      1.566539
  O       3.101041     -0.108718      0.480198
  O       0.482465     -1.691625     -0.720544
  H       1.265558     -0.308950      1.056977
  H      -3.026585      0.901771      0.857975
  H      -1.370198      1.500605      0.756448
  H      -2.357897      1.374478     -0.700721
  H      -1.377859     -0.996982      0.996233
  H      -2.387240     -1.138955     -0.437392
  H       2.113712      1.186707     -0.797414
  H       2.734284     -0.354072     -1.502432
  H      -0.501457     -0.180858     -1.833353
17
Coordinates from ORCA-job freq E -421.374797134300
  C      -2.121708      0.895458      0.252357
  C      -1.619417     -0.529300      0.039528
  C       2.273558      0.118072     -0.636010
  C       0.943973     -0.509275     -0.229223
  C      -0.384746     -0.534936     -0.812860
  O       2.291109      0.192221      1.566403
  O       3.099711     -0.107518      0.481045
  O       0.482942     -1.692003     -0.718121
  H       1.263719     -0.305748      1.056481
  H      -3.024591      0.901845      0.860098
  H      -1.367365      1.498245      0.758893
  H      -2.355846      1.376787     -0.697988
  H      -1.379416     -0.999753      0.993864
  H      -2.388755     -1.137316     -0.440068
  H       2.113996      1.186951     -0.799418
  H       2.734865     -0.355267     -1.501273
  H      -0.501367     -0.185045     -1.835659
17
Coordinates from ORCA-job freq E -421.374796207751
  C      -2.121600      0.895386      0.252487
  C      -1.619318     -0.529365      0.039637
  C       2.273616      0.117864     -0.636041
  C       0.944014     -0.509504     -0.229287
  C      -0.384759     -0.534769     -0.812816
  O       2.290487      0.192771      1.566415
  O       3.099497     -0.106864      0.481363
  O       0.482804     -1.691906     -0.718940
  H       1.263531     -0.306066      1.056478
  H      -3.024530      0.901790      0.860162
  H      -1.367263      1.498190      0.759003
  H      -2.355717      1.376655     -0.697905
  H      -1.379215     -0.999896      0.993911
  H      -2.388678     -1.137327     -0.439979
  H       2.113928      1.186603     -0.800250
  H       2.735309     -0.355974     -1.500812
  H      -0.501443     -0.184173     -1.835378
17
Coordinates from ORCA-job freq E -421.374796514137
  C      -2.121870      0.895387      0.252389
  C      -1.619193     -0.529263      0.039820
  C       2.273775      0.117768     -0.636025
  C       0.944131     -0.509574     -0.229374
  C      -0.384708     -0.534498     -0.812751
  O       2.290420      0.192476      1.566466
  O       3.099574     -0.106955      0.481442
  O       0.482741     -1.691762     -0.719352
  H       1.263560     -0.306452      1.056390
  H      -3.024705      0.901672      0.860204
  H      -1.367641      1.498569      0.758620
  H      -2.356285      1.376303     -0.698106
  H      -1.378903     -0.999529      0.994176
  H      -2.388426     -1.137535     -0.439614
  H       2.114155      1.186510     -0.800307
  H       2.735509     -0.356131     -1.500742
  H      -0.501471     -0.183569     -1.835187
