17
* (null), Energy   -1000.0000000
C    -2.788771    1.155205    0.226846    0.000434    0.000513   -0.000223
C    -2.286093   -0.269445    0.014277   -0.002108   -0.000782    0.000577
C     1.606874    0.377586   -0.661567    0.005604   -0.008698    0.026833
C     0.277230   -0.249756   -0.254916   -0.021242   -0.022939   -0.104253
C    -1.051609   -0.274680   -0.838293   -0.013625    0.010020    0.005041
O     1.623519    0.452294    1.540924   -0.097224   -0.025717    0.005330
O     2.432673    0.152862    0.455899    0.031131   -0.004861   -0.041800
O    -0.184160   -1.431944   -0.744895    0.011846    0.005969    0.008689
H     0.596659   -0.046635    1.030847    1.329213    0.693305    1.312240
H    -3.691606    1.161490    0.834661    0.001274   -0.002033   -0.000274
H    -2.034542    1.758387    0.733078    0.000238    0.000512    0.000364
H    -3.023186    1.636121   -0.723648   -0.000280   -0.000092    0.000145
H    -2.045804   -0.739711    0.968633   -0.001485    0.000861    0.001820
H    -3.055327   -0.877717   -0.465156   -0.002052    0.000348    0.000149
H     1.447254    1.446328   -0.825849   -0.031726   -0.002981   -0.001014
H     2.068609   -0.096313   -1.526284   -0.046442   -0.022637   -0.006573
H    -1.168372    0.076249   -1.860730   -0.019100   -0.015903   -0.007668
17
* Frequency(6) -2221.6780
C    -2.788721    1.155263    0.226821    0.000434    0.000513   -0.000223
C    -2.286333   -0.269534    0.014343   -0.002108   -0.000782    0.000577
C     1.607511    0.376597   -0.658518    0.005604   -0.008698    0.026833
C     0.274816   -0.252363   -0.266764   -0.021242   -0.022939   -0.104253
C    -1.053157   -0.273541   -0.837720   -0.013625    0.010020    0.005041
O     1.612470    0.449371    1.541530   -0.097224   -0.025717    0.005330
O     2.436211    0.152310    0.451149    0.031131   -0.004861   -0.041800
O    -0.182813   -1.431266   -0.743907    0.011846    0.005969    0.008689
H     0.747717    0.032156    1.179977    1.329213    0.693305    1.312240
H    -3.691461    1.161259    0.834630    0.001274   -0.002033   -0.000274
H    -2.034515    1.758445    0.733119    0.000238    0.000512    0.000364
H    -3.023218    1.636110   -0.723632   -0.000280   -0.000092    0.000145
H    -2.045973   -0.739613    0.968840   -0.001485    0.000861    0.001820
H    -3.055560   -0.877677   -0.465139   -0.002052    0.000348    0.000149
H     1.443648    1.445989   -0.825965   -0.031726   -0.002981   -0.001014
H     2.063331   -0.098886   -1.527031   -0.046442   -0.022637   -0.006573
H    -1.170543    0.074441   -1.861601   -0.019100   -0.015903   -0.007668
17
* Frequency(6) -2221.6780
C    -2.788677    1.155315    0.226798    0.000434    0.000513   -0.000223
C    -2.286547   -0.269614    0.014401   -0.002108   -0.000782    0.000577
C     1.608079    0.375716   -0.655799    0.005604   -0.008698    0.026833
C     0.272663   -0.254687   -0.277328   -0.021242   -0.022939   -0.104253
C    -1.054538   -0.272526   -0.837209   -0.013625    0.010020    0.005041
O     1.602619    0.446765    1.542070   -0.097224   -0.025717    0.005330
O     2.439366    0.151817    0.446913    0.031131   -0.004861   -0.041800
O    -0.181613   -1.430661   -0.743027    0.011846    0.005969    0.008689
H     0.882406    0.102408    1.312946    1.329213    0.693305    1.312240
H    -3.691332    1.161053    0.834602    0.001274   -0.002033   -0.000274
H    -2.034490    1.758497    0.733156    0.000238    0.000512    0.000364
H    -3.023246    1.636101   -0.723617   -0.000280   -0.000092    0.000145
H    -2.046123   -0.739526    0.969025   -0.001485    0.000861    0.001820
H    -3.055768   -0.877642   -0.465124   -0.002052    0.000348    0.000149
H     1.440434    1.445687   -0.826067   -0.031726   -0.002981   -0.001014
H     2.058625   -0.101179   -1.527697   -0.046442   -0.022637   -0.006573
H    -1.172478    0.072830   -1.862378   -0.019100   -0.015903   -0.007668
17
* Frequency(6) -2221.6780
C    -2.788643    1.155355    0.226781    0.000434    0.000513   -0.000223
C    -2.286711   -0.269675    0.014446   -0.002108   -0.000782    0.000577
C     1.608516    0.375037   -0.653705    0.005604   -0.008698    0.026833
C     0.271006   -0.256477   -0.285464   -0.021242   -0.022939   -0.104253
C    -1.055601   -0.271744   -0.836816   -0.013625    0.010020    0.005041
O     1.595032    0.444758    1.542486   -0.097224   -0.025717    0.005330
O     2.441795    0.151438    0.443652    0.031131   -0.004861   -0.041800
O    -0.180689   -1.430195   -0.742349    0.011846    0.005969    0.008689
H     0.986129    0.156510    1.415345    1.329213    0.693305    1.312240
H    -3.691232    1.160894    0.834581    0.001274   -0.002033   -0.000274
H    -2.034472    1.758537    0.733184    0.000238    0.000512    0.000364
H    -3.023268    1.636094   -0.723606   -0.000280   -0.000092    0.000145
H    -2.046239   -0.739459    0.969167   -0.001485    0.000861    0.001820
H    -3.055928   -0.877615   -0.465112   -0.002052    0.000348    0.000149
H     1.437958    1.445455   -0.826146   -0.031726   -0.002981   -0.001014
H     2.055001   -0.102946   -1.528210   -0.046442   -0.022637   -0.006573
H    -1.173968    0.071589   -1.862976   -0.019100   -0.015903   -0.007668
17
* Frequency(6) -2221.6780
C    -2.788623    1.155379    0.226771    0.000434    0.000513   -0.000223
C    -2.286809   -0.269711    0.014473   -0.002108   -0.000782    0.000577
C     1.608776    0.374634   -0.652463    0.005604   -0.008698    0.026833
C     0.270023   -0.257539   -0.290289   -0.021242   -0.022939   -0.104253
C    -1.056232   -0.271280   -0.836582   -0.013625    0.010020    0.005041
O     1.590532    0.443568    1.542732   -0.097224   -0.025717    0.005330
O     2.443236    0.151213    0.441717    0.031131   -0.004861   -0.041800
O    -0.180141   -1.429919   -0.741947    0.011846    0.005969    0.008689
H     1.047648    0.188597    1.476078    1.329213    0.693305    1.312240
H    -3.691173    1.160800    0.834568    0.001274   -0.002033   -0.000274
H    -2.034461    1.758560    0.733201    0.000238    0.000512    0.000364
H    -3.023281    1.636090   -0.723599   -0.000280   -0.000092    0.000145
H    -2.046308   -0.739419    0.969251   -0.001485    0.000861    0.001820
H    -3.056023   -0.877599   -0.465105   -0.002052    0.000348    0.000149
H     1.436490    1.445317   -0.826193   -0.031726   -0.002981   -0.001014
H     2.052851   -0.103994   -1.528514   -0.046442   -0.022637   -0.006573
H    -1.174852    0.070853   -1.863331   -0.019100   -0.015903   -0.007668
17
* Frequency(6) -2221.6780
C    -2.788619    1.155384    0.226768    0.000434    0.000513   -0.000223
C    -2.286829   -0.269718    0.014479   -0.002108   -0.000782    0.000577
C     1.608829    0.374552   -0.652208    0.005604   -0.008698    0.026833
C     0.269821   -0.257757   -0.291281   -0.021242   -0.022939   -0.104253
C    -1.056361   -0.271185   -0.836534   -0.013625    0.010020    0.005041
O     1.589607    0.443324    1.542783   -0.097224   -0.025717    0.005330
O     2.443532    0.151167    0.441319    0.031131   -0.004861   -0.041800
O    -0.180028   -1.429862   -0.741864    0.011846    0.005969    0.008689
H     1.060295    0.195193    1.488563    1.329213    0.693305    1.312240
H    -3.691161    1.160781    0.834566    0.001274   -0.002033   -0.000274
H    -2.034459    1.758565    0.733205    0.000238    0.000512    0.000364
H    -3.023284    1.636089   -0.723598   -0.000280   -0.000092    0.000145
H    -2.046322   -0.739411    0.969268   -0.001485    0.000861    0.001820
H    -3.056042   -0.877595   -0.465104   -0.002052    0.000348    0.000149
H     1.436188    1.445288   -0.826203   -0.031726   -0.002981   -0.001014
H     2.052409   -0.104209   -1.528577   -0.046442   -0.022637   -0.006573
H    -1.175034    0.070702   -1.863404   -0.019100   -0.015903   -0.007668
17
* Frequency(6) -2221.6780
C    -2.788631    1.155369    0.226775    0.000434    0.000513   -0.000223
C    -2.286769   -0.269696    0.014462   -0.002108   -0.000782    0.000577
C     1.608670    0.374798   -0.652967    0.005604   -0.008698    0.026833
C     0.270421   -0.257108   -0.288332   -0.021242   -0.022939   -0.104253
C    -1.055976   -0.271468   -0.836677   -0.013625    0.010020    0.005041
O     1.592357    0.444051    1.542632   -0.097224   -0.025717    0.005330
O     2.442652    0.151304    0.442502    0.031131   -0.004861   -0.041800
O    -0.180363   -1.430031   -0.742110    0.011846    0.005969    0.008689
H     1.022699    0.175584    1.451448    1.329213    0.693305    1.312240
H    -3.691197    1.160838    0.834574    0.001274   -0.002033   -0.000274
H    -2.034465    1.758551    0.733194    0.000238    0.000512    0.000364
H    -3.023276    1.636091   -0.723602   -0.000280   -0.000092    0.000145
H    -2.046280   -0.739435    0.969217   -0.001485    0.000861    0.001820
H    -3.055984   -0.877605   -0.465108   -0.002052    0.000348    0.000149
H     1.437085    1.445373   -0.826174   -0.031726   -0.002981   -0.001014
H     2.053723   -0.103569   -1.528391   -0.046442   -0.022637   -0.006573
H    -1.174494    0.071152   -1.863187   -0.019100   -0.015903   -0.007668
17
* Frequency(6) -2221.6780
C    -2.788659    1.155337    0.226789    0.000434    0.000513   -0.000223
C    -2.286636   -0.269647    0.014426   -0.002108   -0.000782    0.000577
C     1.608317    0.375346   -0.654658    0.005604   -0.008698    0.026833
C     0.271760   -0.255663   -0.281762   -0.021242   -0.022939   -0.104253
C    -1.055117   -0.272099   -0.836995   -0.013625    0.010020    0.005041
O     1.598484    0.445672    1.542296   -0.097224   -0.025717    0.005330
O     2.440690    0.151611    0.445136    0.031131   -0.004861   -0.041800
O    -0.181109   -1.430407   -0.742657    0.011846    0.005969    0.008689
H     0.938936    0.131894    1.368754    1.329213    0.693305    1.312240
H    -3.691278    1.160966    0.834591    0.001274   -0.002033   -0.000274
H    -2.034480    1.758519    0.733172    0.000238    0.000512    0.000364
H    -3.023258    1.636097   -0.723611   -0.000280   -0.000092    0.000145
H    -2.046186   -0.739489    0.969102   -0.001485    0.000861    0.001820
H    -3.055855   -0.877627   -0.465118   -0.002052    0.000348    0.000149
H     1.439084    1.445560   -0.826110   -0.031726   -0.002981   -0.001014
H     2.056649   -0.102142   -1.527977   -0.046442   -0.022637   -0.006573
H    -1.173290    0.072154   -1.862704   -0.019100   -0.015903   -0.007668
17
* Frequency(6) -2221.6780
C    -2.788698    1.155290    0.226809    0.000434    0.000513   -0.000223
C    -2.286444   -0.269576    0.014373   -0.002108   -0.000782    0.000577
C     1.607808    0.376137   -0.657097    0.005604   -0.008698    0.026833
C     0.273691   -0.253577   -0.272283   -0.021242   -0.022939   -0.104253
C    -1.053879   -0.273011   -0.837453   -0.013625    0.010020    0.005041
O     1.607324    0.448010    1.541812   -0.097224   -0.025717    0.005330
O     2.437859    0.152053    0.448936    0.031131   -0.004861   -0.041800
O    -0.182186   -1.430950   -0.743447    0.011846    0.005969    0.008689
H     0.818081    0.068857    1.249443    1.329213    0.693305    1.312240
H    -3.691393    1.161151    0.834616    0.001274   -0.002033   -0.000274
H    -2.034502    1.758472    0.733138    0.000238    0.000512    0.000364
H    -3.023232    1.636106   -0.723624   -0.000280   -0.000092    0.000145
H    -2.046051   -0.739568    0.968937   -0.001485    0.000861    0.001820
H    -3.055668   -0.877659   -0.465131   -0.002052    0.000348    0.000149
H     1.441969    1.445831   -0.826018   -0.031726   -0.002981   -0.001014
H     2.060872   -0.100084   -1.527379   -0.046442   -0.022637   -0.006573
H    -1.171554    0.073600   -1.862007   -0.019100   -0.015903   -0.007668
17
* Frequency(6) -2221.6780
C    -2.788746    1.155234    0.226833    0.000434    0.000513   -0.000223
C    -2.286215   -0.269490    0.014311   -0.002108   -0.000782    0.000577
C     1.607197    0.377085   -0.660021    0.005604   -0.008698    0.026833
C     0.276006   -0.251077   -0.260922   -0.021242   -0.022939   -0.104253
C    -1.052394   -0.274103   -0.838002   -0.013625    0.010020    0.005041
O     1.617918    0.450812    1.541231   -0.097224   -0.025717    0.005330
O     2.434467    0.152582    0.453491    0.031131   -0.004861   -0.041800
O    -0.183477   -1.431600   -0.744394    0.011846    0.005969    0.008689
H     0.673233   -0.006695    1.106443    1.329213    0.693305    1.312240
H    -3.691532    1.161373    0.834645    0.001274   -0.002033   -0.000274
H    -2.034528    1.758416    0.733099    0.000238    0.000512    0.000364
H    -3.023202    1.636116   -0.723640   -0.000280   -0.000092    0.000145
H    -2.045889   -0.739661    0.968738   -0.001485    0.000861    0.001820
H    -3.055445   -0.877697   -0.465147   -0.002052    0.000348    0.000149
H     1.445426    1.446156   -0.825908   -0.031726   -0.002981   -0.001014
H     2.065933   -0.097617   -1.526663   -0.046442   -0.022637   -0.006573
H    -1.169472    0.075333   -1.861171   -0.019100   -0.015903   -0.007668
17
* Frequency(6) -2221.6780
C    -2.788796    1.155175    0.226859    0.000434    0.000513   -0.000223
C    -2.285972   -0.269400    0.014244   -0.002108   -0.000782    0.000577
C     1.606551    0.378087   -0.663113    0.005604   -0.008698    0.026833
C     0.278454   -0.248434   -0.248911   -0.021242   -0.022939   -0.104253
C    -1.050824   -0.275257   -0.838583   -0.013625    0.010020    0.005041
O     1.629120    0.453775    1.540617   -0.097224   -0.025717    0.005330
O     2.430880    0.153142    0.458307    0.031131   -0.004861   -0.041800
O    -0.184842   -1.432288   -0.745395    0.011846    0.005969    0.008689
H     0.520086   -0.086575    0.955252    1.329213    0.693305    1.312240
H    -3.691679    1.161607    0.834677    0.001274   -0.002033   -0.000274
H    -2.034555    1.758357    0.733057    0.000238    0.000512    0.000364
H    -3.023170    1.636126   -0.723657   -0.000280   -0.000092    0.000145
H    -2.045718   -0.739761    0.968529   -0.001485    0.000861    0.001820
H    -3.055208   -0.877737   -0.465165   -0.002052    0.000348    0.000149
H     1.449081    1.446500   -0.825791   -0.031726   -0.002981   -0.001014
H     2.071284   -0.095009   -1.525905   -0.046442   -0.022637   -0.006573
H    -1.167272    0.077165   -1.860288   -0.019100   -0.015903   -0.007668
17
* Frequency(6) -2221.6780
C    -2.788843    1.155119    0.226884    0.000434    0.000513   -0.000223
C    -2.285742   -0.269315    0.014181   -0.002108   -0.000782    0.000577
C     1.605941    0.379034   -0.666037    0.005604   -0.008698    0.026833
C     0.280769   -0.245935   -0.237550   -0.021242   -0.022939   -0.104253
C    -1.049339   -0.276349   -0.839133   -0.013625    0.010020    0.005041
O     1.639715    0.456578    1.540036   -0.097224   -0.025717    0.005330
O     2.427487    0.153672    0.462863    0.031131   -0.004861   -0.041800
O    -0.186133   -1.432939   -0.746342    0.011846    0.005969    0.008689
H     0.375237   -0.162126    0.812252    1.329213    0.693305    1.312240
H    -3.691818    1.161828    0.834707    0.001274   -0.002033   -0.000274
H    -2.034581    1.758301    0.733017    0.000238    0.000512    0.000364
H    -3.023139    1.636136   -0.723672   -0.000280   -0.000092    0.000145
H    -2.045557   -0.739855    0.968330   -0.001485    0.000861    0.001820
H    -3.054985   -0.877775   -0.465181   -0.002052    0.000348    0.000149
H     1.452539    1.446825   -0.825680   -0.031726   -0.002981   -0.001014
H     2.076345   -0.092542   -1.525189   -0.046442   -0.022637   -0.006573
H    -1.165190    0.078898   -1.859452   -0.019100   -0.015903   -0.007668
17
* Frequency(6) -2221.6780
C    -2.788882    1.155073    0.226904    0.000434    0.000513   -0.000223
C    -2.285550   -0.269244    0.014129   -0.002108   -0.000782    0.000577
C     1.605431    0.379825   -0.668477    0.005604   -0.008698    0.026833
C     0.282700   -0.243849   -0.228071   -0.021242   -0.022939   -0.104253
C    -1.048101   -0.277260   -0.839591   -0.013625    0.010020    0.005041
O     1.648555    0.458916    1.539551   -0.097224   -0.025717    0.005330
O     2.424657    0.154114    0.466663    0.031131   -0.004861   -0.041800
O    -0.187210   -1.433481   -0.747132    0.011846    0.005969    0.008689
H     0.254382   -0.225163    0.692941    1.329213    0.693305    1.312240
H    -3.691933    1.162013    0.834732    0.001274   -0.002033   -0.000274
H    -2.034603    1.758255    0.732984    0.000238    0.000512    0.000364
H    -3.023114    1.636145   -0.723686   -0.000280   -0.000092    0.000145
H    -2.045422   -0.739933    0.968165   -0.001485    0.000861    0.001820
H    -3.054798   -0.877806   -0.465194   -0.002052    0.000348    0.000149
H     1.455423    1.447096   -0.825588   -0.031726   -0.002981   -0.001014
H     2.080568   -0.090484   -1.524591   -0.046442   -0.022637   -0.006573
H    -1.163454    0.080344   -1.858755   -0.019100   -0.015903   -0.007668
17
* Frequency(6) -2221.6780
C    -2.788910    1.155040    0.226918    0.000434    0.000513   -0.000223
C    -2.285418   -0.269195    0.014093   -0.002108   -0.000782    0.000577
C     1.605078    0.380373   -0.670168    0.005604   -0.008698    0.026833
C     0.284038   -0.242404   -0.221501   -0.021242   -0.022939   -0.104253
C    -1.047242   -0.277892   -0.839909   -0.013625    0.010020    0.005041
O     1.654681    0.460537    1.539216   -0.097224   -0.025717    0.005330
O     2.422695    0.154420    0.469297    0.031131   -0.004861   -0.041800
O    -0.187956   -1.433857   -0.747680    0.011846    0.005969    0.008689
H     0.170619   -0.268853    0.610247    1.329213    0.693305    1.312240
H    -3.692014    1.162141    0.834749    0.001274   -0.002033   -0.000274
H    -2.034618    1.758223    0.732961    0.000238    0.000512    0.000364
H    -3.023096    1.636150   -0.723695   -0.000280   -0.000092    0.000145
H    -2.045328   -0.739987    0.968050   -0.001485    0.000861    0.001820
H    -3.054669   -0.877828   -0.465204   -0.002052    0.000348    0.000149
H     1.457423    1.447283   -0.825524   -0.031726   -0.002981   -0.001014
H     2.083494   -0.089057   -1.524177   -0.046442   -0.022637   -0.006573
H    -1.162250    0.081346   -1.858272   -0.019100   -0.015903   -0.007668
17
* Frequency(6) -2221.6780
C    -2.788922    1.155026    0.226924    0.000434    0.000513   -0.000223
C    -2.285358   -0.269172    0.014076   -0.002108   -0.000782    0.000577
C     1.604920    0.380619   -0.670927    0.005604   -0.008698    0.026833
C     0.284639   -0.241755   -0.218552   -0.021242   -0.022939   -0.104253
C    -1.046857   -0.278175   -0.840051   -0.013625    0.010020    0.005041
O     1.657431    0.461264    1.539065   -0.097224   -0.025717    0.005330
O     2.421815    0.154558    0.470480    0.031131   -0.004861   -0.041800
O    -0.188291   -1.434026   -0.747925    0.011846    0.005969    0.008689
H     0.133024   -0.288463    0.573132    1.329213    0.693305    1.312240
H    -3.692050    1.162199    0.834757    0.001274   -0.002033   -0.000274
H    -2.034625    1.758208    0.732951    0.000238    0.000512    0.000364
H    -3.023088    1.636153   -0.723699   -0.000280   -0.000092    0.000145
H    -2.045286   -0.740011    0.967999   -0.001485    0.000861    0.001820
H    -3.054611   -0.877838   -0.465208   -0.002052    0.000348    0.000149
H     1.458320    1.447368   -0.825496   -0.031726   -0.002981   -0.001014
H     2.084808   -0.088417   -1.523991   -0.046442   -0.022637   -0.006573
H    -1.161710    0.081796   -1.858055   -0.019100   -0.015903   -0.007668
17
* Frequency(6) -2221.6780
C    -2.788918    1.155031    0.226922    0.000434    0.000513   -0.000223
C    -2.285378   -0.269180    0.014082   -0.002108   -0.000782    0.000577
C     1.604973    0.380537   -0.670672    0.005604   -0.008698    0.026833
C     0.284437   -0.241973   -0.219544   -0.021242   -0.022939   -0.104253
C    -1.046986   -0.278080   -0.840003   -0.013625    0.010020    0.005041
O     1.656506    0.461019    1.539116   -0.097224   -0.025717    0.005330
O     2.422111    0.154512    0.470082    0.031131   -0.004861   -0.041800
O    -0.188179   -1.433969   -0.747843    0.011846    0.005969    0.008689
H     0.145670   -0.281866    0.585617    1.329213    0.693305    1.312240
H    -3.692038    1.162180    0.834754    0.001274   -0.002033   -0.000274
H    -2.034623    1.758213    0.732954    0.000238    0.000512    0.000364
H    -3.023091    1.636152   -0.723697   -0.000280   -0.000092    0.000145
H    -2.045300   -0.740003    0.968016   -0.001485    0.000861    0.001820
H    -3.054630   -0.877835   -0.465207   -0.002052    0.000348    0.000149
H     1.458018    1.447339   -0.825505   -0.031726   -0.002981   -0.001014
H     2.084366   -0.088632   -1.524054   -0.046442   -0.022637   -0.006573
H    -1.161892    0.081644   -1.858128   -0.019100   -0.015903   -0.007668
17
* Frequency(6) -2221.6780
C    -2.788898    1.155055    0.226912    0.000434    0.000513   -0.000223
C    -2.285476   -0.269216    0.014108   -0.002108   -0.000782    0.000577
C     1.605232    0.380134   -0.669430    0.005604   -0.008698    0.026833
C     0.283454   -0.243035   -0.224369   -0.021242   -0.022939   -0.104253
C    -1.047617   -0.277616   -0.839770   -0.013625    0.010020    0.005041
O     1.652007    0.459829    1.539362   -0.097224   -0.025717    0.005330
O     2.423552    0.154287    0.468147    0.031131   -0.004861   -0.041800
O    -0.187631   -1.433693   -0.747441    0.011846    0.005969    0.008689
H     0.207189   -0.249779    0.646350    1.329213    0.693305    1.312240
H    -3.691979    1.162085    0.834741    0.001274   -0.002033   -0.000274
H    -2.034612    1.758237    0.732971    0.000238    0.000512    0.000364
H    -3.023104    1.636148   -0.723691   -0.000280   -0.000092    0.000145
H    -2.045369   -0.739963    0.968100   -0.001485    0.000861    0.001820
H    -3.054725   -0.877819   -0.465200   -0.002052    0.000348    0.000149
H     1.456550    1.447201   -0.825552   -0.031726   -0.002981   -0.001014
H     2.082216   -0.089680   -1.524358   -0.046442   -0.022637   -0.006573
H    -1.162776    0.080908   -1.858483   -0.019100   -0.015903   -0.007668
17
* Frequency(6) -2221.6780
C    -2.788864    1.155095    0.226894    0.000434    0.000513   -0.000223
C    -2.285640   -0.269277    0.014153   -0.002108   -0.000782    0.000577
C     1.605670    0.379455   -0.667336    0.005604   -0.008698    0.026833
C     0.281796   -0.244825   -0.232505   -0.021242   -0.022939   -0.104253
C    -1.048680   -0.276834   -0.839377   -0.013625    0.010020    0.005041
O     1.644420    0.457822    1.539778   -0.097224   -0.025717    0.005330
O     2.425981    0.153907    0.464885    0.031131   -0.004861   -0.041800
O    -0.186706   -1.433227   -0.746763    0.011846    0.005969    0.008689
H     0.310912   -0.195677    0.748749    1.329213    0.693305    1.312240
H    -3.691879    1.161927    0.834720    0.001274   -0.002033   -0.000274
H    -2.034593    1.758277    0.733000    0.000238    0.000512    0.000364
H    -3.023126    1.636141   -0.723679   -0.000280   -0.000092    0.000145
H    -2.045485   -0.739896    0.968242   -0.001485    0.000861    0.001820
H    -3.054885   -0.877792   -0.465188   -0.002052    0.000348    0.000149
H     1.454074    1.446969   -0.825631   -0.031726   -0.002981   -0.001014
H     2.078592   -0.091446   -1.524871   -0.046442   -0.022637   -0.006573
H    -1.164266    0.079667   -1.859081   -0.019100   -0.015903   -0.007668
17
* Frequency(6) -2221.6780
C    -2.788820    1.155146    0.226872    0.000434    0.000513   -0.000223
C    -2.285854   -0.269356    0.014212   -0.002108   -0.000782    0.000577
C     1.606237    0.378574   -0.664617    0.005604   -0.008698    0.026833
C     0.279644   -0.247149   -0.243069   -0.021242   -0.022939   -0.104253
C    -1.050061   -0.275819   -0.838866   -0.013625    0.010020    0.005041
O     1.634568    0.455216    1.540318   -0.097224   -0.025717    0.005330
O     2.429135    0.153415    0.460650    0.031131   -0.004861   -0.041800
O    -0.185506   -1.432623   -0.745882    0.011846    0.005969    0.008689
H     0.445601   -0.125425    0.881718    1.329213    0.693305    1.312240
H    -3.691750    1.161721    0.834692    0.001274   -0.002033   -0.000274
H    -2.034569    1.758329    0.733037    0.000238    0.000512    0.000364
H    -3.023154    1.636131   -0.723665   -0.000280   -0.000092    0.000145
H    -2.045635   -0.739809    0.968427   -0.001485    0.000861    0.001820
H    -3.055093   -0.877756   -0.465173   -0.002052    0.000348    0.000149
H     1.450859    1.446667   -0.825734   -0.031726   -0.002981   -0.001014
H     2.073886   -0.093740   -1.525537   -0.046442   -0.022637   -0.006573
H    -1.166202    0.078056   -1.859858   -0.019100   -0.015903   -0.007668
17
* Frequency(6) -2221.6780
C    -2.788771    1.155205    0.226846    0.000434    0.000513   -0.000223
C    -2.286093   -0.269445    0.014277   -0.002108   -0.000782    0.000577
C     1.606874    0.377586   -0.661567    0.005604   -0.008698    0.026833
C     0.277230   -0.249756   -0.254916   -0.021242   -0.022939   -0.104253
C    -1.051609   -0.274680   -0.838293   -0.013625    0.010020    0.005041
O     1.623519    0.452294    1.540924   -0.097224   -0.025717    0.005330
O     2.432673    0.152862    0.455899    0.031131   -0.004861   -0.041800
O    -0.184160   -1.431944   -0.744895    0.011846    0.005969    0.008689
H     0.596659   -0.046635    1.030847    1.329213    0.693305    1.312240
H    -3.691606    1.161490    0.834661    0.001274   -0.002033   -0.000274
H    -2.034542    1.758387    0.733078    0.000238    0.000512    0.000364
H    -3.023186    1.636121   -0.723648   -0.000280   -0.000092    0.000145
H    -2.045804   -0.739711    0.968633   -0.001485    0.000861    0.001820
H    -3.055327   -0.877717   -0.465156   -0.002052    0.000348    0.000149
H     1.447254    1.446328   -0.825849   -0.031726   -0.002981   -0.001014
H     2.068609   -0.096313   -1.526284   -0.046442   -0.022637   -0.006573
H    -1.168372    0.076249   -1.860730   -0.019100   -0.015903   -0.007668
