15
Coordinates from ORCA-job freq E -271.027059613177
  C       2.379824     -0.342914     -0.476490
  C       1.195505      0.007324      0.421696
  C      -0.047326      0.289568     -0.343303
  C      -1.208722     -0.388328     -0.166125
  C      -2.848967      0.477921      0.167951
  O      -2.340150     -0.152851     -0.959609
  H       2.177912     -1.243634     -1.054145
  H       3.281552     -0.511395      0.111769
  H       2.589131      0.460560     -1.182336
  H       1.017883     -0.803488      1.130760
  H       1.461163      0.882730      1.024778
  H      -0.032339      1.095467     -1.068877
  H      -1.264696     -1.275915      0.456270
  H      -2.760187      1.554166      0.215879
  H      -3.600582     -0.049211      0.742732
15
Coordinates from ORCA-job freq E -271.027260797275
  C       2.373667     -0.336958     -0.477641
  C       1.191371      0.003061      0.432013
  C      -0.054544      0.285630     -0.340170
  C      -1.209763     -0.397064     -0.164837
  C      -2.825183      0.482177      0.162021
  O      -2.333327     -0.162323     -0.955641
  H       2.164633     -1.233701     -1.060378
  H       3.280038     -0.506311      0.103249
  H       2.567845      0.476955     -1.176958
  H       1.010387     -0.816972      1.129917
  H       1.452653      0.875660      1.039062
  H      -0.043351      1.090356     -1.067691
  H      -1.268725     -1.279149      0.464287
  H      -2.736299      1.558710      0.184909
  H      -3.569404     -0.040071      0.748808
15
Coordinates from ORCA-job freq E -271.027262463689
  C       2.375131     -0.333726     -0.477731
  C       1.190589     -0.000412      0.431448
  C      -0.055332      0.281239     -0.341480
  C      -1.211313     -0.399543     -0.163310
  C      -2.824492      0.485105      0.162071
  O      -2.335762     -0.165876     -0.953478
  H       2.169953     -1.229357     -1.063570
  H       3.281306     -0.501814      0.103799
  H       2.567517      0.483016     -1.174283
  H       1.010810     -0.823492      1.126087
  H       1.448447      0.870752      1.042034
  H      -0.043562      1.084244     -1.070900
  H      -1.270925     -1.279441      0.468822
  H      -2.732535      1.561523      0.179655
  H      -3.569830     -0.032219      0.751785
15
Coordinates from ORCA-job freq E -271.027264924116
  C       2.375777     -0.332289     -0.477769
  C       1.190242     -0.001747      0.431023
  C      -0.055619      0.279094     -0.342300
  C      -1.212017     -0.400480     -0.162308
  C      -2.824320      0.486208      0.161959
  O      -2.336704     -0.167617     -0.952347
  H       2.171521     -1.226426     -1.066189
  H       3.281420     -0.501574      0.104236
  H       2.568637      0.486352     -1.171953
  H       1.011130     -0.825866      1.124621
  H       1.446510      0.868991      1.042925
  H      -0.043599      1.080985     -1.072946
  H      -1.271937     -1.279114      0.471526
  H      -2.731017      1.562550      0.177483
  H      -3.570024     -0.029068      0.752989
15
Coordinates from ORCA-job freq E -271.027264233239
  C       2.375776     -0.332290     -0.477768
  C       1.190212     -0.001817      0.431011
  C      -0.055632      0.279093     -0.342307
  C      -1.212029     -0.400498     -0.162356
  C      -2.824283      0.486246      0.161966
  O      -2.336744     -0.167622     -0.952373
  H       2.171725     -1.226595     -1.066004
  H       3.281478     -0.501261      0.104239
  H       2.568429      0.486266     -1.172119
  H       1.011086     -0.825962      1.124579
  H       1.446482      0.868886      1.042957
  H      -0.043630      1.081120     -1.072802
  H      -1.271930     -1.279169      0.471436
  H      -2.730967      1.562587      0.177440
  H      -3.569972     -0.028983      0.753053
