15
Coordinates from ORCA-job freq E -271.027264233239
  C           2.37577552568174     -0.33229006874901     -0.47776782074942
  C           1.19021206455769     -0.00181685640286      0.43101103639189
  C          -0.05563248305491      0.27909252291227     -0.34230729054374
  C          -1.21202883535578     -0.40049830815629     -0.16235590171762
  C          -2.82428297638946      0.48624639916503      0.16196557580678
  O          -2.33674419279980     -0.16762242116015     -0.95237337164886
  H           2.17172450398446     -1.22659463685836     -1.06600414886355
  H           3.28147844801299     -0.50126055036938      0.10423943420553
  H           2.56842939908203      0.48626552456091     -1.17211863795579
  H           1.01108573661547     -0.82596235669391      1.12457881492481
  H           1.44648234435711      0.86888648666960      1.04295706515038
  H          -0.04363032110261      1.08111983037975     -1.07280247672859
  H          -1.27192951463387     -1.27916872021267      0.47143578985398
  H          -2.73096685380705      1.56258664794665      0.17743991116144
  H          -3.56997184514798     -0.02898349303155      0.75305302071278
