15
Coordinates from ORCA-job scan E -270.910979450637
  C       2.394745     -0.088377     -0.570413
  C       1.124810     -0.428603      0.200563
  C      -0.085621      0.220621     -0.394850
  C      -1.336864     -0.122551      0.375797
  C      -2.643873      0.469293     -0.138038
  O      -2.279289     -1.005203     -0.145416
  H       2.264937     -0.439122     -1.625948
  H       3.220963     -0.609421     -0.060268
  H       2.482808      1.015912     -0.580619
  H       1.055990     -1.534371      0.233549
  H       1.255171     -0.058945      1.232626
  H       0.050544      1.309641     -0.364651
  H      -1.229012     -0.173199      1.474295
  H      -2.814610      0.751458     -1.194733
  H      -3.460699      0.692867      0.579057
15
Coordinates from ORCA-job scan E -270.923951195646
  C       2.408975     -0.098306     -0.585239
  C       1.137789     -0.420118      0.214679
  C      -0.088861      0.242877     -0.321004
  C      -1.359816     -0.093473      0.394059
  C      -2.679378      0.444493     -0.146241
  O      -2.277828     -1.000127     -0.155466
  H       2.275765     -0.430431     -1.619221
  H       3.250646     -0.615558     -0.126191
  H       2.550621      0.985030     -0.601669
  H       1.030576     -1.510240      0.251426
  H       1.285821     -0.079060      1.249537
  H       0.042015      1.327130     -0.380854
  H      -1.275092     -0.160786      1.484824
  H      -2.800291      0.764215     -1.175742
  H      -3.500941      0.644354      0.538053
15
Coordinates from ORCA-job scan E -270.931359824243
  C       2.401853     -0.104691     -0.595208
  C       1.146700     -0.410749      0.231438
  C      -0.086188      0.266388     -0.253161
  C      -1.366986     -0.066279      0.408642
  C      -2.698525      0.410437     -0.159094
  O      -2.266005     -0.996537     -0.170245
  H       2.259113     -0.425442     -1.621401
  H       3.262780     -0.620716     -0.183032
  H       2.592736      0.965429     -0.613646
  H       1.001695     -1.491183      0.272607
  H       1.315407     -0.096946      1.271853
  H       0.038456      1.338464     -0.403111
  H      -1.305335     -0.152775      1.496636
  H      -2.769435      0.782928     -1.168010
  H      -3.526264      0.601672      0.506686
15
Coordinates from ORCA-job scan E -270.936832074326
  C       2.378272     -0.110964     -0.605322
  C       1.157188     -0.398019      0.257668
  C      -0.078181      0.305183     -0.169353
  C      -1.370067     -0.033864      0.432046
  C      -2.708830      0.357424     -0.182107
  O      -2.234973     -0.998559     -0.194081
  H       2.211318     -0.423053     -1.631626
  H       3.261537     -0.631963     -0.245774
  H       2.619508      0.949600     -0.624875
  H       0.969269     -1.472146      0.302799
  H       1.364601     -0.116307      1.302551
  H       0.039411      1.348512     -0.450415
  H      -1.347345     -0.147104      1.518763
  H      -2.707540      0.828450     -1.154189
  H      -3.554167      0.542812      0.464866
15
Coordinates from ORCA-job scan E -270.938652824746
  C       2.357824     -0.114388     -0.609891
  C       1.162408     -0.387551      0.280055
  C      -0.070846      0.334633     -0.119794
  C      -1.367655     -0.018210      0.451474
  C      -2.702386      0.332650     -0.195029
  O      -2.203441     -0.996145     -0.224680
  H       2.167609     -0.425792     -1.635209
  H       3.249494     -0.642342     -0.274420
  H       2.617431      0.943982     -0.633621
  H       0.953473     -1.459735      0.327597
  H       1.403370     -0.118189      1.322277
  H       0.041198      1.343565     -0.504667
  H      -1.375298     -0.165962      1.533912
  H      -2.668740      0.869839     -1.136299
  H      -3.564441      0.503645      0.439245
15
Coordinates from ORCA-job scan E -270.940171124509
  C       2.339415     -0.118355     -0.612164
  C       1.167554     -0.370278      0.309877
  C      -0.065035      0.361125     -0.077443
  C      -1.362148     -0.014349      0.469417
  C      -2.688333      0.329463     -0.198117
  O      -2.169095     -0.979636     -0.286419
  H       2.123115     -0.443067     -1.630396
  H       3.235303     -0.649194     -0.287110
  H       2.603634      0.939929     -0.653347
  H       0.945989     -1.440835      0.370606
  H       1.444387     -0.095650      1.341968
  H       0.034070      1.311746     -0.588561
  H      -1.397760     -0.230480      1.537925
  H      -2.642249      0.935672     -1.100020
  H      -3.568846      0.463908      0.424735
15
Coordinates from ORCA-job scan E -270.941993763169
  C       2.324348     -0.124391     -0.608954
  C       1.175016     -0.337544      0.353122
  C      -0.062755      0.384239     -0.043303
  C      -1.353003     -0.028496      0.477432
  C      -2.671879      0.352667     -0.184276
  O      -2.137476     -0.932061     -0.405394
  H       2.080657     -0.489049     -1.608423
  H       3.223892     -0.645903     -0.277052
  H       2.579157      0.934188     -0.693546
  H       0.950551     -1.405774      0.451370
  H       1.489731     -0.028512      1.363230
  H       0.011970      1.219018     -0.726716
  H      -1.409516     -0.370892      1.507542
  H      -2.632192      1.056998     -1.015030
  H      -3.568499      0.415512      0.430949
15
Coordinates from ORCA-job scan E -270.943240850450
  C       2.323516     -0.128057     -0.597876
  C       1.181965     -0.304744      0.387996
  C      -0.067498      0.382185     -0.041340
  C      -1.345333     -0.059317      0.461486
  C      -2.664469      0.393289     -0.153008
  O      -2.143322     -0.861642     -0.531334
  H       2.072057     -0.546786     -1.573279
  H       3.228012     -0.622310     -0.241502
  H       2.554524      0.929522     -0.736358
  H       0.972681     -1.370517      0.535354
  H       1.511990      0.059928      1.372104
  H      -0.017345      1.083211     -0.861767
  H      -1.403579     -0.526157      1.437304
  H      -2.642120      1.183998     -0.902508
  H      -3.561078      0.387397      0.465679
15
Coordinates from ORCA-job scan E -270.944140139085
  C       2.337567     -0.124077     -0.586136
  C       1.186705     -0.292203      0.397595
  C      -0.076086      0.343507     -0.065750
  C      -1.347314     -0.099241      0.430058
  C      -2.665025      0.432014     -0.121289
  O      -2.195255     -0.812993     -0.599018
  H       2.103260     -0.585867     -1.544776
  H       3.247913     -0.581654     -0.201249
  H       2.538002      0.932616     -0.763745
  H       1.008445     -1.357035      0.582129
  H       1.497889      0.120123      1.367233
  H      -0.042750      0.982728     -0.937460
  H      -1.399062     -0.620377      1.377598
  H      -2.646464      1.258672     -0.828227
  H      -3.547824      0.403787      0.513987
15
Coordinates from ORCA-job scan E -270.945097651859
  C       2.361310     -0.111490     -0.571583
  C       1.190628     -0.294697      0.391653
  C      -0.087464      0.262732     -0.112326
  C      -1.361108     -0.156875      0.380025
  C      -2.666451      0.476065     -0.086925
  O      -2.291380     -0.776894     -0.634775
  H       2.166912     -0.616249     -1.515421
  H       3.279372     -0.515919     -0.152173
  H       2.520858      0.943712     -0.786555
  H       1.063195     -1.358271      0.615477
  H       1.451632      0.168704      1.352416
  H      -0.072645      0.896271     -0.991218
  H      -1.400794     -0.692677      1.321586
  H      -2.633832      1.316162     -0.772787
  H      -3.520231      0.459427      0.583557
15
Coordinates from ORCA-job scan E -270.945516594879
  C       2.371717     -0.105655     -0.557691
  C       1.191147     -0.283998      0.391282
  C      -0.093599      0.210934     -0.154722
  C      -1.372306     -0.200996      0.333568
  C      -2.666568      0.502926     -0.056245
  O      -2.354220     -0.730267     -0.678612
  H       2.208610     -0.654434     -1.482907
  H       3.294658     -0.465521     -0.109009
  H       2.508433      0.943375     -0.815264
  H       1.094497     -1.340493      0.661777
  H       1.416686      0.226309      1.338334
  H      -0.085994      0.813538     -1.055158
  H      -1.402799     -0.775540      1.252972
  H      -2.615624      1.380041     -0.693195
  H      -3.494635      0.479782      0.645822
15
Coordinates from ORCA-job scan E -270.945813670811
  C       2.376929     -0.103152     -0.545315
  C       1.186507     -0.276718      0.386073
  C      -0.097717      0.166136     -0.201307
  C      -1.381533     -0.236898      0.290828
  C      -2.664474      0.520809     -0.029358
  O      -2.398872     -0.695428     -0.701917
  H       2.245791     -0.688848     -1.453776
  H       3.301392     -0.424242     -0.069085
  H       2.498280      0.938946     -0.839052
  H       1.111629     -1.324601      0.697567
  H       1.378712      0.272090      1.320157
  H      -0.090887      0.772993     -1.099313
  H      -1.400667     -0.837226      1.195157
  H      -2.596634      1.422388     -0.630787
  H      -3.468455      0.493750      0.701078
15
Coordinates from ORCA-job scan E -270.946029371793
  C       2.378404     -0.106418     -0.534779
  C       1.178652     -0.262858      0.383335
  C      -0.100894      0.138421     -0.243970
  C      -1.385656     -0.263585      0.254377
  C      -2.660145      0.532000     -0.001161
  O      -2.420557     -0.657017     -0.727225
  H       2.271648     -0.727027     -1.424043
  H       3.301023     -0.396242     -0.033546
  H       2.492520      0.926340     -0.864470
  H       1.113020     -1.299313      0.734638
  H       1.349360      0.322669      1.299916
  H      -0.089360      0.744636     -1.141729
  H      -1.396357     -0.898292      1.135653
  H      -2.582859      1.459419     -0.561992
  H      -3.448797      0.487267      0.745946
15
Coordinates from ORCA-job scan E -270.946160374339
  C       2.380747     -0.113036     -0.525780
  C       1.169315     -0.245547      0.381267
  C      -0.104305      0.116265     -0.282836
  C      -1.388157     -0.288288      0.220406
  C      -2.652672      0.540611      0.029347
  O      -2.433865     -0.616014     -0.753803
  H       2.293146     -0.767022     -1.393134
  H       3.298872     -0.375044     -0.000963
  H       2.490348      0.908119     -0.891567
  H       1.107616     -1.267970      0.771779
  H       1.323941      0.377905      1.275377
  H      -0.087460      0.725966     -1.177482
  H      -1.393437     -0.958278      1.075698
  H      -2.570950      1.491036     -0.490589
  H      -3.433137      0.471296      0.783232
15
Coordinates from ORCA-job scan E -270.946219209253
  C       2.383717     -0.120963     -0.518476
  C       1.161461     -0.226068      0.380692
  C      -0.107226      0.099826     -0.311599
  C      -1.390557     -0.310801      0.188983
  C      -2.643831      0.546369      0.058059
  O      -2.445801     -0.573492     -0.783398
  H       2.309169     -0.806852     -1.361572
  H       3.296990     -0.357227      0.026117
  H       2.490008      0.886573     -0.920523
  H       1.101128     -1.232911      0.808546
  H       1.304927      0.433668      1.249960
  H      -0.087247      0.709549     -1.205830
  H      -1.394513     -1.015673      1.016089
  H      -2.557845      1.518261     -0.418569
  H      -3.420379      0.449741      0.812471
15
Coordinates from ORCA-job scan E -270.946252571595
  C       2.386010     -0.130897     -0.514869
  C       1.157267     -0.208965      0.381106
  C      -0.108165      0.095284     -0.326522
  C      -1.391595     -0.325216      0.166472
  C      -2.638694      0.546158      0.076885
  O      -2.451230     -0.543445     -0.807382
  H       2.315809     -0.841688     -1.336865
  H       3.295846     -0.349438      0.042045
  H       2.492538      0.864008     -0.946559
  H       1.093937     -1.202351      0.837521
  H       1.297469      0.477695      1.229638
  H      -0.087737      0.715162     -1.213785
  H      -1.394955     -1.055610      0.971566
  H      -2.551540      1.533288     -0.365980
  H      -3.414958      0.426014      0.827681
15
Coordinates from ORCA-job scan E -270.946299231892
  C       2.387133     -0.148681     -0.514900
  C       1.156719     -0.186679      0.384608
  C      -0.107000      0.107824     -0.329323
  C      -1.389441     -0.333653      0.147616
  C      -2.638332      0.537826      0.089563
  O      -2.447141     -0.517459     -0.836076
  H       2.310020     -0.885709     -1.312089
  H       3.295032     -0.354582      0.049158
  H       2.499336      0.830234     -0.979746
  H       1.082894     -1.164376      0.870465
  H       1.305437      0.526132      1.209716
  H      -0.088409      0.751920     -1.199436
  H      -1.391504     -1.090729      0.927931
  H      -2.556395      1.540503     -0.316944
  H      -3.418348      0.387430      0.830408
15
Coordinates from ORCA-job scan E -270.946371218689
  C       2.384115     -0.181350     -0.520488
  C       1.162332     -0.153205      0.394324
  C      -0.102457      0.147923     -0.313636
  C      -1.381281     -0.334515      0.130792
  C      -2.645207      0.516148      0.092864
  O      -2.426769     -0.493776     -0.876802
  H       2.281208     -0.950237     -1.283286
  H       3.293629     -0.380608      0.042786
  H       2.509745      0.773633     -1.029104
  H       1.067419     -1.108717      0.916886
  H       1.339780      0.588663      1.187566
  H      -0.090304      0.842305     -1.144737
  H      -1.379295     -1.124243      0.877832
  H      -2.579626      1.537118     -0.268168
  H      -3.433287      0.320861      0.814120
15
Coordinates from ORCA-job scan E -270.946433761611
  C       2.375173     -0.206896     -0.528778
  C       1.171149     -0.129871      0.406704
  C      -0.097409      0.190390     -0.285543
  C      -1.371811     -0.326980      0.127735
  C      -2.654103      0.495323      0.081681
  O      -2.400410     -0.487153     -0.905334
  H       2.242641     -0.992299     -1.270158
  H       3.290518     -0.410862      0.023890
  H       2.511903      0.732179     -1.063754
  H       1.061183     -1.071256      0.950829
  H       1.381044      0.624952      1.179460
  H      -0.091086      0.922924     -1.083612
  H      -1.366595     -1.136039      0.852951
  H      -2.604061      1.526634     -0.252868
  H      -3.448134      0.268953      0.787747
15
Coordinates from ORCA-job scan E -270.946491565742
  C       2.359048     -0.234828     -0.537812
  C       1.181389     -0.102787      0.423631
  C      -0.091462      0.239807     -0.250209
  C      -1.359763     -0.317506      0.123817
  C      -2.662423      0.471333      0.065627
  O      -2.366272     -0.478479     -0.937603
  H       2.189783     -1.036076     -1.255222
  H       3.282634     -0.447821     -0.000885
  H       2.507817      0.686173     -1.101022
  H       1.058698     -1.027599      0.992849
  H       1.431023      0.664937      1.171025
  H      -0.090622      1.008930     -1.013268
  H      -1.350442     -1.149107      0.822145
  H      -2.628840      1.513722     -0.237957
  H      -3.460568      0.209302      0.755835
15
Coordinates from ORCA-job scan E -270.946526069365
  C       2.340692     -0.258300     -0.547082
  C       1.191376     -0.079253      0.441052
  C      -0.086110      0.285662     -0.212397
  C      -1.347613     -0.307613      0.123829
  C      -2.667881      0.449798      0.047689
  O      -2.329866     -0.473711     -0.964382
  H       2.133737     -1.068035     -1.245356
  H       3.271983     -0.485656     -0.028431
  H       2.499244      0.648386     -1.130863
  H       1.060673     -0.990853      1.029229
  H       1.479506      0.695977      1.165673
  H      -0.089444      1.082915     -0.946061
  H      -1.334748     -1.155696      0.801573
  H      -2.650527      1.499274     -0.233916
  H      -3.471020      0.157104      0.720393
15
Coordinates from ORCA-job scan E -270.946557891268
  C       2.318533     -0.279520     -0.558115
  C       1.202414     -0.056944      0.460560
  C      -0.080936      0.333058     -0.166727
  C      -1.334220     -0.296098      0.128982
  C      -2.671118      0.428194      0.025637
  O      -2.286480     -0.473512     -0.988175
  H       2.068926     -1.091066     -1.240428
  H       3.257233     -0.528300     -0.062338
  H       2.486264      0.615649     -1.156901
  H       1.066572     -0.958073      1.063102
  H       1.531334      0.720724      1.163660
  H      -0.087607      1.152691     -0.875137
  H      -1.318458     -1.155717      0.791601
  H      -2.671195      1.481753     -0.241797
  H      -3.481261      0.107161      0.677028
15
Coordinates from ORCA-job scan E -270.946589172720
  C       2.298960     -0.295092     -0.567301
  C       1.211036     -0.039079      0.476388
  C      -0.077250      0.371304     -0.127273
  C      -1.322849     -0.286931      0.134262
  C      -2.671666      0.411134      0.007869
  O      -2.247896     -0.474932     -1.004751
  H       2.012678     -1.103245     -1.239089
  H       3.241690     -0.566340     -0.091294
  H       2.475483      0.592519     -1.174377
  H       1.071999     -0.933179      1.088099
  H       1.572522      0.737875      1.162879
  H      -0.085951      1.204268     -0.819731
  H      -1.304258     -1.152439      0.789009
  H      -2.686269      1.466026     -0.253064
  H      -3.488229      0.068112      0.639325
15
Coordinates from ORCA-job scan E -270.946617147484
  C       2.281525     -0.315065     -0.570831
  C       1.217039     -0.015253      0.488424
  C      -0.074567      0.405713     -0.099842
  C      -1.311133     -0.283073      0.124650
  C      -2.670365      0.395180      0.002021
  O      -2.216901     -0.457042     -1.028771
  H       1.963811     -1.126948     -1.223261
  H       3.225444     -0.601119     -0.106550
  H       2.467337      0.557767     -1.195762
  H       1.073011     -0.894654      1.119201
  H       1.606261      0.768829      1.150215
  H      -0.086848      1.253125     -0.774456
  H      -1.284671     -1.163041      0.759707
  H      -2.700438      1.454944     -0.234632
  H      -3.489504      0.020636      0.610839
15
Coordinates from ORCA-job scan E -270.946629256494
  C       2.269312     -0.329829     -0.571857
  C       1.221209      0.001954      0.495766
  C      -0.073067      0.429017     -0.081675
  C      -1.302814     -0.280883      0.115212
  C      -2.669071      0.384395     -0.000209
  O      -2.196832     -0.438976     -1.047358
  H       1.932025     -1.146468     -1.207998
  H       3.214226     -0.622538     -0.114102
  H       2.459833      0.530663     -1.212031
  H       1.073943     -0.865490      1.142124
  H       1.628312      0.791885      1.138562
  H      -0.088452      1.284680     -0.745865
  H      -1.269182     -1.172886      0.733172
  H      -2.710304      1.448269     -0.214316
  H      -3.489136     -0.013793      0.591528
15
Coordinates from ORCA-job scan E -270.946644330922
  C       2.241910     -0.358648     -0.574442
  C       1.231016      0.032915      0.510643
  C      -0.069626      0.470688     -0.043539
  C      -1.285571     -0.275741      0.099519
  C      -2.664723      0.363366     -0.010288
  O      -2.155782     -0.404127     -1.083353
  H       1.868699     -1.187280     -1.173609
  H       3.192248     -0.657868     -0.132390
  H       2.433444      0.475751     -1.247799
  H       1.082675     -0.809864      1.188290
  H       1.672902      0.834621      1.113227
  H      -0.094199      1.350867     -0.674854
  H      -1.239755     -1.190985      0.681918
  H      -2.727334      1.433920     -0.180609
  H      -3.485902     -0.077614      0.548238
15
Coordinates from ORCA-job scan E -270.946659802031
  C       2.200690     -0.393561     -0.577674
  C       1.244986      0.070866      0.531001
  C      -0.065446      0.521586      0.011187
  C      -1.260953     -0.267254      0.083607
  C      -2.655741      0.336507     -0.028710
  O      -2.098280     -0.359865     -1.126388
  H       1.780681     -1.234243     -1.126701
  H       3.159524     -0.702029     -0.160834
  H       2.386927      0.407274     -1.291792
  H       1.102784     -0.741013      1.246475
  H       1.731020      0.884308      1.079198
  H      -0.102524      1.430541     -0.577423
  H      -1.200308     -1.209328      0.620133
  H      -2.746601      1.412044     -0.146179
  H      -3.476756     -0.155833      0.485052
15
Coordinates from ORCA-job scan E -270.946670961219
  C       2.193706     -0.399614     -0.576889
  C       1.246227      0.077308      0.532944
  C      -0.064173      0.531046      0.015400
  C      -1.255604     -0.264910      0.079703
  C      -2.653523      0.331944     -0.030590
  O      -2.090009     -0.351207     -1.132873
  H       1.767140     -1.242910     -1.116977
  H       3.153316     -0.709270     -0.162508
  H       2.379878      0.394677     -1.298337
  H       1.103863     -0.730365      1.254038
  H       1.736918      0.891807      1.074563
  H      -0.104470      1.445139     -0.564846
  H      -1.190520     -1.212317      0.606436
  H      -2.750438      1.408258     -0.137283
  H      -3.472311     -0.169586      0.478171
15
Coordinates from ORCA-job scan E -270.946676268318
  C       2.194876     -0.399647     -0.575734
  C       1.245097      0.077064      0.530929
  C      -0.063392      0.532360      0.009014
  C      -1.254587     -0.263816      0.078562
  C      -2.653116      0.332074     -0.029168
  O      -2.092903     -0.351950     -1.131832
  H       1.769490     -1.243470     -1.116414
  H       3.153377     -0.709805     -0.158774
  H       2.383292      0.394028     -1.297440
  H       1.100538     -0.732344      1.250128
  H       1.732251      0.890352      1.077508
  H      -0.106294      1.447872     -0.568387
  H      -1.187564     -1.211515      0.604419
  H      -2.751698      1.408449     -0.135862
  H      -3.469366     -0.169651      0.484002
15
Coordinates from ORCA-job scan E -270.946675979081
  C       2.180702     -0.411343     -0.575695
  C       1.249683      0.089810      0.536673
  C      -0.061947      0.548758      0.025456
  C      -1.245549     -0.260562      0.072060
  C      -2.649224      0.323254     -0.034855
  O      -2.075059     -0.335635     -1.145691
  H       1.740251     -1.258701     -1.098484
  H       3.141571     -0.724847     -0.166621
  H       2.366864      0.370016     -1.311234
  H       1.107950     -0.708963      1.268149
  H       1.749897      0.906565      1.065263
  H      -0.110775      1.473796     -0.535976
  H      -1.172346     -1.216764      0.581378
  H      -2.758324      1.400268     -0.123312
  H      -3.463694     -0.195653      0.463839
15
Coordinates from ORCA-job scan E -270.946677335370
  C       2.189237     -0.404446     -0.575761
  C       1.247144      0.082532      0.533339
  C      -0.062840      0.539312      0.016121
  C      -1.250877     -0.262445      0.075924
  C      -2.651589      0.328367     -0.031423
  O      -2.085745     -0.345385     -1.137689
  H       1.757068     -1.249231     -1.109468
  H       3.148373     -0.716927     -0.162013
  H       2.377442      0.384214     -1.302941
  H       1.103499     -0.722445      1.257533
  H       1.739955      0.897181      1.072515
  H      -0.108451      1.458485     -0.555170
  H      -1.181379     -1.213576      0.595149
  H      -2.754744      1.404975     -0.130849
  H      -3.467093     -0.180610      0.475685
15
Coordinates from ORCA-job scan E -270.946677400361
  C       2.189402     -0.404537     -0.575648
  C       1.247136      0.082730      0.533198
  C      -0.062817      0.539417      0.015807
  C      -1.250814     -0.262417      0.075672
  C      -2.651606      0.328294     -0.031178
  O      -2.086029     -0.345243     -1.137765
  H       1.756977     -1.249065     -1.109552
  H       3.148235     -0.717582     -0.161652
  H       2.378207      0.384038     -1.302752
  H       1.103198     -0.722116      1.257451
  H       1.739944      0.897398      1.072355
  H      -0.108731      1.458704     -0.555282
  H      -1.181192     -1.213602      0.594781
  H      -2.754984      1.404880     -0.130473
  H      -3.466925     -0.180900      0.475989
15
Coordinates from ORCA-job scan E -270.940988398629
  C       2.205525     -0.406365     -0.578233
  C       1.265874      0.078043      0.534092
  C      -0.045608      0.535195      0.020984
  C      -1.233166     -0.267169      0.082454
  C      -2.709366      0.342937     -0.035850
  O      -2.095724     -0.346278     -1.125683
  H       1.772140     -1.249952     -1.112848
  H       3.165578     -0.719833     -0.167382
  H       2.392070      0.383874     -1.304119
  H       1.124200     -0.728434      1.256982
  H       1.759714      0.891843      1.073617
  H      -0.093581      1.455874     -0.547699
  H      -1.157306     -1.216947      0.603305
  H      -2.824439      1.417595     -0.143876
  H      -3.525910     -0.170382      0.465206
15
Coordinates from ORCA-job scan E -270.941292474759
  C       2.206942     -0.406441     -0.574250
  C       1.260446      0.079078      0.531384
  C      -0.049201      0.530764      0.008739
  C      -1.230229     -0.271717      0.072017
  C      -2.705161      0.344429     -0.029635
  O      -2.102352     -0.334064     -1.122576
  H       1.778691     -1.253105     -1.108113
  H       3.165550     -0.715738     -0.157052
  H       2.395229      0.381734     -1.301914
  H       1.117038     -0.725269      1.256379
  H       1.748991      0.896197      1.070657
  H      -0.097826      1.450746     -0.560972
  H      -1.161030     -1.222762      0.589839
  H      -2.811728      1.419807     -0.128437
  H      -3.515359     -0.173658      0.474886
15
Coordinates from ORCA-job scan E -270.941527336731
  C       2.214777     -0.408135     -0.562439
  C       1.250000      0.083638      0.524133
  C      -0.055154      0.521612     -0.023227
  C      -1.228758     -0.280961      0.043049
  C      -2.700915      0.347727     -0.010791
  O      -2.124909     -0.302750     -1.121309
  H       1.799275     -1.263497     -1.092583
  H       3.169407     -0.706674     -0.128376
  H       2.408490      0.372909     -1.296350
  H       1.100776     -0.713579      1.255671
  H       1.726251      0.909062      1.061833
  H      -0.102515      1.437653     -0.598864
  H      -1.170144     -1.239961      0.546613
  H      -2.790194      1.426608     -0.079368
  H      -3.496386     -0.183653      0.502958
15
Coordinates from ORCA-job scan E -270.941579021113
  C       2.221007     -0.409653     -0.555419
  C       1.245910      0.086351      0.519915
  C      -0.056125      0.517598     -0.040868
  C      -1.230707     -0.284018      0.027104
  C      -2.701602      0.349403      0.001839
  O      -2.139872     -0.286799     -1.123603
  H       1.812294     -1.269649     -1.083398
  H       3.173058     -0.702655     -0.111948
  H       2.418388      0.367181     -1.292840
  H       1.092573     -0.706610      1.255209
  H       1.715747      0.916026      1.056677
  H      -0.101430      1.430453     -0.621537
  H      -1.173057     -1.248709      0.520115
  H      -2.785750      1.429661     -0.049407
  H      -3.490433     -0.188581      0.519112
15
Coordinates from ORCA-job scan E -270.941670252941
  C       2.238852     -0.413377     -0.535849
  C       1.234533      0.092460      0.507348
  C      -0.057058      0.505945     -0.090452
  C      -1.237730     -0.289946     -0.015454
  C      -2.703219      0.354035      0.039532
  O      -2.181643     -0.244258     -1.128340
  H       1.849559     -1.285405     -1.058883
  H       3.182873     -0.691214     -0.066151
  H       2.447115      0.352729     -1.281523
  H       1.068812     -0.689344      1.251876
  H       1.685917      0.933394      1.042396
  H      -0.095923      1.409048     -0.686342
  H      -1.178608     -1.269858      0.447643
  H      -2.776965      1.436088      0.032199
  H      -3.476516     -0.200298      0.562951
15
Coordinates from ORCA-job scan E -270.941696335380
  C       2.247775     -0.413756     -0.527493
  C       1.228812      0.092787      0.500852
  C      -0.056903      0.498777     -0.113864
  C      -1.241678     -0.291681     -0.032222
  C      -2.703342      0.357040      0.057737
  O      -2.200538     -0.227758     -1.127748
  H       1.868785     -1.290265     -1.050623
  H       3.187573     -0.684711     -0.045508
  H       2.461091      0.349540     -1.274630
  H       1.057209     -0.685637      1.247577
  H       1.670351      0.938218      1.037229
  H      -0.092857      1.397035     -0.717232
  H      -1.179490     -1.277005      0.419659
  H      -2.774578      1.439084      0.064500
  H      -3.472210     -0.201669      0.582717
15
Coordinates from ORCA-job scan E -270.941712755974
  C       2.256355     -0.411724     -0.521921
  C       1.223610      0.089557      0.494929
  C      -0.056853      0.490002     -0.133321
  C      -1.245866     -0.293252     -0.042052
  C      -2.703273      0.361266      0.071811
  O      -2.215812     -0.219584     -1.124111
  H       1.887928     -1.290486     -1.048781
  H       3.192394     -0.677151     -0.029744
  H       2.473320      0.352572     -1.266979
  H       1.047573     -0.689093      1.240315
  H       1.655189      0.937453      1.035918
  H      -0.090521      1.384034     -0.743126
  H      -1.180054     -1.280441      0.406035
  H      -2.773080      1.443229      0.082520
  H      -3.470909     -0.196381      0.599459
15
Coordinates from ORCA-job scan E -270.941720499911
  C       2.262017     -0.408029     -0.520533
  C       1.220691      0.084532      0.491617
  C      -0.057244      0.482625     -0.142845
  C      -1.249173     -0.294776     -0.042990
  C      -2.703561      0.365339      0.076988
  O      -2.223511     -0.221378     -1.119523
  H       1.900981     -1.286430     -1.053043
  H       3.196123     -0.670876     -0.023388
  H       2.480074      0.360184     -1.261237
  H       1.043074     -0.697520      1.232975
  H       1.645509      0.932144      1.038771
  H      -0.089435      1.373995     -0.756666
  H      -1.181865     -1.280161      0.409193
  H      -2.771588      1.447431      0.082840
  H      -3.472093     -0.187081      0.608791
15
Coordinates from ORCA-job scan E -270.941728143010
  C       2.269071     -0.401406     -0.520318
  C       1.217542      0.076388      0.488074
  C      -0.058219      0.472059     -0.152082
  C      -1.253990     -0.297398     -0.040253
  C      -2.704361      0.371438      0.080053
  O      -2.231785     -0.228592     -1.112491
  H       1.917635     -1.278042     -1.062038
  H       3.201328     -0.661695     -0.018452
  H       2.487285      0.373938     -1.253534
  H       1.039181     -0.712282      1.222104
  H       1.633768      0.922133      1.045166
  H      -0.087974      1.359444     -0.771819
  H      -1.186943     -1.278458      0.421483
  H      -2.767997      1.453833      0.075643
  H      -3.474540     -0.171359      0.619415
15
Coordinates from ORCA-job scan E -270.941737457396
  C       2.279213     -0.390609     -0.520262
  C       1.213290      0.064023      0.483253
  C      -0.059986      0.455596     -0.164301
  C      -1.261564     -0.301865     -0.034959
  C      -2.705639      0.380856      0.083077
  O      -2.243878     -0.240262     -1.102047
  H       1.942191     -1.264198     -1.075847
  H       3.209198     -0.647091     -0.012346
  H       2.496654      0.395734     -1.241966
  H       1.034908     -0.735007      1.205871
  H       1.616684      0.906464      1.055321
  H      -0.085345      1.335822     -0.794408
  H      -1.197580     -1.276127      0.441485
  H      -2.760390      1.463620      0.063539
  H      -3.477754     -0.146954      0.634542
15
Coordinates from ORCA-job scan E -270.941757600021
  C       2.300711     -0.366160     -0.518929
  C       1.204160      0.036920      0.472414
  C      -0.064124      0.417346     -0.191293
  C      -1.278386     -0.312243     -0.024293
  C      -2.707393      0.402049      0.090248
  O      -2.271840     -0.263090     -1.079436
  H       1.996673     -1.232836     -1.103574
  H       3.225997     -0.613076      0.001954
  H       2.514437      0.443432     -1.215764
  H       1.027969     -0.783830      1.170633
  H       1.578026      0.872177      1.075744
  H      -0.079424      1.279646     -0.846149
  H      -1.224045     -1.272068      0.481840
  H      -2.740323      1.484771      0.040023
  H      -3.482436     -0.093038      0.667533
15
Coordinates from ORCA-job scan E -270.941785324778
  C       2.320642     -0.339305     -0.517967
  C       1.196038      0.007485      0.461773
  C      -0.068684      0.375815     -0.215337
  C      -1.295347     -0.323083     -0.010336
  C      -2.707953      0.424534      0.094564
  O      -2.299366     -0.288145     -1.055461
  H       2.050871     -1.196587     -1.132542
  H       3.242115     -0.576613      0.013815
  H       2.526985      0.494778     -1.187795
  H       1.026066     -0.835899      1.134003
  H       1.539103      0.833607      1.096696
  H      -0.074112      1.218225     -0.895887
  H      -1.254006     -1.266182      0.527380
  H      -2.716720      1.505658      0.010238
  H      -3.485630     -0.034287      0.697805
15
Coordinates from ORCA-job scan E -270.941809466370
  C       2.331999     -0.318224     -0.519507
  C       1.193159     -0.014766      0.456464
  C      -0.071904      0.345998     -0.224139
  C      -1.306749     -0.330686      0.006257
  C      -2.707889      0.440645      0.091383
  O      -2.315397     -0.311107     -1.038744
  H       2.084210     -1.165597     -1.156746
  H       3.253074     -0.550933      0.014772
  H       2.529528      0.534886     -1.167799
  H       1.031919     -0.875416      1.109025
  H       1.515954      0.802298      1.114423
  H      -0.070937      1.172907     -0.923603
  H      -1.282840     -1.259539      0.568607
  H      -2.696202      1.519128     -0.021762
  H      -3.487926      0.010408      0.712321
15
Coordinates from ORCA-job scan E -270.941819193323
  C       2.350460     -0.291296     -0.514165
  C       1.183351     -0.044480      0.442803
  C      -0.076471      0.298825     -0.255884
  C      -1.322674     -0.341401      0.013465
  C      -2.704119      0.464290      0.102162
  O      -2.346777     -0.325846     -1.013404
  H       2.141443     -1.129877     -1.176363
  H       3.266546     -0.509588      0.034395
  H       2.536758      0.582589     -1.137808
  H       1.031302     -0.924033      1.071748
  H       1.470346      0.764275      1.128414
  H      -0.067393      1.103113     -0.981272
  H      -1.307726     -1.254460      0.601650
  H      -2.670707      1.538776     -0.040582
  H      -3.484336      0.069114      0.745792
15
Coordinates from ORCA-job scan E -270.941831290427
  C       2.350408     -0.293526     -0.512734
  C       1.183783     -0.041245      0.442921
  C      -0.075249      0.299835     -0.258011
  C      -1.321039     -0.340838      0.010035
  C      -2.702633      0.463635      0.107053
  O      -2.346555     -0.318689     -1.016938
  H       2.140293     -1.134986     -1.170806
  H       3.266669     -0.510487      0.036024
  H       2.536779      0.577502     -1.140307
  H       1.031605     -0.917577      1.076716
  H       1.469739      0.770628      1.124990
  H      -0.068478      1.103318     -0.984249
  H      -1.310262     -1.258550      0.590925
  H      -2.671786      1.538713     -0.030740
  H      -3.483274      0.062267      0.746072
15
Coordinates from ORCA-job scan E -270.941832512040
  C       2.351175     -0.293153     -0.512439
  C       1.183525     -0.042007      0.442181
  C      -0.074997      0.298785     -0.259678
  C      -1.320896     -0.340852      0.009863
  C      -2.702050      0.464231      0.108082
  O      -2.347567     -0.319017     -1.016310
  H       2.142078     -1.134509     -1.171035
  H       3.267020     -0.509955      0.036999
  H       2.537466      0.578312     -1.139364
  H       1.031375     -0.918755      1.075535
  H       1.467732      0.769794      1.125172
  H      -0.069478      1.102702     -0.985509
  H      -1.310448     -1.258225      0.591439
  H      -2.672255      1.539090     -0.031480
  H      -3.482680      0.063559      0.747495
15
Coordinates from ORCA-job scan E -270.941832783434
  C       2.352266     -0.291754     -0.512245
  C       1.183066     -0.043806      0.441184
  C      -0.075118      0.296547     -0.261472
  C      -1.321408     -0.341273      0.010506
  C      -2.701636      0.465440      0.108368
  O      -2.349207     -0.320724     -1.014646
  H       2.145117     -1.132291     -1.172523
  H       3.267623     -0.508368      0.038039
  H       2.538207      0.581037     -1.137402
  H       1.031253     -0.921816      1.072903
  H       1.464979      0.767209      1.126182
  H      -0.070205      1.100135     -0.987685
  H      -1.311520     -1.257327      0.594176
  H      -2.671425      1.539923     -0.033992
  H      -3.481992      0.067067      0.749556
15
Coordinates from ORCA-job scan E -270.941832836852
  C       2.351907     -0.292556     -0.512351
  C       1.183277     -0.042966      0.441371
  C      -0.074990      0.298043     -0.260853
  C      -1.320915     -0.340916      0.010258
  C      -2.701778      0.464719      0.108054
  O      -2.348439     -0.320564     -1.015155
  H       2.143677     -1.133263     -1.172072
  H       3.267221     -0.509805      0.037765
  H       2.538484      0.579690     -1.138072
  H       1.030933     -0.920499      1.073598
  H       1.466067      0.768194      1.125804
  H      -0.070596      1.102449     -0.986142
  H      -1.310589     -1.257296      0.593377
  H      -2.672367      1.539322     -0.033633
  H      -3.481892      0.065449      0.749002
15
Coordinates from ORCA-job scan E -270.934720364609
  C       2.368585     -0.295266     -0.515146
  C       1.201205     -0.049091      0.441001
  C      -0.058421      0.292516     -0.258497
  C      -1.303431     -0.347996      0.013162
  C      -2.758935      0.484239      0.108927
  O      -2.355637     -0.321296     -1.003663
  H       2.160095     -1.134532     -1.176622
  H       3.284947     -0.513045      0.033015
  H       2.553403      0.578694     -1.139002
  H       1.050636     -0.928319      1.071303
  H       1.484371      0.760701      1.126901
  H      -0.055887      1.098951     -0.981548
  H      -1.285865     -1.263867      0.596953
  H      -2.743515      1.558329     -0.039556
  H      -3.541550      0.079981      0.743724
15
Coordinates from ORCA-job scan E -270.935147321444
  C       2.365501     -0.294739     -0.512398
  C       1.195188     -0.047698      0.439491
  C      -0.062582      0.287609     -0.266421
  C      -1.298937     -0.353531      0.003183
  C      -2.750366      0.484127      0.112547
  O      -2.353470     -0.309969     -0.999123
  H       2.160987     -1.137119     -1.171144
  H       3.280529     -0.508154      0.039487
  H       2.550195      0.577206     -1.139091
  H       1.044880     -0.924684      1.072929
  H       1.473777      0.765931      1.122459
  H      -0.061074      1.094775     -0.988738
  H      -1.289283     -1.266492      0.589924
  H      -2.726069      1.557964     -0.029266
  H      -3.529275      0.074776      0.747111
15
Coordinates from ORCA-job scan E -270.935406969894
  C       2.363340     -0.295419     -0.504577
  C       1.185235     -0.041143      0.435539
  C      -0.068842      0.279901     -0.285294
  C      -1.295512     -0.363620     -0.021467
  C      -2.738434      0.483230      0.123780
  O      -2.356583     -0.284928     -0.996470
  H       2.166929     -1.146654     -1.154369
  H       3.275061     -0.498537      0.056744
  H       2.549580      0.569388     -1.140627
  H       1.033474     -0.910843      1.078369
  H       1.455088      0.782127      1.110206
  H      -0.065963      1.084084     -1.010877
  H      -1.299512     -1.277893      0.563127
  H      -2.695971      1.559106      0.005304
  H      -3.507889      0.061201      0.761562
15
Coordinates from ORCA-job scan E -270.935437718366
  C       2.364416     -0.296800     -0.500672
  C       1.182806     -0.037090      0.433573
  C      -0.069347      0.278494     -0.293491
  C      -1.296624     -0.366033     -0.032002
  C      -2.736639      0.482585      0.130734
  O      -2.361653     -0.275057     -0.998947
  H       2.170847     -1.152472     -1.145498
  H       3.274435     -0.495562      0.065006
  H       2.552297      0.563869     -1.141874
  H       1.029253     -0.902766      1.081406
  H       1.449672      0.790620      1.103874
  H      -0.064581      1.079782     -1.022240
  H      -1.303208     -1.284147      0.546951
  H      -2.689567      1.559538      0.024414
  H      -3.502105      0.055041      0.769716
15
Coordinates from ORCA-job scan E -270.935464960306
  C       2.366816     -0.299966     -0.493212
  C       1.178511     -0.029588      0.429431
  C      -0.069349      0.276418     -0.309170
  C      -1.298747     -0.368945     -0.050870
  C      -2.733542      0.481393      0.145518
  O      -2.371576     -0.256664     -1.003663
  H       2.178610     -1.164103     -1.128301
  H       3.273354     -0.490387      0.080900
  H       2.558197      0.552512     -1.144315
  H       1.020979     -0.887363      1.086842
  H       1.439758      0.806511      1.091290
  H      -0.061434      1.072531     -1.043523
  H      -1.307730     -1.295613      0.514961
  H      -2.681039      1.559832      0.060415
  H      -3.492805      0.043432      0.784649
15
Coordinates from ORCA-job scan E -270.935467654758
  C       2.367460     -0.300669     -0.491781
  C       1.177561     -0.028656      0.428278
  C      -0.069160      0.275815     -0.312608
  C      -1.298878     -0.368987     -0.053943
  C      -2.732701      0.481424      0.149117
  O      -2.373436     -0.253294     -1.004005
  H       2.180737     -1.166436     -1.125090
  H       3.273166     -0.489260      0.084238
  H       2.559507      0.550292     -1.144672
  H       1.019152     -0.884992      1.087360
  H       1.437336      0.809008      1.088750
  H      -0.061296      1.071603     -1.047331
  H      -1.307072     -1.297553      0.508901
  H      -2.680776      1.560015      0.066393
  H      -3.491597      0.041690      0.787343
15
Coordinates from ORCA-job scan E -270.935469038146
  C       2.368187     -0.301011     -0.490734
  C       1.176658     -0.028653      0.427043
  C      -0.069048      0.274870     -0.315686
  C      -1.298897     -0.368883     -0.055828
  C      -2.731857      0.481807      0.152091
  O      -2.374936     -0.251258     -1.003578
  H       2.183207     -1.167841     -1.123100
  H       3.273103     -0.488063      0.087016
  H       2.560628      0.549127     -1.144570
  H       1.017600     -0.884248      1.086915
  H       1.434781      0.809954      1.087028
  H      -0.061761      1.071043     -1.050019
  H      -1.305650     -1.298575      0.505276
  H      -2.681123      1.560428      0.069556
  H      -3.490892      0.041303      0.789542
15
Coordinates from ORCA-job scan E -270.935469179146
  C       2.368435     -0.300822     -0.490588
  C       1.176425     -0.029032      0.426699
  C      -0.069113      0.274390     -0.316376
  C      -1.299015     -0.368947     -0.055948
  C      -2.731709      0.482077      0.152434
  O      -2.375312     -0.251328     -1.003180
  H       2.184069     -1.167654     -1.123131
  H       3.273156     -0.487604      0.087548
  H       2.560844      0.549457     -1.144248
  H       1.017314     -0.884799      1.086324
  H       1.433992      0.809504      1.087013
  H      -0.061978      1.070695     -1.050565
  H      -1.305354     -1.298480      0.505461
  H      -2.681033      1.560668      0.069369
  H      -3.490719      0.041875      0.790138
15
Coordinates from ORCA-job scan E -270.928524644016
  C       2.385359     -0.303729     -0.493653
  C       1.194353     -0.035135      0.425885
  C      -0.052415      0.268977     -0.314847
  C      -1.281489     -0.375819     -0.054118
  C      -2.789320      0.501558      0.155382
  O      -2.382053     -0.252435     -0.991835
  H       2.200885     -1.169222     -1.128000
  H       3.291021     -0.491103      0.082820
  H       2.576156      0.548264     -1.145559
  H       1.036867     -0.892597      1.083703
  H       1.452136      0.802114      1.087750
  H      -0.046962      1.067235     -1.046935
  H      -1.280495     -1.305090      0.507808
  H      -2.753075      1.580329      0.065851
  H      -3.550968      0.056655      0.786700
15
Coordinates from ORCA-job scan E -270.929125652435
  C       2.381403     -0.302149     -0.492028
  C       1.187936     -0.035952      0.424551
  C      -0.057402      0.263237     -0.320801
  C      -1.276061     -0.381313     -0.063319
  C      -2.779323      0.501389      0.156396
  O      -2.376679     -0.244697     -0.984378
  H       2.200893     -1.168895     -1.125800
  H       3.285950     -0.486341      0.086951
  H       2.571528      0.549654     -1.144385
  H       1.031266     -0.892858      1.083206
  H       1.440952      0.803409      1.085170
  H      -0.053709      1.064343     -1.049996
  H      -1.283251     -1.302811      0.509350
  H      -2.734433      1.579109      0.069384
  H      -3.539069      0.053876      0.786650
15
Coordinates from ORCA-job scan E -270.929456014512
  C       2.377092     -0.301727     -0.487050
  C       1.178903     -0.032332      0.422095
  C      -0.064471      0.257693     -0.332370
  C      -1.271083     -0.388996     -0.084366
  C      -2.767262      0.498997      0.160891
  O      -2.372548     -0.227543     -0.977877
  H       2.201682     -1.173171     -1.115819
  H       3.279419     -0.479874      0.097379
  H       2.568365      0.546093     -1.144228
  H       1.021290     -0.884989      1.085752
  H       1.425593      0.812725      1.077479
  H      -0.058870      1.057254     -1.063450
  H      -1.292228     -1.303699      0.498893
  H      -2.705519      1.577035      0.090646
  H      -3.520362      0.042534      0.792975
15
Coordinates from ORCA-job scan E -270.929479808020
  C       2.377267     -0.303185     -0.484841
  C       1.177992     -0.028892      0.421345
  C      -0.064531      0.259060     -0.335806
  C      -1.271791     -0.389404     -0.091631
  C      -2.767085      0.497126      0.164093
  O      -2.374891     -0.221944     -0.980215
  H       2.201922     -1.177080     -1.110246
  H       3.278718     -0.479757      0.101462
  H       2.570285      0.541689     -1.145340
  H       1.018587     -0.878697      1.088263
  H       1.424230      0.818671      1.073551
  H      -0.056327      1.055879     -1.069871
  H      -1.295464     -1.305524      0.489768
  H      -2.701930      1.575551      0.103369
  H      -3.516981      0.036507      0.797051
15
Coordinates from ORCA-job scan E -270.929493075763
  C       2.377361     -0.306202     -0.481629
  C       1.176881     -0.023390      0.420195
  C      -0.063978      0.262133     -0.340686
  C      -1.272197     -0.388741     -0.101744
  C      -2.766997      0.493923      0.169753
  O      -2.377973     -0.213420     -0.984079
  H       2.201526     -1.184057     -1.101354
  H       3.277504     -0.480460      0.107404
  H       2.573320      0.533653     -1.147698
  H       1.014336     -0.868354      1.092570
  H       1.423025      0.828193      1.067022
  H      -0.052484      1.055728     -1.078213
  H      -1.298464     -1.308122      0.474758
  H      -2.698986      1.572716      0.122440
  H      -3.512873      0.026399      0.802211
15
Coordinates from ORCA-job scan E -270.929494007492
  C       2.377251     -0.307245     -0.481137
  C       1.176737     -0.022255      0.419949
  C      -0.063712      0.263198     -0.341486
  C      -1.271741     -0.388100     -0.103322
  C      -2.766871      0.493084      0.171147
  O      -2.378080     -0.211701     -0.984712
  H       2.201061     -1.186029     -1.099445
  H       3.277174     -0.481037      0.108374
  H       2.573865      0.531353     -1.148592
  H       1.013424     -0.866026      1.093627
  H       1.423175      0.830221      1.065476
  H      -0.052261      1.057195     -1.078592
  H      -1.297955     -1.308478      0.471602
  H      -2.699528      1.571956      0.125542
  H      -3.512537      0.023862      0.802521
15
Coordinates from ORCA-job scan E -270.924439216592
  C       2.394360     -0.310345     -0.484410
  C       1.194870     -0.028260      0.418960
  C      -0.046783      0.258078     -0.340182
  C      -1.254101     -0.394437     -0.101741
  C      -2.825073      0.512080      0.174902
  O      -2.384780     -0.212728     -0.973381
  H       2.217943     -1.187831     -1.104497
  H       3.295205     -0.484864      0.103481
  H       2.589485      0.529924     -1.150206
  H       1.033060     -0.873689      1.090926
  H       1.441629      0.822949      1.066038
  H      -0.036898      1.053947     -1.075296
  H      -1.272985     -1.314766      0.473596
  H      -2.772513      1.591608      0.123010
  H      -3.573418      0.038334      0.799750
15
Coordinates from ORCA-job scan E -270.925259756254
  C       2.389849     -0.309049     -0.483932
  C       1.188825     -0.030091      0.417938
  C      -0.052148      0.252837     -0.344007
  C      -1.247424     -0.399385     -0.110055
  C      -2.814713      0.511198      0.174028
  O      -2.376082     -0.206312     -0.963919
  H       2.216605     -1.187103     -1.104098
  H       3.290074     -0.481155      0.105334
  H       2.583900      0.531629     -1.149544
  H       1.028156     -0.875582      1.089970
  H       1.431514      0.822476      1.064189
  H      -0.045387      1.054248     -1.073457
  H      -1.274389     -1.308555      0.480795
  H      -2.755281      1.589510      0.122508
  H      -3.563497      0.035334      0.795201
15
Coordinates from ORCA-job scan E -270.925705917433
  C       2.383998     -0.310475     -0.481547
  C       1.182017     -0.026539      0.417125
  C      -0.059253      0.252053     -0.348726
  C      -1.239919     -0.403500     -0.128259
  C      -2.804714      0.505696      0.173466
  O      -2.364602     -0.191123     -0.955321
  H       2.211453     -1.191898     -1.097166
  H       3.283530     -0.479595      0.109772
  H       2.579225      0.526470     -1.151512
  H       1.020292     -0.868246      1.093327
  H       1.422367      0.830202      1.058183
  H      -0.051072      1.054106     -1.077869
  H      -1.280700     -1.301059      0.479913
  H      -2.732049      1.583982      0.138462
  H      -3.550570      0.019925      0.791103
15
Coordinates from ORCA-job scan E -270.925738951637
  C       2.383536     -0.313144     -0.480312
  C       1.182490     -0.022279      0.417247
  C      -0.058684      0.256482     -0.349225
  C      -1.239975     -0.401857     -0.134238
  C      -2.806547      0.501975      0.174302
  O      -2.364941     -0.186408     -0.958673
  H       2.208477     -1.196650     -1.092247
  H       3.282831     -0.482260      0.111395
  H       2.580918      0.520441     -1.153860
  H       1.018510     -0.860871      1.096821
  H       1.424848      0.836497      1.054708
  H      -0.047460      1.056254     -1.080900
  H      -1.283187     -1.299854      0.473631
  H      -2.731208      1.580439      0.150766
  H      -3.549606      0.011237      0.791535
15
Coordinates from ORCA-job scan E -270.925760815414
  C       2.381978     -0.319047     -0.478351
  C       1.183378     -0.014146      0.417582
  C      -0.057114      0.265592     -0.349741
  C      -1.238633     -0.397419     -0.143952
  C      -2.809640      0.494585      0.176242
  O      -2.364382     -0.177805     -0.965132
  H       2.201486     -1.206669     -1.082717
  H       3.280996     -0.488159      0.113813
  H       2.583425      0.507642     -1.159197
  H       1.014950     -0.846350      1.103975
  H       1.430335      0.848602      1.047662
  H      -0.041782      1.063322     -1.083600
  H      -1.284961     -1.297267      0.461299
  H      -2.731452      1.572974      0.172597
  H      -3.548585     -0.005855      0.790472
15
Coordinates from ORCA-job scan E -270.925763258622
  C       2.381235     -0.321330     -0.478138
  C       1.183813     -0.011744      0.417812
  C      -0.056480      0.268820     -0.349394
  C      -1.237408     -0.395482     -0.145650
  C      -2.810390      0.492191      0.176877
  O      -2.363369     -0.175568     -0.966735
  H       2.198635     -1.210247     -1.079967
  H       3.280361     -0.490523      0.113867
  H       2.583796      0.503075     -1.161422
  H       1.014079     -0.841864      1.106398
  H       1.432800      0.852138      1.045491
  H      -0.041211      1.067702     -1.082030
  H      -1.283751     -1.296525      0.457789
  H      -2.732903      1.570592      0.177325
  H      -3.549207     -0.011232      0.788728
15
Coordinates from ORCA-job scan E -270.925765994011
  C       2.379615     -0.326044     -0.478104
  C       1.184950     -0.007127      0.418457
  C      -0.055225      0.275518     -0.348027
  C      -1.234595     -0.391591     -0.147838
  C      -2.811735      0.487500      0.177871
  O      -2.360756     -0.171783     -0.969361
  H       2.192422     -1.217350     -1.074964
  H       3.279142     -0.495655      0.113210
  H       2.584173      0.493900     -1.166125
  H       1.012815     -0.833242      1.111188
  H       1.438537      0.858697      1.041490
  H      -0.041141      1.077976     -1.076781
  H      -1.280111     -1.295398      0.451431
  H      -2.736838      1.566026      0.184296
  H      -3.551252     -0.021428      0.784206
15
Coordinates from ORCA-job scan E -270.925766424567
  C       2.379050     -0.327410     -0.478256
  C       1.185403     -0.005779      0.418790
  C      -0.054936      0.277625     -0.347210
  C      -1.233746     -0.390694     -0.148080
  C      -2.812047      0.486217      0.177885
  O      -2.359772     -0.171092     -0.969916
  H       2.190266     -1.219274     -1.073779
  H       3.278776     -0.497371      0.112662
  H       2.584117      0.491340     -1.167540
  H       1.012649     -0.830874      1.112558
  H       1.440612      0.860424      1.040580
  H      -0.041524      1.081455     -1.074428
  H      -1.278579     -1.295428      0.449832
  H      -2.738241      1.564841      0.185219
  H      -3.552027     -0.023981      0.782635
15
Coordinates from ORCA-job scan E -270.923810956444
  C       2.396377     -0.330630     -0.481749
  C       1.203899     -0.011471      0.417740
  C      -0.037662      0.273054     -0.345867
  C      -1.215941     -0.396090     -0.146368
  C      -2.871072      0.503963      0.181961
  O      -2.366925     -0.171989     -0.958514
  H       2.207114     -1.221282     -1.078935
  H       3.297041     -0.501481      0.107485
  H       2.600079      0.489709     -1.169552
  H       1.032520     -0.838148      1.109969
  H       1.459666      0.853522      1.040984
  H      -0.025684      1.078597     -1.071218
  H      -1.253588     -1.300878      0.452002
  H      -2.812250      1.583655      0.183012
  H      -3.613574     -0.010530      0.780001
15
Coordinates from ORCA-job scan E -270.924708074875
  C       2.392636     -0.329064     -0.482949
  C       1.199822     -0.014370      0.417288
  C      -0.042483      0.268128     -0.346607
  C      -1.209933     -0.400319     -0.150212
  C      -2.863133      0.503140      0.178492
  O      -2.355846     -0.166928     -0.946629
  H       2.205504     -1.219293     -1.081409
  H       3.293575     -0.498601      0.105977
  H       2.594384      0.492826     -1.169509
  H       1.030450     -0.842314      1.108392
  H       1.452507      0.850841      1.040833
  H      -0.033981      1.078968     -1.066486
  H      -1.255603     -1.292250      0.465476
  H      -2.798611      1.581753      0.178877
  H      -3.609287     -0.012517      0.769417
15
Coordinates from ORCA-job scan E -270.925161280822
  C       2.387760     -0.330473     -0.483990
  C       1.197534     -0.012409      0.418034
  C      -0.047784      0.269383     -0.344177
  C      -1.203285     -0.401088     -0.158144
  C      -2.859044      0.497124      0.172053
  O      -2.339912     -0.154463     -0.934781
  H       2.198121     -1.221826     -1.080027
  H       3.289925     -0.499948      0.103136
  H       2.589117      0.489569     -1.172873
  H       1.028704     -0.838563      1.111175
  H       1.450952      0.854562      1.038302
  H      -0.037841      1.079464     -1.065311
  H      -1.261947     -1.279735      0.476316
  H      -2.783820      1.575296      0.188887
  H      -3.608479     -0.026892      0.752348
15
Coordinates from ORCA-job scan E -270.925198501323
  C       2.387151     -0.333169     -0.483615
  C       1.198931     -0.008640      0.418555
  C      -0.046716      0.274165     -0.343136
  C      -1.203139     -0.398052     -0.161454
  C      -2.862380      0.492951      0.170794
  O      -2.338836     -0.150534     -0.938076
  H       2.194131     -1.225905     -1.076539
  H       3.289566     -0.503473      0.102928
  H       2.590226      0.483975     -1.175486
  H       1.028295     -0.832126      1.114488
  H       1.455199      0.859714      1.035670
  H      -0.033897      1.082014     -1.066760
  H      -1.264036     -1.276177      0.473928
  H      -2.783893      1.570690      0.200740
  H      -3.610600     -0.035432      0.748914
15
Coordinates from ORCA-job scan E -270.925238472590
  C       2.384894     -0.340585     -0.482638
  C       1.201712      0.000795      0.419532
  C      -0.043764      0.286162     -0.341567
  C      -1.201238     -0.389392     -0.169200
  C      -2.869655      0.482148      0.168670
  O      -2.335686     -0.140765     -0.946456
  H       2.183478     -1.237018     -1.067133
  H       3.287698     -0.512600      0.102833
  H       2.592432      0.468704     -1.182413
  H       1.026337     -0.815398      1.122973
  H       1.465333      0.872826      1.028137
  H      -0.025597      1.091019     -1.068573
  H      -1.266366     -1.266682      0.467302
  H      -2.783670      1.557919      0.230297
  H      -3.615908     -0.057134      0.739188
15
Coordinates from ORCA-job scan E -270.925244676934
  C       2.383873     -0.343467     -0.482435
  C       1.202382      0.003935      0.419732
  C      -0.042784      0.290220     -0.341406
  C      -1.199686     -0.386026     -0.170998
  C      -2.871423      0.478373      0.168802
  O      -2.334063     -0.137407     -0.948444
  H       2.179629     -1.241379     -1.063675
  H       3.286841     -0.515726      0.102757
  H       2.592765      0.462861     -1.185217
  H       1.025450     -0.809517      1.125950
  H       1.468739      0.877275      1.025202
  H      -0.024277      1.095764     -1.067638
  H      -1.265286     -1.263833      0.464616
  H      -2.783426      1.553326      0.239295
  H      -3.618734     -0.064399      0.734411
15
Coordinates from ORCA-job scan E -270.925251222162
  C       2.382470     -0.347773     -0.482343
  C       1.203386      0.008330      0.419884
  C      -0.041321      0.296061     -0.341322
  C      -1.197018     -0.381139     -0.172475
  C      -2.873547      0.472902      0.169898
  O      -2.331660     -0.133200     -0.950352
  H       2.174170     -1.247857     -1.058752
  H       3.285690     -0.520214      0.102452
  H       2.593101      0.454226     -1.189521
  H       1.024334     -0.801137      1.130060
  H       1.473939      0.883397      1.020849
  H      -0.023713      1.104140     -1.064728
  H      -1.262166     -1.260651      0.460591
  H      -2.782903      1.546823      0.250551
  H      -3.624762     -0.073907      0.726159
15
Coordinates from ORCA-job scan E -270.925253013326
  C       2.382156     -0.348948     -0.482488
  C       1.203780      0.009537      0.419885
  C      -0.040947      0.297722     -0.341181
  C      -1.196146     -0.380061     -0.172259
  C      -2.873912      0.471304      0.170713
  O      -2.330964     -0.132647     -0.950178
  H       2.172679     -1.249622     -1.057533
  H       3.285477     -0.521419      0.102135
  H       2.593126      0.451881     -1.190874
  H       1.024224     -0.798910      1.131070
  H       1.475668      0.884972      1.019670
  H      -0.024300      1.107188     -1.063027
  H      -1.260488     -1.260518      0.459520
  H      -2.782140      1.545055      0.252716
  H      -3.628212     -0.075535      0.722782
15
Coordinates from ORCA-job scan E -270.925254253597
  C       2.382070     -0.349226     -0.482734
  C       1.204043      0.010010      0.419896
  C      -0.040919      0.298334     -0.340845
  C      -1.195756     -0.380228     -0.171665
  C      -2.873781      0.470580      0.171430
  O      -2.330686     -0.133294     -0.949452
  H       2.172089     -1.250063     -1.057326
  H       3.285480     -0.521738      0.101719
  H       2.593002      0.451275     -1.191495
  H       1.024421     -0.798200      1.131319
  H       1.476539      0.885473      1.019333
  H      -0.025200      1.108719     -1.061651
  H      -1.259123     -1.261324      0.459312
  H      -2.780480      1.544310      0.252858
  H      -3.631697     -0.074627      0.720251
15
Coordinates from ORCA-job scan E -270.925254987792
  C       2.382011     -0.348937     -0.482970
  C       1.204153      0.010094      0.419981
  C      -0.041129      0.298267     -0.340366
  C      -1.195693     -0.381107     -0.171210
  C      -2.873408      0.470349      0.171788
  O      -2.330628     -0.134399     -0.948784
  H       2.171943     -1.249721     -1.057617
  H       3.285535     -0.521466      0.101297
  H       2.592703      0.451691     -1.191665
  H       1.024746     -0.798278      1.131278
  H       1.476736      0.885483      1.019475
  H      -0.025951      1.108885     -1.060922
  H      -1.258316     -1.262380      0.459594
  H      -2.778076      1.543997      0.252598
  H      -3.634626     -0.072477      0.718475
15
Coordinates from ORCA-job scan E -270.925255379587
  C       2.382001     -0.348329     -0.483059
  C       1.204034      0.009832      0.420044
  C      -0.041433      0.297629     -0.340118
  C      -1.195893     -0.382146     -0.171129
  C      -2.872991      0.470583      0.171730
  O      -2.330833     -0.135353     -0.948500
  H       2.172279     -1.248934     -1.058111
  H       3.285581     -0.520789      0.101138
  H       2.592409      0.452699     -1.191385
  H       1.024974     -0.798895      1.131035
  H       1.476194      0.885141      1.019845
  H      -0.026283      1.107879     -1.061086
  H      -1.258285     -1.263157      0.460077
  H      -2.775888      1.544110      0.252374
  H      -3.635865     -0.070271      0.718096
15
Coordinates from ORCA-job scan E -270.926165194579
  C       2.399469     -0.351586     -0.486709
  C       1.222905      0.004501      0.419048
  C      -0.023835      0.293632     -0.338523
  C      -1.177939     -0.386608     -0.168975
  C      -2.932644      0.486808      0.175517
  O      -2.339121     -0.136099     -0.936857
  H       2.188977     -1.251045     -1.063273
  H       3.304031     -0.525082      0.095665
  H       2.608578      0.450939     -1.193727
  H       1.045151     -0.805720      1.128668
  H       1.495903      0.878649      1.020162
  H      -0.010031      1.105468     -1.057737
  H      -1.233306     -1.267649      0.462883
  H      -2.850703      1.562177      0.249897
  H      -3.697434     -0.058386      0.714911
15
Coordinates from ORCA-job scan E -270.926943989036
  C       2.397273     -0.350287     -0.489119
  C       1.221372      0.001611      0.418810
  C      -0.027006      0.289566     -0.337098
  C      -1.173554     -0.389043     -0.167169
  C      -2.928623      0.486061      0.171125
  O      -2.327810     -0.130943     -0.923083
  H       2.187963     -1.249202     -1.066921
  H       3.302812     -0.522882      0.091796
  H       2.603924      0.453885     -1.195012
  H       1.046176     -0.809883      1.127535
  H       1.492242      0.875838      1.020207
  H      -0.016088      1.104409     -1.053354
  H      -1.236482     -1.258923      0.478534
  H      -2.841952      1.560220      0.247219
  H      -3.700246     -0.060427      0.697481
15
Coordinates from ORCA-job scan E -270.927333620223
  C       2.394829     -0.351646     -0.492554
  C       1.223269      0.002475      0.419620
  C      -0.029331      0.291137     -0.331413
  C      -1.169218     -0.386453     -0.164060
  C      -2.930570      0.480552      0.162223
  O      -2.311767     -0.119779     -0.907988
  H       2.181968     -1.250822     -1.068714
  H       3.302641     -0.525053      0.084605
  H       2.599807      0.451570     -1.200042
  H       1.050046     -0.807897      1.129949
  H       1.496136      0.877640      1.018448
  H      -0.017314      1.103077     -1.051195
  H      -1.243746     -1.244867      0.496618
  H      -2.834160      1.552782      0.258679
  H      -3.712591     -0.072715      0.666774
15
Coordinates from ORCA-job scan E -270.927383444559
  C       2.394497     -0.353992     -0.492937
  C       1.225285      0.005420      0.419924
  C      -0.027943      0.295024     -0.330068
  C      -1.169022     -0.382392     -0.164366
  C      -2.934852      0.476324      0.159626
  O      -2.309444     -0.116015     -0.909734
  H       2.178435     -1.254045     -1.066561
  H       3.302751     -0.528388      0.083232
  H       2.600608      0.446889     -1.202771
  H       1.050990     -0.802735      1.132564
  H       1.500934      0.881558      1.016052
  H      -0.013678      1.104586     -1.052515
  H      -1.245938     -1.238863      0.498850
  H      -2.833278      1.546652      0.272351
  H      -3.719345     -0.080022      0.657304
15
Coordinates from ORCA-job scan E -270.927527564549
  C       2.391922     -0.366649     -0.493688
  C       1.233479      0.020892      0.420519
  C      -0.020466      0.314361     -0.327143
  C      -1.166376     -0.360594     -0.167522
  C      -2.953747      0.454760      0.150316
  O      -2.299825     -0.096801     -0.920266
  H       2.160543     -1.271817     -1.053197
  H       3.301522     -0.544979      0.079220
  H       2.604460      0.421116     -1.216295
  H       1.052824     -0.774769      1.145789
  H       1.522863      0.902461      1.001882
  H       0.003021      1.114757     -1.059682
  H      -1.252357     -1.208476      0.505844
  H      -2.825750      1.510445      0.345146
  H      -3.752112     -0.114709      0.610028
15
Coordinates from ORCA-job scan E -270.927573437410
  C       2.390385     -0.372725     -0.493517
  C       1.235901      0.028155      0.420019
  C      -0.017326      0.322658     -0.328251
  C      -1.163850     -0.350471     -0.169295
  C      -2.960249      0.444495      0.149300
  O      -2.296015     -0.087727     -0.923334
  H       2.152886     -1.280828     -1.045610
  H       3.300189     -0.551644      0.078916
  H       2.605773      0.408265     -1.222573
  H       1.052210     -0.761018      1.151595
  H       1.531201      0.912493      0.993992
  H       0.008306      1.121101     -1.062948
  H      -1.252117     -1.195661      0.506931
  H      -2.817959      1.490865      0.380175
  H      -3.769335     -0.127959      0.585552
15
Coordinates from ORCA-job scan E -270.927656223993
  C       2.387934     -0.383180     -0.492763
  C       1.239015      0.041094      0.417944
  C      -0.012263      0.336322     -0.332950
  C      -1.158485     -0.333430     -0.171992
  C      -2.969458      0.425329      0.152323
  O      -2.290826     -0.073117     -0.925259
  H       2.141041     -1.297144     -1.030756
  H       3.297726     -0.561361      0.079985
  H       2.607781      0.385184     -1.233704
  H       1.050146     -0.736010      1.160936
  H       1.544057      0.930488      0.978485
  H       0.014471      1.133761     -1.068770
  H      -1.248041     -1.175761      0.506968
  H      -2.796422      1.451254      0.444332
  H      -3.806675     -0.143432      0.536172
15
Coordinates from ORCA-job scan E -270.927731030831
  C       2.386902     -0.389640     -0.492246
  C       1.240656      0.050406      0.415272
  C      -0.009291      0.344568     -0.338199
  C      -1.154076     -0.323318     -0.172442
  C      -2.974381      0.409397      0.159429
  O      -2.288555     -0.066139     -0.921841
  H       2.134878     -1.308493     -1.019331
  H       3.296601     -0.565293      0.081467
  H       2.608808      0.369402     -1.242045
  H       1.048777     -0.717845      1.166517
  H       1.551625      0.943688      0.966013
  H       0.015601      1.142846     -1.073114
  H      -1.241745     -1.164581      0.507398
  H      -2.770235      1.416111      0.494390
  H      -3.845566     -0.141109      0.489681
15
Coordinates from ORCA-job scan E -270.927822122741
  C       2.387624     -0.391162     -0.492649
  C       1.241359      0.056047      0.412231
  C      -0.008654      0.346475     -0.342845
  C      -1.150685     -0.321737     -0.169300
  C      -2.975851      0.394993      0.170684
  O      -2.288856     -0.069653     -0.912022
  H       2.134950     -1.313981     -1.012391
  H       3.297474     -0.562357      0.082131
  H       2.608635      0.362405     -1.248151
  H       1.049371     -0.707031      1.168555
  H       1.553912      0.952396      0.956889
  H       0.011482      1.146110     -1.076270
  H      -1.233036     -1.162273      0.511394
  H      -2.735812      1.384059      0.533383
  H      -3.891912     -0.114289      0.439312
15
Coordinates from ORCA-job scan E -270.927918050000
  C       2.390005     -0.385808     -0.494675
  C       1.241405      0.056173      0.410081
  C      -0.011150      0.339691     -0.343983
  C      -1.149511     -0.331700     -0.161700
  C      -2.973921      0.384913      0.182555
  O      -2.291374     -0.086214     -0.897113
  H       2.141920     -1.310535     -1.013285
  H       3.300750     -0.551506      0.080216
  H       2.606403      0.368419     -1.250875
  H       1.053587     -0.707450      1.166840
  H       1.549806      0.954335      0.954160
  H       0.002675      1.139004     -1.077802
  H      -1.224535     -1.170091      0.521890
  H      -2.698400      1.361940      0.553836
  H      -3.937660     -0.061170      0.390805
15
Coordinates from ORCA-job scan E -270.927991267210
  C       2.392159     -0.376988     -0.497716
  C       1.241773      0.052566      0.410029
  C      -0.015044      0.328451     -0.340307
  C      -1.150576     -0.347020     -0.152798
  C      -2.970679      0.382110      0.187958
  O      -2.293317     -0.106106     -0.884399
  H       2.150260     -1.301289     -1.020092
  H       3.304617     -0.538714      0.075495
  H       2.602471      0.382040     -1.250910
  H       1.060677     -0.715311      1.164204
  H       1.543404      0.951339      0.957046
  H      -0.005233      1.124054     -1.078311
  H      -1.221131     -1.181164      0.536273
  H      -2.672552      1.353746      0.558118
  H      -3.966827     -0.007713      0.356362
15
Coordinates from ORCA-job scan E -270.928033991959
  C       2.392854     -0.370539     -0.500409
  C       1.243107      0.049978      0.411249
  C      -0.017550      0.319900     -0.335013
  C      -1.151961     -0.357951     -0.146524
  C      -2.968878      0.382737      0.186209
  O      -2.292668     -0.118032     -0.878409
  H       2.154386     -1.293959     -1.025979
  H       3.307325     -0.530463      0.070078
  H       2.598675      0.392096     -1.251275
  H       1.067816     -0.720839      1.163951
  H       1.540127      0.949401      0.959820
  H      -0.008242      1.109909     -1.079230
  H      -1.222879     -1.186910      0.548843
  H      -2.660851      1.349096      0.563879
  H      -3.981260      0.025575      0.333763
15
Coordinates from ORCA-job scan E -270.928044195783
  C       2.392521     -0.369670     -0.501261
  C       1.244213      0.050442      0.411970
  C      -0.017576      0.318115     -0.333054
  C      -1.152109     -0.359405     -0.145329
  C      -2.969347      0.382387      0.183163
  O      -2.291127     -0.118343     -0.878759
  H       2.153882     -1.293267     -1.026452
  H       3.308022     -0.529218      0.067745
  H       2.597323      0.392740     -1.252654
  H       1.070839     -0.719796      1.165771
  H       1.540808      0.950808      0.959182
  H      -0.007415      1.105439     -1.080265
  H      -1.225267     -1.185745      0.552898
  H      -2.659345      1.342900      0.573977
  H      -3.985420      0.032613      0.324020
15
Coordinates from ORCA-job scan E -270.928045518630
  C       2.392376     -0.370157     -0.501261
  C       1.244469      0.050954      0.412077
  C      -0.017225      0.318109     -0.333144
  C      -1.151899     -0.358631     -0.145534
  C      -2.969711      0.382034      0.182330
  O      -2.290570     -0.116600     -0.879540
  H       2.153408     -1.294097     -1.025677
  H       3.308120     -0.529473      0.067452
  H       2.597161      0.391566     -1.253337
  H       1.071442     -0.718478      1.166779
  H       1.541376      0.951805      0.958281
  H      -0.006961      1.105319     -1.080513
  H      -1.226082     -1.184761      0.552757
  H      -2.660166      1.340486      0.578188
  H      -3.985735      0.031924      0.322093
15
Coordinates from ORCA-job scan E -270.928045847253
  C       2.392454     -0.370418     -0.501231
  C       1.244551      0.051132      0.412023
  C      -0.017010      0.317993     -0.333422
  C      -1.151775     -0.358192     -0.145488
  C      -2.969912      0.381690      0.182339
  O      -2.290427     -0.115709     -0.879697
  H       2.153463     -1.294589     -1.025221
  H       3.308287     -0.529467      0.067426
  H       2.597168      0.390968     -1.253663
  H       1.071766     -0.717878      1.167198
  H       1.541554      0.952237      0.957737
  H      -0.006965      1.105435     -1.080552
  H      -1.226398     -1.184515      0.552458
  H      -2.660590      1.339438      0.580002
  H      -3.986163      0.031875      0.321043
15
Coordinates from ORCA-job scan E -270.918462311891
  C       2.369292     -0.365900     -0.496369
  C       1.219241      0.057332      0.413408
  C      -0.040887      0.321764     -0.335335
  C      -1.175658     -0.354655     -0.148285
  C      -2.890433      0.363252      0.177391
  O      -2.274560     -0.114709     -0.894728
  H       2.131863     -1.291468     -1.018606
  H       3.283990     -0.523114      0.074628
  H       2.575241      0.393743     -1.250229
  H       1.045216     -0.709917      1.170093
  H       1.514611      0.959884      0.957621
  H      -0.029584      1.107224     -1.084538
  H      -1.259332     -1.181592      0.547966
  H      -2.559517      1.311930      0.580102
  H      -3.909483      0.026225      0.327834
15
Coordinates from ORCA-job scan E -270.920199713508
  C       2.371463     -0.366079     -0.492213
  C       1.218910      0.057437      0.414507
  C      -0.037949      0.324651     -0.337936
  C      -1.179731     -0.353379     -0.156349
  C      -2.891412      0.366657      0.180702
  O      -2.289489     -0.119808     -0.914983
  H       2.134130     -1.290212     -1.017085
  H       3.284148     -0.525951      0.081459
  H       2.581040      0.394709     -1.243910
  H       1.041175     -0.711394      1.168793
  H       1.515277      0.957883      0.962377
  H      -0.022985      1.110410     -1.086374
  H      -1.254976     -1.192429      0.526937
  H      -2.570087      1.331304      0.553891
  H      -3.899512      0.016200      0.381135
15
Coordinates from ORCA-job scan E -270.922137619870
  C       2.373892     -0.364336     -0.484779
  C       1.214669      0.052742      0.417181
  C      -0.034860      0.324828     -0.342509
  C      -1.185529     -0.356494     -0.168779
  C      -2.886367      0.379586      0.187934
  O      -2.315283     -0.129581     -0.947956
  H       2.140289     -1.284540     -1.018045
  H       3.282425     -0.528218      0.094296
  H       2.588467      0.402022     -1.229320
  H       1.031721     -0.721873      1.164451
  H       1.509138      0.948292      0.974452
  H      -0.016721      1.115364     -1.085670
  H      -1.244005     -1.218301      0.486736
  H      -2.601359      1.382246      0.480560
  H      -3.856476     -0.001736      0.492399
15
Coordinates from ORCA-job scan E -270.922916354493
  C       2.375218     -0.361375     -0.481550
  C       1.210808      0.046144      0.418798
  C      -0.035438      0.321084     -0.343828
  C      -1.188648     -0.362904     -0.172245
  C      -2.878990      0.393629      0.191498
  O      -2.327120     -0.137031     -0.958630
  H       2.146497     -1.278341     -1.022375
  H       3.281629     -0.526770      0.100398
  H       2.590631      0.410994     -1.219543
  H       1.026994     -0.734198      1.159829
  H       1.501325      0.938188      0.983824
  H      -0.018216      1.116839     -1.081212
  H      -1.239216     -1.237862      0.466110
  H      -2.627678      1.421130      0.422157
  H      -3.817794     -0.009526      0.557720
15
Coordinates from ORCA-job scan E -270.923907988945
  C       2.377155     -0.355090     -0.478148
  C       1.204275      0.033210      0.420630
  C      -0.038959      0.311692     -0.344435
  C      -1.193912     -0.376746     -0.173061
  C      -2.864181      0.421838      0.193507
  O      -2.339934     -0.148867     -0.965147
  H       2.158183     -1.266713     -1.031816
  H       3.280956     -0.521442      0.107550
  H       2.591449      0.428125     -1.204861
  H       1.021606     -0.757348      1.150844
  H       1.486268      0.919770      0.998678
  H      -0.025718      1.116679     -1.071344
  H      -1.236996     -1.268381      0.442537
  H      -2.672912      1.478704      0.329833
  H      -3.747278     -0.015431      0.646186
15
Coordinates from ORCA-job scan E -270.924628163395
  C       2.378999     -0.346580     -0.476098
  C       1.197190      0.017133      0.421702
  C      -0.045165      0.297978     -0.343825
  C      -1.200858     -0.393863     -0.169650
  C      -2.846438      0.457597      0.189505
  O      -2.347634     -0.160638     -0.963109
  H       2.172229     -1.252059     -1.044362
  H       3.280839     -0.512753      0.112645
  H       2.589674      0.449395     -1.189839
  H       1.018150     -0.785661      1.139155
  H       1.468016      0.897488      1.014763
  H      -0.037750      1.112550     -1.059449
  H      -1.242306     -1.296975      0.429612
  H      -2.722988      1.531837      0.236340
  H      -3.661958     -0.015449      0.723562
15
Coordinates from ORCA-job scan E -270.924926213482
  C       2.379651     -0.342213     -0.477003
  C       1.195111      0.009469      0.421477
  C      -0.048927      0.289653     -0.342405
  C      -1.204381     -0.400535     -0.164698
  C      -2.840280      0.474296      0.182308
  O      -2.343903     -0.162309     -0.955358
  H       2.178353     -1.245153     -1.051315
  H       3.281697     -0.507475      0.111685
  H       2.587050      0.459363     -1.185455
  H       1.019335     -0.798983      1.133377
  H       1.460543      0.887263      1.020993
  H      -0.044063      1.106309     -1.055482
  H      -1.251130     -1.300806      0.438847
  H      -2.739058      1.551012      0.208860
  H      -3.629996     -0.019893      0.735120
15
Coordinates from ORCA-job scan E -270.925025128245
  C       2.379885     -0.340250     -0.477761
  C       1.194810      0.006114      0.421329
  C      -0.050357      0.285458     -0.341553
  C      -1.206734     -0.400743     -0.163005
  C      -2.841191      0.480667      0.174001
  O      -2.340085     -0.160601     -0.952312
  H       2.180591     -1.241893     -1.054868
  H       3.282362     -0.505436      0.110272
  H       2.585795      0.463796     -1.183916
  H       1.020495     -0.805097      1.130577
  H       1.458042      0.882533      1.023971
  H      -0.044367      1.099974     -1.057166
  H      -1.258934     -1.293927      0.451009
  H      -2.743941      1.557170      0.205765
  H      -3.616367     -0.027765      0.734608
15
Coordinates from ORCA-job scan E -270.925053446871
  C       2.379887     -0.340134     -0.477593
  C       1.194957      0.005474      0.421602
  C      -0.049973      0.285164     -0.341425
  C      -1.207952     -0.397914     -0.163923
  C      -2.844326      0.481462      0.169075
  O      -2.339581     -0.158622     -0.954394
  H       2.180481     -1.241065     -1.055788
  H       3.282373     -0.506214      0.110163
  H       2.586160      0.464585     -1.182906
  H       1.020291     -0.806595      1.129894
  H       1.458139      0.881124      1.025416
  H      -0.041134      1.096500     -1.060815
  H      -1.262433     -1.287218      0.455823
  H      -2.748351      1.557633      0.207786
  H      -3.608536     -0.034179      0.738037
15
Coordinates from ORCA-job scan E -270.925067967564
  C       2.379838     -0.341172     -0.477175
  C       1.195523      0.006051      0.422003
  C      -0.048564      0.286872     -0.341638
  C      -1.208510     -0.392858     -0.165342
  C      -2.848681      0.480100      0.165851
  O      -2.339589     -0.155337     -0.957817
  H       2.179139     -1.241681     -1.055592
  H       3.282189     -0.508698      0.110388
  H       2.587381      0.463318     -1.182396
  H       1.019640     -0.805897      1.130236
  H       1.459847      0.881240      1.025986
  H      -0.035788      1.094105     -1.065803
  H      -1.264587     -1.279474      0.458351
  H      -2.754753      1.555968      0.212713
  H      -3.603084     -0.042536      0.741186
15
Coordinates from ORCA-job scan E -270.925070731641
  C       2.379928     -0.342118     -0.476969
  C       1.195901      0.006672      0.422026
  C      -0.047629      0.288254     -0.342111
  C      -1.208269     -0.390258     -0.165736
  C      -2.850268      0.478990      0.166161
  O      -2.339546     -0.153486     -0.958850
  H       2.178374     -1.242646     -1.055048
  H       3.282108     -0.510288      0.110676
  H       2.588296      0.461893     -1.182488
  H       1.019237     -0.804736      1.130667
  H       1.461064      0.881893      1.025563
  H      -0.033355      1.094158     -1.067750
  H      -1.264762     -1.276666      0.458245
  H      -2.758536      1.554938      0.215089
  H      -3.602544     -0.046599      0.741475
15
Coordinates from ORCA-job scan E -270.925070726376
  C       2.379928     -0.342118     -0.476969
  C       1.195901      0.006672      0.422026
  C      -0.047629      0.288254     -0.342111
  C      -1.208269     -0.390258     -0.165736
  C      -2.850268      0.478990      0.166161
  O      -2.339546     -0.153486     -0.958850
  H       2.178374     -1.242646     -1.055048
  H       3.282108     -0.510288      0.110676
  H       2.588296      0.461893     -1.182488
  H       1.019237     -0.804736      1.130667
  H       1.461064      0.881893      1.025563
  H      -0.033355      1.094158     -1.067750
  H      -1.264762     -1.276666      0.458245
  H      -2.758536      1.554938      0.215089
  H      -3.602544     -0.046599      0.741475
15
Coordinates from ORCA-job scan E -270.925084057274
  C       2.374961     -0.343800     -0.474081
  C       1.190471      0.009865      0.422400
  C      -0.050334      0.294404     -0.345066
  C      -1.213127     -0.381161     -0.171595
  C      -2.836399      0.472541      0.168264
  O      -2.341870     -0.159327     -0.964758
  H       2.171558     -1.244397     -1.051406
  H       3.275568     -0.514112      0.115358
  H       2.587124      0.458674     -1.180220
  H       1.009995     -0.800040      1.131800
  H       1.458028      0.885673      1.024025
  H      -0.030905      1.097570     -1.073612
  H      -1.263505     -1.270681      0.448469
  H      -2.748267      1.548586      0.221506
  H      -3.583297     -0.053794      0.749868
15
Coordinates from ORCA-job scan E -270.925070636239
  C       2.379451     -0.342786     -0.476419
  C       1.195255      0.007444      0.421895
  C      -0.047611      0.289721     -0.343026
  C      -1.209007     -0.388272     -0.166464
  C      -2.848412      0.477753      0.167477
  O      -2.340241     -0.153546     -0.959869
  H       2.177437     -1.243452     -1.054126
  H       3.281231     -0.511372      0.111734
  H       2.588757      0.460714     -1.182236
  H       1.017642     -0.803427      1.130899
  H       1.461007      0.882835      1.024955
  H      -0.032349      1.095264     -1.069039
  H      -1.264545     -1.275931      0.455947
  H      -2.758791      1.553890      0.216197
  H      -3.599823     -0.048835      0.743027
15
Coordinates from ORCA-job scan E -270.925071388991
  C       2.379824     -0.342914     -0.476490
  C       1.195505      0.007324      0.421696
  C      -0.047326      0.289568     -0.343303
  C      -1.208722     -0.388328     -0.166125
  C      -2.848967      0.477921      0.167951
  O      -2.340150     -0.152851     -0.959609
  H       2.177912     -1.243634     -1.054145
  H       3.281552     -0.511395      0.111769
  H       2.589131      0.460560     -1.182336
  H       1.017883     -0.803488      1.130760
  H       1.461163      0.882730      1.024778
  H      -0.032339      1.095467     -1.068877
  H      -1.264696     -1.275915      0.456270
  H      -2.760187      1.554166      0.215879
  H      -3.600582     -0.049211      0.742732
