17
Coordinates from ORCA-job freq E -421.360455047703
  C      -0.802068     -1.594157      1.162094
  C      -1.135578     -1.090968     -0.217874
  C       2.023050      0.593678      0.176968
  C       0.642115      0.342240      0.566343
  C      -0.602783      0.358855     -0.306831
  O      -0.590256      2.055450     -1.910011
  O       1.292558      1.472832      1.010426
  O      -0.358617      0.686899     -1.658705
  H       0.256556     -0.668715      1.309745
  H      -0.420832     -2.600196      1.233180
  H      -1.512405     -1.340815      1.935194
  H      -2.204169     -1.109017     -0.434443
  H      -0.619494     -1.673170     -0.981437
  H       2.257609      0.971529     -0.812299
  H       2.820995      0.046769      0.664334
  H      -1.325955      1.068600      0.113279
  H       0.279274      2.480186     -1.849963
17
Coordinates from ORCA-job freq E -421.362146494932
  C      -0.798130     -1.574453      1.165203
  C      -1.111124     -1.101757     -0.234723
  C       2.007774      0.564323      0.144247
  C       0.624584      0.362633      0.548202
  C      -0.617475      0.355306     -0.314333
  O      -0.570688      2.101011     -1.827412
  O       1.282431      1.517221      0.918480
  O      -0.397247      0.707714     -1.663396
  H       0.231498     -0.639736      1.336075
  H      -0.399058     -2.573223      1.273402
  H      -1.529701     -1.315506      1.920867
  H      -2.171141     -1.152887     -0.482250
  H      -0.560222     -1.681177     -0.976505
  H       2.241261      0.875180     -0.868141
  H       2.799436      0.047511      0.672439
  H      -1.352004      1.043129      0.117098
  H       0.319805      2.464712     -1.729253
17
Coordinates from ORCA-job freq E -421.363037090186
  C      -0.798421     -1.552342      1.171520
  C      -1.083118     -1.111945     -0.247117
  C       1.990005      0.534360      0.107315
  C       0.607849      0.385200      0.535295
  C      -0.633373      0.355451     -0.321468
  O      -0.544936      2.130622     -1.786236
  O       1.288349      1.546860      0.838609
  O      -0.420050      0.726221     -1.665916
  H       0.207864     -0.599695      1.357734
  H      -0.386139     -2.542831      1.313414
  H      -1.552877     -1.288603      1.904683
  H      -2.131397     -1.202074     -0.530061
  H      -0.488692     -1.684001     -0.960838
  H       2.216164      0.787488     -0.922495
  H       2.777447      0.035194      0.658006
  H      -1.385774      1.019363      0.115026
  H       0.337099      2.460734     -1.567472
17
Coordinates from ORCA-job freq E -421.363909736591
  C      -0.795178     -1.522261      1.177174
  C      -1.050548     -1.125853     -0.262834
  C       1.956724      0.500107      0.052594
  C       0.579582      0.420384      0.513702
  C      -0.659365      0.353402     -0.336955
  O      -0.465963      2.169176     -1.715361
  O       1.282872      1.594047      0.703576
  O      -0.447713      0.753082     -1.670878
  H       0.173700     -0.534635      1.381901
  H      -0.354915     -2.495083      1.359729
  H      -1.579210     -1.263792      1.882406
  H      -2.083071     -1.268189     -0.579886
  H      -0.406644     -1.686895     -0.941555
  H       2.167319      0.659038     -0.999102
  H       2.744076      0.041944      0.637366
  H      -1.436016      0.985575      0.103932
  H       0.374350      2.419953     -1.305807
17
Coordinates from ORCA-job freq E -421.360802157612
  C      -0.789583     -1.471443      1.177984
  C      -0.984977     -1.111374     -0.282688
  C       1.966562      0.357844      0.047257
  C       0.594010      0.451254      0.519266
  C      -0.622348      0.374178     -0.361439
  O      -0.579800      2.205012     -1.750583
  O       1.388080      1.584479      0.552385
  O      -0.339087      0.809185     -1.672019
  H       0.118983     -0.433030      1.429394
  H      -0.302411     -2.413006      1.402551
  H      -1.624647     -1.250571      1.836430
  H      -1.998024     -1.287786     -0.642590
  H      -0.295617     -1.667141     -0.919140
  H       2.165766      0.369657     -1.017632
  H       2.723955     -0.073413      0.688495
  H      -1.423081      0.993325      0.052620
  H       0.002219      2.562830     -1.060292
17
Coordinates from ORCA-job freq E -421.363639378342
  C      -0.774119     -1.510721      1.172864
  C      -1.031600     -1.113999     -0.268319
  C       1.937644      0.436109      0.058284
  C       0.561486      0.453687      0.529617
  C      -0.664199      0.371897     -0.340537
  O      -0.492467      2.195519     -1.707368
  O       1.319261      1.603543      0.639935
  O      -0.433988      0.777002     -1.669677
  H       0.118351     -0.459238      1.420766
  H      -0.249812     -2.442359      1.348988
  H      -1.588600     -1.335939      1.869593
  H      -2.060051     -1.276110     -0.588243
  H      -0.374841     -1.661353     -0.945275
  H       2.144576      0.524173     -1.001660
  H       2.708262     -0.012022      0.672257
  H      -1.455552      0.995690      0.085928
  H       0.335648      2.454121     -1.277154
17
Coordinates from ORCA-job freq E -421.364003269318
  C      -0.793951     -1.510917      1.178482
  C      -1.040282     -1.127094     -0.267503
  C       1.951243      0.482159      0.040756
  C       0.575267      0.428183      0.509556
  C      -0.660493      0.354500     -0.345779
  O      -0.456289      2.177980     -1.708463
  O       1.291211      1.601077      0.670171
  O      -0.439839      0.758394     -1.676601
  H       0.159027     -0.512189      1.390666
  H      -0.339182     -2.475255      1.371998
  H      -1.588069     -1.260652      1.875875
  H      -2.068521     -1.281173     -0.592476
  H      -0.384827     -1.686885     -0.935904
  H       2.155294      0.618793     -1.014968
  H       2.737350      0.034129      0.634651
  H      -1.444037      0.981742      0.090040
  H       0.346098      2.417210     -1.220503
17
Coordinates from ORCA-job freq E -421.364016450100
  C      -0.798511     -1.511107      1.179257
  C      -1.041554     -1.129962     -0.267651
  C       1.953450      0.491935      0.036713
  C       0.578587      0.422376      0.506873
  C      -0.659092      0.350354     -0.346287
  O      -0.449742      2.174507     -1.707368
  O       1.285670      1.599825      0.676992
  O      -0.440469      0.754564     -1.677179
  H       0.168251     -0.524353      1.385704
  H      -0.361495     -2.482688      1.377484
  H      -1.587440     -1.242567      1.875926
  H      -2.069185     -1.283461     -0.594987
  H      -0.385207     -1.692190     -0.933235
  H       2.154663      0.639259     -1.018163
  H       2.744006      0.044675      0.625254
  H      -1.440610      0.978678      0.091769
  H       0.348679      2.410156     -1.211103
17
Coordinates from ORCA-job freq E -421.364003709946
  C      -0.798289     -1.511356      1.179139
  C      -1.042200     -1.129685     -0.267470
  C       1.953633      0.492198      0.037319
  C       0.578647      0.422181      0.507036
  C      -0.658877      0.350378     -0.346365
  O      -0.449897      2.173958     -1.708453
  O       1.285460      1.599681      0.677794
  O      -0.439933      0.754046     -1.677386
  H       0.168465     -0.524655      1.385655
  H      -0.360516     -2.482761      1.376563
  H      -1.586956     -1.243647      1.876403
  H      -2.070192     -1.282420     -0.593975
  H      -0.386834     -1.692286     -0.933706
  H       2.155226      0.639941     -1.017432
  H       2.744056      0.044796      0.625939
  H      -1.440177      0.979207      0.091325
  H       0.348383      2.410426     -1.212385
17
Coordinates from ORCA-job freq E -421.364020342373
  C      -0.798206     -1.511430      1.179117
  C      -1.042291     -1.129629     -0.267424
  C       1.953598      0.492259      0.037421
  C       0.578599      0.422215      0.507090
  C      -0.658906      0.350425     -0.346338
  O      -0.449832      2.173860     -1.708628
  O       1.285420      1.599687      0.677982
  O      -0.439906      0.753958     -1.677393
  H       0.168495     -0.524691      1.385648
  H      -0.360342     -2.482828      1.376363
  H      -1.586817     -1.243868      1.876497
  H      -2.070338     -1.282289     -0.593791
  H      -0.387049     -1.692217     -0.933788
  H       2.155237      0.640097     -1.017308
  H       2.743980      0.044766      0.626018
  H      -1.440192      0.979314      0.091287
  H       0.348550      2.410371     -1.212754
