17
Coordinates from ORCA-job freq E -421.364020342373
  C          -0.79820634394183     -1.51142950970127      1.17911684246656
  C          -1.04229129619425     -1.12962921526662     -0.26742434156386
  C           1.95359777870185      0.49225873603940      0.03742084942165
  C           0.57859854574045      0.42221481129543      0.50709021797644
  C          -0.65890625921063      0.35042470944209     -0.34633784700609
  O          -0.44983190402691      2.17386015818887     -1.70862797270178
  O           1.28542038321346      1.59968668989129      0.67798243731591
  O          -0.43990591637185      0.75395812430974     -1.67739253331149
  H           0.16849470539298     -0.52469085214221      1.38564849329040
  H          -0.36034225469327     -2.48282841795055      1.37636337447225
  H          -1.58681681246689     -1.24386779669611      1.87649673929821
  H          -2.07033788533239     -1.28228916190282     -0.59379091637438
  H          -0.38704851512349     -1.69221706905495     -0.93378765043649
  H           2.15523715995990      0.64009734090861     -1.01730821489622
  H           2.74398036293551      0.04476590436455      0.62601814026211
  H          -1.44019213309318      0.97931425807210      0.09128678189535
  H           0.34855038451052      2.41037129020244     -1.21275440010860
