17
Coordinates from ORCA-job freq E -421.442657955143
  C           1.87409235435632      1.19610338361624      0.26907630121571
  C          -1.99695460544000     -0.58379183189553     -1.27041083493178
  C           1.58581311055189     -0.25565103812527      0.03466817926601
  C          -1.00389891319340      0.00283249087771     -0.29429959317164
  C           0.25351996649054     -0.81940064159979     -0.20385078297654
  O          -0.96865902369268      0.65940042252953      1.88408285348099
  O           1.16703684889244     -0.64660470890632     -1.26993100103004
  O          -1.65156186796090     -0.00365687752356      1.00520330375088
  H           2.87075191476143      1.43851309045479     -0.09941815302014
  H           1.83301017175227      1.41392106454153      1.33559155925692
  H           1.15866110541165      1.83552557560742     -0.24147475573688
  H          -2.26494107081152     -1.59805492816243     -0.97474484569088
  H          -1.54198389858303     -0.61760150634124     -2.25906401752862
  H          -2.90067656528395      0.02079563874276     -1.31525336794119
  H           2.30924249349589     -0.94136519254874      0.46661314196674
  H          -0.77398854566452      1.04007401956633     -0.52974869931406
  H           0.07540552491759     -1.85480696083344      0.07941171240453
