17
Coordinates from ORCA-job freq
  C          -2.24722716198590     -0.23789274345676     -0.75985825141600
  C           2.49950308160810      0.10098314998890     -0.14739075108605
  C           0.08624819281178     -0.78237970630718     -0.09690235495315
  C          -1.01314399343345      0.26914088901577     -0.03315956932756
  C           1.43870773133324     -0.61528081597871      0.52217078709809
  O           0.36577114923728      2.11036779641443      0.02068712497603
  O           2.52311175495957     -1.24907888375394     -0.21559835799757
  O          -0.66315953837447      1.46328378641228     -0.71245213536171
  H           1.11759561525189      1.99987294468242     -0.57532183387144
  H          -2.95654975393017      0.57493342233315     -0.90038995601702
  H          -2.72579967019798     -1.02164260010846     -0.17507729846616
  H          -1.97902269011658     -0.64314215631986     -1.73554894389546
  H           3.34696309848522      0.67542153766147      0.20929630533092
  H          -0.28278521190100     -1.81019094873514     -0.12199076887452
  H           0.35577557223723     -0.69529077432669     -1.16012688820724
  H          -1.27522975663520      0.53913829955220      0.99448555539195
  H           1.52762558065045     -0.77683319707390      1.59285733667691
