15
Coordinates from ORCA-job freq E -270.972363986156
  C           1.12929716609811      0.05525046859885      3.20395230186266
  C          -2.57824722076869      0.38514115910166      0.59408722482863
  C           0.75990834457926     -0.96878312464149      2.17205385285775
  C          -0.35651683165843     -0.75167450994448      1.26849352752031
  C          -1.08195134549447      0.34206590244088      0.66124316970156
  O          -0.43254622320223     -0.69425728835247     -0.11346264330328
  H          -0.42906808162276     -1.60303369428048      2.25200572623265
  H           1.74525525274634      0.84848748816553      2.76816368617148
  H           0.23649145400888      0.52865358732563      3.61501336427759
  H           1.68568039290080     -0.38859350894337      4.02731562569559
  H          -2.90602184293759      0.83807290119319     -0.34156562454378
  H          -2.98103662220563     -0.62368728188961      0.66063664885811
  H          -2.97462477317562      0.97943197406360      1.41805786449904
  H           1.47690257374897     -1.71346723665879      1.85084930146878
  H          -0.57006924301687      1.29834716382136      0.57818997387271
