17
Coordinates from ORCA-job freq E -421.378882970861
  C           1.96460273848028      0.82497105503827     -0.51580003472331
  C           0.08204998101077     -0.77589317016386     -0.04948648271103
  C           1.11970491012533     -0.33901680338414     -1.04773684278448
  C          -1.81348201603485      0.64205394474950      1.16827194084022
  C          -1.18847801619829      0.04048152831257     -0.00414966601989
  O          -1.79073587515380     -1.79273267814412     -1.04322037934878
  O          -1.17879417495948      1.40922905086796      0.12584851319063
  O          -1.97950106539125     -0.40745774777665     -1.07491517468021
  H          -0.62581450731329     -1.74792775751390     -0.57948427020738
  H           1.33960428360599      1.68929709103031     -0.30059205073734
  H           2.48203169786290      0.53898763339298      0.40064348536647
  H           2.71507107511549      1.11338005773881     -1.25093980584053
  H           0.46470234197342     -1.10572548235985      0.91329741632547
  H           0.62290195034540     -0.04989406985424     -1.97540583481481
  H           1.77157277068317     -1.18366811529123     -1.27700992196641
  H          -2.89236171650759      0.72299682835851      1.18601601752996
  H          -1.29714337764417      0.65576963499906      2.12011709058144
