15
Coordinates from ORCA-job freq E -271.053186947008
  C           2.42946992473764     -0.06889031982228      0.27539203939144
  C          -2.72398657582414      0.32683956996132      0.29968881840172
  C           1.09637452399785     -0.79182896341031      0.11665014777080
  C          -1.32652181792881     -0.03654232851773      0.63299728298077
  C          -0.04583620080810      0.17357081930352     -0.00767435672003
  O          -0.45681693842137      0.83509365022228      1.22124384025920
  H           2.41288772651375      0.56483183048551      1.16179067915101
  H           2.63538029129148      0.56521615144701     -0.58808766108127
  H           3.25152864213984     -0.77600043034111      0.37648321061352
  H          -3.19365004118259     -0.46084547115913     -0.28562956402238
  H          -2.74857021667021      1.25687543632025     -0.27907220268711
  H          -3.30282799863650      0.47815902977021      1.21019277308606
  H           1.10912108193258     -1.42520051743076     -0.77368966310326
  H           0.90448917239701     -1.43974797159373      0.97269022074870
  H           0.01306342646157      0.87181551476494     -0.84200156478916
