17
Coordinates from ORCA-job freq E -421.390361744994
  C      -0.060135      0.701669     -0.903239
  C       0.687381     -0.590265     -1.099409
  C       1.961577     -0.621017     -0.214600
  C      -2.069817     -0.133036      0.488404
  C      -1.520957      0.632943     -0.648685
  O       1.243967      1.008957      1.197988
  O      -2.184992     -0.590495     -0.824613
  O       1.612905     -0.321803      1.107618
  H       0.488242      1.082639      0.275953
  H       0.235857      1.514307     -1.558210
  H       0.999828     -0.713905     -2.138704
  H       0.047519     -1.430479     -0.826054
  H       2.701478      0.094670     -0.593573
  H       2.392931     -1.622457     -0.180280
  H      -1.390608     -0.684880      1.128343
  H      -2.987275      0.201527      0.957831
  H      -2.085783      1.506479     -0.966236
17
Coordinates from ORCA-job freq E -421.390766289426
  C      -0.065579      0.705346     -0.915805
  C       0.684713     -0.589209     -1.087883
  C       1.953105     -0.622238     -0.204261
  C      -2.061434     -0.145928      0.479941
  C      -1.527661      0.643233     -0.646630
  O       1.281578      1.022409      1.187708
  O      -2.204376     -0.578728     -0.848226
  O       1.598063     -0.323351      1.119541
  H       0.493263      1.104373      0.251260
  H       0.233043      1.512986     -1.579279
  H       0.997161     -0.725769     -2.125397
  H       0.043685     -1.425541     -0.812627
  H       2.696358      0.091421     -0.569589
  H       2.381432     -1.622896     -0.172785
  H      -1.368577     -0.714066      1.093517
  H      -2.970313      0.180367      0.972348
  H      -2.092342      1.522446     -0.939301
17
Coordinates from ORCA-job freq E -421.392178144719
  C      -0.066595      0.720818     -0.913939
  C       0.675123     -0.583592     -1.059877
  C       1.944418     -0.629154     -0.190275
  C      -2.048230     -0.174062      0.460165
  C      -1.528103      0.664214     -0.630894
  O       1.345171      1.054059      1.167371
  O      -2.215081     -0.551704     -0.892107
  O       1.590282     -0.301380      1.132966
  H       0.478848      1.144880      0.184732
  H       0.229249      1.509081     -1.601640
  H       0.975105     -0.744546     -2.098098
  H       0.026206     -1.410474     -0.773101
  H       2.700276      0.070660     -0.549768
  H       2.355881     -1.637319     -0.153700
  H      -1.344782     -0.773473      1.029751
  H      -2.951869      0.124079      0.977536
  H      -2.093778      1.552769     -0.886588
17
Coordinates from ORCA-job freq E -421.393901460375
  C      -0.044957      0.738093     -0.894830
  C       0.663699     -0.591983     -1.025468
  C       1.926678     -0.633508     -0.172069
  C      -2.025410     -0.227811      0.425909
  C      -1.509114      0.698924     -0.583168
  O       1.377811      1.110337      1.060844
  O      -2.237386     -0.472587     -0.959888
  O       1.523940     -0.232460      1.122526
  H       0.488596      1.188554      0.097104
  H       0.238371      1.489917     -1.629058
  H       0.941368     -0.797549     -2.061762
  H       0.002780     -1.398106     -0.709875
  H       2.690638      0.056490     -0.525258
  H       2.327251     -1.642337     -0.089798
  H      -1.320307     -0.897298      0.909066
  H      -2.913499      0.029348      0.989334
  H      -2.058338      1.616834     -0.751076
17
Coordinates from ORCA-job freq E -421.392326271192
  C      -0.048321      0.724590     -0.895964
  C       0.672036     -0.593235     -1.052026
  C       1.938347     -0.630359     -0.187165
  C      -2.042507     -0.198715      0.447937
  C      -1.512586      0.678467     -0.603833
  O       1.324718      1.087091      1.100241
  O      -2.221232     -0.513373     -0.920765
  O       1.555134     -0.258414      1.119290
  H       0.495737      1.156638      0.164558
  H       0.240424      1.496620     -1.606244
  H       0.960338     -0.769660     -2.090639
  H       0.019053     -1.411667     -0.752577
  H       2.695472      0.065842     -0.548946
  H       2.348834     -1.636361     -0.118338
  H      -1.346912     -0.835292      0.985799
  H      -2.940797      0.087491      0.981256
  H      -2.065619      1.585191     -0.820051
17
Coordinates from ORCA-job freq E -421.391433316267
  C      -0.048204      0.719075     -0.900138
  C       0.672241     -0.596090     -1.062755
  C       1.935750     -0.629888     -0.188077
  C      -2.040462     -0.195988      0.451859
  C      -1.510344      0.673994     -0.606680
  O       1.295055      1.092656      1.089173
  O      -2.220151     -0.517811     -0.913195
  O       1.549433     -0.256046      1.116442
  H       0.517598      1.151873      0.200637
  H       0.241101      1.495621     -1.605031
  H       0.964241     -0.764348     -2.101538
  H       0.019487     -1.416933     -0.768841
  H       2.694132      0.065551     -0.551359
  H       2.348048     -1.634413     -0.112102
  H      -1.346916     -0.830835      0.994561
  H      -2.936781      0.097180      0.984783
  H      -2.062108      1.581258     -0.825204
17
Coordinates from ORCA-job freq E -421.391739010827
  C      -0.056059      0.719208     -0.903885
  C       0.675565     -0.587910     -1.071748
  C       1.939022     -0.632022     -0.190106
  C      -2.044566     -0.182118      0.461569
  C      -1.517924      0.663369     -0.619453
  O       1.299214      1.079399      1.120827
  O      -2.210298     -0.544767     -0.893172
  O       1.572619     -0.270703      1.122984
  H       0.508294      1.144508      0.215646
  H       0.232879      1.503822     -1.599257
  H       0.975891     -0.738368     -2.110904
  H       0.024706     -1.416106     -0.793755
  H       2.705035      0.054798     -0.556092
  H       2.341983     -1.641126     -0.123418
  H      -1.348230     -0.792796      1.027970
  H      -2.947173      0.117303      0.980304
  H      -2.078838      1.558365     -0.864976
17
Coordinates from ORCA-job freq E -421.391834659832
  C      -0.054675      0.719304     -0.902985
  C       0.670230     -0.592846     -1.062160
  C       1.939820     -0.630425     -0.188476
  C      -2.047687     -0.195410      0.448937
  C      -1.515487      0.671404     -0.611585
  O       1.311800      1.096712      1.113773
  O      -2.219901     -0.523849     -0.914593
  O       1.581974     -0.253914      1.125143
  H       0.520380      1.157826      0.215894
  H       0.231872      1.493416     -1.611171
  H       0.960379     -0.757613     -2.102093
  H       0.018489     -1.415055     -0.769228
  H       2.702708      0.055116     -0.562857
  H       2.344362     -1.638501     -0.115559
  H      -1.356295     -0.826776      0.997922
  H      -2.946823      0.098716      0.976446
  H      -2.069026      1.576751     -0.834873
17
Coordinates from ORCA-job freq E -421.391892164628
  C      -0.054915      0.719784     -0.903714
  C       0.667655     -0.595248     -1.052280
  C       1.939247     -0.629144     -0.185785
  C      -2.049997     -0.206737      0.439733
  C      -1.513204      0.679140     -0.601449
  O       1.328996      1.109601      1.102980
  O      -2.227240     -0.505558     -0.931341
  O       1.583981     -0.242872      1.125835
  H       0.525637      1.170866      0.205019
  H       0.229168      1.485237     -1.622452
  H       0.952518     -0.769679     -2.091997
  H       0.016704     -1.415145     -0.751794
  H       2.702135      0.053833     -0.564195
  H       2.342230     -1.637222     -0.106856
  H      -1.362590     -0.855227      0.973249
  H      -2.946972      0.081372      0.974035
  H      -2.061233      1.591856     -0.806452
17
Coordinates from ORCA-job freq E -421.391921824441
  C      -0.055892      0.719672     -0.905623
  C       0.666812     -0.595816     -1.047677
  C       1.937717     -0.629378     -0.181739
  C      -2.050272     -0.215631      0.434260
  C      -1.511342      0.683419     -0.593816
  O       1.337907      1.122938      1.091927
  O      -2.233119     -0.493301     -0.940842
  O       1.584484     -0.231417      1.126599
  H       0.528296      1.180977      0.197136
  H       0.225607      1.480168     -1.630468
  H       0.951922     -0.772382     -2.087176
  H       0.016095     -1.415904     -0.747457
  H       2.704882      0.045895     -0.564847
  H       2.334931     -1.639339     -0.094836
  H      -1.365763     -0.876134      0.956440
  H      -2.944697      0.069388      0.974492
  H      -2.055448      1.601702     -0.783840
17
Coordinates from ORCA-job freq E -421.391928148386
  C      -0.056651      0.719819     -0.907748
  C       0.667102     -0.594935     -1.048385
  C       1.935246     -0.630431     -0.178054
  C      -2.048506     -0.219760      0.433557
  C      -1.510440      0.684184     -0.590557
  O       1.340950      1.130458      1.085540
  O      -2.235229     -0.489935     -0.942283
  O       1.581855     -0.224982      1.127497
  H       0.528371      1.185825      0.192463
  H       0.222798      1.479282     -1.634424
  H       0.956460     -0.768537     -2.087234
  H       0.015551     -1.416238     -0.753317
  H       2.707631      0.037731     -0.563150
  H       2.326431     -1.642315     -0.085626
  H      -1.364539     -0.884211      0.951344
  H      -2.941183      0.064651      0.977081
  H      -2.053728      1.604248     -0.774169
17
Coordinates from ORCA-job freq E -421.391939370357
  C      -0.057321      0.720491     -0.910458
  C       0.667922     -0.593367     -1.051225
  C       1.931826     -0.632269     -0.173925
  C      -2.045149     -0.222526      0.434800
  C      -1.509846      0.683913     -0.588629
  O       1.342134      1.136397      1.079843
  O      -2.236133     -0.489490     -0.940750
  O       1.576425     -0.220077      1.128364
  H       0.527384      1.189550      0.187906
  H       0.219691      1.480150     -1.637824
  H       0.964179     -0.761927     -2.088867
  H       0.014748     -1.416155     -0.763975
  H       2.710191      0.028667     -0.559393
  H       2.316332     -1.646296     -0.076343
  H      -1.360515     -0.888386      0.949891
  H      -2.936027      0.061782      0.981423
  H      -2.053722      1.604400     -0.768304
17
Coordinates from ORCA-job freq E -421.391934047545
  C      -0.057498      0.721070     -0.911960
  C       0.668475     -0.592371     -1.053478
  C       1.929971     -0.633459     -0.172217
  C      -2.042861     -0.222616      0.436455
  C      -1.509759      0.683222     -0.588749
  O       1.341317      1.137386      1.078403
  O      -2.235568     -0.491129     -0.938445
  O       1.572710     -0.219531      1.128748
  H       0.526540      1.190301      0.186535
  H       0.218288      1.481387     -1.639047
  H       0.968780     -0.758028     -2.090370
  H       0.014113     -1.415698     -0.770543
  H       2.710780      0.025193     -0.556611
  H       2.311898     -1.648333     -0.073214
  H      -1.357166     -0.887373      0.951577
  H      -2.933147      0.061828      0.984031
  H      -2.054754      1.603006     -0.768582
17
Coordinates from ORCA-job freq E -421.391954150192
  C      -0.057476      0.721260     -0.912425
  C       0.668612     -0.592123     -1.054153
  C       1.929543     -0.633760     -0.171982
  C      -2.042106     -0.222180      0.437112
  C      -1.509775      0.682931     -0.589161
  O       1.340592      1.136814      1.078690
  O      -2.235175     -0.491995     -0.937495
  O       1.571603     -0.220180      1.128856
  H       0.526125      1.190080      0.186485
  H       0.218051      1.481885     -1.639266
  H       0.969932     -0.757197     -2.090824
  H       0.013838     -1.415424     -0.772103
  H       2.710579      0.025019     -0.555696
  H       2.311299     -1.648715     -0.073186
  H      -1.355949     -0.886198      0.952581
  H      -2.932321      0.062336      0.984747
  H      -2.055251      1.602303     -0.769646
17
Coordinates from ORCA-job freq E -421.391949655861
  C      -0.057461      0.721385     -0.912817
  C       0.668758     -0.591926     -1.054712
  C       1.929192     -0.633999     -0.171792
  C      -2.041511     -0.221835      0.437664
  C      -1.509769      0.682709     -0.589432
  O       1.339993      1.136383      1.078878
  O      -2.234866     -0.492665     -0.936717
  O       1.570622     -0.220685      1.128926
  H       0.525771      1.189935      0.186376
  H       0.217846      1.482245     -1.639477
  H       0.970900     -0.756489     -2.091219
  H       0.013702     -1.415261     -0.773430
  H       2.710455      0.024857     -0.554920
  H       2.310774     -1.649028     -0.073123
  H      -1.354993     -0.885277      0.953398
  H      -2.931684      0.062738      0.985345
  H      -2.055609      1.601769     -0.770414
17
Coordinates from ORCA-job freq E -421.391942157343
  C      -0.057434      0.721429     -0.913070
  C       0.668837     -0.591847     -1.055002
  C       1.929023     -0.634103     -0.171714
  C      -2.041170     -0.221611      0.437967
  C      -1.509751      0.682595     -0.589607
  O       1.339546      1.136051      1.079080
  O      -2.234730     -0.493004     -0.936286
  O       1.570084     -0.221047      1.128971
  H       0.525510      1.189813      0.186313
  H       0.217763      1.482418     -1.639623
  H       0.971399     -0.756196     -2.091413
  H       0.013631     -1.415173     -0.774063
  H       2.710323      0.024902     -0.554488
  H       2.310605     -1.649143     -0.073195
  H      -1.354457     -0.884755      0.953817
  H      -2.931293      0.063028      0.985694
  H      -2.055765      1.601500     -0.770848
17
Coordinates from ORCA-job freq E -421.391942012797
  C      -0.057416      0.721446     -0.913273
  C       0.668911     -0.591794     -1.055235
  C       1.928897     -0.634178     -0.171648
  C      -2.040908     -0.221446      0.438199
  C      -1.509730      0.682515     -0.589719
  O       1.339175      1.135816      1.079227
  O      -2.234661     -0.493228     -0.935958
  O       1.569644     -0.221303      1.129003
  H       0.525295      1.189729      0.186239
  H       0.217686      1.482527     -1.639757
  H       0.971792     -0.755977     -2.091580
  H       0.013599     -1.415130     -0.774569
  H       2.710243      0.024932     -0.554144
  H       2.310481     -1.649227     -0.073214
  H      -1.354061     -0.884408      0.954106
  H      -2.930973      0.063260      0.985986
  H      -2.055856      1.601321     -0.771129
17
Coordinates from ORCA-job freq E -421.391940192982
  C      -0.057399      0.721445     -0.913416
  C       0.668959     -0.591776     -1.055374
  C       1.928830     -0.634208     -0.171615
  C      -2.040747     -0.221339      0.438336
  C      -1.509710      0.682475     -0.589791
  O       1.338895      1.135644      1.079353
  O      -2.234640     -0.493331     -0.935767
  O       1.569383     -0.221478      1.129022
  H       0.525146      1.189666      0.186191
  H       0.217648      1.482575     -1.639864
  H       0.972020     -0.755887     -2.091677
  H       0.013593     -1.415112     -0.774825
  H       2.710184      0.024995     -0.553939
  H       2.310430     -1.649257     -0.073252
  H      -1.353810     -0.884196      0.954257
  H      -2.930771      0.063402      0.986172
  H      -2.055892      1.601238     -0.771276
17
Coordinates from ORCA-job freq E -421.391941332935
  C      -0.057383      0.721488     -0.913585
  C       0.669029     -0.591690     -1.055620
  C       1.928678     -0.634289     -0.171546
  C      -2.040497     -0.221206      0.438571
  C      -1.509682      0.682388     -0.589870
  O       1.338582      1.135476      1.079447
  O      -2.234484     -0.493598     -0.935442
  O       1.568927     -0.221673      1.129033
  H       0.525009      1.189623      0.186127
  H       0.217572      1.482701     -1.639974
  H       0.972377     -0.755600     -2.091867
  H       0.013572     -1.415056     -0.775393
  H       2.710161      0.024907     -0.553619
  H       2.310183     -1.649372     -0.073201
  H      -1.353416     -0.883831      0.954610
  H      -2.930507      0.063563      0.986414
  H      -2.056002      1.601024     -0.771552
17
Coordinates from ORCA-job freq E -421.391943891545
  C      -0.057366      0.721470     -0.913616
  C       0.669051     -0.591707     -1.055651
  C       1.928706     -0.634280     -0.171576
  C      -2.040502     -0.221138      0.438621
  C      -1.509678      0.682371     -0.589897
  O       1.338468      1.135357      1.079569
  O      -2.234485     -0.493634     -0.935379
  O       1.568922     -0.221786      1.129036
  H       0.524963      1.189575      0.186151
  H       0.217562      1.482696     -1.639996
  H       0.972410     -0.755617     -2.091896
  H       0.013596     -1.415075     -0.775411
  H       2.710126      0.025023     -0.553592
  H       2.310297     -1.649343     -0.073308
  H      -1.353434     -0.883734      0.954702
  H      -2.930515      0.063680      0.986434
  H      -2.056002      1.600996     -0.771657
17
Coordinates from ORCA-job freq E -421.391938344217
  C      -0.057345      0.721451     -0.913637
  C       0.669056     -0.591728     -1.055672
  C       1.928712     -0.634261     -0.171609
  C      -2.040482     -0.221072      0.438659
  C      -1.509657      0.682360     -0.589926
  O       1.338342      1.135230      1.079677
  O      -2.234460     -0.493664     -0.935330
  O       1.568877     -0.221904      1.129032
  H       0.524921      1.189515      0.186166
  H       0.217578      1.482688     -1.640003
  H       0.972407     -0.755654     -2.091916
  H       0.013605     -1.415089     -0.775404
  H       2.710062      0.025163     -0.553567
  H       2.310400     -1.649291     -0.073412
  H      -1.353415     -0.883638      0.954782
  H      -2.930499      0.063781      0.986448
  H      -2.055982      1.600968     -0.771753
17
Coordinates from ORCA-job freq E -421.391941278141
  C      -0.057328      0.721438     -0.913671
  C       0.669056     -0.591748     -1.055686
  C       1.928708     -0.634246     -0.171626
  C      -2.040438     -0.221023      0.438680
  C      -1.509648      0.682359     -0.589961
  O       1.338222      1.135123      1.079772
  O      -2.234467     -0.493674     -0.935291
  O       1.568803     -0.222004      1.129036
  H       0.524882      1.189469      0.186161
  H       0.217601      1.482680     -1.640031
  H       0.972399     -0.755708     -2.091929
  H       0.013606     -1.415101     -0.775381
  H       2.709989      0.025285     -0.553516
  H       2.310489     -1.649245     -0.073497
  H      -1.353348     -0.883572      0.954796
  H      -2.930432      0.063855      0.986488
  H      -2.055972      1.600966     -0.771810
17
Coordinates from ORCA-job freq E -421.391940474500
  C      -0.057340      0.721474     -0.913815
  C       0.669073     -0.591696     -1.055801
  C       1.928551     -0.634314     -0.171468
  C      -2.040245     -0.221124      0.438727
  C      -1.509608      0.682362     -0.589903
  O       1.338182      1.135306      1.079597
  O      -2.234498     -0.493636     -0.935233
  O       1.568509     -0.221860      1.129074
  H       0.524849      1.189622      0.185970
  H       0.217485      1.482705     -1.640220
  H       0.972666     -0.755527     -2.091988
  H       0.013545     -1.415071     -0.775749
  H       2.710037      0.025005     -0.553309
  H       2.310117     -1.649378     -0.073163
  H      -1.353098     -0.883735      0.954687
  H      -2.930148      0.063734      0.986698
  H      -2.055958      1.600990     -0.771571
