17
Coordinates from ORCA-job freq E -421.420510872927
  C          -1.66708995412661      1.52330218152367      0.48934024007582
  C           1.75387308811902     -0.99412037549070     -1.24988145721531
  C          -0.69106790006466      0.77347383033219      1.32387031950246
  C           1.32919555299258     -0.15764851717350     -0.08267749957759
  C           0.03024902157947     -0.32085141645169      0.57318505212798
  O          -1.31455481961029     -0.93908508558006     -1.16022165179648
  O           1.17412624168854     -0.83154671220177      1.17413898165976
  O          -0.80966147397022     -1.33992912135364      0.10560453307416
  H          -2.59108342872178      1.88371762577234      0.91444327697168
  H          -1.35736024914624      1.92713501707867     -0.46400852207023
  H           1.18322159225813     -1.91854226002188     -1.27984522247558
  H           2.81461904992812     -1.23184816686944     -1.17114221742234
  H           1.58904695698081     -0.44773887978690     -2.17796740291715
  H          -1.18347133833335      0.31627250362080      2.18419222251838
  H           0.08005832969944      1.44566708431222      1.72129556019119
  H           1.80294368145643      0.81558001325820      0.01647303427145
  H          -2.14304335072940     -0.50383672096848     -0.91679924691821
