17
Coordinates from ORCA-job freq E -421.399999078522
  C          -2.94734957732425      0.88829091690966     -0.64013136846002
  C           0.22084658365156     -1.01899538809172     -0.06512554806983
  C          -0.87862595272220     -0.59706875146231     -1.03930871297059
  C           1.36903751434450     -0.02930196224721     -0.01678335768725
  C          -1.51112017076961      0.71720805989509     -0.67667308000153
  O           3.46921004796809      0.28421876626046      0.81212464629866
  O          -2.30276602511023      0.71838374475870      0.54283658786176
  O           2.37687108642079     -0.62022886619452      0.77997693232177
  H          -3.59942776350061      1.73402247865470     -0.82191508449557
  H          -0.20240790260720     -1.13171032752119      0.93419039073430
  H           0.61520432908232     -1.99112243548260     -0.36384955185583
  H          -0.47353798895437     -0.51408015485090     -2.05155913816365
  H          -1.65752628015821     -1.35937616743596     -1.06258996875600
  H           1.06362332871239      0.92184229786432      0.42974327981221
  H           1.76603281895424      0.16679081613565     -1.01792300753843
  H          -0.88059781022400      1.59885298101605     -0.75478834210648
  H           3.44387776223683      0.58813499179173      1.72649032307648
