17
Coordinates from ORCA-job freq E -421.413970617763
  C          -2.38312144323718     -0.88273313513625     -0.29934829646968
  C          -1.26389329950413     -0.00042008779576     -0.71650374180709
  C           1.72455578584458      0.12672262745567      0.00437453030980
  C          -0.72059490768597      0.99804546309347      0.19360229557874
  C           0.71585731907128      1.08776622596178      0.56687756209469
  O           2.69934130550664     -1.89071927917751      0.41864412249958
  O           1.62382206899527     -1.04537430483153      0.79140842218244
  O           0.14373816225163      1.99628303519834     -0.34479359347130
  H          -2.02151305317964     -1.77714945463742      0.22255212571306
  H          -2.96245824773864     -1.22512273023877     -1.15629923477697
  H          -3.05766301705586     -0.36802330922781      0.38728949490462
  H          -0.74470641935667     -0.17982399982595     -1.64679309186599
  H           1.50437263757319     -0.08731174066435     -1.04389016429383
  H           2.73622596519530      0.53044174725297      0.08144716208345
  H          -1.41451993340887      1.37624394066269      0.94058459749419
  H           0.95736222044236      1.50504520884989      1.53961858228185
  H           2.24333685628669     -2.58278820693944     -0.07381277245756
