17
Coordinates from ORCA-job freq E -421.394331212654
  C          -2.47583276118299      0.37161294312481     -1.35854705816511
  C           0.48471692379780      0.87624861816742      0.04212292962228
  C          -2.28362359145091      0.34592547484407      0.10874948261252
  C          -0.60106561041986      0.67480893431441      0.82623779902420
  C           1.72117111776854      0.06944468627921      0.20310938287561
  O           2.99835334142547     -1.55718034081040     -0.77606565103546
  O          -1.74371234043780      1.46510939966225      0.72012299664911
  O           1.79362164460359     -0.81626931387195     -0.91286511617330
  H          -2.82428117207172     -0.59606354315733     -1.71398101168953
  H          -1.54163188997706      0.61453106304426     -1.86740706677593
  H          -3.21493367951894      1.12959217775063     -1.63765101851048
  H           0.43870372152949      1.61045914512642     -0.75131867586564
  H          -2.87871258557283     -0.28995537287490      0.75421110687002
  H          -0.56398268140068      0.03344230645932      1.70097425052936
  H           1.70068556298928     -0.51626529277408      1.12523407158846
  H           2.61547742485608      0.69977959678422      0.20812201411390
  H           3.54143557506257     -1.18000948206836     -1.47721543566995
