17
Coordinates from ORCA-job freq E -421.395058582679
  C      -2.438179      0.315133     -1.397619
  C       0.453423      0.941527      0.141289
  C      -2.393966      0.325999      0.078825
  C      -0.609010      0.714340      0.924558
  C       1.740026      0.200863      0.281306
  O       3.137781     -1.239934     -0.877053
  O      -1.819342      1.372073      0.761384
  O       1.867759     -0.580124     -0.892301
  H      -3.296742     -0.257211     -1.741512
  H      -1.538387     -0.145629     -1.822971
  H      -2.496583      1.333820     -1.777633
  H       0.388564      1.651347     -0.668205
  H      -2.745177     -0.513199      0.662436
  H      -0.571209      0.020893      1.759593
  H       1.735398     -0.448407      1.165391
  H       2.591480      0.891973      0.347969
  H       3.160552     -1.648254     -1.751627
17
Coordinates from ORCA-job freq E -421.394504826878
  C      -2.415752      0.306640     -1.394192
  C       0.449444      0.946942      0.139538
  C      -2.356765      0.286873      0.082263
  C      -0.609662      0.700970      0.921587
  C       1.735361      0.205863      0.266789
  O       3.124881     -1.231400     -0.858458
  O      -1.823409      1.357186      0.766675
  O       1.847712     -0.587887     -0.901778
  H      -3.297767     -0.223764     -1.747667
  H      -1.536226     -0.175800     -1.836632
  H      -2.437710      1.335223     -1.753828
  H       0.367639      1.664131     -0.664069
  H      -2.816558     -0.489807      0.675288
  H      -0.561164      0.020009      1.765888
  H       1.742608     -0.437534      1.153443
  H       2.591671      0.888994      0.313978
  H       3.162085     -1.631429     -1.734990
17
Coordinates from ORCA-job freq E -421.393684855151
  C      -2.424443      0.293230     -1.384137
  C       0.457468      0.950130      0.125995
  C      -2.337066      0.268177      0.093213
  C      -0.607119      0.681783      0.895496
  C       1.738183      0.202698      0.253555
  O       3.121795     -1.257044     -0.818991
  O      -1.815099      1.356982      0.759895
  O       1.867313     -0.576606     -0.924699
  H      -3.336346     -0.195157     -1.723281
  H      -1.575956     -0.226594     -1.842479
  H      -2.406355      1.321933     -1.744704
  H       0.377798      1.689110     -0.659123
  H      -2.900906     -0.425916      0.699617
  H      -0.558093     -0.002516      1.736530
  H       1.731377     -0.454182      1.129211
  H       2.598682      0.876984      0.321603
  H       3.235156     -1.567800     -1.723869
17
Coordinates from ORCA-job freq E -421.393184642799
  C      -2.410798      0.311315     -1.388876
  C       0.446285      0.938563      0.124894
  C      -2.314116      0.239417      0.087259
  C      -0.609261      0.667138      0.907666
  C       1.737024      0.209677      0.250105
  O       3.128099     -1.246057     -0.814094
  O      -1.823987      1.332077      0.774905
  O       1.832869     -0.640538     -0.882884
  H      -3.316387     -0.180358     -1.739847
  H      -1.556260     -0.177851     -1.868609
  H      -2.413409      1.352087     -1.714207
  H       0.344996      1.660543     -0.673845
  H      -2.911098     -0.445060      0.673836
  H      -0.543862     -0.000157      1.761117
  H       1.769560     -0.395418      1.161543
  H       2.591864      0.893207      0.247015
  H       3.214871     -1.583374     -1.712146
17
Coordinates from ORCA-job freq E -421.392461184790
  C      -2.382157      0.304270     -1.384099
  C       0.440207      0.951854      0.125756
  C      -2.294021      0.232751      0.094335
  C      -0.617503      0.666918      0.905117
  C       1.726367      0.214228      0.241805
  O       3.089269     -1.275002     -0.810059
  O      -1.832110      1.337286      0.786863
  O       1.808934     -0.639963     -0.890276
  H      -3.274383     -0.207659     -1.740061
  H      -1.513535     -0.165769     -1.856795
  H      -2.406419      1.344651     -1.709602
  H       0.339419      1.685956     -0.662059
  H      -2.916130     -0.438462      0.671754
  H      -0.546461     -0.004144      1.754949
  H       1.759601     -0.389433      1.153952
  H       2.587385      0.889304      0.232072
  H       3.197927     -1.571576     -1.719820
17
Coordinates from ORCA-job freq E -421.392495713092
  C      -2.388004      0.314636     -1.387957
  C       0.442180      0.956055      0.123610
  C      -2.283435      0.231836      0.089064
  C      -0.616414      0.666792      0.902223
  C       1.726920      0.216331      0.239984
  O       3.070064     -1.304094     -0.790888
  O      -1.831384      1.336987      0.787787
  O       1.799743     -0.651910     -0.882615
  H      -3.256515     -0.238005     -1.741381
  H      -1.500945     -0.105451     -1.873647
  H      -2.468671      1.356012     -1.701339
  H       0.340313      1.691283     -0.663158
  H      -2.874878     -0.465488      0.668244
  H      -0.541971     -0.002926      1.752868
  H       1.762761     -0.377922      1.158034
  H       2.590388      0.887587      0.218839
  H       3.196236     -1.576511     -1.705837
17
Coordinates from ORCA-job freq E -421.392523442428
  C      -2.382883      0.316607     -1.384616
  C       0.439710      0.952990      0.118056
  C      -2.281286      0.241869      0.093048
  C      -0.621197      0.667963      0.898306
  C       1.721103      0.208626      0.236547
  O       3.055198     -1.326636     -0.785090
  O      -1.830655      1.349959      0.787873
  O       1.793356     -0.661259     -0.885864
  H      -3.230532     -0.266940     -1.738827
  H      -1.479866     -0.073601     -1.865886
  H      -2.500534      1.353442     -1.701901
  H       0.340193      1.689627     -0.667895
  H      -2.862472     -0.461075      0.675968
  H      -0.548351      0.000505      1.750799
  H       1.753027     -0.385402      1.154644
  H       2.587143      0.876260      0.217167
  H       3.214437     -1.547722     -1.708496
17
Coordinates from ORCA-job freq E -421.392598600126
  C      -2.380877      0.320101     -1.382649
  C       0.438580      0.948956      0.113532
  C      -2.279173      0.249451      0.095275
  C      -0.624170      0.668280      0.895356
  C       1.717483      0.201348      0.234323
  O       3.044123     -1.346478     -0.780235
  O      -1.828931      1.359591      0.787050
  O       1.786633     -0.675003     -0.884212
  H      -3.206288     -0.293915     -1.737660
  H      -1.463424     -0.036835     -1.862417
  H      -2.537202      1.351903     -1.700554
  H       0.340544      1.685295     -0.673027
  H      -2.853205     -0.457289      0.680919
  H      -0.552570      0.003582      1.750065
  H       1.748455     -0.388411      1.155003
  H       2.585412      0.866084      0.211342
  H       3.230998     -1.521451     -1.708276
17
Coordinates from ORCA-job freq E -421.392736468447
  C      -2.384522      0.323929     -1.379537
  C       0.439822      0.942512      0.105680
  C      -2.277494      0.261357      0.098598
  C      -0.626578      0.668610      0.888403
  C       1.714316      0.188993      0.231018
  O       3.028360     -1.380268     -0.773498
  O      -1.823470      1.374547      0.782987
  O       1.783469     -0.690767     -0.886639
  H      -3.182044     -0.327813     -1.730826
  H      -1.452898      0.008328     -1.860546
  H      -2.591124      1.346521     -1.699831
  H       0.345942      1.679654     -0.680855
  H      -2.845001     -0.445646      0.690670
  H      -0.557769      0.007355      1.745971
  H       1.739543     -0.399396      1.152407
  H       2.585396      0.849268      0.210518
  H       3.270442     -1.471972     -1.700686
17
Coordinates from ORCA-job freq E -421.393058742675
  C      -2.394215      0.331360     -1.376821
  C       0.444105      0.931537      0.095865
  C      -2.276013      0.275258      0.100865
  C      -0.626355      0.668420      0.880192
  C       1.713142      0.170657      0.227142
  O       3.010150     -1.424869     -0.769106
  O      -1.813493      1.390940      0.775632
  O       1.777544     -0.718953     -0.885276
  H      -3.147712     -0.373111     -1.723088
  H      -1.446305      0.080347     -1.863344
  H      -2.675173      1.337045     -1.695856
  H       0.355227      1.667127     -0.692878
  H      -2.840920     -0.427544      0.700852
  H      -0.561363      0.013078      1.742585
  H       1.734287     -0.411491      1.152142
  H       2.588049      0.825427      0.203316
  H       3.325433     -1.400017     -1.678390
17
Coordinates from ORCA-job freq E -421.393533112529
  C      -2.413780      0.338473     -1.369782
  C       0.452773      0.914398      0.078888
  C      -2.279040      0.297440      0.106691
  C      -0.622757      0.668791      0.864872
  C       1.712016      0.139234      0.216072
  O       2.983458     -1.488035     -0.779432
  O      -1.795033      1.415636      0.762152
  O       1.773815     -0.751524     -0.898633
  H      -3.109132     -0.427710     -1.706050
  H      -1.452416      0.165119     -1.862635
  H      -2.782489      1.315651     -1.690568
  H       0.374245      1.650538     -0.710527
  H      -2.849943     -0.388165      0.721236
  H      -0.564908      0.019073      1.732042
  H       1.722605     -0.443824      1.140063
  H       2.593392      0.785606      0.198575
  H       3.423582     -1.275490     -1.609130
17
Coordinates from ORCA-job freq E -421.394059595860
  C      -2.451029      0.354931     -1.362106
  C       0.470356      0.894396      0.056917
  C      -2.279344      0.324982      0.108477
  C      -0.611471      0.674750      0.842256
  C       1.714624      0.097169      0.204534
  O       2.973455     -1.541043     -0.790050
  O      -1.766662      1.447410      0.735221
  O       1.781851     -0.780288     -0.919830
  H      -2.996899     -0.524492     -1.695451
  H      -1.484504      0.372194     -1.871785
  H      -3.006071      1.247575     -1.665516
  H       0.410281      1.629600     -0.734824
  H      -2.846943     -0.344899      0.743542
  H      -0.565027      0.033451      1.716451
  H       1.703629     -0.496050      1.121787
  H       2.605170      0.732384      0.208046
  H       3.514973     -1.186861     -1.503838
17
Coordinates from ORCA-job freq E -421.394181502166
  C      -2.476307      0.381951     -1.364802
  C       0.484839      0.877451      0.050535
  C      -2.283056      0.344600      0.100796
  C      -0.606420      0.671011      0.826310
  C       1.726102      0.080017      0.221826
  O       3.039626     -1.515880     -0.741966
  O      -1.747633      1.463473      0.716146
  O       1.802414     -0.824004     -0.877132
  H      -2.767772     -0.599039     -1.732459
  H      -1.557026      0.683365     -1.869420
  H      -3.259947      1.099161     -1.634078
  H       0.441705      1.612982     -0.741722
  H      -2.861560     -0.312100      0.740597
  H      -0.572631      0.029892      1.701403
  H       1.711970     -0.489751      1.154462
  H       2.616241      0.715461      0.212529
  H       3.475844     -1.283379     -1.569192
17
Coordinates from ORCA-job freq E -421.394306811298
  C      -2.481105      0.371049     -1.354847
  C       0.487671      0.872656      0.036305
  C      -2.285487      0.353219      0.112159
  C      -0.598097      0.676724      0.821713
  C       1.720346      0.059935      0.196175
  O       2.988753     -1.572297     -0.792597
  O      -1.737079      1.472290      0.716428
  O       1.795732     -0.814900     -0.928998
  H      -2.808528     -0.605274     -1.706877
  H      -1.553224      0.633644     -1.864960
  H      -3.237623      1.111303     -1.635588
  H       0.444812      1.607611     -0.756644
  H      -2.886187     -0.272613      0.762322
  H      -0.562700      0.036057      1.697045
  H       1.692350     -0.534728      1.112179
  H       2.616895      0.687033      0.212756
  H       3.569860     -1.146499     -1.432739
17
Coordinates from ORCA-job freq E -421.394318459929
  C      -2.471746      0.370135     -1.359091
  C       0.482361      0.876567      0.043974
  C      -2.284075      0.344700      0.109027
  C      -0.602779      0.674571      0.828864
  C       1.719983      0.071530      0.204521
  O       3.001257     -1.550353     -0.775356
  O      -1.746291      1.463658      0.722523
  O       1.792613     -0.814886     -0.910597
  H      -2.836947     -0.591907     -1.713020
  H      -1.531851      0.594150     -1.866424
  H      -3.195779      1.140953     -1.641949
  H       0.434747      1.609788     -0.750307
  H      -2.878990     -0.292957      0.752816
  H      -0.564923      0.033617      1.703850
  H       1.701348     -0.513391      1.127250
  H       2.613460      0.703070      0.207855
  H       3.534002     -1.184034     -1.490103
17
Coordinates from ORCA-job freq E -421.394329508883
  C      -2.475877      0.371521     -1.358567
  C       0.484827      0.876201      0.042275
  C      -2.283738      0.346225      0.108743
  C      -0.601116      0.675002      0.826211
  C       1.721142      0.069237      0.203494
  O       2.999104     -1.556460     -0.776006
  O      -1.743621      1.465472      0.719826
  O       1.794055     -0.815956     -0.912820
  H      -2.822976     -0.596682     -1.713909
  H      -1.541945      0.615574     -1.867343
  H      -3.215994      1.128442     -1.637860
  H       0.439152      1.610455     -0.751142
  H      -2.879038     -0.289298      0.754359
  H      -0.564258      0.033713      1.701016
  H       1.700217     -0.516834      1.125391
  H       2.615498      0.699492      0.209128
  H       3.540957     -1.180894     -1.478961
17
Coordinates from ORCA-job freq E -421.394321342080
  C      -2.475892      0.371587     -1.358542
  C       0.484793      0.876257      0.042120
  C      -2.283650      0.346018      0.108749
  C      -0.601016      0.674917      0.826208
  C       1.721159      0.069331      0.203150
  O       2.998328     -1.557227     -0.776207
  O      -1.743648      1.465215      0.720018
  O       1.793641     -0.816238     -0.912941
  H      -2.823865     -0.596265     -1.713970
  H      -1.541812      0.614977     -1.867384
  H      -3.215388      1.129183     -1.637644
  H       0.438896      1.610451     -0.751342
  H      -2.878722     -0.289795      0.754291
  H      -0.563991      0.033564      1.700953
  H       1.700516     -0.516495      1.125199
  H       2.615527      0.699575      0.208334
  H       3.541513     -1.179843     -1.477160
17
Coordinates from ORCA-job freq E -421.394325555669
  C      -2.475808      0.371552     -1.358536
  C       0.484728      0.876309      0.042132
  C      -2.283595      0.345868      0.108759
  C      -0.601034      0.674806      0.826260
  C       1.721161      0.069445      0.202955
  O       2.997865     -1.557551     -0.776370
  O      -1.743715      1.465056      0.720149
  O       1.793397     -0.816247     -0.913068
  H      -2.824926     -0.595926     -1.713863
  H      -1.541453      0.613783     -1.867449
  H      -3.214405      1.130005     -1.637681
  H       0.438684      1.610566     -0.751262
  H      -2.878615     -0.290060      0.754232
  H      -0.563923      0.033421      1.700979
  H       1.700786     -0.516292      1.125065
  H       2.615494      0.699755      0.207842
  H       3.541748     -1.179278     -1.476311
17
Coordinates from ORCA-job freq E -421.394331212654
  C      -2.475833      0.371613     -1.358547
  C       0.484717      0.876249      0.042123
  C      -2.283624      0.345925      0.108749
  C      -0.601066      0.674809      0.826238
  C       1.721171      0.069445      0.203109
  O       2.998353     -1.557180     -0.776066
  O      -1.743712      1.465109      0.720123
  O       1.793622     -0.816269     -0.912865
  H      -2.824281     -0.596064     -1.713981
  H      -1.541632      0.614531     -1.867407
  H      -3.214934      1.129592     -1.637651
  H       0.438704      1.610459     -0.751319
  H      -2.878713     -0.289955      0.754211
  H      -0.563983      0.033442      1.700974
  H       1.700686     -0.516265      1.125234
  H       2.615477      0.699780      0.208122
  H       3.541436     -1.180009     -1.477215
