17
Coordinates from ORCA-job freq E -421.388803529485
  C           2.75484217288716      1.29610325276155      1.10946692448535
  C          -1.85615022788750      1.05775126397468      0.59997301481663
  C           0.35783403405778     -0.10538617267101      0.64609938664765
  C           1.58300859496954      0.19675840904598      0.15970523352658
  C          -0.88913537863560      0.14122256624314     -0.13317640797656
  O          -2.61852757234858     -0.99110993576051     -1.14858212631567
  O           2.74587103819773     -0.06439158515987      0.87810228712420
  O          -1.46598783131759     -1.15330905231197     -0.33131048098992
  H           3.44454215233683      1.89485287288603      0.52965804565503
  H           2.36106315948414      1.63477816530099      2.05672746324848
  H          -2.77952510613147      1.16629881345943      0.03524790217749
  H          -1.40459812835248      2.04003500705203      0.73572336246811
  H          -2.08880926098425      0.63930346629360      1.57940183056312
  H           0.26386830797223     -0.49700849362111      1.65194843750146
  H           1.73795916320275      0.49228209996489     -0.87257950696467
  H          -0.64080216757566      0.56014939900595     -1.11448682701643
  H          -2.33874694987504     -1.43804707646380     -1.95493553895086
