17
Coordinates from ORCA-job freq E -421.389920245588
  C       2.787137      1.293663      1.334241
  C      -1.702416      1.137021      0.518363
  C       0.405560     -0.195307      0.465561
  C       1.597899      0.284709      0.083939
  C      -0.869483      0.105793     -0.253687
  O      -2.689027     -0.993865     -1.191465
  O       2.768549      0.042777      0.785215
  O      -1.541874     -1.135104     -0.352265
  H       3.485366      2.020529      0.956070
  H       2.130366      1.514823      2.157555
  H      -2.655699      1.274641      0.014476
  H      -1.173562      2.084852      0.556492
  H      -1.885642      0.782609      1.529494
  H       0.321872     -0.817673      1.342465
  H       1.714314      0.893732     -0.807430
  H      -0.665640      0.486197     -1.265336
  H      -2.861015     -1.909114     -1.446705
17
Coordinates from ORCA-job freq E -421.389570147401
  C       2.717109      1.322700      1.314566
  C      -1.681930      1.126597      0.516642
  C       0.417810     -0.217433      0.469198
  C       1.605704      0.262854      0.079103
  C      -0.854970      0.091977     -0.249822
  O      -2.693621     -0.945746     -1.169573
  O       2.776639      0.054437      0.790397
  O      -1.541148     -1.143838     -0.350398
  H       3.377410      2.077995      0.919888
  H       2.137771      1.485496      2.207676
  H      -2.633206      1.281827      0.013103
  H      -1.140788      2.068741      0.561835
  H      -1.871544      0.773080      1.528325
  H       0.338223     -0.810619      1.368891
  H       1.726067      0.823203     -0.842724
  H      -0.647246      0.465202     -1.261218
  H      -2.865575     -1.846191     -1.468907
17
Coordinates from ORCA-job freq E -421.388629723927
  C       2.697953      1.321179      1.293836
  C      -1.697667      1.123398      0.513183
  C       0.414946     -0.211292      0.491502
  C       1.604452      0.264659      0.096342
  C      -0.852711      0.095849     -0.236542
  O      -2.690774     -0.929589     -1.149738
  O       2.782683      0.040682      0.792121
  O      -1.532034     -1.146235     -0.342992
  H       3.302004      2.092385      0.840684
  H       2.232908      1.453705      2.257636
  H      -2.642350      1.274921     -0.004555
  H      -1.162587      2.069356      0.567386
  H      -1.901296      0.770315      1.523020
  H       0.335179     -0.790985      1.401396
  H       1.727923      0.787238     -0.846875
  H      -0.635664      0.463764     -1.246762
  H      -2.816260     -1.809067     -1.522661
17
Coordinates from ORCA-job freq E -421.387965256497
  C       2.664046      1.327000      1.269474
  C      -1.701323      1.116711      0.517628
  C       0.415032     -0.209863      0.502653
  C       1.609442      0.258837      0.102644
  C      -0.848736      0.095969     -0.230819
  O      -2.701699     -0.922805     -1.119549
  O       2.786397      0.032814      0.805194
  O      -1.524167     -1.149660     -0.344540
  H       3.270630      2.090811      0.805753
  H       2.252239      1.457987      2.258111
  H      -2.643006      1.272839     -0.004248
  H      -1.166664      2.062758      0.582232
  H      -1.910846      0.757336      1.524426
  H       0.332677     -0.768013      1.426274
  H       1.741001      0.749152     -0.856455
  H      -0.627614      0.467100     -1.238462
  H      -2.780703     -1.768692     -1.573334
17
Coordinates from ORCA-job freq E -421.388024507435
  C       2.681123      1.328013      1.246417
  C      -1.720185      1.104164      0.527392
  C       0.407845     -0.204102      0.525996
  C       1.608426      0.251739      0.122325
  C      -0.847995      0.101196     -0.220478
  O      -2.702445     -0.919989     -1.108121
  O       2.783081      0.017160      0.825203
  O      -1.510436     -1.150405     -0.358405
  H       3.286370      2.069374      0.744825
  H       2.267789      1.500856      2.228682
  H      -2.652401      1.266068     -0.009538
  H      -1.191420      2.051448      0.619248
  H      -1.947899      0.726328      1.523616
  H       0.317567     -0.746772      1.458232
  H       1.745471      0.717429     -0.848254
  H      -0.615749      0.486135     -1.220265
  H      -2.742435     -1.728360     -1.629893
17
Coordinates from ORCA-job freq E -421.388150099923
  C       2.681728      1.325749      1.240969
  C      -1.727762      1.101438      0.528937
  C       0.407305     -0.193364      0.524233
  C       1.610077      0.254244      0.114927
  C      -0.850754      0.104516     -0.220653
  O      -2.709273     -0.931614     -1.086982
  O       2.781548      0.014426      0.822979
  O      -1.505475     -1.152666     -0.354513
  H       3.322094      2.054969      0.765685
  H       2.248007      1.501739      2.213838
  H      -2.661753      1.259731     -0.005918
  H      -1.203776      2.051531      0.621045
  H      -1.951567      0.721532      1.525351
  H       0.319420     -0.723745      1.464005
  H       1.752900      0.707723     -0.860377
  H      -0.622457      0.489830     -1.220954
  H      -2.723554     -1.715755     -1.645592
17
Coordinates from ORCA-job freq E -421.388273083309
  C       2.691914      1.321952      1.222604
  C      -1.745379      1.096976      0.539116
  C       0.400286     -0.181588      0.541502
  C       1.607217      0.248171      0.121303
  C      -0.855790      0.110905     -0.208272
  O      -2.701417     -0.941255     -1.089508
  O       2.777585      0.001736      0.829926
  O      -1.501189     -1.152035     -0.350992
  H       3.340948      2.033864      0.732462
  H       2.263333      1.520052      2.193747
  H      -2.677536      1.249608     -0.000611
  H      -1.230568      2.051480      0.638820
  H      -1.971790      0.711093      1.532781
  H       0.311157     -0.694747      1.490880
  H       1.753221      0.680241     -0.863178
  H      -0.623514      0.500691     -1.205743
  H      -2.671772     -1.686861     -1.697853
17
Coordinates from ORCA-job freq E -421.388412340484
  C       2.701275      1.317668      1.204916
  C      -1.762283      1.093271      0.549730
  C       0.393387     -0.170006      0.558023
  C       1.603765      0.241130      0.126016
  C      -0.861642      0.116521     -0.195219
  O      -2.691192     -0.951251     -1.096016
  O       2.773040     -0.010181      0.835480
  O      -1.498936     -1.151547     -0.344219
  H       3.358545      2.013275      0.701964
  H       2.276772      1.536064      2.173632
  H      -2.694091      1.237858      0.007126
  H      -1.257211      2.052743      0.652831
  H      -1.988260      0.704070      1.542300
  H       0.304162     -0.665698      1.516807
  H       1.751978      0.652436     -0.866954
  H      -0.626880      0.509144     -1.190811
  H      -2.615724     -1.655216     -1.748623
17
Coordinates from ORCA-job freq E -421.388595625105
  C       2.715453      1.311589      1.178657
  C      -1.787278      1.086467      0.564321
  C       0.383152     -0.153637      0.582769
  C       1.597851      0.229982      0.134127
  C      -0.870258      0.123131     -0.176162
  O      -2.675191     -0.967074     -1.105409
  O       2.765966     -0.026518      0.844424
  O      -1.494504     -1.152445     -0.334581
  H       3.382098      1.982918      0.654901
  H       2.298671      1.560900      2.143408
  H      -2.717726      1.219870      0.016551
  H      -1.296055      2.052669      0.672925
  H      -2.013887      0.692400      1.554960
  H       0.293669     -0.623566      1.554657
  H       1.747933      0.611350     -0.870408
  H      -0.631781      0.519796     -1.169112
  H      -2.531409     -1.597549     -1.819045
17
Coordinates from ORCA-job freq E -421.388772724183
  C       2.731461      1.305444      1.142346
  C      -1.819813      1.072798      0.581692
  C       0.370147     -0.133820      0.615667
  C       1.589492      0.212077      0.145889
  C      -0.881356      0.126206     -0.151703
  O      -2.653311     -0.990775     -1.113566
  O       2.755975     -0.045115      0.859443
  O      -1.486047     -1.159272     -0.320200
  H       3.409059      1.942777      0.590386
  H       2.324513      1.598438      2.099134
  H      -2.748191      1.191650      0.027154
  H      -1.346276      2.047264      0.696343
  H      -2.047508      0.673399      1.570097
  H       0.280297     -0.564519      1.605732
  H       1.741093      0.550321     -0.873689
  H      -0.638989      0.527118     -1.141902
  H      -2.413840     -1.483707     -1.905841
17
Coordinates from ORCA-job freq E -421.388797796529
  C       2.764400      1.291744      1.097939
  C      -1.869650      1.052444      0.607699
  C       0.353586     -0.092891      0.656446
  C       1.581338      0.191226      0.165317
  C      -0.890807      0.150254     -0.127355
  O      -2.603116     -0.984916     -1.167457
  O       2.742550     -0.071656      0.885624
  O      -1.456374     -1.146881     -0.341514
  H       3.457936      1.876012      0.508093
  H       2.376054      1.647272      2.041283
  H      -2.790372      1.158488      0.038265
  H      -1.427229      2.037166      0.755160
  H      -2.105296      0.623146      1.581709
  H       0.256860     -0.469821      1.667641
  H       1.737822      0.471267     -0.871008
  H      -0.639258      0.579833     -1.103286
  H      -2.321739     -1.442404     -1.967572
17
Coordinates from ORCA-job freq E -421.388804359567
  C       2.755691      1.295789      1.108215
  C      -1.857438      1.057129      0.600708
  C       0.357419     -0.104345      0.647133
  C       1.582840      0.196064      0.160246
  C      -0.889342      0.141875     -0.132583
  O      -2.617278     -0.990907     -1.150002
  O       2.745494     -0.065041      0.879015
  O      -1.465259     -1.152914     -0.331958
  H       3.446074      1.893014      0.527632
  H       2.362085      1.636299      2.054889
  H      -2.780756      1.165048      0.035763
  H      -1.406929      2.039802      0.737133
  H      -2.090014      0.637937      1.579842
  H       0.263240     -0.494396      1.653570
  H       1.738036      0.489894     -0.872485
  H      -0.640793      0.561632     -1.113485
  H      -2.336362     -1.436598     -1.956651
17
Coordinates from ORCA-job freq E -421.388803529485
  C       2.754842      1.296103      1.109467
  C      -1.856150      1.057751      0.599973
  C       0.357834     -0.105386      0.646099
  C       1.583009      0.196758      0.159705
  C      -0.889135      0.141223     -0.133176
  O      -2.618528     -0.991110     -1.148582
  O       2.745871     -0.064392      0.878102
  O      -1.465988     -1.153309     -0.331310
  H       3.444542      1.894853      0.529658
  H       2.361063      1.634778      2.056727
  H      -2.779525      1.166299      0.035248
  H      -1.404598      2.040035      0.735723
  H      -2.088809      0.639303      1.579402
  H       0.263868     -0.497008      1.651948
  H       1.737959      0.492282     -0.872580
  H      -0.640802      0.560149     -1.114487
  H      -2.338747     -1.438047     -1.954936
