15
Coordinates from ORCA-job freq E -271.037597520568
  C           1.79573086818197      0.54081123013713     -0.18756067774906
  C          -1.67252946747717      0.46680191928022     -0.48347982256699
  C           1.31809848321916     -0.71662170156271      0.45775530103825
  C          -1.45082364918528     -0.21524455003563      0.81433336011281
  C           0.24385516776672     -0.80997535566987      1.28175634335856
  O          -0.49667725217841      0.30718056394469      1.67453278125899
  H           1.20279271410749      1.39445996656505      0.13431582775482
  H           1.75166004708049      0.47751498080797     -1.27835353913373
  H           2.83958895609703      0.73378708057287      0.07058471102965
  H          -0.75293154393887      0.50557856572609     -1.06909403993415
  H          -2.01020717447995      1.49750364510350     -0.33052009146933
  H          -2.42952617534170     -0.05899052852732     -1.06261298590180
  H           1.86149904575111     -1.63343199897530      0.26906794638253
  H          -2.24202856239308     -0.77774144797561      1.29807945330873
  H           0.04149754279048     -1.71163336939108      1.84798743251068
