17
Coordinates from ORCA-job freq E -421.370464605715
  C           1.14438752676561      1.73939161944180      1.42706688005064
  C           0.49982890782504     -2.55563503284724      0.09107547742545
  C           0.90582721091874     -1.23578336598589      0.40538369333983
  C           1.96660072793425      0.53004664050576      1.85508080315417
  C           1.16442890434964     -0.76456971937149      1.80249137917856
  O          -0.61697075775002     -1.96255576321182     -0.16681869676651
  O           1.82758339562377     -1.58051730201624      3.83720350895222
  O           1.84812053581012     -1.83348867029826      2.44278304578623
  H           1.74065540093853      2.64888235304579      1.47854831370649
  H           0.27934456879567      1.86893290394041      2.07869523855118
  H           0.77619381135039      1.64370870856282      0.40526295301356
  H           0.86636755740390     -3.51789094351602     -0.23196091085109
  H           0.97652146900094     -0.50623259235909     -0.39186275949392
  H           2.31007414476802      0.65466449216750      2.88174652428107
  H           2.85410753126582      0.41850490696271      1.22815503585585
  H           0.19549058305237     -0.61970368654392      2.29924619362828
  H           1.21552348194716     -2.25924854847681      4.14483532018793
