17
Coordinates from ORCA-job freq E -421.367820159580
  C       1.174238      1.767647      1.412321
  C       0.540665     -2.568945      0.064650
  C       0.886521     -1.238499      0.390333
  C       1.946374      0.526879      1.836291
  C       1.084861     -0.746394      1.795777
  O      -0.601441     -2.010434     -0.222583
  O       1.609298     -1.559390      3.903387
  O       1.689652     -1.813401      2.502544
  H       1.818070      2.641682      1.468088
  H       0.320782      1.928084      2.067059
  H       0.809411      1.678658      0.392119
  H       0.949777     -3.505507     -0.244486
  H       0.898742     -0.477843     -0.379123
  H       2.289985      0.643017      2.865787
  H       2.822637      0.382072      1.201798
  H       0.107872     -0.527576      2.258778
  H       1.606642     -2.451544      4.274193
17
Coordinates from ORCA-job freq E -421.369482153918
  C       1.174328      1.752133      1.420970
  C       0.536742     -2.562862      0.058953
  C       0.870871     -1.230347      0.396598
  C       1.945322      0.511087      1.851642
  C       1.082509     -0.751227      1.800164
  O      -0.603946     -2.017603     -0.220694
  O       1.730033     -1.516110      3.864785
  O       1.686900     -1.836717      2.481201
  H       1.809455      2.633896      1.475759
  H       0.314323      1.914507      2.070105
  H       0.808897      1.668151      0.398241
  H       0.957734     -3.498486     -0.262944
  H       0.901886     -0.478630     -0.382000
  H       2.287259      0.625235      2.880538
  H       2.828176      0.363533      1.226315
  H       0.107994     -0.540674      2.264351
  H       1.515604     -2.367379      4.262948
17
Coordinates from ORCA-job freq E -421.370063293266
  C       1.169931      1.748354      1.412847
  C       0.524479     -2.555541      0.066603
  C       0.865497     -1.223775      0.404462
  C       1.940409      0.514266      1.864617
  C       1.097039     -0.756940      1.807558
  O      -0.614841     -2.009012     -0.201265
  O       1.819249     -1.543389      3.845431
  O       1.750112     -1.838254      2.460402
  H       1.797804      2.635592      1.475288
  H       0.296323      1.911317      2.044969
  H       0.822336      1.662325      0.383278
  H       0.937293     -3.495914     -0.263472
  H       0.910034     -0.480095     -0.381712
  H       2.269027      0.639562      2.895685
  H       2.835957      0.367163      1.256735
  H       0.125703     -0.580808      2.288235
  H       1.407733     -2.326345      4.227272
17
Coordinates from ORCA-job freq E -421.370418766611
  C       1.153228      1.740688      1.425415
  C       0.513356     -2.556494      0.081576
  C       0.886941     -1.229587      0.405385
  C       1.959181      0.522321      1.858787
  C       1.142709     -0.764171      1.805269
  O      -0.616625     -1.986616     -0.174398
  O       1.858332     -1.584105      3.829662
  O       1.821316     -1.842173      2.439844
  H       1.760090      2.643001      1.478616
  H       0.287907      1.881272      2.074536
  H       0.786747      1.648882      0.402782
  H       0.901692     -3.508772     -0.246052
  H       0.944629     -0.494325     -0.387648
  H       2.298848      0.647136      2.886470
  H       2.848556      0.398518      1.236716
  H       0.175373     -0.612178      2.302832
  H       1.231805     -2.234891      4.167139
17
Coordinates from ORCA-job freq E -421.370456652002
  C       1.138491      1.739858      1.415117
  C       0.478671     -2.547309      0.102853
  C       0.915924     -1.235354      0.406931
  C       1.962992      0.539450      1.863005
  C       1.175614     -0.762780      1.803887
  O      -0.622203     -1.928647     -0.163167
  O       1.826560     -1.594058      3.835630
  O       1.874815     -1.825355      2.438346
  H       1.722732      2.655954      1.484019
  H       0.254379      1.858453      2.042849
  H       0.799431      1.641843      0.383561
  H       0.816291     -3.524333     -0.206312
  H       1.013017     -0.517218     -0.397393
  H       2.288384      0.671773      2.894729
  H       2.862116      0.432394      1.251989
  H       0.205710     -0.633552      2.303139
  H       1.241161     -2.302611      4.127749
17
Coordinates from ORCA-job freq E -421.370478331459
  C       1.142858      1.738637      1.425175
  C       0.495372     -2.553870      0.092439
  C       0.907952     -1.235809      0.406144
  C       1.965812      0.531133      1.856857
  C       1.165921     -0.764842      1.803499
  O      -0.617476     -1.955449     -0.169306
  O       1.831048     -1.583368      3.837102
  O       1.852300     -1.833130      2.442300
  H       1.737677      2.649075      1.476504
  H       0.276226      1.867973      2.074744
  H       0.776872      1.640727      0.402808
  H       0.858138     -3.517848     -0.229861
  H       0.984854     -0.507981     -0.392097
  H       2.306610      0.657600      2.884185
  H       2.855119      0.420050      1.232365
  H       0.196949     -0.622607      2.300834
  H       1.217854     -2.261789      4.143238
17
Coordinates from ORCA-job freq E -421.370528006218
  C       1.144328      1.739391      1.426972
  C       0.499690     -2.555554      0.091160
  C       0.905970     -1.235761      0.405334
  C       1.966572      0.530125      1.855150
  C       1.164534     -0.764559      1.802461
  O      -0.616985     -1.962217     -0.166748
  O       1.827577     -1.580632      3.837178
  O       1.848290     -1.833460      2.442733
  H       1.740534      2.648920      1.478508
  H       0.279190      1.868907      2.078484
  H       0.776272      1.643640      0.405124
  H       0.865943     -3.517998     -0.231638
  H       0.976808     -0.506258     -0.391944
  H       2.309847      0.654778      2.881880
  H       2.854201      0.418632      1.228382
  H       0.195562     -0.619825      2.299187
  H       1.215753     -2.259622      4.144708
17
Coordinates from ORCA-job freq E -421.370483198586
  C       1.148990      1.741032      1.428423
  C       0.510006     -2.558878      0.088157
  C       0.898544     -1.234487      0.405515
  C       1.967330      0.527791      1.852700
  C       1.160011     -0.764095      1.802168
  O      -0.617381     -1.980839     -0.158074
  O       1.823284     -1.577797      3.837250
  O       1.840370     -1.834298      2.443503
  H       1.748974      2.648046      1.480719
  H       0.285652      1.872674      2.081883
  H       0.778792      1.649093      0.407036
  H       0.888122     -3.513971     -0.242599
  H       0.952493     -0.500346     -0.388823
  H       2.314231      0.650148      2.878487
  H       2.852565      0.413250      1.223141
  H       0.192143     -0.614709      2.299741
  H       1.209960     -2.254108      4.147705
17
Coordinates from ORCA-job freq E -421.370482596831
  C       1.145578      1.739798      1.427251
  C       0.502341     -2.556400      0.090336
  C       0.903924     -1.235385      0.405453
  C       1.966720      0.529495      1.854577
  C       1.163293     -0.764458      1.802466
  O      -0.617195     -1.967117     -0.164509
  O       1.826667     -1.579938      3.837192
  O       1.846223     -1.833718      2.442922
  H       1.742765      2.648667      1.479117
  H       0.280771      1.869863      2.079090
  H       0.777183      1.645054      0.405443
  H       0.871807     -3.516857     -0.234692
  H       0.970348     -0.504603     -0.391032
  H       2.310837      0.653626      2.881086
  H       2.853790      0.417135      1.227185
  H       0.194645     -0.618518      2.299484
  H       1.214389     -2.258139      4.145564
17
Coordinates from ORCA-job freq E -421.370441121682
  C       1.144291      1.739367      1.426900
  C       0.499491     -2.555530      0.091236
  C       0.906019     -1.235790      0.405374
  C       1.966565      0.530182      1.855250
  C       1.164640     -0.764570      1.802485
  O      -0.617070     -1.962021     -0.166684
  O       1.827670     -1.580705      3.837179
  O       1.848540     -1.833411      2.442711
  H       1.740405      2.648955      1.478473
  H       0.279007      1.868817      2.078224
  H       0.776452      1.643519      0.404989
  H       0.865602     -3.517975     -0.231736
  H       0.977016     -0.506351     -0.391945
  H       2.309685      0.654914      2.882022
  H       2.854308      0.418769      1.228638
  H       0.195661     -0.619952      2.299239
  H       1.215802     -2.259714      4.144576
17
Coordinates from ORCA-job freq E -421.370487124832
  C       1.142653      1.738724      1.426606
  C       0.496040     -2.554452      0.092190
  C       0.908689     -1.236352      0.405291
  C       1.966457      0.530898      1.855873
  C       1.166211     -0.764734      1.802533
  O      -0.616734     -1.955674     -0.169674
  O       1.828820     -1.581292      3.837300
  O       1.851032     -1.833097      2.442658
  H       1.737365      2.649242      1.477892
  H       0.276950      1.867183      2.077572
  H       0.775245      1.641681      0.404637
  H       0.858056     -3.519272     -0.228342
  H       0.985485     -0.508558     -0.392990
  H       2.308701      0.656329      2.882852
  H       2.854779      0.420561      1.229867
  H       0.196817     -0.621476      2.298848
  H       1.217519     -2.261205      4.143820
17
Coordinates from ORCA-job freq E -421.370464916395
  C       1.144564      1.739440      1.426980
  C       0.500094     -2.555699      0.091037
  C       0.905590     -1.235703      0.405384
  C       1.966640      0.530023      1.855055
  C       1.164388     -0.764553      1.802466
  O      -0.617117     -1.963099     -0.166241
  O       1.827560     -1.580583      3.837153
  O       1.848048     -1.833505      2.442725
  H       1.740787      2.648937      1.478941
  H       0.279265      1.868792      2.078310
  H       0.776777      1.644022      0.405004
  H       0.866899     -3.517802     -0.232161
  H       0.975525     -0.505953     -0.391739
  H       2.309995      0.654607      2.881760
  H       2.854211      0.418407      1.228233
  H       0.195483     -0.619612      2.299263
  H       1.215375     -2.259214      4.144763
17
Coordinates from ORCA-job freq E -421.370486154416
  C       1.144998      1.739605      1.427008
  C       0.500916     -2.555984      0.090800
  C       0.904840     -1.235555      0.405436
  C       1.966557      0.529797      1.854954
  C       1.163814     -0.764512      1.802506
  O      -0.617179     -1.964661     -0.165557
  O       1.827413     -1.580289      3.837112
  O       1.847241     -1.833599      2.442753
  H       1.741641      2.648814      1.479066
  H       0.279758      1.869279      2.078341
  H       0.777206      1.644484      0.405011
  H       0.868826     -3.517350     -0.233331
  H       0.973535     -0.505444     -0.391465
  H       2.310094      0.654224      2.881622
  H       2.854005      0.417790      1.228032
  H       0.195024     -0.619244      2.299444
  H       1.215393     -2.258850      4.145199
17
Coordinates from ORCA-job freq E -421.370485984118
  C       1.144105      1.739250      1.426924
  C       0.499150     -2.555409      0.091259
  C       0.906302     -1.235866      0.405400
  C       1.966602      0.530209      1.855229
  C       1.164778     -0.764600      1.802523
  O      -0.617002     -1.961370     -0.167189
  O       1.827825     -1.580700      3.837265
  O       1.848664     -1.833421      2.442793
  H       1.740017      2.648965      1.478559
  H       0.278796      1.868473      2.078268
  H       0.776285      1.643361      0.405005
  H       0.864899     -3.518082     -0.231451
  H       0.977937     -0.506573     -0.391991
  H       2.309796      0.655000      2.881957
  H       2.854269      0.418897      1.228506
  H       0.195760     -0.619978      2.299185
  H       1.215903     -2.259650      4.144690
17
Coordinates from ORCA-job freq E -421.370464605715
  C       1.144388      1.739392      1.427067
  C       0.499829     -2.555635      0.091075
  C       0.905827     -1.235783      0.405384
  C       1.966601      0.530047      1.855081
  C       1.164429     -0.764570      1.802491
  O      -0.616971     -1.962556     -0.166819
  O       1.827583     -1.580517      3.837204
  O       1.848121     -1.833489      2.442783
  H       1.740655      2.648882      1.478548
  H       0.279345      1.868933      2.078695
  H       0.776194      1.643709      0.405263
  H       0.866368     -3.517891     -0.231961
  H       0.976521     -0.506233     -0.391863
  H       2.310074      0.654664      2.881747
  H       2.854108      0.418505      1.228155
  H       0.195491     -0.619704      2.299246
  H       1.215523     -2.259249      4.144835
