17
* (null), Energy   -1000.0000000
C    -1.440614    1.192042   -0.258696    0.013185   -0.010130    0.005047
C    -1.370661   -0.300133    0.038276    0.018144   -0.031835   -0.001255
C     1.795376    0.767241   -0.401392   -0.365242   -0.508762   -0.032252
C     1.163473   -0.808044   -0.208285   -0.096047    1.509772   -0.530193
C    -0.075552   -0.747889    0.684365    0.150227   -0.010533   -0.032217
O     1.172240   -2.421373    0.539256   -0.131231   -0.451154    0.297229
O     2.399570   -0.304638    0.201580    0.240838   -0.105984    0.148230
O    -0.149077   -2.124208    1.000105    0.077569   -0.086728   -0.025226
H     1.087525   -1.149173   -1.236057    0.210272   -0.638882    0.198414
H    -2.437995    1.465818   -0.598885    0.001351   -0.043591    0.009189
H    -0.737602    1.480659   -1.039947    0.014424   -0.015449    0.010868
H    -1.219980    1.783473    0.631741   -0.000207   -0.009144    0.004000
H    -1.519390   -0.884804   -0.871942   -0.006462   -0.001079   -0.017814
H    -2.173456   -0.583662    0.721901    0.031823   -0.038141    0.016512
H     2.121900    1.027547   -1.400904    0.079617   -0.082744    0.187273
H     1.383789    1.530060    0.247806    0.052201   -0.212910   -0.034838
H     0.166421   -0.153329    1.574794   -0.020667   -0.040751   -0.002944
17
* Frequency(6) -1170.8845
C    -1.439115    1.190891   -0.258123    0.013185   -0.010130    0.005047
C    -1.368599   -0.303751    0.038133    0.018144   -0.031835   -0.001255
C     1.753868    0.709423   -0.405058   -0.365242   -0.508762   -0.032252
C     1.152558   -0.636466   -0.268538   -0.096047    1.509772   -0.530193
C    -0.058480   -0.749086    0.680704    0.150227   -0.010533   -0.032217
O     1.157326   -2.472644    0.573035   -0.131231   -0.451154    0.297229
O     2.426940   -0.316682    0.218426    0.240838   -0.105984    0.148230
O    -0.140262   -2.134064    0.997238    0.077569   -0.086728   -0.025226
H     1.111421   -1.221778   -1.213508    0.210272   -0.638882    0.198414
H    -2.437842    1.460864   -0.597840    0.001351   -0.043591    0.009189
H    -0.735963    1.478903   -1.038712    0.014424   -0.015449    0.010868
H    -1.220004    1.782433    0.632196   -0.000207   -0.009144    0.004000
H    -1.520124   -0.884927   -0.873966   -0.006462   -0.001079   -0.017814
H    -2.169839   -0.587996    0.723777    0.031823   -0.038141    0.016512
H     2.130948    1.018143   -1.379621    0.079617   -0.082744    0.187273
H     1.389721    1.505864    0.243847    0.052201   -0.212910   -0.034838
H     0.164072   -0.157960    1.574460   -0.020667   -0.040751   -0.002944
17
* Frequency(6) -1170.8845
C    -1.437779    1.189865   -0.257611    0.013185   -0.010130    0.005047
C    -1.366760   -0.306977    0.038006    0.018144   -0.031835   -0.001255
C     1.716858    0.657870   -0.408326   -0.365242   -0.508762   -0.032252
C     1.142826   -0.483481   -0.322263   -0.096047    1.509772   -0.530193
C    -0.043257   -0.750154    0.677439    0.150227   -0.010533   -0.032217
O     1.144029   -2.518359    0.603153   -0.131231   -0.451154    0.297229
O     2.451344   -0.327422    0.233446    0.240838   -0.105984    0.148230
O    -0.132402   -2.142852    0.994682    0.077569   -0.086728   -0.025226
H     1.132728   -1.286516   -1.193403    0.210272   -0.638882    0.198414
H    -2.437705    1.456447   -0.596909    0.001351   -0.043591    0.009189
H    -0.734501    1.477338   -1.037611    0.014424   -0.015449    0.010868
H    -1.220025    1.781507    0.632601   -0.000207   -0.009144    0.004000
H    -1.520779   -0.885036   -0.875771   -0.006462   -0.001079   -0.017814
H    -2.166615   -0.591861    0.725450    0.031823   -0.038141    0.016512
H     2.139016    1.009759   -1.360645    0.079617   -0.082744    0.187273
H     1.395011    1.484290    0.240317    0.052201   -0.212910   -0.034838
H     0.161978   -0.162090    1.574162   -0.020667   -0.040751   -0.002944
17
* Frequency(6) -1170.8845
C    -1.436750    1.189074   -0.257218    0.013185   -0.010130    0.005047
C    -1.365344   -0.309461    0.037908    0.018144   -0.031835   -0.001255
C     1.688357    0.618170   -0.410842   -0.365242   -0.508762   -0.032252
C     1.135331   -0.365668   -0.363636   -0.096047    1.509772   -0.530193
C    -0.031534   -0.750976    0.674925    0.150227   -0.010533   -0.032217
O     1.133788   -2.553565    0.626347   -0.131231   -0.451154    0.297229
O     2.470137   -0.335692    0.245013    0.240838   -0.105984    0.148230
O    -0.126349   -2.149619    0.992714    0.077569   -0.086728   -0.025226
H     1.149136   -1.336370   -1.177920    0.210272   -0.638882    0.198414
H    -2.437599    1.453045   -0.596192    0.001351   -0.043591    0.009189
H    -0.733375    1.476132   -1.036762    0.014424   -0.015449    0.010868
H    -1.220041    1.780793    0.632913   -0.000207   -0.009144    0.004000
H    -1.521283   -0.885120   -0.877161   -0.006462   -0.001079   -0.017814
H    -2.164131   -0.594838    0.726739    0.031823   -0.038141    0.016512
H     2.145229    1.003302   -1.346031    0.079617   -0.082744    0.187273
H     1.399084    1.467676    0.237599    0.052201   -0.212910   -0.034838
H     0.160365   -0.165270    1.573932   -0.020667   -0.040751   -0.002944
17
* Frequency(6) -1170.8845
C    -1.436140    1.188605   -0.256984    0.013185   -0.010130    0.005047
C    -1.364505   -0.310935    0.037850    0.018144   -0.031835   -0.001255
C     1.671453    0.594623   -0.412335   -0.365242   -0.508762   -0.032252
C     1.130886   -0.295793   -0.388174   -0.096047    1.509772   -0.530193
C    -0.024581   -0.751463    0.673434    0.150227   -0.010533   -0.032217
O     1.127715   -2.574445    0.640103   -0.131231   -0.451154    0.297229
O     2.481284   -0.340597    0.251873    0.240838   -0.105984    0.148230
O    -0.122759   -2.153633    0.991546    0.077569   -0.086728   -0.025226
H     1.158868   -1.365939   -1.168737    0.210272   -0.638882    0.198414
H    -2.437537    1.451028   -0.595767    0.001351   -0.043591    0.009189
H    -0.732708    1.475417   -1.036259    0.014424   -0.015449    0.010868
H    -1.220050    1.780370    0.633098   -0.000207   -0.009144    0.004000
H    -1.521582   -0.885170   -0.877986   -0.006462   -0.001079   -0.017814
H    -2.162659   -0.596603    0.727503    0.031823   -0.038141    0.016512
H     2.148913    0.999473   -1.337364    0.079617   -0.082744    0.187273
H     1.401500    1.457822    0.235986    0.052201   -0.212910   -0.034838
H     0.159408   -0.167156    1.573796   -0.020667   -0.040751   -0.002944
17
* Frequency(6) -1170.8845
C    -1.436015    1.188509   -0.256936    0.013185   -0.010130    0.005047
C    -1.364332   -0.311238    0.037838    0.018144   -0.031835   -0.001255
C     1.667978    0.589783   -0.412642   -0.365242   -0.508762   -0.032252
C     1.129972   -0.281428   -0.393218   -0.096047    1.509772   -0.530193
C    -0.023152   -0.751563    0.673128    0.150227   -0.010533   -0.032217
O     1.126466   -2.578737    0.642931   -0.131231   -0.451154    0.297229
O     2.483575   -0.341605    0.253283    0.240838   -0.105984    0.148230
O    -0.122020   -2.154459    0.991306    0.077569   -0.086728   -0.025226
H     1.160869   -1.372018   -1.166849    0.210272   -0.638882    0.198414
H    -2.437524    1.450613   -0.595680    0.001351   -0.043591    0.009189
H    -0.732571    1.475270   -1.036156    0.014424   -0.015449    0.010868
H    -1.220052    1.780283    0.633137   -0.000207   -0.009144    0.004000
H    -1.521643   -0.885181   -0.878155   -0.006462   -0.001079   -0.017814
H    -2.162356   -0.596966    0.727660    0.031823   -0.038141    0.016512
H     2.149671    0.998685   -1.335582    0.079617   -0.082744    0.187273
H     1.401997    1.455796    0.235655    0.052201   -0.212910   -0.034838
H     0.159212   -0.167543    1.573768   -0.020667   -0.040751   -0.002944
17
* Frequency(6) -1170.8845
C    -1.436388    1.188795   -0.257079    0.013185   -0.010130    0.005047
C    -1.364845   -0.310337    0.037874    0.018144   -0.031835   -0.001255
C     1.678309    0.604172   -0.411730   -0.365242   -0.508762   -0.032252
C     1.132688   -0.324131   -0.378222   -0.096047    1.509772   -0.530193
C    -0.027401   -0.751265    0.674039    0.150227   -0.010533   -0.032217
O     1.130178   -2.565977    0.634524   -0.131231   -0.451154    0.297229
O     2.476763   -0.338608    0.249091    0.240838   -0.105984    0.148230
O    -0.124214   -2.152006    0.992020    0.077569   -0.086728   -0.025226
H     1.154921   -1.353948   -1.172461    0.210272   -0.638882    0.198414
H    -2.437562    1.451846   -0.595940    0.001351   -0.043591    0.009189
H    -0.732979    1.475707   -1.036463    0.014424   -0.015449    0.010868
H    -1.220047    1.780542    0.633023   -0.000207   -0.009144    0.004000
H    -1.521461   -0.885150   -0.877651   -0.006462   -0.001079   -0.017814
H    -2.163256   -0.595887    0.727193    0.031823   -0.038141    0.016512
H     2.147419    1.001026   -1.340879    0.079617   -0.082744    0.187273
H     1.400521    1.461818    0.236640    0.052201   -0.212910   -0.034838
H     0.159796   -0.166391    1.573851   -0.020667   -0.040751   -0.002944
17
* Frequency(6) -1170.8845
C    -1.437218    1.189434   -0.257397    0.013185   -0.010130    0.005047
C    -1.365989   -0.308331    0.037953    0.018144   -0.031835   -0.001255
C     1.701325    0.636233   -0.409697   -0.365242   -0.508762   -0.032252
C     1.138741   -0.419272   -0.344811   -0.096047    1.509772   -0.530193
C    -0.036868   -0.750602    0.676069    0.150227   -0.010533   -0.032217
O     1.138448   -2.537546    0.615793   -0.131231   -0.451154    0.297229
O     2.461586   -0.331929    0.239750    0.240838   -0.105984    0.148230
O    -0.129103   -2.146540    0.993610    0.077569   -0.086728   -0.025226
H     1.141671   -1.313687   -1.184964    0.210272   -0.638882    0.198414
H    -2.437647    1.454593   -0.596519    0.001351   -0.043591    0.009189
H    -0.733888    1.476681   -1.037148    0.014424   -0.015449    0.010868
H    -1.220034    1.781118    0.632771   -0.000207   -0.009144    0.004000
H    -1.521053   -0.885082   -0.876529   -0.006462   -0.001079   -0.017814
H    -2.165261   -0.593483    0.726152    0.031823   -0.038141    0.016512
H     2.142402    1.006240   -1.352680    0.079617   -0.082744    0.187273
H     1.397231    1.475235    0.238835    0.052201   -0.212910   -0.034838
H     0.161099   -0.163823    1.574036   -0.020667   -0.040751   -0.002944
17
* Frequency(6) -1170.8845
C    -1.438417    1.190355   -0.257856    0.013185   -0.010130    0.005047
C    -1.367638   -0.305437    0.038067    0.018144   -0.031835   -0.001255
C     1.734534    0.682491   -0.406765   -0.365242   -0.508762   -0.032252
C     1.147474   -0.556543   -0.296605   -0.096047    1.509772   -0.530193
C    -0.050527   -0.749644    0.678998    0.150227   -0.010533   -0.032217
O     1.150379   -2.496527    0.588769   -0.131231   -0.451154    0.297229
O     2.439689   -0.322293    0.226273    0.240838   -0.105984    0.148230
O    -0.136155   -2.138655    0.995903    0.077569   -0.086728   -0.025226
H     1.122552   -1.255599   -1.203004    0.210272   -0.638882    0.198414
H    -2.437770    1.458557   -0.597354    0.001351   -0.043591    0.009189
H    -0.735199    1.478085   -1.038136    0.014424   -0.015449    0.010868
H    -1.220015    1.781949    0.632408   -0.000207   -0.009144    0.004000
H    -1.520466   -0.884984   -0.874909   -0.006462   -0.001079   -0.017814
H    -2.168155   -0.590015    0.724651    0.031823   -0.038141    0.016512
H     2.135163    1.013763   -1.369707    0.079617   -0.082744    0.187273
H     1.392485    1.494593    0.242003    0.052201   -0.212910   -0.034838
H     0.162978   -0.160118    1.574304   -0.020667   -0.040751   -0.002944
17
* Frequency(6) -1170.8845
C    -1.439854    1.191459   -0.258406    0.013185   -0.010130    0.005047
C    -1.369615   -0.301967    0.038204    0.018144   -0.031835   -0.001255
C     1.774335    0.737932   -0.403250   -0.365242   -0.508762   -0.032252
C     1.157940   -0.721069   -0.238828   -0.096047    1.509772   -0.530193
C    -0.066898   -0.748496    0.682509    0.150227   -0.010533   -0.032217
O     1.164680   -2.447363    0.556379   -0.131231   -0.451154    0.297229
O     2.413444   -0.310743    0.210119    0.240838   -0.105984    0.148230
O    -0.144608   -2.129204    0.998652    0.077569   -0.086728   -0.025226
H     1.099638   -1.185978   -1.224626    0.210272   -0.638882    0.198414
H    -2.437917    1.463307   -0.598355    0.001351   -0.043591    0.009189
H    -0.736771    1.479769   -1.039321    0.014424   -0.015449    0.010868
H    -1.219992    1.782946    0.631972   -0.000207   -0.009144    0.004000
H    -1.519762   -0.884866   -0.872968   -0.006462   -0.001079   -0.017814
H    -2.171623   -0.585859    0.722852    0.031823   -0.038141    0.016512
H     2.126487    1.022780   -1.390115    0.079617   -0.082744    0.187273
H     1.386796    1.517795    0.245799    0.052201   -0.212910   -0.034838
H     0.165230   -0.155677    1.574625   -0.020667   -0.040751   -0.002944
17
* Frequency(6) -1170.8845
C    -1.441373    1.192626   -0.258987    0.013185   -0.010130    0.005047
C    -1.371706   -0.298300    0.038348    0.018144   -0.031835   -0.001255
C     1.816417    0.796550   -0.399534   -0.365242   -0.508762   -0.032252
C     1.169006   -0.895019   -0.177741   -0.096047    1.509772   -0.530193
C    -0.084206   -0.747283    0.686221    0.150227   -0.010533   -0.032217
O     1.179800   -2.395382    0.522133   -0.131231   -0.451154    0.297229
O     2.385696   -0.298532    0.193041    0.240838   -0.105984    0.148230
O    -0.153546   -2.119211    1.001558    0.077569   -0.086728   -0.025226
H     1.075412   -1.112368   -1.247487    0.210272   -0.638882    0.198414
H    -2.438073    1.468329   -0.599414    0.001351   -0.043591    0.009189
H    -0.738433    1.481549   -1.040573    0.014424   -0.015449    0.010868
H    -1.219968    1.783999    0.631511   -0.000207   -0.009144    0.004000
H    -1.519017   -0.884742   -0.870915   -0.006462   -0.001079   -0.017814
H    -2.175289   -0.581465    0.720949    0.031823   -0.038141    0.016512
H     2.117313    1.032314   -1.411692    0.079617   -0.082744    0.187273
H     1.380782    1.542326    0.249813    0.052201   -0.212910   -0.034838
H     0.167611   -0.150982    1.574964   -0.020667   -0.040751   -0.002944
17
* Frequency(6) -1170.8845
C    -1.442810    1.193730   -0.259537    0.013185   -0.010130    0.005047
C    -1.373683   -0.294830    0.038485    0.018144   -0.031835   -0.001255
C     1.856219    0.851992   -0.396020   -0.365242   -0.508762   -0.032252
C     1.179473   -1.059544   -0.119964   -0.096047    1.509772   -0.530193
C    -0.100577   -0.746135    0.689731    0.150227   -0.010533   -0.032217
O     1.194101   -2.346218    0.489743   -0.131231   -0.451154    0.297229
O     2.359451   -0.286983    0.176888    0.240838   -0.105984    0.148230
O    -0.161998   -2.109760    1.004307    0.077569   -0.086728   -0.025226
H     1.052498   -1.042747   -1.269109    0.210272   -0.638882    0.198414
H    -2.438220    1.473080   -0.600415    0.001351   -0.043591    0.009189
H    -0.740005    1.483232   -1.041757    0.014424   -0.015449    0.010868
H    -1.219946    1.784996    0.631075   -0.000207   -0.009144    0.004000
H    -1.518313   -0.884624   -0.868974   -0.006462   -0.001079   -0.017814
H    -2.178757   -0.577308    0.719150    0.031823   -0.038141    0.016512
H     2.108637    1.041330   -1.432100    0.079617   -0.082744    0.187273
H     1.375093    1.565527    0.253610    0.052201   -0.212910   -0.034838
H     0.169863   -0.146541    1.575285   -0.020667   -0.040751   -0.002944
17
* Frequency(6) -1170.8845
C    -1.444009    1.194651   -0.259996    0.013185   -0.010130    0.005047
C    -1.375333   -0.291936    0.038599    0.018144   -0.031835   -0.001255
C     1.889427    0.898249   -0.393087   -0.365242   -0.508762   -0.032252
C     1.188206   -1.196815   -0.071758   -0.096047    1.509772   -0.530193
C    -0.114236   -0.745177    0.692661    0.150227   -0.010533   -0.032217
O     1.206032   -2.305199    0.462718   -0.131231   -0.451154    0.297229
O     2.337553   -0.277346    0.163411    0.240838   -0.105984    0.148230
O    -0.169051   -2.101875    1.006601    0.077569   -0.086728   -0.025226
H     1.033379   -0.984658   -1.287149    0.210272   -0.638882    0.198414
H    -2.438343    1.477043   -0.601251    0.001351   -0.043591    0.009189
H    -0.741316    1.484637   -1.042746    0.014424   -0.015449    0.010868
H    -1.219927    1.785827    0.630711   -0.000207   -0.009144    0.004000
H    -1.517726   -0.884526   -0.867355   -0.006462   -0.001079   -0.017814
H    -2.181650   -0.573840    0.717649    0.031823   -0.038141    0.016512
H     2.101398    1.048854   -1.449127    0.079617   -0.082744    0.187273
H     1.370347    1.584885    0.256777    0.052201   -0.212910   -0.034838
H     0.171742   -0.142836    1.575552   -0.020667   -0.040751   -0.002944
17
* Frequency(6) -1170.8845
C    -1.444840    1.195289   -0.260314    0.013185   -0.010130    0.005047
C    -1.376476   -0.289930    0.038678    0.018144   -0.031835   -0.001255
C     1.912444    0.930310   -0.391055   -0.365242   -0.508762   -0.032252
C     1.194258   -1.291957   -0.038347   -0.096047    1.509772   -0.530193
C    -0.123703   -0.744513    0.694691    0.150227   -0.010533   -0.032217
O     1.214302   -2.276768    0.443988   -0.131231   -0.451154    0.297229
O     2.322376   -0.270668    0.154070    0.240838   -0.105984    0.148230
O    -0.173939   -2.096410    1.008191    0.077569   -0.086728   -0.025226
H     1.020129   -0.944398   -1.299653    0.210272   -0.638882    0.198414
H    -2.438428    1.479790   -0.601830    0.001351   -0.043591    0.009189
H    -0.742225    1.485611   -1.043430    0.014424   -0.015449    0.010868
H    -1.219914    1.786404    0.630459   -0.000207   -0.009144    0.004000
H    -1.517318   -0.884458   -0.866232   -0.006462   -0.001079   -0.017814
H    -2.183656   -0.571437    0.716608    0.031823   -0.038141    0.016512
H     2.096381    1.054068   -1.460929    0.079617   -0.082744    0.187273
H     1.367058    1.598302    0.258973    0.052201   -0.212910   -0.034838
H     0.173045   -0.140268    1.575738   -0.020667   -0.040751   -0.002944
17
* Frequency(6) -1170.8845
C    -1.445212    1.195575   -0.260457    0.013185   -0.010130    0.005047
C    -1.376989   -0.289029    0.038714    0.018144   -0.031835   -0.001255
C     1.922774    0.944700   -0.390143   -0.365242   -0.508762   -0.032252
C     1.196975   -1.334659   -0.023351   -0.096047    1.509772   -0.530193
C    -0.127952   -0.744215    0.695602    0.150227   -0.010533   -0.032217
O     1.218014   -2.264008    0.435581   -0.131231   -0.451154    0.297229
O     2.315565   -0.267670    0.149877    0.240838   -0.105984    0.148230
O    -0.176133   -2.093957    1.008904    0.077569   -0.086728   -0.025226
H     1.014181   -0.926328   -1.305264    0.210272   -0.638882    0.198414
H    -2.438466    1.481023   -0.602090    0.001351   -0.043591    0.009189
H    -0.742633    1.486048   -1.043738    0.014424   -0.015449    0.010868
H    -1.219908    1.786662    0.630346   -0.000207   -0.009144    0.004000
H    -1.517136   -0.884428   -0.865728   -0.006462   -0.001079   -0.017814
H    -2.184556   -0.570358    0.716141    0.031823   -0.038141    0.016512
H     2.094129    1.056408   -1.466225    0.079617   -0.082744    0.187273
H     1.365581    1.604324    0.259958    0.052201   -0.212910   -0.034838
H     0.173629   -0.139115    1.575821   -0.020667   -0.040751   -0.002944
17
* Frequency(6) -1170.8845
C    -1.445087    1.195479   -0.260409    0.013185   -0.010130    0.005047
C    -1.376817   -0.289332    0.038702    0.018144   -0.031835   -0.001255
C     1.919299    0.939859   -0.390450   -0.365242   -0.508762   -0.032252
C     1.196061   -1.320294   -0.028396   -0.096047    1.509772   -0.530193
C    -0.126523   -0.744316    0.695296    0.150227   -0.010533   -0.032217
O     1.216765   -2.268300    0.438409   -0.131231   -0.451154    0.297229
O     2.317856   -0.268678    0.151287    0.240838   -0.105984    0.148230
O    -0.175395   -2.094782    1.008664    0.077569   -0.086728   -0.025226
H     1.016182   -0.932406   -1.303377    0.210272   -0.638882    0.198414
H    -2.438453    1.480608   -0.602002    0.001351   -0.043591    0.009189
H    -0.742496    1.485901   -1.043634    0.014424   -0.015449    0.010868
H    -1.219910    1.786575    0.630384   -0.000207   -0.009144    0.004000
H    -1.517197   -0.884438   -0.865898   -0.006462   -0.001079   -0.017814
H    -2.184253   -0.570721    0.716298    0.031823   -0.038141    0.016512
H     2.094887    1.055621   -1.464444    0.079617   -0.082744    0.187273
H     1.366078    1.602299    0.259627    0.052201   -0.212910   -0.034838
H     0.173433   -0.139503    1.575793   -0.020667   -0.040751   -0.002944
17
* Frequency(6) -1170.8845
C    -1.444477    1.195010   -0.260175    0.013185   -0.010130    0.005047
C    -1.375977   -0.290805    0.038644    0.018144   -0.031835   -0.001255
C     1.902395    0.916313   -0.391942   -0.365242   -0.508762   -0.032252
C     1.191616   -1.250419   -0.052934   -0.096047    1.509772   -0.530193
C    -0.119570   -0.744803    0.693805    0.150227   -0.010533   -0.032217
O     1.210692   -2.289181    0.452165   -0.131231   -0.451154    0.297229
O     2.329002   -0.273584    0.158148    0.240838   -0.105984    0.148230
O    -0.171805   -2.098796    1.007497    0.077569   -0.086728   -0.025226
H     1.025914   -0.961975   -1.294194    0.210272   -0.638882    0.198414
H    -2.438391    1.478591   -0.601577    0.001351   -0.043591    0.009189
H    -0.741828    1.485186   -1.043131    0.014424   -0.015449    0.010868
H    -1.219920    1.786152    0.630569   -0.000207   -0.009144    0.004000
H    -1.517496   -0.884488   -0.866722   -0.006462   -0.001079   -0.017814
H    -2.182780   -0.572486    0.717062    0.031823   -0.038141    0.016512
H     2.098571    1.051792   -1.455776    0.079617   -0.082744    0.187273
H     1.368494    1.592445    0.258014    0.052201   -0.212910   -0.034838
H     0.172476   -0.141389    1.575657   -0.020667   -0.040751   -0.002944
17
* Frequency(6) -1170.8845
C    -1.443448    1.194220   -0.259781    0.013185   -0.010130    0.005047
C    -1.374561   -0.293290    0.038546    0.018144   -0.031835   -0.001255
C     1.873894    0.876612   -0.394459   -0.365242   -0.508762   -0.032252
C     1.184121   -1.132606   -0.094307   -0.096047    1.509772   -0.530193
C    -0.107847   -0.745625    0.691291    0.150227   -0.010533   -0.032217
O     1.200451   -2.324386    0.475359   -0.131231   -0.451154    0.297229
O     2.347796   -0.281854    0.169715    0.240838   -0.105984    0.148230
O    -0.165752   -2.105563    1.005528    0.077569   -0.086728   -0.025226
H     1.042322   -1.011829   -1.278711    0.210272   -0.638882    0.198414
H    -2.438286    1.475189   -0.600860    0.001351   -0.043591    0.009189
H    -0.740703    1.483980   -1.042283    0.014424   -0.015449    0.010868
H    -1.219936    1.785438    0.630881   -0.000207   -0.009144    0.004000
H    -1.518000   -0.884572   -0.868112   -0.006462   -0.001079   -0.017814
H    -2.180297   -0.575462    0.718351    0.031823   -0.038141    0.016512
H     2.104784    1.045335   -1.441163    0.079617   -0.082744    0.187273
H     1.372567    1.575831    0.255296    0.052201   -0.212910   -0.034838
H     0.170863   -0.144569    1.575427   -0.020667   -0.040751   -0.002944
17
* Frequency(6) -1170.8845
C    -1.442112    1.193193   -0.259270    0.013185   -0.010130    0.005047
C    -1.372723   -0.296516    0.038419    0.018144   -0.031835   -0.001255
C     1.836884    0.825059   -0.397727   -0.365242   -0.508762   -0.032252
C     1.174389   -0.979621   -0.148031   -0.096047    1.509772   -0.530193
C    -0.092625   -0.746692    0.688026    0.150227   -0.010533   -0.032217
O     1.187154   -2.370101    0.505477   -0.131231   -0.451154    0.297229
O     2.372200   -0.292593    0.184735    0.240838   -0.105984    0.148230
O    -0.157892   -2.114351    1.002972    0.077569   -0.086728   -0.025226
H     1.063629   -1.076567   -1.258605    0.210272   -0.638882    0.198414
H    -2.438149    1.470772   -0.599929    0.001351   -0.043591    0.009189
H    -0.739241    1.482415   -1.041182    0.014424   -0.015449    0.010868
H    -1.219957    1.784512    0.631287   -0.000207   -0.009144    0.004000
H    -1.518655   -0.884681   -0.869917   -0.006462   -0.001079   -0.017814
H    -2.177072   -0.579327    0.720024    0.031823   -0.038141    0.016512
H     2.112852    1.036950   -1.422186    0.079617   -0.082744    0.187273
H     1.377857    1.554256    0.251766    0.052201   -0.212910   -0.034838
H     0.168769   -0.148698    1.575129   -0.020667   -0.040751   -0.002944
17
* Frequency(6) -1170.8845
C    -1.440614    1.192042   -0.258696    0.013185   -0.010130    0.005047
C    -1.370661   -0.300133    0.038276    0.018144   -0.031835   -0.001255
C     1.795376    0.767241   -0.401392   -0.365242   -0.508762   -0.032252
C     1.163473   -0.808044   -0.208285   -0.096047    1.509772   -0.530193
C    -0.075552   -0.747889    0.684365    0.150227   -0.010533   -0.032217
O     1.172240   -2.421373    0.539256   -0.131231   -0.451154    0.297229
O     2.399570   -0.304638    0.201580    0.240838   -0.105984    0.148230
O    -0.149077   -2.124208    1.000105    0.077569   -0.086728   -0.025226
H     1.087525   -1.149173   -1.236057    0.210272   -0.638882    0.198414
H    -2.437995    1.465818   -0.598885    0.001351   -0.043591    0.009189
H    -0.737602    1.480659   -1.039947    0.014424   -0.015449    0.010868
H    -1.219980    1.783473    0.631741   -0.000207   -0.009144    0.004000
H    -1.519390   -0.884804   -0.871942   -0.006462   -0.001079   -0.017814
H    -2.173456   -0.583662    0.721901    0.031823   -0.038141    0.016512
H     2.121900    1.027547   -1.400904    0.079617   -0.082744    0.187273
H     1.383789    1.530060    0.247806    0.052201   -0.212910   -0.034838
H     0.166421   -0.153329    1.574794   -0.020667   -0.040751   -0.002944
