15
Coordinates from ORCA-job freq E -271.055993740568
  C           2.63664352537806     -0.13530406249181      1.05969223982569
  C          -2.22033967953239     -0.31106515344906     -0.32799587404724
  C          -0.90233344652115      0.44171661144883     -0.48313838984293
  C           1.31468697568923      0.43608536870698      0.90266181813378
  C           0.21930746635893     -0.28157423917202      0.20649607720860
  O           0.24162694241706     -0.20456323139080      1.61414985915434
  H           2.74277872662596     -1.19905550648619      1.20776393517458
  H           3.51605931150781      0.48684467970125      1.03062154448700
  H          -3.03864924722682      0.22264288012529     -0.80938170280942
  H          -2.46370357520881     -0.43145607574015      0.72732435492151
  H          -2.15668249184468     -1.30383426018587     -0.77535577276775
  H          -0.98716849280216      1.44077673561230     -0.05174763703366
  H          -0.65197851786390      0.55973067504947     -1.53968081531571
  H           1.24562862657531      1.51908992705320      0.90308772104809
  H           0.45420687644756     -1.27169934878140     -0.18037235813688
