17
Coordinates from ORCA-job freq E -421.435633829496
  C           2.42157859785053      0.32036482768618     -0.10485666583174
  C           1.04784778062821     -0.01603679150640      0.46756952196598
  C          -2.08052039646320      0.43073465262163      0.21422514157334
  C           0.17011394527025     -0.63229140998050     -0.58229695667412
  C          -1.27923505038916     -0.44446907688044     -0.70707218409921
  O          -1.71834874730691     -0.74879335517182      2.10784035294486
  O          -2.63935993994493     -0.35544242251302      1.28412999628399
  O          -0.38529933381176      0.23610456793385     -1.56646884042293
  H           3.06280339406296      0.76734960338487      0.65327625475254
  H           2.32880284174656      1.02410761045351     -0.93190733554236
  H           2.91857359108941     -0.57547087232227     -0.47942127885836
  H           0.58036904332256      0.88295840587052      0.86659424374481
  H           1.13492753903350     -0.72140774490017      1.29600045972427
  H          -1.48144598547603      1.22893963122161      0.64454803578311
  H          -2.94490124985873      0.85049853579431     -0.29828406362547
  H           0.55927819202388     -1.55387556591887     -1.00982793542063
  H          -1.85428622177710     -1.23373459577299     -1.18342474629809
