17
* (null), Energy   -1000.0000000
C    -2.313405    1.464233    0.347381   -0.000698   -0.000864    0.003941
C     1.864736   -1.105198    1.227420    0.202977    0.027162    0.511151
C     0.505545   -1.149087    0.840239    0.369334    0.021362   -0.379906
C    -0.500470   -0.087591    1.130853    0.138441    0.026598   -0.168951
C    -1.293207    0.424656   -0.076973   -0.010898    0.002862   -0.008948
O     2.066176   -0.935747   -0.044143   -0.556513    0.078659    0.018765
O     0.130388    0.104137   -1.864081   -0.006850   -0.002170   -0.000964
O    -0.451545    1.075802   -1.013393   -0.002756    0.003958   -0.005622
H    -1.811141    2.321156    0.797123    0.003149   -0.001902    0.000250
H    -2.877404    1.808603   -0.516488   -0.008217   -0.002894    0.008120
H    -3.003337    1.044056    1.078281    0.000376   -0.000341    0.008272
H     2.560926   -1.396961    1.998177    0.211541   -1.340681   -0.137800
H     0.177329   -1.988116    0.234028   -0.153940   -0.563615    0.668746
H    -0.028981    0.755871    1.635305    0.117048   -0.032496   -0.054611
H    -1.218207   -0.538684    1.829905    0.465644   -0.372854   -0.097096
H    -1.781355   -0.410251   -0.586699   -0.022402    0.014093   -0.017892
H     0.980357   -0.073841   -1.432166    0.041332    0.104913   -0.062323
17
* Frequency(6) -1033.5846
C    -2.313485    1.464135    0.347828   -0.000698   -0.000864    0.003941
C     1.887804   -1.102112    1.285509    0.202977    0.027162    0.511151
C     0.547518   -1.146659    0.797065    0.369334    0.021362   -0.379906
C    -0.484737   -0.084568    1.111653    0.138441    0.026598   -0.168951
C    -1.294446    0.424981   -0.077990   -0.010898    0.002862   -0.008948
O     2.002931   -0.926808   -0.042011   -0.556513    0.078659    0.018765
O     0.129609    0.103891   -1.864191   -0.006850   -0.002170   -0.000964
O    -0.451858    1.076251   -1.014032   -0.002756    0.003958   -0.005622
H    -1.810783    2.320939    0.797152    0.003149   -0.001902    0.000250
H    -2.878338    1.808274   -0.515565   -0.008217   -0.002894    0.008120
H    -3.003295    1.044017    1.079221    0.000376   -0.000341    0.008272
H     2.584966   -1.549323    1.982517    0.211541   -1.340681   -0.137800
H     0.159835   -2.052168    0.310028   -0.153940   -0.563615    0.668746
H    -0.015680    0.752178    1.629099    0.117048   -0.032496   -0.054611
H    -1.165289   -0.581057    1.818870    0.465644   -0.372854   -0.097096
H    -1.783901   -0.408650   -0.588732   -0.022402    0.014093   -0.017892
H     0.985054   -0.061918   -1.439249    0.041332    0.104913   -0.062323
17
* Frequency(6) -1033.5846
C    -2.313555    1.464047    0.348228   -0.000698   -0.000864    0.003941
C     1.908371   -1.099359    1.337304    0.202977    0.027162    0.511151
C     0.584943   -1.144494    0.758569    0.369334    0.021362   -0.379906
C    -0.470709   -0.081873    1.094533    0.138441    0.026598   -0.168951
C    -1.295550    0.425271   -0.078897   -0.010898    0.002862   -0.008948
O     1.946540   -0.918837   -0.040109   -0.556513    0.078659    0.018765
O     0.128915    0.103671   -1.864289   -0.006850   -0.002170   -0.000964
O    -0.452138    1.076652   -1.014602   -0.002756    0.003958   -0.005622
H    -1.810464    2.320747    0.797177    0.003149   -0.001902    0.000250
H    -2.879171    1.807980   -0.514743   -0.008217   -0.002894    0.008120
H    -3.003257    1.043983    1.080059    0.000376   -0.000341    0.008272
H     2.606402   -1.685173    1.968554    0.211541   -1.340681   -0.137800
H     0.144236   -2.109279    0.377792   -0.153940   -0.563615    0.668746
H    -0.003819    0.748885    1.623565    0.117048   -0.032496   -0.054611
H    -1.118105   -0.618838    1.809032    0.465644   -0.372854   -0.097096
H    -1.786171   -0.407222   -0.590545   -0.022402    0.014093   -0.017892
H     0.989243   -0.051287   -1.445564    0.041332    0.104913   -0.062323
17
* Frequency(6) -1033.5846
C    -2.313610    1.463980    0.348535   -0.000698   -0.000864    0.003941
C     1.924210   -1.097240    1.377191    0.202977    0.027162    0.511151
C     0.613763   -1.142828    0.728924    0.369334    0.021362   -0.379906
C    -0.459906   -0.079798    1.081349    0.138441    0.026598   -0.168951
C    -1.296400    0.425494   -0.079595   -0.010898    0.002862   -0.008948
O     1.903113   -0.912699   -0.038645   -0.556513    0.078659    0.018765
O     0.128381    0.103501   -1.864364   -0.006850   -0.002170   -0.000964
O    -0.452353    1.076961   -1.015041   -0.002756    0.003958   -0.005622
H    -1.810219    2.320598    0.797197    0.003149   -0.001902    0.000250
H    -2.879812    1.807754   -0.514109   -0.008217   -0.002894    0.008120
H    -3.003227    1.043956    1.080705    0.000376   -0.000341    0.008272
H     2.622909   -1.789792    1.957801    0.211541   -1.340681   -0.137800
H     0.132223   -2.153260    0.429976   -0.153940   -0.563615    0.668746
H     0.005314    0.746349    1.619304    0.117048   -0.032496   -0.054611
H    -1.081769   -0.647933    1.801455    0.465644   -0.372854   -0.097096
H    -1.787919   -0.406122   -0.591942   -0.022402    0.014093   -0.017892
H     0.992468   -0.043100   -1.450427    0.041332    0.104913   -0.062323
17
* Frequency(6) -1033.5846
C    -2.313642    1.463940    0.348718   -0.000698   -0.000864    0.003941
C     1.933605   -1.095983    1.400848    0.202977    0.027162    0.511151
C     0.630857   -1.141839    0.711341    0.369334    0.021362   -0.379906
C    -0.453499   -0.078567    1.073530    0.138441    0.026598   -0.168951
C    -1.296905    0.425627   -0.080009   -0.010898    0.002862   -0.008948
O     1.877356   -0.909059   -0.037776   -0.556513    0.078659    0.018765
O     0.128064    0.103401   -1.864408   -0.006850   -0.002170   -0.000964
O    -0.452480    1.077145   -1.015301   -0.002756    0.003958   -0.005622
H    -1.810073    2.320510    0.797208    0.003149   -0.001902    0.000250
H    -2.880193    1.807621   -0.513733   -0.008217   -0.002894    0.008120
H    -3.003210    1.043940    1.081087    0.000376   -0.000341    0.008272
H     2.632699   -1.851841    1.951423    0.211541   -1.340681   -0.137800
H     0.125099   -2.179345    0.460927   -0.153940   -0.563615    0.668746
H     0.010732    0.744845    1.616776    0.117048   -0.032496   -0.054611
H    -1.060219   -0.665190    1.796961    0.465644   -0.372854   -0.097096
H    -1.788956   -0.405470   -0.592770   -0.022402    0.014093   -0.017892
H     0.994381   -0.038245   -1.453312    0.041332    0.104913   -0.062323
17
* Frequency(6) -1033.5846
C    -2.313649    1.463932    0.348755   -0.000698   -0.000864    0.003941
C     1.935536   -1.095724    1.405711    0.202977    0.027162    0.511151
C     0.634371   -1.141636    0.707727    0.369334    0.021362   -0.379906
C    -0.452181   -0.078314    1.071922    0.138441    0.026598   -0.168951
C    -1.297008    0.425654   -0.080094   -0.010898    0.002862   -0.008948
O     1.872061   -0.908310   -0.037598   -0.556513    0.078659    0.018765
O     0.127999    0.103380   -1.864418   -0.006850   -0.002170   -0.000964
O    -0.452506    1.077182   -1.015354   -0.002756    0.003958   -0.005622
H    -1.810043    2.320492    0.797211    0.003149   -0.001902    0.000250
H    -2.880271    1.807593   -0.513656   -0.008217   -0.002894    0.008120
H    -3.003206    1.043937    1.081166    0.000376   -0.000341    0.008272
H     2.634712   -1.864597    1.950112    0.211541   -1.340681   -0.137800
H     0.123634   -2.184708    0.467290   -0.153940   -0.563615    0.668746
H     0.011845    0.744536    1.616257    0.117048   -0.032496   -0.054611
H    -1.055788   -0.668737    1.796037    0.465644   -0.372854   -0.097096
H    -1.789169   -0.405336   -0.592940   -0.022402    0.014093   -0.017892
H     0.994774   -0.037247   -1.453905    0.041332    0.104913   -0.062323
17
* Frequency(6) -1033.5846
C    -2.313629    1.463956    0.348644   -0.000698   -0.000864    0.003941
C     1.929795   -1.096493    1.391254    0.202977    0.027162    0.511151
C     0.623924   -1.142240    0.718472    0.369334    0.021362   -0.379906
C    -0.456097   -0.079066    1.076701    0.138441    0.026598   -0.168951
C    -1.296700    0.425573   -0.079841   -0.010898    0.002862   -0.008948
O     1.887802   -0.910535   -0.038129   -0.556513    0.078659    0.018765
O     0.128192    0.103442   -1.864390   -0.006850   -0.002170   -0.000964
O    -0.452428    1.077070   -1.015195   -0.002756    0.003958   -0.005622
H    -1.810132    2.320546    0.797204    0.003149   -0.001902    0.000250
H    -2.880038    1.807675   -0.513886   -0.008217   -0.002894    0.008120
H    -3.003217    1.043947    1.080932    0.000376   -0.000341    0.008272
H     2.628729   -1.826677    1.954009    0.211541   -1.340681   -0.137800
H     0.127988   -2.168766    0.448375   -0.153940   -0.563615    0.668746
H     0.008535    0.745455    1.617801    0.117048   -0.032496   -0.054611
H    -1.068958   -0.658191    1.798784    0.465644   -0.372854   -0.097096
H    -1.788535   -0.405734   -0.592434   -0.022402    0.014093   -0.017892
H     0.993605   -0.040214   -1.452142    0.041332    0.104913   -0.062323
17
* Frequency(6) -1033.5846
C    -2.313585    1.464011    0.348395   -0.000698   -0.000864    0.003941
C     1.917004   -1.098204    1.359043    0.202977    0.027162    0.511151
C     0.600650   -1.143586    0.742412    0.369334    0.021362   -0.379906
C    -0.464821   -0.080742    1.087348    0.138441    0.026598   -0.168951
C    -1.296013    0.425393   -0.079277   -0.010898    0.002862   -0.008948
O     1.922872   -0.915492   -0.039311   -0.556513    0.078659    0.018765
O     0.128624    0.103578   -1.864330   -0.006850   -0.002170   -0.000964
O    -0.452255    1.076821   -1.014841   -0.002756    0.003958   -0.005622
H    -1.810330    2.320666    0.797188    0.003149   -0.001902    0.000250
H    -2.879521    1.807857   -0.514397   -0.008217   -0.002894    0.008120
H    -3.003241    1.043968    1.080411    0.000376   -0.000341    0.008272
H     2.615398   -1.742191    1.962693    0.211541   -1.340681   -0.137800
H     0.137689   -2.133249    0.406233   -0.153940   -0.563615    0.668746
H     0.001159    0.747503    1.621243    0.117048   -0.032496   -0.054611
H    -1.098302   -0.634695    1.804902    0.465644   -0.372854   -0.097096
H    -1.787123   -0.406623   -0.591306   -0.022402    0.014093   -0.017892
H     0.991000   -0.046825   -1.448215    0.041332    0.104913   -0.062323
17
* Frequency(6) -1033.5846
C    -2.313522    1.464089    0.348037   -0.000698   -0.000864    0.003941
C     1.898549   -1.100674    1.312568    0.202977    0.027162    0.511151
C     0.567069   -1.145528    0.776954    0.369334    0.021362   -0.379906
C    -0.477409   -0.083160    1.102709    0.138441    0.026598   -0.168951
C    -1.295022    0.425132   -0.078464   -0.010898    0.002862   -0.008948
O     1.973471   -0.922644   -0.041017   -0.556513    0.078659    0.018765
O     0.129247    0.103776   -1.864242   -0.006850   -0.002170   -0.000964
O    -0.452004    1.076461   -1.014330   -0.002756    0.003958   -0.005622
H    -1.810617    2.320839    0.797165    0.003149   -0.001902    0.000250
H    -2.878773    1.808120   -0.515136   -0.008217   -0.002894    0.008120
H    -3.003275    1.043999    1.079659    0.000376   -0.000341    0.008272
H     2.596164   -1.620294    1.975222    0.211541   -1.340681   -0.137800
H     0.151685   -2.082004    0.345429   -0.153940   -0.563615    0.668746
H    -0.009483    0.750458    1.626208    0.117048   -0.032496   -0.054611
H    -1.140639   -0.600795    1.813730    0.465644   -0.372854   -0.097096
H    -1.785087   -0.407904   -0.589680   -0.022402    0.014093   -0.017892
H     0.987242   -0.056364   -1.442548    0.041332    0.104913   -0.062323
17
* Frequency(6) -1033.5846
C    -2.313445    1.464183    0.347608   -0.000698   -0.000864    0.003941
C     1.876430   -1.103634    1.256866    0.202977    0.027162    0.511151
C     0.526822   -1.147856    0.818354    0.369334    0.021362   -0.379906
C    -0.492495   -0.086059    1.121120    0.138441    0.026598   -0.168951
C    -1.293835    0.424821   -0.077489   -0.010898    0.002862   -0.008948
O     2.034116   -0.931216   -0.043062   -0.556513    0.078659    0.018765
O     0.129993    0.104012   -1.864137   -0.006850   -0.002170   -0.000964
O    -0.451704    1.076030   -1.013717   -0.002756    0.003958   -0.005622
H    -1.810960    2.321046    0.797138    0.003149   -0.001902    0.000250
H    -2.877878    1.808436   -0.516020   -0.008217   -0.002894    0.008120
H    -3.003316    1.044037    1.078757    0.000376   -0.000341    0.008272
H     2.573112   -1.474195    1.990239    0.211541   -1.340681   -0.137800
H     0.168461   -2.020585    0.272554   -0.153940   -0.563615    0.668746
H    -0.022239    0.753999    1.632159    0.117048   -0.032496   -0.054611
H    -1.191382   -0.560164    1.824311    0.465644   -0.372854   -0.097096
H    -1.782645   -0.409440   -0.587730   -0.022402    0.014093   -0.017892
H     0.982738   -0.067797   -1.435756    0.041332    0.104913   -0.062323
17
* Frequency(6) -1033.5846
C    -2.313365    1.464283    0.347154   -0.000698   -0.000864    0.003941
C     1.853043   -1.106763    1.197973    0.202977    0.027162    0.511151
C     0.484268   -1.150317    0.862125    0.369334    0.021362   -0.379906
C    -0.508446   -0.089123    1.140586    0.138441    0.026598   -0.168951
C    -1.292579    0.424491   -0.076458   -0.010898    0.002862   -0.008948
O     2.098235   -0.940278   -0.045224   -0.556513    0.078659    0.018765
O     0.130783    0.104262   -1.864026   -0.006850   -0.002170   -0.000964
O    -0.451386    1.075574   -1.013069   -0.002756    0.003958   -0.005622
H    -1.811323    2.321265    0.797109    0.003149   -0.001902    0.000250
H    -2.876931    1.808769   -0.516956   -0.008217   -0.002894    0.008120
H    -3.003359    1.044076    1.077804    0.000376   -0.000341    0.008272
H     2.548739   -1.319727    2.006116    0.211541   -1.340681   -0.137800
H     0.186197   -1.955647    0.195503   -0.153940   -0.563615    0.668746
H    -0.035724    0.757743    1.638451    0.117048   -0.032496   -0.054611
H    -1.245032   -0.517205    1.835498    0.465644   -0.372854   -0.097096
H    -1.780064   -0.411063   -0.585668   -0.022402    0.014093   -0.017892
H     0.977976   -0.079884   -1.428576    0.041332    0.104913   -0.062323
17
* Frequency(6) -1033.5846
C    -2.313289    1.464377    0.346724   -0.000698   -0.000864    0.003941
C     1.830924   -1.109723    1.142271    0.202977    0.027162    0.511151
C     0.444021   -1.152645    0.903525    0.369334    0.021362   -0.379906
C    -0.523532   -0.092022    1.158997    0.138441    0.026598   -0.168951
C    -1.291391    0.424179   -0.075482   -0.010898    0.002862   -0.008948
O     2.158880   -0.948850   -0.047269   -0.556513    0.078659    0.018765
O     0.131529    0.104499   -1.863921   -0.006850   -0.002170   -0.000964
O    -0.451086    1.075142   -1.012457   -0.002756    0.003958   -0.005622
H    -1.811666    2.321472    0.797082    0.003149   -0.001902    0.000250
H    -2.876036    1.809085   -0.517841   -0.008217   -0.002894    0.008120
H    -3.003400    1.044113    1.076903    0.000376   -0.000341    0.008272
H     2.525687   -1.173628    2.021132    0.211541   -1.340681   -0.137800
H     0.202972   -1.894228    0.122628   -0.153940   -0.563615    0.668746
H    -0.048479    0.761284    1.644402    0.117048   -0.032496   -0.054611
H    -1.295775   -0.476574    1.846079    0.465644   -0.372854   -0.097096
H    -1.777623   -0.412599   -0.583719   -0.022402    0.014093   -0.017892
H     0.973472   -0.091317   -1.421784    0.041332    0.104913   -0.062323
17
* Frequency(6) -1033.5846
C    -2.313226    1.464455    0.346366   -0.000698   -0.000864    0.003941
C     1.812469   -1.112193    1.095796    0.202977    0.027162    0.511151
C     0.410440   -1.154587    0.938066    0.369334    0.021362   -0.379906
C    -0.536120   -0.094440    1.174359    0.138441    0.026598   -0.168951
C    -1.290401    0.423919   -0.074669   -0.010898    0.002862   -0.008948
O     2.209480   -0.956002   -0.048975   -0.556513    0.078659    0.018765
O     0.132152    0.104696   -1.863833   -0.006850   -0.002170   -0.000964
O    -0.450836    1.074782   -1.011945   -0.002756    0.003958   -0.005622
H    -1.811952    2.321645    0.797059    0.003149   -0.001902    0.000250
H    -2.875288    1.809348   -0.518579   -0.008217   -0.002894    0.008120
H    -3.003434    1.044144    1.076151    0.000376   -0.000341    0.008272
H     2.506453   -1.051731    2.033661    0.211541   -1.340681   -0.137800
H     0.216969   -1.842983    0.061824   -0.153940   -0.563615    0.668746
H    -0.059122    0.764239    1.649368    0.117048   -0.032496   -0.054611
H    -1.338112   -0.442673    1.854907    0.465644   -0.372854   -0.097096
H    -1.775586   -0.413880   -0.582092   -0.022402    0.014093   -0.017892
H     0.969714   -0.100856   -1.416118    0.041332    0.104913   -0.062323
17
* Frequency(6) -1033.5846
C    -2.313182    1.464510    0.346118   -0.000698   -0.000864    0.003941
C     1.799678   -1.113904    1.063585    0.202977    0.027162    0.511151
C     0.387166   -1.155934    0.962007    0.369334    0.021362   -0.379906
C    -0.544844   -0.096116    1.185005    0.138441    0.026598   -0.168951
C    -1.289714    0.423738   -0.074105   -0.010898    0.002862   -0.008948
O     2.244550   -0.960959   -0.050158   -0.556513    0.078659    0.018765
O     0.132584    0.104833   -1.863772   -0.006850   -0.002170   -0.000964
O    -0.450662    1.074533   -1.011591   -0.002756    0.003958   -0.005622
H    -1.812151    2.321765    0.797043    0.003149   -0.001902    0.000250
H    -2.874771    1.809530   -0.519091   -0.008217   -0.002894    0.008120
H    -3.003458    1.044166    1.075630    0.000376   -0.000341    0.008272
H     2.493122   -0.967245    2.042345    0.211541   -1.340681   -0.137800
H     0.226670   -1.807466    0.019682   -0.153940   -0.563615    0.668746
H    -0.066498    0.766287    1.652809    0.117048   -0.032496   -0.054611
H    -1.367456   -0.419177    1.861026    0.465644   -0.372854   -0.097096
H    -1.774175   -0.414769   -0.580964   -0.022402    0.014093   -0.017892
H     0.967109   -0.107467   -1.412190    0.041332    0.104913   -0.062323
17
* Frequency(6) -1033.5846
C    -2.313162    1.464534    0.346006   -0.000698   -0.000864    0.003941
C     1.793937   -1.114673    1.049128    0.202977    0.027162    0.511151
C     0.376720   -1.156538    0.972752    0.369334    0.021362   -0.379906
C    -0.548759   -0.096869    1.189784    0.138441    0.026598   -0.168951
C    -1.289406    0.423658   -0.073852   -0.010898    0.002862   -0.008948
O     2.260290   -0.963183   -0.050689   -0.556513    0.078659    0.018765
O     0.132777    0.104894   -1.863745   -0.006850   -0.002170   -0.000964
O    -0.450584    1.074421   -1.011432   -0.002756    0.003958   -0.005622
H    -1.812240    2.321819    0.797036    0.003149   -0.001902    0.000250
H    -2.874538    1.809612   -0.519320   -0.008217   -0.002894    0.008120
H    -3.003469    1.044175    1.075396    0.000376   -0.000341    0.008272
H     2.487139   -0.929325    2.046242    0.211541   -1.340681   -0.137800
H     0.231024   -1.791525    0.000767   -0.153940   -0.563615    0.668746
H    -0.069808    0.767206    1.654354    0.117048   -0.032496   -0.054611
H    -1.380626   -0.408631    1.863772    0.465644   -0.372854   -0.097096
H    -1.773541   -0.415167   -0.580458   -0.022402    0.014093   -0.017892
H     0.965940   -0.110435   -1.410427    0.041332    0.104913   -0.062323
17
* Frequency(6) -1033.5846
C    -2.313168    1.464526    0.346044   -0.000698   -0.000864    0.003941
C     1.795868   -1.114414    1.053991    0.202977    0.027162    0.511151
C     0.380234   -1.156335    0.969138    0.369334    0.021362   -0.379906
C    -0.547442   -0.096616    1.188177    0.138441    0.026598   -0.168951
C    -1.289509    0.423685   -0.073937   -0.010898    0.002862   -0.008948
O     2.254995   -0.962435   -0.050510   -0.556513    0.078659    0.018765
O     0.132712    0.104874   -1.863754   -0.006850   -0.002170   -0.000964
O    -0.450610    1.074459   -1.011486   -0.002756    0.003958   -0.005622
H    -1.812210    2.321801    0.797039    0.003149   -0.001902    0.000250
H    -2.874616    1.809585   -0.519243   -0.008217   -0.002894    0.008120
H    -3.003465    1.044172    1.075474    0.000376   -0.000341    0.008272
H     2.489152   -0.942081    2.044931    0.211541   -1.340681   -0.137800
H     0.229559   -1.796887    0.007130   -0.153940   -0.563615    0.668746
H    -0.068695    0.766896    1.653834    0.117048   -0.032496   -0.054611
H    -1.376196   -0.412179    1.862848    0.465644   -0.372854   -0.097096
H    -1.773754   -0.415033   -0.580629   -0.022402    0.014093   -0.017892
H     0.966333   -0.109436   -1.411020    0.041332    0.104913   -0.062323
17
* Frequency(6) -1033.5846
C    -2.313201    1.464486    0.346226   -0.000698   -0.000864    0.003941
C     1.805262   -1.113157    1.077648    0.202977    0.027162    0.511151
C     0.397327   -1.155346    0.951555    0.369334    0.021362   -0.379906
C    -0.541035   -0.095385    1.180357    0.138441    0.026598   -0.168951
C    -1.290014    0.423817   -0.074351   -0.010898    0.002862   -0.008948
O     2.229239   -0.958795   -0.049642   -0.556513    0.078659    0.018765
O     0.132395    0.104773   -1.863799   -0.006850   -0.002170   -0.000964
O    -0.450738    1.074642   -1.011746   -0.002756    0.003958   -0.005622
H    -1.812064    2.321713    0.797050    0.003149   -0.001902    0.000250
H    -2.874997    1.809451   -0.518867   -0.008217   -0.002894    0.008120
H    -3.003448    1.044156    1.075857    0.000376   -0.000341    0.008272
H     2.498942   -1.004130    2.038554    0.211541   -1.340681   -0.137800
H     0.222435   -1.822972    0.038080   -0.153940   -0.563615    0.668746
H    -0.063277    0.765392    1.651307    0.117048   -0.032496   -0.054611
H    -1.354645   -0.429435    1.858355    0.465644   -0.372854   -0.097096
H    -1.774791   -0.414381   -0.581457   -0.022402    0.014093   -0.017892
H     0.968246   -0.104581   -1.413905    0.041332    0.104913   -0.062323
17
* Frequency(6) -1033.5846
C    -2.313255    1.464419    0.346534   -0.000698   -0.000864    0.003941
C     1.821102   -1.111038    1.117535    0.202977    0.027162    0.511151
C     0.426148   -1.153679    0.921909    0.369334    0.021362   -0.379906
C    -0.530232   -0.093309    1.167173    0.138441    0.026598   -0.168951
C    -1.290864    0.424041   -0.075049   -0.010898    0.002862   -0.008948
O     2.185812   -0.952657   -0.048177   -0.556513    0.078659    0.018765
O     0.131861    0.104604   -1.863874   -0.006850   -0.002170   -0.000964
O    -0.450953    1.074951   -1.012185   -0.002756    0.003958   -0.005622
H    -1.811818    2.321565    0.797070    0.003149   -0.001902    0.000250
H    -2.875638    1.809225   -0.518234   -0.008217   -0.002894    0.008120
H    -3.003418    1.044130    1.076503    0.000376   -0.000341    0.008272
H     2.515450   -1.108749    2.027801    0.211541   -1.340681   -0.137800
H     0.210422   -1.866953    0.090265   -0.153940   -0.563615    0.668746
H    -0.054144    0.762857    1.647045    0.117048   -0.032496   -0.054611
H    -1.318309   -0.458530    1.850778    0.465644   -0.372854   -0.097096
H    -1.776539   -0.413281   -0.582853   -0.022402    0.014093   -0.017892
H     0.971472   -0.096394   -1.418768    0.041332    0.104913   -0.062323
17
* Frequency(6) -1033.5846
C    -2.313326    1.464331    0.346933   -0.000698   -0.000864    0.003941
C     1.841669   -1.108285    1.169330    0.202977    0.027162    0.511151
C     0.463572   -1.151514    0.883414    0.369334    0.021362   -0.379906
C    -0.516204   -0.090614    1.150054    0.138441    0.026598   -0.168951
C    -1.291968    0.424331   -0.075956   -0.010898    0.002862   -0.008948
O     2.129420   -0.944686   -0.046276   -0.556513    0.078659    0.018765
O     0.131166    0.104384   -1.863972   -0.006850   -0.002170   -0.000964
O    -0.451232    1.075352   -1.012754   -0.002756    0.003958   -0.005622
H    -1.811499    2.321372    0.797095    0.003149   -0.001902    0.000250
H    -2.876471    1.808932   -0.517411   -0.008217   -0.002894    0.008120
H    -3.003380    1.044095    1.077341    0.000376   -0.000341    0.008272
H     2.536885   -1.244600    2.013837    0.211541   -1.340681   -0.137800
H     0.194823   -1.924064    0.158029   -0.153940   -0.563615    0.668746
H    -0.042283    0.759564    1.641512    0.117048   -0.032496   -0.054611
H    -1.271125   -0.496311    1.840939    0.465644   -0.372854   -0.097096
H    -1.778809   -0.411853   -0.584666   -0.022402    0.014093   -0.017892
H     0.975660   -0.085763   -1.425083    0.041332    0.104913   -0.062323
17
* Frequency(6) -1033.5846
C    -2.313405    1.464233    0.347381   -0.000698   -0.000864    0.003941
C     1.864736   -1.105198    1.227420    0.202977    0.027162    0.511151
C     0.505545   -1.149087    0.840239    0.369334    0.021362   -0.379906
C    -0.500470   -0.087591    1.130853    0.138441    0.026598   -0.168951
C    -1.293207    0.424656   -0.076973   -0.010898    0.002862   -0.008948
O     2.066176   -0.935747   -0.044143   -0.556513    0.078659    0.018765
O     0.130388    0.104137   -1.864081   -0.006850   -0.002170   -0.000964
O    -0.451545    1.075802   -1.013393   -0.002756    0.003958   -0.005622
H    -1.811141    2.321156    0.797123    0.003149   -0.001902    0.000250
H    -2.877404    1.808603   -0.516488   -0.008217   -0.002894    0.008120
H    -3.003337    1.044056    1.078281    0.000376   -0.000341    0.008272
H     2.560926   -1.396961    1.998177    0.211541   -1.340681   -0.137800
H     0.177329   -1.988116    0.234028   -0.153940   -0.563615    0.668746
H    -0.028981    0.755871    1.635305    0.117048   -0.032496   -0.054611
H    -1.218207   -0.538684    1.829905    0.465644   -0.372854   -0.097096
H    -1.781355   -0.410251   -0.586699   -0.022402    0.014093   -0.017892
H     0.980357   -0.073841   -1.432166    0.041332    0.104913   -0.062323
