17
* (null), Energy   -1000.0000000
C    -2.828590   -0.206221    0.133290   -0.009311   -0.017802   -0.004020
C    -1.779778    0.345265   -0.793287    0.040968    0.107318    0.053287
C     0.039065    1.471406    0.487015    0.104521   -0.013490    0.065145
C    -0.500654   -0.467301   -0.950026    0.002977   -0.011415   -0.004313
C     0.517860    0.217354   -0.060576   -0.013289    0.002006   -0.022551
O     2.110733   -1.373862   -0.051096   -0.000102   -0.000591   -0.000569
O     0.111193    0.332163    1.297408   -0.002674    0.021227   -0.000924
O     1.857957    0.015515   -0.250810   -0.001503   -0.000834    0.002974
H    -1.193850    1.385731   -0.138357   -1.377117   -0.954276   -1.051387
H    -2.398591   -0.421994    1.112549   -0.006461    0.005582   -0.002362
H    -3.238589   -1.142597   -0.258371   -0.009095    0.000761    0.004860
H    -3.656109    0.490122    0.262371    0.006348    0.000610    0.003160
H    -2.164863    0.766456   -1.717816   -0.054749   -0.198866   -0.059786
H     0.596962    2.357133    0.765951   -0.010623    0.062444    0.057687
H    -0.124679   -0.449751   -1.972317    0.007706   -0.012857    0.000079
H    -0.625825   -1.508259   -0.649179    0.005077   -0.008599   -0.016872
H     2.290848   -1.400519    0.897731    0.007046   -0.002896   -0.002101
17
* Frequency(6) -1809.9555
C    -2.829648   -0.208244    0.132833   -0.009311   -0.017802   -0.004020
C    -1.775122    0.357461   -0.787231    0.040968    0.107318    0.053287
C     0.050944    1.469873    0.494418    0.104521   -0.013490    0.065145
C    -0.500315   -0.468599   -0.950516    0.002977   -0.011415   -0.004313
C     0.516350    0.217582   -0.063139   -0.013289    0.002006   -0.022551
O     2.110721   -1.373929   -0.051160   -0.000102   -0.000591   -0.000569
O     0.110889    0.334575    1.297303   -0.002674    0.021227   -0.000924
O     1.857786    0.015420   -0.250472   -0.001503   -0.000834    0.002974
H    -1.350352    1.277282   -0.257842   -1.377117   -0.954276   -1.051387
H    -2.399325   -0.421360    1.112281   -0.006461    0.005582   -0.002362
H    -3.239623   -1.142510   -0.257819   -0.009095    0.000761    0.004860
H    -3.655388    0.490192    0.262731    0.006348    0.000610    0.003160
H    -2.171085    0.743856   -1.724610   -0.054749   -0.198866   -0.059786
H     0.595755    2.364230    0.772507   -0.010623    0.062444    0.057687
H    -0.123803   -0.451212   -1.972308    0.007706   -0.012857    0.000079
H    -0.625248   -1.509236   -0.651096    0.005077   -0.008599   -0.016872
H     2.291649   -1.400848    0.897492    0.007046   -0.002896   -0.002101
17
* Frequency(6) -1809.9555
C    -2.830592   -0.210048    0.132426   -0.009311   -0.017802   -0.004020
C    -1.770971    0.368335   -0.781832    0.040968    0.107318    0.053287
C     0.061535    1.468507    0.501019    0.104521   -0.013490    0.065145
C    -0.500014   -0.469755   -0.950953    0.002977   -0.011415   -0.004313
C     0.515003    0.217785   -0.065424   -0.013289    0.002006   -0.022551
O     2.110711   -1.373989   -0.051218   -0.000102   -0.000591   -0.000569
O     0.110618    0.336726    1.297210   -0.002674    0.021227   -0.000924
O     1.857634    0.015335   -0.250170   -0.001503   -0.000834    0.002974
H    -1.489895    1.180586   -0.364378   -1.377117   -0.954276   -1.051387
H    -2.399980   -0.420794    1.112042   -0.006461    0.005582   -0.002362
H    -3.240545   -1.142433   -0.257326   -0.009095    0.000761    0.004860
H    -3.654744    0.490253    0.263051    0.006348    0.000610    0.003160
H    -2.176633    0.723705   -1.730668   -0.054749   -0.198866   -0.059786
H     0.594678    2.370557    0.778352   -0.010623    0.062444    0.057687
H    -0.123022   -0.452515   -1.972300    0.007706   -0.012857    0.000079
H    -0.624733   -1.510108   -0.652806    0.005077   -0.008599   -0.016872
H     2.292363   -1.401142    0.897279    0.007046   -0.002896   -0.002101
17
* Frequency(6) -1809.9555
C    -2.831318   -0.211437    0.132112   -0.009311   -0.017802   -0.004020
C    -1.767774    0.376710   -0.777673    0.040968    0.107318    0.053287
C     0.069691    1.467454    0.506103    0.104521   -0.013490    0.065145
C    -0.499781   -0.470646   -0.951290    0.002977   -0.011415   -0.004313
C     0.513966    0.217942   -0.067184   -0.013289    0.002006   -0.022551
O     2.110703   -1.374035   -0.051262   -0.000102   -0.000591   -0.000569
O     0.110409    0.338382    1.297138   -0.002674    0.021227   -0.000924
O     1.857517    0.015270   -0.249938   -0.001503   -0.000834    0.002974
H    -1.597356    1.106120   -0.446422   -1.377117   -0.954276   -1.051387
H    -2.400484   -0.420359    1.111857   -0.006461    0.005582   -0.002362
H    -3.241254   -1.142374   -0.256947   -0.009095    0.000761    0.004860
H    -3.654249    0.490301    0.263297    0.006348    0.000610    0.003160
H    -2.180905    0.708187   -1.735333   -0.054749   -0.198866   -0.059786
H     0.593849    2.375430    0.782854   -0.010623    0.062444    0.057687
H    -0.122421   -0.453518   -1.972294    0.007706   -0.012857    0.000079
H    -0.624337   -1.510779   -0.654122    0.005077   -0.008599   -0.016872
H     2.292913   -1.401368    0.897115    0.007046   -0.002896   -0.002101
17
* Frequency(6) -1809.9555
C    -2.831749   -0.212261    0.131926   -0.009311   -0.017802   -0.004020
C    -1.765878    0.381677   -0.775207    0.040968    0.107318    0.053287
C     0.074528    1.466830    0.509118    0.104521   -0.013490    0.065145
C    -0.499644   -0.471174   -0.951489    0.002977   -0.011415   -0.004313
C     0.513351    0.218034   -0.068227   -0.013289    0.002006   -0.022551
O     2.110698   -1.374062   -0.051289   -0.000102   -0.000591   -0.000569
O     0.110286    0.339365    1.297095   -0.002674    0.021227   -0.000924
O     1.857447    0.015232   -0.249801   -0.001503   -0.000834    0.002974
H    -1.661092    1.061954   -0.495082   -1.377117   -0.954276   -1.051387
H    -2.400783   -0.420100    1.111748   -0.006461    0.005582   -0.002362
H    -3.241675   -1.142339   -0.256722   -0.009095    0.000761    0.004860
H    -3.653955    0.490329    0.263443    0.006348    0.000610    0.003160
H    -2.183439    0.698983   -1.738100   -0.054749   -0.198866   -0.059786
H     0.593358    2.378320    0.785523   -0.010623    0.062444    0.057687
H    -0.122064   -0.454113   -1.972291    0.007706   -0.012857    0.000079
H    -0.624102   -1.511177   -0.654903    0.005077   -0.008599   -0.016872
H     2.293239   -1.401502    0.897018    0.007046   -0.002896   -0.002101
17
* Frequency(6) -1809.9555
C    -2.831838   -0.212431    0.131888   -0.009311   -0.017802   -0.004020
C    -1.765488    0.382698   -0.774700    0.040968    0.107318    0.053287
C     0.075523    1.466701    0.509737    0.104521   -0.013490    0.065145
C    -0.499615   -0.471283   -0.951530    0.002977   -0.011415   -0.004313
C     0.513225    0.218053   -0.068442   -0.013289    0.002006   -0.022551
O     2.110697   -1.374068   -0.051294   -0.000102   -0.000591   -0.000569
O     0.110260    0.339567    1.297086   -0.002674    0.021227   -0.000924
O     1.857433    0.015224   -0.249772   -0.001503   -0.000834    0.002974
H    -1.674194    1.052875   -0.505086   -1.377117   -0.954276   -1.051387
H    -2.400844   -0.420047    1.111725   -0.006461    0.005582   -0.002362
H    -3.241762   -1.142332   -0.256676   -0.009095    0.000761    0.004860
H    -3.653895    0.490335    0.263473    0.006348    0.000610    0.003160
H    -2.183960    0.697091   -1.738669   -0.054749   -0.198866   -0.059786
H     0.593257    2.378914    0.786072   -0.010623    0.062444    0.057687
H    -0.121991   -0.454236   -1.972290    0.007706   -0.012857    0.000079
H    -0.624054   -1.511258   -0.655064    0.005077   -0.008599   -0.016872
H     2.293306   -1.401529    0.896998    0.007046   -0.002896   -0.002101
17
* Frequency(6) -1809.9555
C    -2.831574   -0.211927    0.132002   -0.009311   -0.017802   -0.004020
C    -1.766647    0.379663   -0.776207    0.040968    0.107318    0.053287
C     0.072567    1.467083    0.507895    0.104521   -0.013490    0.065145
C    -0.499699   -0.470960   -0.951408    0.002977   -0.011415   -0.004313
C     0.513601    0.217997   -0.067804   -0.013289    0.002006   -0.022551
O     2.110700   -1.374051   -0.051278   -0.000102   -0.000591   -0.000569
O     0.110336    0.338967    1.297112   -0.002674    0.021227   -0.000924
O     1.857475    0.015247   -0.249856   -0.001503   -0.000834    0.002974
H    -1.635244    1.079866   -0.475348   -1.377117   -0.954276   -1.051387
H    -2.400661   -0.420205    1.111792   -0.006461    0.005582   -0.002362
H    -3.241504   -1.142353   -0.256813   -0.009095    0.000761    0.004860
H    -3.654074    0.490318    0.263384    0.006348    0.000610    0.003160
H    -2.182412    0.702715   -1.736978   -0.054749   -0.198866   -0.059786
H     0.593557    2.377148    0.784441   -0.010623    0.062444    0.057687
H    -0.122209   -0.453872   -1.972292    0.007706   -0.012857    0.000079
H    -0.624197   -1.511015   -0.654586    0.005077   -0.008599   -0.016872
H     2.293106   -1.401447    0.897057    0.007046   -0.002896   -0.002101
17
* Frequency(6) -1809.9555
C    -2.830988   -0.210805    0.132255   -0.009311   -0.017802   -0.004020
C    -1.769228    0.372900   -0.779565    0.040968    0.107318    0.053287
C     0.065980    1.467933    0.503790    0.104521   -0.013490    0.065145
C    -0.499887   -0.470241   -0.951137    0.002977   -0.011415   -0.004313
C     0.514438    0.217870   -0.066383   -0.013289    0.002006   -0.022551
O     2.110706   -1.374014   -0.051242   -0.000102   -0.000591   -0.000569
O     0.110504    0.337629    1.297171   -0.002674    0.021227   -0.000924
O     1.857570    0.015300   -0.250044   -0.001503   -0.000834    0.002974
H    -1.548462    1.140001   -0.409093   -1.377117   -0.954276   -1.051387
H    -2.400254   -0.420557    1.111941   -0.006461    0.005582   -0.002362
H    -3.240931   -1.142401   -0.257120   -0.009095    0.000761    0.004860
H    -3.654474    0.490279    0.263185    0.006348    0.000610    0.003160
H    -2.178961    0.715247   -1.733211   -0.054749   -0.198866   -0.059786
H     0.594227    2.373213    0.780805   -0.010623    0.062444    0.057687
H    -0.122695   -0.453062   -1.972297    0.007706   -0.012857    0.000079
H    -0.624517   -1.510473   -0.653523    0.005077   -0.008599   -0.016872
H     2.292662   -1.401265    0.897190    0.007046   -0.002896   -0.002101
17
* Frequency(6) -1809.9555
C    -2.830141   -0.209187    0.132620   -0.009311   -0.017802   -0.004020
C    -1.772953    0.363142   -0.784410    0.040968    0.107318    0.053287
C     0.056477    1.469159    0.497866    0.104521   -0.013490    0.065145
C    -0.500158   -0.469203   -0.950745    0.002977   -0.011415   -0.004313
C     0.515646    0.217688   -0.064333   -0.013289    0.002006   -0.022551
O     2.110716   -1.373960   -0.051191   -0.000102   -0.000591   -0.000569
O     0.110747    0.335699    1.297255   -0.002674    0.021227   -0.000924
O     1.857707    0.015376   -0.250314   -0.001503   -0.000834    0.002974
H    -1.423252    1.226766   -0.313499   -1.377117   -0.954276   -1.051387
H    -2.399667   -0.421064    1.112156   -0.006461    0.005582   -0.002362
H    -3.240104   -1.142470   -0.257562   -0.009095    0.000761    0.004860
H    -3.655052    0.490224    0.262898    0.006348    0.000610    0.003160
H    -2.173984    0.733329   -1.727775   -0.054749   -0.198866   -0.059786
H     0.595192    2.367535    0.775560   -0.010623    0.062444    0.057687
H    -0.123395   -0.451893   -1.972304    0.007706   -0.012857    0.000079
H    -0.624979   -1.509691   -0.651989    0.005077   -0.008599   -0.016872
H     2.292022   -1.401001    0.897381    0.007046   -0.002896   -0.002101
17
* Frequency(6) -1809.9555
C    -2.829127   -0.207247    0.133058   -0.009311   -0.017802   -0.004020
C    -1.777418    0.351447   -0.790217    0.040968    0.107318    0.053287
C     0.045087    1.470629    0.490767    0.104521   -0.013490    0.065145
C    -0.500482   -0.467959   -0.950275    0.002977   -0.011415   -0.004313
C     0.517094    0.217469   -0.061875   -0.013289    0.002006   -0.022551
O     2.110727   -1.373896   -0.051129   -0.000102   -0.000591   -0.000569
O     0.111039    0.333386    1.297355   -0.002674    0.021227   -0.000924
O     1.857870    0.015467   -0.250638   -0.001503   -0.000834    0.002974
H    -1.273183    1.330757   -0.198926   -1.377117   -0.954276   -1.051387
H    -2.398963   -0.421673    1.112413   -0.006461    0.005582   -0.002362
H    -3.239113   -1.142553   -0.258091   -0.009095    0.000761    0.004860
H    -3.655743    0.490157    0.262553    0.006348    0.000610    0.003160
H    -2.168017    0.755000   -1.721260   -0.054749   -0.198866   -0.059786
H     0.596350    2.360731    0.769274   -0.010623    0.062444    0.057687
H    -0.124235   -0.450492   -1.972313    0.007706   -0.012857    0.000079
H    -0.625532   -1.508754   -0.650151    0.005077   -0.008599   -0.016872
H     2.291254   -1.400686    0.897610    0.007046   -0.002896   -0.002101
17
* Frequency(6) -1809.9555
C    -2.828054   -0.205196    0.133521   -0.009311   -0.017802   -0.004020
C    -1.782138    0.339082   -0.796357    0.040968    0.107318    0.053287
C     0.033044    1.472184    0.483262    0.104521   -0.013490    0.065145
C    -0.500825   -0.466644   -0.949778    0.002977   -0.011415   -0.004313
C     0.518625    0.217238   -0.059277   -0.013289    0.002006   -0.022551
O     2.110739   -1.373828   -0.051063   -0.000102   -0.000591   -0.000569
O     0.111347    0.330940    1.297462   -0.002674    0.021227   -0.000924
O     1.858044    0.015563   -0.250981   -0.001503   -0.000834    0.002974
H    -1.114516    1.440705   -0.077789   -1.377117   -0.954276   -1.051387
H    -2.398218   -0.422316    1.112685   -0.006461    0.005582   -0.002362
H    -3.238065   -1.142641   -0.258651   -0.009095    0.000761    0.004860
H    -3.656475    0.490087    0.262189    0.006348    0.000610    0.003160
H    -2.161709    0.777912   -1.714371   -0.054749   -0.198866   -0.059786
H     0.597574    2.353536    0.762628   -0.010623    0.062444    0.057687
H    -0.125123   -0.449010   -1.972322    0.007706   -0.012857    0.000079
H    -0.626117   -1.507764   -0.648207    0.005077   -0.008599   -0.016872
H     2.290442   -1.400352    0.897852    0.007046   -0.002896   -0.002101
17
* Frequency(6) -1809.9555
C    -2.827039   -0.203256    0.133959   -0.009311   -0.017802   -0.004020
C    -1.786602    0.327388   -0.802164    0.040968    0.107318    0.053287
C     0.021654    1.473654    0.476163    0.104521   -0.013490    0.065145
C    -0.501150   -0.465400   -0.949308    0.002977   -0.011415   -0.004313
C     0.520074    0.217020   -0.056819   -0.013289    0.002006   -0.022551
O     2.110750   -1.373764   -0.051001   -0.000102   -0.000591   -0.000569
O     0.111638    0.328627    1.297562   -0.002674    0.021227   -0.000924
O     1.858207    0.015654   -0.251305   -0.001503   -0.000834    0.002974
H    -0.964447    1.544696    0.036785   -1.377117   -0.954276   -1.051387
H    -2.397514   -0.422924    1.112943   -0.006461    0.005582   -0.002362
H    -3.237074   -1.142724   -0.259181   -0.009095    0.000761    0.004860
H    -3.657166    0.490020    0.261845    0.006348    0.000610    0.003160
H    -2.155743    0.799583   -1.707856   -0.054749   -0.198866   -0.059786
H     0.598731    2.346731    0.756341   -0.010623    0.062444    0.057687
H    -0.125962   -0.447609   -1.972330    0.007706   -0.012857    0.000079
H    -0.626670   -1.506827   -0.646368    0.005077   -0.008599   -0.016872
H     2.289674   -1.400037    0.898081    0.007046   -0.002896   -0.002101
17
* Frequency(6) -1809.9555
C    -2.826193   -0.201637    0.134325   -0.009311   -0.017802   -0.004020
C    -1.790327    0.317630   -0.807009    0.040968    0.107318    0.053287
C     0.012151    1.474880    0.470240    0.104521   -0.013490    0.065145
C    -0.501420   -0.464362   -0.948916    0.002977   -0.011415   -0.004313
C     0.521282    0.216837   -0.054769   -0.013289    0.002006   -0.022551
O     2.110759   -1.373710   -0.050949   -0.000102   -0.000591   -0.000569
O     0.111881    0.326697    1.297646   -0.002674    0.021227   -0.000924
O     1.858344    0.015729   -0.251576   -0.001503   -0.000834    0.002974
H    -0.839237    1.631460    0.132379   -1.377117   -0.954276   -1.051387
H    -2.396927   -0.423432    1.113158   -0.006461    0.005582   -0.002362
H    -3.236248   -1.142793   -0.259623   -0.009095    0.000761    0.004860
H    -3.657744    0.489965    0.261558    0.006348    0.000610    0.003160
H    -2.150765    0.817665   -1.702421   -0.054749   -0.198866   -0.059786
H     0.599697    2.341054    0.751096   -0.010623    0.062444    0.057687
H    -0.126663   -0.446440   -1.972338    0.007706   -0.012857    0.000079
H    -0.627132   -1.506045   -0.644834    0.005077   -0.008599   -0.016872
H     2.289034   -1.399773    0.898272    0.007046   -0.002896   -0.002101
17
* Frequency(6) -1809.9555
C    -2.825606   -0.200515    0.134578   -0.009311   -0.017802   -0.004020
C    -1.792909    0.310867   -0.810367    0.040968    0.107318    0.053287
C     0.005564    1.475730    0.466134    0.104521   -0.013490    0.065145
C    -0.501608   -0.463642   -0.948644    0.002977   -0.011415   -0.004313
C     0.522119    0.216711   -0.053348   -0.013289    0.002006   -0.022551
O     2.110765   -1.373673   -0.050914   -0.000102   -0.000591   -0.000569
O     0.112050    0.325359    1.297704   -0.002674    0.021227   -0.000924
O     1.858439    0.015782   -0.251763   -0.001503   -0.000834    0.002974
H    -0.752455    1.691596    0.198634   -1.377117   -0.954276   -1.051387
H    -2.396520   -0.423784    1.113307   -0.006461    0.005582   -0.002362
H    -3.235674   -1.142841   -0.259929   -0.009095    0.000761    0.004860
H    -3.658144    0.489927    0.261359    0.006348    0.000610    0.003160
H    -2.147315    0.830197   -1.698653   -0.054749   -0.198866   -0.059786
H     0.600367    2.337119    0.747461   -0.010623    0.062444    0.057687
H    -0.127149   -0.445630   -1.972342    0.007706   -0.012857    0.000079
H    -0.627452   -1.505503   -0.643771    0.005077   -0.008599   -0.016872
H     2.288590   -1.399591    0.898404    0.007046   -0.002896   -0.002101
17
* Frequency(6) -1809.9555
C    -2.825342   -0.200012    0.134692   -0.009311   -0.017802   -0.004020
C    -1.794067    0.307832   -0.811874    0.040968    0.107318    0.053287
C     0.002608    1.476112    0.464292    0.104521   -0.013490    0.065145
C    -0.501692   -0.463319   -0.948522    0.002977   -0.011415   -0.004313
C     0.522495    0.216654   -0.052710   -0.013289    0.002006   -0.022551
O     2.110768   -1.373656   -0.050898   -0.000102   -0.000591   -0.000569
O     0.112126    0.324759    1.297731   -0.002674    0.021227   -0.000924
O     1.858481    0.015806   -0.251847   -0.001503   -0.000834    0.002974
H    -0.713505    1.718587    0.228371   -1.377117   -0.954276   -1.051387
H    -2.396337   -0.423942    1.113373   -0.006461    0.005582   -0.002362
H    -3.235417   -1.142862   -0.260066   -0.009095    0.000761    0.004860
H    -3.658323    0.489909    0.261269    0.006348    0.000610    0.003160
H    -2.145767    0.835821   -1.696962   -0.054749   -0.198866   -0.059786
H     0.600667    2.335353    0.745829   -0.010623    0.062444    0.057687
H    -0.127367   -0.445267   -1.972345    0.007706   -0.012857    0.000079
H    -0.627595   -1.505260   -0.643294    0.005077   -0.008599   -0.016872
H     2.288391   -1.399509    0.898464    0.007046   -0.002896   -0.002101
17
* Frequency(6) -1809.9555
C    -2.825431   -0.200181    0.134654   -0.009311   -0.017802   -0.004020
C    -1.793678    0.308853   -0.811367    0.040968    0.107318    0.053287
C     0.003602    1.475983    0.464912    0.104521   -0.013490    0.065145
C    -0.501664   -0.463428   -0.948563    0.002977   -0.011415   -0.004313
C     0.522369    0.216673   -0.052924   -0.013289    0.002006   -0.022551
O     2.110767   -1.373662   -0.050903   -0.000102   -0.000591   -0.000569
O     0.112100    0.324960    1.297722   -0.002674    0.021227   -0.000924
O     1.858467    0.015798   -0.251819   -0.001503   -0.000834    0.002974
H    -0.726607    1.709507    0.218368   -1.377117   -0.954276   -1.051387
H    -2.396398   -0.423888    1.113351   -0.006461    0.005582   -0.002362
H    -3.235504   -1.142855   -0.260020   -0.009095    0.000761    0.004860
H    -3.658263    0.489915    0.261299    0.006348    0.000610    0.003160
H    -2.146288    0.833929   -1.697531   -0.054749   -0.198866   -0.059786
H     0.600566    2.335947    0.746378   -0.010623    0.062444    0.057687
H    -0.127293   -0.445389   -1.972344    0.007706   -0.012857    0.000079
H    -0.627547   -1.505342   -0.643454    0.005077   -0.008599   -0.016872
H     2.288458   -1.399536    0.898444    0.007046   -0.002896   -0.002101
17
* Frequency(6) -1809.9555
C    -2.825862   -0.201005    0.134468   -0.009311   -0.017802   -0.004020
C    -1.791782    0.313820   -0.808901    0.040968    0.107318    0.053287
C     0.008440    1.475359    0.467927    0.104521   -0.013490    0.065145
C    -0.501526   -0.463956   -0.948762    0.002977   -0.011415   -0.004313
C     0.521754    0.216766   -0.053968   -0.013289    0.002006   -0.022551
O     2.110763   -1.373689   -0.050929   -0.000102   -0.000591   -0.000569
O     0.111976    0.325943    1.297679   -0.002674    0.021227   -0.000924
O     1.858397    0.015759   -0.251681   -0.001503   -0.000834    0.002974
H    -0.790343    1.665342    0.169708   -1.377117   -0.954276   -1.051387
H    -2.396697   -0.423630    1.113242   -0.006461    0.005582   -0.002362
H    -3.235925   -1.142820   -0.259795   -0.009095    0.000761    0.004860
H    -3.657969    0.489943    0.261446    0.006348    0.000610    0.003160
H    -2.148821    0.824725   -1.700298   -0.054749   -0.198866   -0.059786
H     0.600074    2.338837    0.749048   -0.010623    0.062444    0.057687
H    -0.126937   -0.445984   -1.972340    0.007706   -0.012857    0.000079
H    -0.627312   -1.505740   -0.644235    0.005077   -0.008599   -0.016872
H     2.288784   -1.399670    0.898346    0.007046   -0.002896   -0.002101
17
* Frequency(6) -1809.9555
C    -2.826589   -0.202394    0.134154   -0.009311   -0.017802   -0.004020
C    -1.788585    0.322194   -0.804742    0.040968    0.107318    0.053287
C     0.016596    1.474306    0.473010    0.104521   -0.013490    0.065145
C    -0.501294   -0.464847   -0.949099    0.002977   -0.011415   -0.004313
C     0.520717    0.216923   -0.055728   -0.013289    0.002006   -0.022551
O     2.110755   -1.373735   -0.050974   -0.000102   -0.000591   -0.000569
O     0.111768    0.327599    1.297607   -0.002674    0.021227   -0.000924
O     1.858280    0.015694   -0.251449   -0.001503   -0.000834    0.002974
H    -0.897804    1.590876    0.087664   -1.377117   -0.954276   -1.051387
H    -2.397202   -0.423194    1.113057   -0.006461    0.005582   -0.002362
H    -3.236634   -1.142760   -0.259416   -0.009095    0.000761    0.004860
H    -3.657474    0.489991    0.261692    0.006348    0.000610    0.003160
H    -2.153094    0.809207   -1.704963   -0.054749   -0.198866   -0.059786
H     0.599246    2.343709    0.753550   -0.010623    0.062444    0.057687
H    -0.126335   -0.446987   -1.972334    0.007706   -0.012857    0.000079
H    -0.626916   -1.506411   -0.645552    0.005077   -0.008599   -0.016872
H     2.289333   -1.399896    0.898182    0.007046   -0.002896   -0.002101
17
* Frequency(6) -1809.9555
C    -2.827532   -0.204198    0.133747   -0.009311   -0.017802   -0.004020
C    -1.784433    0.333069   -0.799343    0.040968    0.107318    0.053287
C     0.027187    1.472939    0.479611    0.104521   -0.013490    0.065145
C    -0.500992   -0.466004   -0.949536    0.002977   -0.011415   -0.004313
C     0.519370    0.217126   -0.058013   -0.013289    0.002006   -0.022551
O     2.110744   -1.373795   -0.051031   -0.000102   -0.000591   -0.000569
O     0.111497    0.329750    1.297513   -0.002674    0.021227   -0.000924
O     1.858128    0.015609   -0.251148   -0.001503   -0.000834    0.002974
H    -1.037347    1.494179   -0.018872   -1.377117   -0.954276   -1.051387
H    -2.397856   -0.422629    1.112818   -0.006461    0.005582   -0.002362
H    -3.237556   -1.142683   -0.258924   -0.009095    0.000761    0.004860
H    -3.656830    0.490053    0.262012    0.006348    0.000610    0.003160
H    -2.158641    0.789056   -1.711021   -0.054749   -0.198866   -0.059786
H     0.598169    2.350037    0.759395   -0.010623    0.062444    0.057687
H    -0.125554   -0.448290   -1.972326    0.007706   -0.012857    0.000079
H    -0.626402   -1.507282   -0.647261    0.005077   -0.008599   -0.016872
H     2.290047   -1.400190    0.897970    0.007046   -0.002896   -0.002101
17
* Frequency(6) -1809.9555
C    -2.828590   -0.206221    0.133290   -0.009311   -0.017802   -0.004020
C    -1.779778    0.345265   -0.793287    0.040968    0.107318    0.053287
C     0.039065    1.471406    0.487015    0.104521   -0.013490    0.065145
C    -0.500654   -0.467301   -0.950026    0.002977   -0.011415   -0.004313
C     0.517860    0.217354   -0.060576   -0.013289    0.002006   -0.022551
O     2.110733   -1.373862   -0.051096   -0.000102   -0.000591   -0.000569
O     0.111193    0.332163    1.297408   -0.002674    0.021227   -0.000924
O     1.857957    0.015515   -0.250810   -0.001503   -0.000834    0.002974
H    -1.193850    1.385731   -0.138357   -1.377117   -0.954276   -1.051387
H    -2.398591   -0.421994    1.112549   -0.006461    0.005582   -0.002362
H    -3.238589   -1.142597   -0.258371   -0.009095    0.000761    0.004860
H    -3.656109    0.490122    0.262371    0.006348    0.000610    0.003160
H    -2.164863    0.766456   -1.717816   -0.054749   -0.198866   -0.059786
H     0.596962    2.357133    0.765951   -0.010623    0.062444    0.057687
H    -0.124679   -0.449751   -1.972317    0.007706   -0.012857    0.000079
H    -0.625825   -1.508259   -0.649179    0.005077   -0.008599   -0.016872
H     2.290848   -1.400519    0.897731    0.007046   -0.002896   -0.002101
