17
Coordinates from ORCA-job freq E -421.374933167414
  C          -2.36795619573768     -0.36721460762321      0.22403979352235
  C          -1.31914372895767      0.18427137435458     -0.70253705606622
  C           0.49969920271318      1.31041307637925      0.57776443521890
  C          -0.04001970459590     -0.62829464683319     -0.85927619211644
  C           0.97849383295057      0.05636042606714      0.03017401616183
  O           2.57136661508103     -1.53485535314282      0.03965404222785
  O           0.57182679865146      0.17116931815954      1.38815831734294
  O           2.31859094158413     -0.14547882051404     -0.16005981553762
  H          -0.73321559351597      1.22473742591214     -0.04760725062624
  H          -1.93795663062517     -0.58298779024549      1.20329924840217
  H          -2.77795547623315     -1.30359029529281     -0.16762129118633
  H          -3.19547504870010      0.32912878752130      0.35312133852124
  H          -1.70422940199589      0.60546251572311     -1.62706575673832
  H           1.05759589704282      2.19613994262128      0.85670072363734
  H           0.33595515891070     -0.61074444005016     -1.88156742518233
  H          -0.16519071623762     -1.66925248725917     -0.55842876261200
  H           2.75148204966527     -1.56151242577744      0.98848063503093
