17
Coordinates from ORCA-job freq E -421.371479832557
  C          -1.53881618575478      1.16360318008997     -0.14041830876997
  C          -1.29574453502188     -0.33130157950613      0.02638999086723
  C           1.84839657706238      0.79611133587575     -0.65346153983375
  C           1.24814330119398     -0.38648113722974     -0.05907292096979
  C          -0.00957391896347     -0.65529068439936      0.77321363545225
  O           0.47813645542677     -2.60187734629620     -0.18103995603597
  O           2.40152453119649      0.09645810384183      0.47757721415269
  O           0.12636062529453     -2.04125466986303      1.04052229286534
  H           1.19650985300203     -1.63912423008714     -0.52034611229259
  H          -2.53689816777751      1.34581152934408     -0.53539950925580
  H          -0.82818770467888      1.61469608251163     -0.83126799933901
  H          -1.46044917734806      1.68653631191688      0.81449429121759
  H          -1.27642481641992     -0.83265139276996     -0.94166678034575
  H          -2.10740793607428     -0.78006639093873      0.60103195060817
  H           2.41597089223664      0.70169451073570     -1.57006392043594
  H           1.46878036889352      1.78243493118155     -0.41775143022151
  H           0.03564783773247     -0.14971055440713      1.74097710233684
