
                                 *****************
                                 * O   R   C   A *
                                 *****************

                                            #,                                       
                                            ###                                      
                                            ####                                     
                                            #####                                    
                                            ######                                   
                                           ########,                                 
                                     ,,################,,,,,                         
                               ,,#################################,,                 
                          ,,##########################################,,             
                       ,#########################################, ''#####,          
                    ,#############################################,,   '####,        
                  ,##################################################,,,,####,       
                ,###########''''           ''''###############################       
              ,#####''   ,,,,##########,,,,          '''####'''          '####       
            ,##' ,,,,###########################,,,                        '##       
           ' ,,###''''                  '''############,,,                           
         ,,##''                                '''############,,,,        ,,,,,,###''
      ,#''                                            '''#######################'''  
     '                                                          ''''####''''         
             ,#######,   #######,   ,#######,      ##                                
            ,#'     '#,  ##    ##  ,#'     '#,    #''#        ,####,    ,#,          
            ##       ##  ##   ,#'  ##            #'  '#       #'       ,# #          
            ##       ##  #######   ##           ,######,      #####,      #          
            '#,     ,#'  ##    ##  '#,     ,#' ,#      #,     #,   #      #          
             '#######'   ##     ##  '#######'  #'      '#     '####' #    #          



                #########################################################
                #                        -***-                          #
                #          Department of theory and spectroscopy        #
                #                                                       #
                #                      Frank Neese                      #
                #                                                       #
                #     Directorship, Architecture, Infrastructure        #
                #                    SHARK, DRIVERS                     #
                #        Core code/Algorithms in most modules           #
                #                                                       #
                #        Max Planck Institute fuer Kohlenforschung      #
                #                Kaiser Wilhelm Platz 1                 #
                #                 D-45470 Muelheim/Ruhr                 #
                #                      Germany                          #
                #                                                       #
                #                  All rights reserved                  #
                #                        -***-                          #
                #########################################################


                         Program Version 6.1.1  -  RELEASE   -
                                (GIT: $487d211c$)
                          ($2025-11-21 10:33:24 +0100$)


 With contributions from (in alphabetic order):
[Max-Planck-Institut fuer Kohlenforschung]                               
  Daniel Aravena         : Magnetic Suceptibility                        
  Michael Atanasov       : Ab Initio Ligand Field Theory (pilot matlab implementation)
  Alexander A. Auer      : GIAO ZORA, VPT2 properties, NMR spectrum      
  Ute Becker             : All parallelization in ORCA, NUMFREQ, NUMCALC 
  Giovanni Bistoni       : ED, misc. LED, open-shell LED, HFLD           
  Dmytro Bykov           : pre 5.0 version of the SCF Hessian            
  Marcos Casanova-Páez   : Triplet and SCS-CIS(D). UHF-(DLPNO)-IP/EA/STEOM-CCSD. UHF-CVS-IP/STEOM-CCSD   
  Vijay G. Chilkuri      : MRCI spin determinant printing, contributions to CSF-ICE 
  Pauline Colinet        : FMM embedding                                 
  Dipayan Datta          : RHF DLPNO-CCSD density                        
  Achintya Kumar Dutta   : EOM-CC, STEOM-CC                              
  Nicolas Foglia         : Exact transition moments, OPA infrastructure, MCD improvements    
  Dmitry Ganyushin       : Spin-Orbit,Spin-Spin,Magnetic field MRCI      
  Miquel Garcia-Rates    : C-PCM and meta-GGA Hessian, CCSD/C-PCM, Gaussian charge scheme 
  Tiago L. C. Gouveia    : GS-ROHF, GS-ROCIS                             
  Yang Guo               : DLPNO-NEVPT2, F12-NEVPT2, CIM, IAO-localization        
  Andreas Hansen         : Spin unrestricted coupled pair/coupled cluster methods 
  Ingolf Harden          : AUTO-CI MPn and infrastructure                
  Benjamin Helmich-Paris : MC-RPA, TRAH-(SCF,CASSCF), AVAS, COSX integrals, SCF dyn. polar., MC-PDFT, srDFT 
  Lee Huntington         : MR-EOM, pCC                                   
  Robert Izsak           : Overlap fitted RIJCOSX, COSX-SCS-MP3, EOM     
  Riya Kayal             : Wick's Theorem for AUTO-CI, AUTO-CI UHF-CCSDT 
  Emily Kempfer          : AUTO-CI RHF CISDT and CCSDT, approximate NEVPT4
  Christian Kollmar      : KDIIS, OOCD, Brueckner-CCSD(T), CCSD density, CASPT2, CASPT2-K, improved NEVPT2 
  Axel Koslowski         : Symmetry handling                             
  Simone Kossmann        : meta-GGA functionals, TD-DFT gradient, OOMP2, (MP2 Hessian; deprecated post 5.0) 
  Lucas Lang             : DCDCAS, Hyperfine gauge corrections, ICE-SOC+SSC
  Marvin Lechner         : AUTO-CI (C++ implementation), FIC-MRCC        
  Spencer Leger          : CASSCF response                               
  Dagmar Lenk            : GEPOL surface, SMD, ORCA-2-JSON               
  Dimitrios Liakos       : Extrapolation schemes; Compound Job, Property file
  Dimitrios Manganas     : Further ROCIS development; embedding schemes. LFT, Crystal Embedding 
  Dimitrios Pantazis     : SARC Basis sets                               
  Anastasios Papadopoulos: AUTO-CI, single reference methods and gradients 
  Taras Petrenko         : pre 6.0 DFT Hessian and TD-DFT gradient,  ECA, NRVS 
  Petra Pikulova         : Analytic Raman intensities                    
  Peter Pinski           : DLPNO-MP2, DLPNO-MP2 Gradient                 
  Shashank Vittal Rao    : ES-AILFT, MagRelax                            
  Christoph Reimann      : Effective Core Potentials                     
  Marius Retegan         : Local ZFS, SOC                                
  Christoph Riplinger    : Optimizer, TS searches, QM/MM, DLPNO-CCSD(T), (RO)-DLPNO pert. Triples 
  Michael Roemelt        : Original ROCIS implementation, recursive CI coupling coefficients
  Masaaki Saitow         : Open-shell DLPNO-CCSD energy and density      
  Barbara Sandhoefer     : DKH picture change effects                    
  Yorick L. A. Schmerwitz: GMF and freeze-and-release deltaSCF, NEB S-IDPP initial path                    
  Kantharuban Sivalingam : CASSCF convergence/infrastructure, NEVPT2, NEVPT3, NEVPT4(SD), FIC-MRCI and CEPA variants
  Bernardo de Souza      : ESD, SOC TD-DFT                               
  Georgi L. Stoychev     : AutoAux, RI-MP2 NMR, DLPNO-MP2 response, X2C  
  Van Anh Tran           : RI-MP2 g-tensors                              
  Willem Van den Heuvel  : Paramagnetic NMR                              
  Zikuan Wang            : NOTCH, Electric field optimization            
  Frank Wennmohs         : Technical directorship and infrastructure     
  Hang Xu                : AUTO-CI-Response properties                   
                                                                         
[FACCTs GmbH]                                                            
  Markus Bursch, Nicolas Foglia, Miquel Garcia-Rates, Ingolf Harden, Hagen Neugebauer, Anastasios Papadopoulos, 
  Christoph Riplinger, Bernardo de Souza, Georgi L. Stoychev                                                    
                                                                 
  APM, various basis sets, CI-OPT, improved COSX, DLPNO-Multilevel,           
  DOCKER, DRACO, updates on ESD, Fragmentator, GOAT, IRC, LR-CPCM, L-BFGS, MBIS, meta-GGA TD-DFT gradient, ML-optimized integration grids, 
  MM, NACMEs, nearIR, NEB, NEB-TS, NL-DFT gradient (VV10), 2- and 3-layer-ONIOM, interface openCOSMO-RS, QMMM,   
  Crystal-QMMM, RESP, rigid body optimization, SF, symmetry and pop. for TD-DFT, various functionals, SOLVATOR                                   
                                                                         
[Other institutions]                                                     
  V. Asgeirsson          : NEB                                           
  Christoph Bannwarth    : sTDA-DFT, sTD-DFT, PBEh-3c, B97-3c, D3        
  Giovanni Bistoni       : ETS/NOCV, ADLD/ADEX, COVALED                  
  Martin Brehm           : Molecular dynamics                            
  Ronald Cardenas        : ETS/NOCV                                      
  Martina Colucci        : COVALED                                       
  Sebastian Ehlert       : rSCAN, r2SCAN, r2SCAN-3c, D4, dhf basis sets  
  Marvin Friede          : D4 for Fr, Ra, Ac-Lr                          
  Lars Goerigk           : TD-DFT with DH, B97 family of functionals     
  Stefan Grimme          : VdW corrections, initial TS optimization, DFT functionals, gCP, sTDA/sTD-DF 
  Waldemar Hujo          : DFT-NL                                        
  H. Jonsson             : NEB                                           
  Holger Kruse           : gCP                                           
  Marcel Mueller         : wB97X-3c, vDZP basis set                      
  Hagen Neugebauer       : wr2SCAN, Native XTB                           
  Gianluca Regni         : ADLD/ADEX                                     
  Tobias Risthaus        : pre 6.0 range-separated hybrid DFT and stability analysis
  Lukas Wittmann         : regularized MP2, r2SCAN double-hybrids, wr2SCAN        
                                                                         
We gratefully acknowledge several colleagues who have allowed us to      
interface, adapt or use parts of their codes:                            
  Ed Valeev, F. Pavosevic, A. Kumar             : LibInt (2-el integral package), F12 methods 
  Garnet Chan, S. Sharma, J. Yang, R. Olivares  : DMRG                   
  Ulf Ekstrom                                   : XCFun DFT Library      
  Mihaly Kallay                                 : mrcc  (arbitrary order and MRCC methods)
  Frank Weinhold                                : gennbo (NPA and NBO analysis)           
  Simon Mueller                                 : openCOSMO-RS                            
  Christopher J. Cramer and Donald G. Truhlar   : smd solvation model                     
  S Lehtola, MJT Oliveira, MAL Marques          : LibXC Library                           
  Liviu Ungur et al                             : ANISO software                          


 Your calculation uses the libint2 library for the computation of 2-el integrals
 For citations please refer to: http://libint.valeyev.net

 Your ORCA version has been built with support for libXC version: 7.0.0
 For citations please refer to: https://libxc.gitlab.io

 This ORCA versions uses:
   CBLAS   interface :  Fast vector & matrix operations
   LAPACKE interface :  Fast linear algebra routines
   SCALAPACK package :  Parallel linear algebra routines
   Shared memory     :  Shared parallel matrices
   BLAS/LAPACK       :  OpenBLAS 0.3.29  USE64BITINT DYNAMIC_ARCH NO_AFFINITY Zen SINGLE_THREADED
        Core in use  :  Zen
   Copyright (c) 2011-2014, The OpenBLAS Project


  ***********************************
  * Starting time: Thu Feb 12 17:30:14 2026
  * Host name:     a2-4
  * Process ID:    1857744
  * Working dir.:  /tmp/lscratch/tns97255/orca_42753605
  ***********************************

NOTE: MaxCore=4000 MB was set to SCF,MP2,MDCI,CIPSI,MRCI,RASCI and CIS
      => If you want to overwrite this, your respective input block should be placed after the MaxCore statement


***************************************
The coordinates will be read from file: guess.xyz
***************************************


Your calculation utilizes the semiempirical GFN2-xTB method
Please cite in your paper:
Bannwarth, C.; Ehlert S.; Grimme, S. J. Chem. Theory Comput. 2019, 15, 1652.
   

================================================================================

================================================================================
                                        WARNINGS
                       Please study these warnings very carefully!
================================================================================


================================================================================
 STARTING AUTOMATIC FRAGMENTATION: 
================================================================================

WARNING: Geometry Optimization
  ===> : Switching off AutoStart
         For restart on a previous wavefunction, please use MOREAD

WARNING: Found dipole moment calculation with XTB calculation
  ===> : Switching off dipole moment calculation


================================================================================
                                       INPUT FILE
================================================================================
NAME = goat.inp
|  1> %PAL NPROCS 8 END
|  2> %MAXCORE 4000
|  3> %base "goat"
|  4> ! XTB GOAT
|  5> 
|  6> *xyzfile 0 2 guess.xyz
|  7> 
|  8>                          ****END OF INPUT****
================================================================================

                       *****************************
                       * Geometry Optimization Run *
                       *****************************


                       *********************************
                       *              GOAT             *
                       * Global Optimization Algorithm *
                       *********************************

Geometry optimization settings:
Update method            Update   .... BFGS
Choice of coordinates    CoordSys .... (2022) Redundant Internals
Initial Hessian          InHess   .... Almloef's Model
Max. no of cycles        MaxIter  .... 50

Convergence Tolerances:
Energy Change            TolE     ....  5.0000e-06 Eh
Max. Gradient            TolMAXG  ....  3.0000e-04 Eh/bohr
RMS Gradient             TolRMSG  ....  1.0000e-04 Eh/bohr
Max. Displacement        TolMAXD  ....  4.0000e-03 bohr
RMS Displacement         TolRMSD  ....  2.0000e-03 bohr
Strict Convergence                .... True

------------------------------------------------------------------------------
                        ORCA OPTIMIZATION COORDINATE SETUP
------------------------------------------------------------------------------

The optimization will be done in redundant internal coordinates (2022)
Making redundant internal coordinates   ...  (2022 redundants) done
Evaluating the initial hessian          ...  (Almloef) done
Evaluating the coordinates              ...  done
Calculating the B-matrix                .... done
Calculating the G-matrix                .... done
The number of degrees of freedom        ....   68

    -----------------------------------------------------------------
                    Redundant Internal Coordinates


    -----------------------------------------------------------------
         Definition                    Initial Value    Approx d2E/dq
    -----------------------------------------------------------------
      1. B(C   1,C   0)                  1.5209         0.386305   
      2. B(C   2,C   1)                  1.5279         0.376504   
      3. B(C   4,C   3)                  1.4470         0.506735   
      4. B(C   4,C   2)                  1.4894         0.433609   
      5. B(O   5,C   4)                  1.3750         0.591297   
      6. B(O   5,C   3)                  1.4292         0.484570   
      7. B(H   6,C   0)                  1.0945         0.354193   
      8. B(H   7,C   0)                  1.0947         0.353954   
      9. B(H   8,C   0)                  1.0947         0.353949   
     10. B(H   9,C   1)                  1.0969         0.351044   
     11. B(H  10,C   1)                  1.0969         0.351034   
     12. B(H  11,C   2)                  1.0970         0.350961   
     13. B(H  12,C   2)                  1.0964         0.351746   
     14. B(H  13,C   3)                  1.0808         0.372462   
     15. B(H  14,C   3)                  1.0810         0.372232   
     16. A(C   1,C   0,H   7)          110.9988         0.325188   
     17. A(C   1,C   0,H   6)          110.2569         0.325224   
     18. A(H   6,C   0,H   7)          108.0803         0.289303   
     19. A(H   7,C   0,H   8)          108.3231         0.289272   
     20. A(C   1,C   0,H   8)          110.9995         0.325187   
     21. A(H   6,C   0,H   8)          108.0762         0.289303   
     22. A(C   2,C   1,H   9)          110.0789         0.323380   
     23. A(C   0,C   1,C   2)          111.4312         0.365929   
     24. A(H   9,C   1,H  10)          107.0375         0.288524   
     25. A(C   0,C   1,H   9)          109.0278         0.324747   
     26. A(C   2,C   1,H  10)          110.1111         0.323379   
     27. A(C   0,C   1,H  10)          109.0427         0.324746   
     28. A(C   1,C   2,H  12)          109.6622         0.323486   
     29. A(H  11,C   2,H  12)          107.3774         0.288605   
     30. A(C   4,C   2,H  12)          109.5288         0.331102   
     31. A(C   4,C   2,H  11)          109.4690         0.330979   
     32. A(C   1,C   2,C   4)          110.8965         0.373265   
     33. A(C   1,C   2,H  11)          109.8366         0.323368   
     34. A(H  13,C   3,H  14)          116.4160         0.293918   
     35. A(O   5,C   3,H  14)          118.3657         0.338400   
     36. A(C   4,C   3,H  14)          117.3657         0.343028   
     37. A(O   5,C   3,H  13)          118.2835         0.338435   
     38. A(C   4,C   3,H  13)          116.1126         0.343063   
     39. A(C   4,C   3,O   5)           57.1138         0.398213   
     40. A(C   2,C   4,C   3)          124.1949         0.393035   
     41. A(C   3,C   4,O   5)           60.7907         0.412463   
     42. A(C   2,C   4,O   5)          116.7755         0.401252   
     43. A(C   3,O   5,C   4)           62.0955         0.406570   
     44. D(H   9,C   1,C   0,H   7)    178.0444         0.011874   
     45. D(C   2,C   1,C   0,H   7)    -60.2536         0.011874   
     46. D(H   9,C   1,C   0,H   8)    -61.4227         0.011874   
     47. D(C   2,C   1,C   0,H   8)     60.2793         0.011874   
     48. D(C   2,C   1,C   0,H   6)   -179.9895         0.011874   
     49. D(H   9,C   1,C   0,H   6)     58.3086         0.011874   
     50. D(C   4,C   2,C   1,C   0)    175.0000         0.011309   
     51. D(H  11,C   2,C   1,H  10)    175.0000         0.011309   
     52. D(H  11,C   2,C   1,H   9)     57.2212         0.011309   
     53. D(H  11,C   2,C   1,C   0)    -63.8691         0.011309   
     54. D(C   4,C   2,C   1,H  10)     53.8690         0.011309   
     55. D(C   4,C   2,C   1,H   9)    -63.9097         0.011309   
     56. D(C   3,C   4,C   2,H  12)    -70.0906         0.013881   
     57. D(C   3,C   4,C   2,H  11)     47.3930         0.013881   
     58. D(C   3,C   4,C   2,C   1)    168.7404         0.013881   
     59. D(O   5,C   4,C   3,H  14)    107.6008         0.018965   
     60. D(O   5,C   4,C   3,H  13)   -108.1472         0.018965   
     61. D(C   2,C   4,C   3,H  14)      3.4718         0.018965   
     62. D(C   2,C   4,C   3,H  13)    147.7237         0.018965   
     63. D(C   2,C   4,C   3,O   5)   -104.1291         0.018965   
     64. D(O   5,C   4,C   2,H  11)    -24.0655         0.013881   
     65. D(O   5,C   4,C   2,C   1)     97.2818         0.013881   
     66. D(C   3,O   5,C   4,C   2)    116.0462         0.025488   
     67. D(C   4,O   5,C   3,H  14)   -105.8410         0.018531   
     68. D(C   4,O   5,C   3,H  13)    104.3162         0.018531   
    -----------------------------------------------------------------

Number of atoms                         .... 15
Number of degrees of freedom            .... 68


         *************************************************************
         *                GEOMETRY OPTIMIZATION CYCLE   1            *
         *************************************************************
---------------------------------
CARTESIAN COORDINATES (ANGSTROEM)
---------------------------------
  C     2.318287   -0.044060   -0.180578
  C     1.025442    0.234971    0.570265
  C    -0.193743   -0.226054   -0.226881
  C    -2.776628   -0.180161    0.020858
  C    -1.442412   -0.058074    0.567488
  O    -2.177874    1.079639    0.332260
  H     3.178028    0.293037    0.406914
  H     2.437022   -1.115202   -0.372656
  H     2.335718    0.481727   -1.140573
  H     0.956278    1.310218    0.775989
  H     1.057333   -0.276431    1.540178
  H    -0.271101    0.351694   -1.156196
  H    -0.075491   -1.279878   -0.505343
  H    -3.531349   -0.567925    0.690328
  H    -2.863718   -0.464501   -1.018413

----------------------------
CARTESIAN COORDINATES (A.U.)
----------------------------
  NO LB    ZA    FRAG    MASS        X           Y           Z
   0 C   6.0000    1    12.011    4.380928   -0.083261   -0.341243
   1 C   6.0000    1    12.011    1.937805    0.444031    1.077645
   2 C   6.0000    1    12.011   -0.366121   -0.427180   -0.428743
   3 C   6.0000    1    12.011   -5.247066   -0.340455    0.039416
   4 C   6.0000    1    12.011   -2.725764   -0.109744    1.072397
   5 O   8.0000    1    15.999   -4.115585    2.040222    0.627880
   6 H   1.0000    1     1.008    6.005603    0.553760    0.768956
   7 H   1.0000    1     1.008    4.605304   -2.107426   -0.704218
   8 H   1.0000    1     1.008    4.413867    0.910332   -2.155371
   9 H   1.0000    1     1.008    1.807104    2.475953    1.466407
  10 H   1.0000    1     1.008    1.998070   -0.522379    2.910515
  11 H   1.0000    1     1.008   -0.512307    0.664605   -2.184894
  12 H   1.0000    1     1.008   -0.142657   -2.418619   -0.954960
  13 H   1.0000    1     1.008   -6.673282   -1.073223    1.304531
  14 H   1.0000    1     1.008   -5.411643   -0.877780   -1.924522

      -----------------------------------------------------------      
     |                   =====================                   |     
     |                           x T B                           |     
     |                   =====================                   |     
     |                         S. Grimme                         |     
     |          Mulliken Center for Theoretical Chemistry        |     
     |                    University of Bonn                     |     
      -----------------------------------------------------------      

   * xtb version 6.7.1 (edcfbbe) compiled by 'albert@albert-system' on 2024-07-22

   xtb is free software: you can redistribute it and/or modify it under
   the terms of the GNU Lesser General Public License as published by
   the Free Software Foundation, either version 3 of the License, or
   (at your option) any later version.
   
   xtb is distributed in the hope that it will be useful,
   but WITHOUT ANY WARRANTY; without even the implied warranty of
   MERCHANTABILITY or FITNESS FOR A PARTICULAR PURPOSE.  See the
   GNU Lesser General Public License for more details.
   
   Cite this work as:
   * C. Bannwarth, E. Caldeweyher, S. Ehlert, A. Hansen, P. Pracht,
     J. Seibert, S. Spicher, S. Grimme, WIREs Comput. Mol. Sci., 2020, 11,
     e01493. DOI: 10.1002/wcms.1493
   
   for GFN2-xTB:
   * C. Bannwarth, S. Ehlert and S. Grimme., J. Chem. Theory Comput., 2019,
     15, 1652-1671. DOI: 10.1021/acs.jctc.8b01176
   for GFN1-xTB:
   * S. Grimme, C. Bannwarth, P. Shushkov, J. Chem. Theory Comput., 2017,
     13, 1989-2009. DOI: 10.1021/acs.jctc.7b00118
   for GFN0-xTB:
   * P. Pracht, E. Caldeweyher, S. Ehlert, S. Grimme, ChemRxiv, 2019, preprint.
     DOI: 10.26434/chemrxiv.8326202.v1
   for GFN-FF:
   * S. Spicher and S. Grimme, Angew. Chem. Int. Ed., 2020, 59, 15665-15673.
     DOI: 10.1002/anie.202004239
   
   for ALPB and GBSA implicit solvation:
   * S. Ehlert, M. Stahn, S. Spicher, S. Grimme, J. Chem. Theory Comput.,
     2021, 17, 4250-4261. DOI: 10.1021/acs.jctc.1c00471
   
   for ddCOSMO and CPCM-X implicit solvation:
   * M. Stahn, S. Ehlert, S. Grimme, J. Phys. Chem. A,
     2023, XX, XXXX-XXXX. DOI: 10.1021/acs.jpca.3c04382
   
   for DFT-D4:
   * E. Caldeweyher, C. Bannwarth and S. Grimme, J. Chem. Phys., 2017,
     147, 034112. DOI: 10.1063/1.4993215
   * E. Caldeweyher, S. Ehlert, A. Hansen, H. Neugebauer, S. Spicher,
     C. Bannwarth and S. Grimme, J. Chem. Phys., 2019, 150, 154122.
     DOI: 10.1063/1.5090222
   * E. Caldeweyher, J.-M. Mewes, S. Ehlert and S. Grimme, Phys. Chem. Chem. Phys.
     2020, 22, 8499-8512. DOI: 10.1039/D0CP00502A
   
   for sTDA-xTB:
   * S. Grimme and C. Bannwarth, J. Chem. Phys., 2016, 145, 054103.
     DOI: 10.1063/1.4959605
   
   in the mass-spec context:
   * V. Asgeirsson, C. Bauer and S. Grimme, Chem. Sci., 2017, 8, 4879.
     DOI: 10.1039/c7sc00601b
   * J. Koopman and S. Grimme, ACS Omega 2019, 4, 12, 15120-15133.
     DOI: 10.1021/acsomega.9b02011
   
   for metadynamics refer to:
   * S. Grimme, J. Chem. Theory Comput., 2019, 155, 2847-2862
     DOI: 10.1021/acs.jctc.9b00143
   
   for SPH calculations refer to:
   * S. Spicher and S. Grimme, J. Chem. Theory Comput., 2021, 17, 1701-1714
     DOI: 10.1021/acs.jctc.0c01306
   
   for ONIOM refer to:
   * C. Plett, A. Katbashev, S. Ehlert, S. Grimme, M. Bursch,
     Phys. Chem. Chem. Phys., 2023, 25, 17860-17868. DOI: 10.1039/D3CP02178E
   
   for DIPRO refer to:
   * J. Kohn, N. Gildemeister, S. Grimme, D. Fazzi, A. Hansen,
     J. Chem. Phys., 2023, just accepted.
   
   for PTB refer to:
   * S. Grimme, M. Mueller, A. Hansen, J. Chem. Phys., 2023, 158, 124111.
     DOI: 10.1063/5.0137838
   
   with help from (in alphabetical order)
   P. Atkinson, C. Bannwarth, F. Bohle, G. Brandenburg, E. Caldeweyher
   M. Checinski, S. Dohm, S. Ehlert, S. Ehrlich, I. Gerasimov, C. Hölzer
   A. Katbashev, J. Kohn, J. Koopman, C. Lavigne, S. Lehtola, F. März, M. Müller,
   F. Musil, H. Neugebauer, J. Pisarek, C. Plett, P. Pracht, F. Pultar,
   J. Seibert, P. Shushkov, S. Spicher, M. Stahn, M. Steiner, T. Strunk,
   J. Stückrath, T. Rose, and J. Unsleber
   
 * started run on 2026/02/12 at 17:30:17.216     
   ID    Z sym.   atoms
    1    6 C      1-5
    2    8 O      6
    3    1 H      7-15

           -------------------------------------------------
          |                Calculation Setup                |
           -------------------------------------------------

          program call               : /apps/eb/ORCA/6.1.1-gompi-2024a-avx2/bin/otool_xtb goat_XTB.xyz --grad -c 0 -u 1 -P 8 --namespace goat --input goat_XTB.input.tmp --acc 0.200000
          hostname                   : a2-4
          calculation namespace      : goat
          coordinate file            : goat_XTB.xyz
          omp threads                :                     8


           -------------------------------------------------
          |                 G F N 2 - x T B                 |
           -------------------------------------------------

        Reference                      10.1021/acs.jctc.8b01176
      * Hamiltonian:
        H0-scaling (s, p, d)           1.850000    2.230000    2.230000
        zeta-weighting                 0.500000
      * Dispersion:
        s8                             2.700000
        a1                             0.520000
        a2                             5.000000
        s9                             5.000000
      * Repulsion:
        kExp                           1.500000    1.000000
        rExp                           1.000000
      * Coulomb:
        alpha                          2.000000
        third order                    shell-resolved
        anisotropic                    true
        a3                             3.000000
        a5                             4.000000
        cn-shift                       1.200000
        cn-exp                         4.000000
        max-rad                        5.000000


          ...................................................
          :                      SETUP                      :
          :.................................................:
          :  # basis functions                  33          :
          :  # atomic orbitals                  33          :
          :  # shells                           21          :
          :  # electrons                        35          :
          :  max. iterations                   250          :
          :  Hamiltonian                  GFN2-xTB          :
          :  restarted?                      false          :
          :  GBSA solvation                  false          :
          :  PC potential                    false          :
          :  electronic temp.          300.0000000     K    :
          :  accuracy                    0.2000000          :
          :  -> integral cutoff          0.3198970E+02      :
          :  -> integral neglect         0.2000000E-08      :
          :  -> SCF convergence          0.2000000E-06 Eh   :
          :  -> wf. convergence          0.2000000E-04 e    :
          :  Broyden damping             0.4000000          :
          :  net charge                          0          :
          :  unpaired electrons                  1          :
          ...................................................

 iter      E             dE          RMSdq      gap      omega  full diag
   1    -19.4441205 -0.194441E+02  0.352E+00    6.73       0.0  T
   2    -19.4752104 -0.310899E-01  0.179E+00    6.77       1.0  T
   3    -19.4761221 -0.911745E-03  0.870E-01    6.74       1.0  T
   4    -19.4764438 -0.321674E-03  0.151E-01    6.79       1.0  T
   5    -19.4766111 -0.167315E-03  0.869E-02    6.74       1.0  T
   6    -19.4766362 -0.250969E-04  0.373E-02    6.76       1.0  T
   7    -19.4766379 -0.170611E-05  0.124E-02    6.76       2.1  T
   8    -19.4766382 -0.286023E-06  0.316E-03    6.76       8.2  T
   9    -19.4766382 -0.956731E-08  0.160E-03    6.76      16.1  T
  10    -19.4766382 -0.337253E-08  0.210E-04    6.76     122.8  T
  11    -19.4766382 -0.149395E-09  0.665E-05    6.76     388.0  T
  12    -19.4766382 -0.307594E-10  0.141E-05    6.76    1836.8  T

   *** convergence criteria satisfied after 12 iterations ***

         #    Occupation            Energy/Eh            Energy/eV
      -------------------------------------------------------------
         1        2.0000           -0.7229545             -19.6726
       ...           ...                  ...                  ...
        12        2.0000           -0.4813769             -13.0989
        13        2.0000           -0.4600187             -12.5177
        14        2.0000           -0.4508537             -12.2684
        15        2.0000           -0.4454374             -12.1210
        16        2.0000           -0.4333824             -11.7929
        17        2.0000           -0.4285516             -11.6615
        18        1.0000           -0.3332954              -9.0694 (HOMO)
        19                         -0.0850272              -2.3137 (LUMO)
        20                          0.0622752               1.6946
        21                          0.0908598               2.4724
        22                          0.1160964               3.1591
        23                          0.1298332               3.5329
       ...                                ...                  ...
        33                          0.3692073              10.0466
      -------------------------------------------------------------
                  HL-Gap            0.2482682 Eh            6.7557 eV
             Fermi-level           -0.2950424 Eh           -8.0285 eV

 SCC (total)                   0 d,  0 h,  0 min,  0.018 sec
 SCC setup                      ...        0 min,  0.000 sec (  1.064%)
 Dispersion                     ...        0 min,  0.000 sec (  1.133%)
 classical contributions        ...        0 min,  0.000 sec (  0.646%)
 integral evaluation            ...        0 min,  0.001 sec (  5.405%)
 iterations                     ...        0 min,  0.014 sec ( 75.718%)
 molecular gradient             ...        0 min,  0.002 sec ( 13.230%)
 printout                       ...        0 min,  0.000 sec (  2.681%)

         :::::::::::::::::::::::::::::::::::::::::::::::::::::
         ::                     SUMMARY                     ::
         :::::::::::::::::::::::::::::::::::::::::::::::::::::
         :: total energy             -19.243330075725 Eh    ::
         :: gradient norm              0.037643895679 Eh/a0 ::
         :: HOMO-LUMO gap              6.755721493538 eV    ::
         ::.................................................::
         :: SCC energy               -19.476640747238 Eh    ::
         :: -> isotropic ES            0.016394508572 Eh    ::
         :: -> anisotropic ES          0.002305976055 Eh    ::
         :: -> anisotropic XC          0.006446003034 Eh    ::
         :: -> dispersion             -0.007604516738 Eh    ::
         :: repulsion energy           0.233310671513 Eh    ::
         :: add. restraining           0.000000000000 Eh    ::
         :: total charge               0.000000000000 e     ::
         :::::::::::::::::::::::::::::::::::::::::::::::::::::


Property printout bound to 'properties.out'

           -------------------------------------------------
          | TOTAL ENERGY              -19.243330075725 Eh   |
          | GRADIENT NORM               0.037643895679 Eh/α |
          | HOMO-LUMO GAP               6.755721493538 eV   |
           -------------------------------------------------

------------------------------------------------------------------------
 * finished run on 2026/02/12 at 17:30:17.268     
------------------------------------------------------------------------
 total:
 * wall-time:     0 d,  0 h,  0 min,  0.051 sec
 *  cpu-time:     0 d,  0 h,  0 min,  0.194 sec
 * ratio c/w:     3.803 speedup
 SCF:
 * wall-time:     0 d,  0 h,  0 min,  0.019 sec
 *  cpu-time:     0 d,  0 h,  0 min,  0.074 sec
 * ratio c/w:     3.971 speedup


-------------------------   --------------------
FINAL SINGLE POINT ENERGY       -19.243330075720
-------------------------   --------------------


-------------
DIPOLE MOMENT
-------------
                                X             Y             Z
Total Dipole Moment    :      0.20300      -0.62000      -0.36600
                        -----------------------------------------
Magnitude (a.u.)       :      0.74804
Magnitude (Debye)      :      1.90137


------------------
CARTESIAN GRADIENT
------------------

   1   C   :   -0.006316821    0.000229003    0.002088975
   2   C   :   -0.005729262   -0.002791489   -0.002262761
   3   C   :   -0.008864979    0.008368909   -0.006418594
   4   C   :   -0.003645675    0.008742642   -0.008901865
   5   C   :   -0.004936978   -0.013844986    0.015334299
   6   O   :    0.010479161    0.011869107   -0.003792717
   7   H   :    0.003058516    0.001377371    0.002622129
   8   H   :    0.000892662   -0.004053954   -0.000655701
   9   H   :    0.000437281    0.002148410   -0.003601702
  10   H   :    0.001946530    0.003139883    0.001399601
  11   H   :    0.001895287   -0.000121411    0.003501200
  12   H   :    0.000103052   -0.001698736   -0.001298223
  13   H   :    0.000051306   -0.000553000   -0.002821818
  14   H   :    0.005689697   -0.006442914    0.001053643
  15   H   :    0.004940224   -0.006368835    0.003753533

Difference to translation invariance:
           :   -0.0000000000   -0.0000000000    0.0000000000

Difference to rotation invariance:
           :   -0.0000000334   -0.0000000063    0.0000000492

Norm of the Cartesian gradient     ...    0.0376438957
RMS gradient                       ...    0.0056116206
MAX gradient                       ...    0.0153342988
------------------------------------------------------------------------------
                         ORCA GEOMETRY RELAXATION STEP
------------------------------------------------------------------------------

Reading the OPT-File                    .... done
Getting information on internals        .... done
Copying old internal coords+grads       .... done
Making the new internal coordinates     .... (2022 redundants) done
Validating the new internal coordinates .... (2022 redundants) done
Calculating the B-matrix                .... done
Calculating the G,G- and P matrices     .... done
Transforming gradient to internals      .... done
Projecting the internal gradient        .... done
Number of atoms                         ....  15
Number of internal coordinates          ....  68
Current Energy                          ....   -19.243330076 Eh
Current gradient norm                   ....     0.037643896 Eh/bohr
Maximum allowed component of the step   ....  0.300
Current trust radius                    ....  0.300
Evaluating the initial hessian          ....  (Almloef) done
Projecting the Hessian                  .... done
Forming the augmented Hessian           .... done
Diagonalizing the augmented Hessian     .... done
Last element of RFO vector              ....  0.977294040
Lowest eigenvalues of augmented Hessian:
 -0.005304969  0.011349028  0.011874678  0.013949442  0.057914952
Length of the computed step             ....  0.216810500
The final length of the internal step   ....  0.216810500
Converting the step to Cartesian space:
 Initial RMS(Int)=    0.0262921350
Transforming coordinates:
 Iter   0:  RMS(Cart)=    0.0509428592 RMS(Int)=    0.7618456074
 Iter   5:  RMS(Cart)=    0.0000001189 RMS(Int)=    0.0000001121
done
Storing new coordinates                 .... done

                                .--------------------.
          ----------------------|Geometry convergence|-------------------------
          Item                value                   Tolerance       Converged
          ---------------------------------------------------------------------
          RMS gradient        0.0040051312            0.0001000000      NO
          MAX gradient        0.0118932545            0.0003000000      NO
          RMS step            0.0262921350            0.0020000000      NO
          MAX step            0.0953324561            0.0040000000      NO
          -------------------------------------------------------------------------
          ........................................................
          Max(Bonds)      0.0095      Max(Angles)    2.76
          Max(Dihed)        5.46      Max(Improp)    0.00
          ---------------------------------------------------------------------

    ---------------------------------------------------------------------------
                         Redundant Internal Coordinates
                            (Angstroem and degrees)

        Definition                    Value    dE/dq     Step     New-Value
    ----------------------------------------------------------------------------
     1. B(C   1,C   0)                1.5209 -0.001808  0.0024    1.5233   
     2. B(C   2,C   1)                1.5279 -0.001454  0.0020    1.5299   
     3. B(C   4,C   3)                1.4470 -0.009918  0.0095    1.4566   
     4. B(C   4,C   2)                1.4894 -0.007212  0.0087    1.4981   
     5. B(O   5,C   4)                1.3750  0.000317 -0.0016    1.3734   
     6. B(O   5,C   3)                1.4292  0.009811 -0.0084    1.4208   
     7. B(H   6,C   0)                1.0945  0.004234 -0.0062    1.0883   
     8. B(H   7,C   0)                1.0947  0.004179 -0.0062    1.0885   
     9. B(H   8,C   0)                1.0947  0.004197 -0.0062    1.0885   
    10. B(H   9,C   1)                1.0969  0.003218 -0.0048    1.0922   
    11. B(H  10,C   1)                1.0969  0.003207 -0.0048    1.0922   
    12. B(H  11,C   2)                1.0970  0.000198 -0.0003    1.0967   
    13. B(H  12,C   2)                1.0964  0.001254 -0.0019    1.0945   
    14. B(H  13,C   3)                1.0808 -0.001009  0.0014    1.0822   
    15. B(H  14,C   3)                1.0810 -0.002331  0.0033    1.0842   
    16. A(C   1,C   0,H   7)          111.00  0.000628   -0.13    110.87   
    17. A(C   1,C   0,H   6)          110.26 -0.000951    0.21    110.46   
    18. A(H   6,C   0,H   7)          108.08 -0.000079    0.06    108.14   
    19. A(H   7,C   0,H   8)          108.32 -0.000114   -0.07    108.26   
    20. A(C   1,C   0,H   8)          111.00  0.000498   -0.11    110.89   
    21. A(H   6,C   0,H   8)          108.08  0.000002    0.04    108.12   
    22. A(C   2,C   1,H   9)          110.08  0.002145   -0.54    109.54   
    23. A(C   0,C   1,C   2)          111.43 -0.001756    0.30    111.73   
    24. A(H   9,C   1,H  10)          107.04 -0.001847    0.29    107.33   
    25. A(C   0,C   1,H   9)          109.03 -0.001000    0.26    109.28   
    26. A(C   2,C   1,H  10)          110.11  0.003401   -0.57    109.54   
    27. A(C   0,C   1,H  10)          109.04 -0.001005    0.27    109.31   
    28. A(C   1,C   2,H  12)          109.66  0.001954   -0.26    109.40   
    29. A(H  11,C   2,H  12)          107.38 -0.002864    0.67    108.05   
    30. A(C   4,C   2,H  12)          109.53  0.002272   -0.30    109.23   
    31. A(C   4,C   2,H  11)          109.47  0.002128   -0.45    109.02   
    32. A(C   1,C   2,C   4)          110.90 -0.005748    0.84    111.73   
    33. A(C   1,C   2,H  11)          109.84  0.002380   -0.51    109.33   
    34. A(H  13,C   3,H  14)          116.42  0.001512    0.01    116.43   
    35. A(O   5,C   3,H  14)          118.37  0.000704   -1.74    116.63   
    36. A(C   4,C   3,H  14)          117.37 -0.003849    2.12    119.49   
    37. A(O   5,C   3,H  13)          118.28  0.003434   -1.98    116.30   
    38. A(C   4,C   3,H  13)          116.11 -0.003946    2.30    118.42   
    39. A(C   4,C   3,O   5)           57.11  0.000237   -0.10     57.01   
    40. A(C   2,C   4,C   3)          124.19 -0.011893    2.46    126.65   
    41. A(C   3,C   4,O   5)           60.79  0.006553   -0.60     60.19   
    42. A(C   2,C   4,O   5)          116.78 -0.010570    2.76    119.54   
    43. A(C   3,O   5,C   4)           62.10 -0.006790    0.71     62.80   
    44. D(H   9,C   1,C   0,H   7)    178.04 -0.000719    0.18    178.22   
    45. D(C   2,C   1,C   0,H   7)    -60.25  0.000159   -0.13    -60.38   
    46. D(H   9,C   1,C   0,H   8)    -61.42 -0.000106   -0.06    -61.49   
    47. D(C   2,C   1,C   0,H   8)     60.28  0.000772   -0.37     59.91   
    48. D(C   2,C   1,C   0,H   6)   -179.99  0.000475   -0.26   -180.25   
    49. D(H   9,C   1,C   0,H   6)     58.31 -0.000404    0.05     58.36   
    50. D(C   4,C   2,C   1,C   0)    175.00 -0.000312    1.37    176.37   
    51. D(H  11,C   2,C   1,H  10)    175.00  0.000312    0.85    175.85   
    52. D(H  11,C   2,C   1,H   9)     57.22 -0.000786    1.17     58.39   
    53. D(H  11,C   2,C   1,C   0)    -63.87  0.000186    1.01    -62.86   
    54. D(C   4,C   2,C   1,H  10)     53.87 -0.000186    1.21     55.08   
    55. D(C   4,C   2,C   1,H   9)    -63.91 -0.001285    1.53    -62.38   
    56. D(C   3,C   4,C   2,H  12)    -70.09  0.000482   -1.10    -71.19   
    57. D(C   3,C   4,C   2,H  11)     47.39 -0.000420   -0.72     46.67   
    58. D(C   3,C   4,C   2,C   1)    168.74  0.000249   -1.12    167.62   
    59. D(O   5,C   4,C   3,H  14)    107.60  0.002930   -3.28    104.33   
    60. D(O   5,C   4,C   3,H  13)   -108.15 -0.006343    3.66   -104.48   
    61. D(C   2,C   4,C   3,H  14)      3.47  0.007917   -5.46     -1.99   
    62. D(C   2,C   4,C   3,H  13)    147.72 -0.001356    1.48    149.20   
    63. D(C   2,C   4,C   3,O   5)   -104.13  0.004987   -2.19   -106.32   
    64. D(O   5,C   4,C   2,H  11)    -24.07  0.000816   -2.23    -26.30   
    65. D(O   5,C   4,C   2,C   1)     97.28  0.001484   -2.62     94.66   
    66. D(C   3,O   5,C   4,C   2)    116.05 -0.008190    1.69    117.74   
    67. D(C   4,O   5,C   3,H  14)   -105.84  0.005084   -3.51   -109.35   
    68. D(C   4,O   5,C   3,H  13)    104.32 -0.006672    3.90    108.21   
    ----------------------------------------------------------------------------

Geometry step timings:
Preparation and reading OPT file:      0.000 s ( 1.392 %)
Internal coordinates            :      0.000 s ( 1.767 %)
B/P matrices and projection     :      0.000 s (25.642 %)
Hessian update/contruction      :      0.000 s (12.901 %)
Making the step                 :      0.000 s (22.537 %)
Converting the step to Cartesian:      0.000 s ( 3.854 %)
Storing new data                :      0.000 s ( 1.660 %)
Checking convergence            :      0.000 s ( 1.767 %)
Final printing                  :      0.001 s (28.373 %)
Total time                      :      0.002 s

Time for energy+gradient        :      0.068 s
Time for complete geometry iter :      0.071 s

         *************************************************************
         *                GEOMETRY OPTIMIZATION CYCLE   2            *
         *************************************************************
---------------------------------
CARTESIAN COORDINATES (ANGSTROEM)
---------------------------------
  C     2.342672   -0.030616   -0.180298
  C     1.041237    0.228983    0.567623
  C    -0.174296   -0.253819   -0.226064
  C    -2.801554   -0.189171    0.024138
  C    -1.446155   -0.078367    0.545934
  O    -2.200914    1.054025    0.357836
  H     3.192238    0.324131    0.399981
  H     2.478553   -1.094853   -0.364245
  H     2.348773    0.484669   -1.139095
  H     0.946441    1.298775    0.766021
  H     1.072157   -0.279516    1.533711
  H    -0.244022    0.311748   -1.163097
  H    -0.047796   -1.311695   -0.476855
  H    -3.580802   -0.537697    0.689356
  H    -2.950739   -0.387598   -1.031307

----------------------------
CARTESIAN COORDINATES (A.U.)
----------------------------
  NO LB    ZA    FRAG    MASS        X           Y           Z
   0 C   6.0000    1    12.011    4.427009   -0.057856   -0.340713
   1 C   6.0000    1    12.011    1.967653    0.432715    1.072651
   2 C   6.0000    1    12.011   -0.329373   -0.479649   -0.427199
   3 C   6.0000    1    12.011   -5.294171   -0.357481    0.045615
   4 C   6.0000    1    12.011   -2.732838   -0.148092    1.031666
   5 O   8.0000    1    15.999   -4.159125    1.991818    0.676211
   6 H   1.0000    1     1.008    6.032456    0.612519    0.755855
   7 H   1.0000    1     1.008    4.683786   -2.068972   -0.688323
   8 H   1.0000    1     1.008    4.438538    0.915892   -2.152577
   9 H   1.0000    1     1.008    1.788515    2.454328    1.447571
  10 H   1.0000    1     1.008    2.026084   -0.528208    2.898293
  11 H   1.0000    1     1.008   -0.461136    0.589118   -2.197934
  12 H   1.0000    1     1.008   -0.090321   -2.478744   -0.901126
  13 H   1.0000    1     1.008   -6.766735   -1.016100    1.302695
  14 H   1.0000    1     1.008   -5.576089   -0.732454   -1.948887

      -----------------------------------------------------------      
     |                   =====================                   |     
     |                           x T B                           |     
     |                   =====================                   |     
     |                         S. Grimme                         |     
     |          Mulliken Center for Theoretical Chemistry        |     
     |                    University of Bonn                     |     
      -----------------------------------------------------------      

   * xtb version 6.7.1 (edcfbbe) compiled by 'albert@albert-system' on 2024-07-22

   xtb is free software: you can redistribute it and/or modify it under
   the terms of the GNU Lesser General Public License as published by
   the Free Software Foundation, either version 3 of the License, or
   (at your option) any later version.
   
   xtb is distributed in the hope that it will be useful,
   but WITHOUT ANY WARRANTY; without even the implied warranty of
   MERCHANTABILITY or FITNESS FOR A PARTICULAR PURPOSE.  See the
   GNU Lesser General Public License for more details.
   
   Cite this work as:
   * C. Bannwarth, E. Caldeweyher, S. Ehlert, A. Hansen, P. Pracht,
     J. Seibert, S. Spicher, S. Grimme, WIREs Comput. Mol. Sci., 2020, 11,
     e01493. DOI: 10.1002/wcms.1493
   
   for GFN2-xTB:
   * C. Bannwarth, S. Ehlert and S. Grimme., J. Chem. Theory Comput., 2019,
     15, 1652-1671. DOI: 10.1021/acs.jctc.8b01176
   for GFN1-xTB:
   * S. Grimme, C. Bannwarth, P. Shushkov, J. Chem. Theory Comput., 2017,
     13, 1989-2009. DOI: 10.1021/acs.jctc.7b00118
   for GFN0-xTB:
   * P. Pracht, E. Caldeweyher, S. Ehlert, S. Grimme, ChemRxiv, 2019, preprint.
     DOI: 10.26434/chemrxiv.8326202.v1
   for GFN-FF:
   * S. Spicher and S. Grimme, Angew. Chem. Int. Ed., 2020, 59, 15665-15673.
     DOI: 10.1002/anie.202004239
   
   for ALPB and GBSA implicit solvation:
   * S. Ehlert, M. Stahn, S. Spicher, S. Grimme, J. Chem. Theory Comput.,
     2021, 17, 4250-4261. DOI: 10.1021/acs.jctc.1c00471
   
   for ddCOSMO and CPCM-X implicit solvation:
   * M. Stahn, S. Ehlert, S. Grimme, J. Phys. Chem. A,
     2023, XX, XXXX-XXXX. DOI: 10.1021/acs.jpca.3c04382
   
   for DFT-D4:
   * E. Caldeweyher, C. Bannwarth and S. Grimme, J. Chem. Phys., 2017,
     147, 034112. DOI: 10.1063/1.4993215
   * E. Caldeweyher, S. Ehlert, A. Hansen, H. Neugebauer, S. Spicher,
     C. Bannwarth and S. Grimme, J. Chem. Phys., 2019, 150, 154122.
     DOI: 10.1063/1.5090222
   * E. Caldeweyher, J.-M. Mewes, S. Ehlert and S. Grimme, Phys. Chem. Chem. Phys.
     2020, 22, 8499-8512. DOI: 10.1039/D0CP00502A
   
   for sTDA-xTB:
   * S. Grimme and C. Bannwarth, J. Chem. Phys., 2016, 145, 054103.
     DOI: 10.1063/1.4959605
   
   in the mass-spec context:
   * V. Asgeirsson, C. Bauer and S. Grimme, Chem. Sci., 2017, 8, 4879.
     DOI: 10.1039/c7sc00601b
   * J. Koopman and S. Grimme, ACS Omega 2019, 4, 12, 15120-15133.
     DOI: 10.1021/acsomega.9b02011
   
   for metadynamics refer to:
   * S. Grimme, J. Chem. Theory Comput., 2019, 155, 2847-2862
     DOI: 10.1021/acs.jctc.9b00143
   
   for SPH calculations refer to:
   * S. Spicher and S. Grimme, J. Chem. Theory Comput., 2021, 17, 1701-1714
     DOI: 10.1021/acs.jctc.0c01306
   
   for ONIOM refer to:
   * C. Plett, A. Katbashev, S. Ehlert, S. Grimme, M. Bursch,
     Phys. Chem. Chem. Phys., 2023, 25, 17860-17868. DOI: 10.1039/D3CP02178E
   
   for DIPRO refer to:
   * J. Kohn, N. Gildemeister, S. Grimme, D. Fazzi, A. Hansen,
     J. Chem. Phys., 2023, just accepted.
   
   for PTB refer to:
   * S. Grimme, M. Mueller, A. Hansen, J. Chem. Phys., 2023, 158, 124111.
     DOI: 10.1063/5.0137838
   
   with help from (in alphabetical order)
   P. Atkinson, C. Bannwarth, F. Bohle, G. Brandenburg, E. Caldeweyher
   M. Checinski, S. Dohm, S. Ehlert, S. Ehrlich, I. Gerasimov, C. Hölzer
   A. Katbashev, J. Kohn, J. Koopman, C. Lavigne, S. Lehtola, F. März, M. Müller,
   F. Musil, H. Neugebauer, J. Pisarek, C. Plett, P. Pracht, F. Pultar,
   J. Seibert, P. Shushkov, S. Spicher, M. Stahn, M. Steiner, T. Strunk,
   J. Stückrath, T. Rose, and J. Unsleber
   
 * started run on 2026/02/12 at 17:30:17.286     
   ID    Z sym.   atoms
    1    6 C      1-5
    2    8 O      6
    3    1 H      7-15

           -------------------------------------------------
          |                Calculation Setup                |
           -------------------------------------------------

          program call               : /apps/eb/ORCA/6.1.1-gompi-2024a-avx2/bin/otool_xtb goat_XTB.xyz --grad -c 0 -u 1 -P 8 --namespace goat --input goat_XTB.input.tmp --acc 0.200000
          hostname                   : a2-4
          calculation namespace      : goat
          coordinate file            : goat_XTB.xyz
          omp threads                :                     8


           -------------------------------------------------
          |                 G F N 2 - x T B                 |
           -------------------------------------------------

        Reference                      10.1021/acs.jctc.8b01176
      * Hamiltonian:
        H0-scaling (s, p, d)           1.850000    2.230000    2.230000
        zeta-weighting                 0.500000
      * Dispersion:
        s8                             2.700000
        a1                             0.520000
        a2                             5.000000
        s9                             5.000000
      * Repulsion:
        kExp                           1.500000    1.000000
        rExp                           1.000000
      * Coulomb:
        alpha                          2.000000
        third order                    shell-resolved
        anisotropic                    true
        a3                             3.000000
        a5                             4.000000
        cn-shift                       1.200000
        cn-exp                         4.000000
        max-rad                        5.000000

q/qsh data taken from xtbrestart
CAMM data taken from xtbrestart

          ...................................................
          :                      SETUP                      :
          :.................................................:
          :  # basis functions                  33          :
          :  # atomic orbitals                  33          :
          :  # shells                           21          :
          :  # electrons                        35          :
          :  max. iterations                   250          :
          :  Hamiltonian                  GFN2-xTB          :
          :  restarted?                       true          :
          :  GBSA solvation                  false          :
          :  PC potential                    false          :
          :  electronic temp.          300.0000000     K    :
          :  accuracy                    0.2000000          :
          :  -> integral cutoff          0.3198970E+02      :
          :  -> integral neglect         0.2000000E-08      :
          :  -> SCF convergence          0.2000000E-06 Eh   :
          :  -> wf. convergence          0.2000000E-04 e    :
          :  Broyden damping             0.4000000          :
          :  net charge                          0          :
          :  unpaired electrons                  1          :
          ...................................................

 iter      E             dE          RMSdq      gap      omega  full diag
   1    -19.4813190 -0.194813E+02  0.255E-01    6.77       0.0  T
   2    -19.4813300 -0.110665E-04  0.156E-01    6.76       1.0  T
   3    -19.4813209  0.913551E-05  0.288E-02    6.78       1.0  T
   4    -19.4813335 -0.125599E-04  0.502E-03    6.77       5.1  T
   5    -19.4813335 -0.295768E-07  0.293E-03    6.77       8.8  T
   6    -19.4813335 -0.844953E-08  0.563E-04    6.77      45.9  T
   7    -19.4813335 -0.750205E-09  0.282E-04    6.77      91.7  T
   8    -19.4813335 -0.396199E-10  0.472E-05    6.77     546.5  T
   9    -19.4813335 -0.568079E-11  0.118E-05    6.77    2186.4  T

   *** convergence criteria satisfied after 9 iterations ***

         #    Occupation            Energy/Eh            Energy/eV
      -------------------------------------------------------------
         1        2.0000           -0.7227873             -19.6680
       ...           ...                  ...                  ...
        12        2.0000           -0.4811637             -13.0931
        13        2.0000           -0.4606265             -12.5343
        14        2.0000           -0.4508775             -12.2690
        15        2.0000           -0.4451948             -12.1144
        16        2.0000           -0.4345015             -11.8234
        17        2.0000           -0.4294088             -11.6848
        18        1.0000           -0.3298658              -8.9761 (HOMO)
        19                         -0.0811152              -2.2073 (LUMO)
        20                          0.0672237               1.8292
        21                          0.0837641               2.2793
        22                          0.1187446               3.2312
        23                          0.1345649               3.6617
       ...                                ...                  ...
        33                          0.3688294              10.0364
      -------------------------------------------------------------
                  HL-Gap            0.2487506 Eh            6.7688 eV
             Fermi-level           -0.2925639 Eh           -7.9611 eV

 SCC (total)                   0 d,  0 h,  0 min,  0.021 sec
 SCC setup                      ...        0 min,  0.000 sec (  1.557%)
 Dispersion                     ...        0 min,  0.000 sec (  1.649%)
 classical contributions        ...        0 min,  0.000 sec (  0.836%)
 integral evaluation            ...        0 min,  0.001 sec (  3.094%)
 iterations                     ...        0 min,  0.015 sec ( 74.324%)
 molecular gradient             ...        0 min,  0.003 sec ( 15.141%)
 printout                       ...        0 min,  0.001 sec (  3.310%)

         :::::::::::::::::::::::::::::::::::::::::::::::::::::
         ::                     SUMMARY                     ::
         :::::::::::::::::::::::::::::::::::::::::::::::::::::
         :: total energy             -19.247081930549 Eh    ::
         :: gradient norm              0.023622791926 Eh/a0 ::
         :: HOMO-LUMO gap              6.768847421949 eV    ::
         ::.................................................::
         :: SCC energy               -19.481337280178 Eh    ::
         :: -> isotropic ES            0.016427170914 Eh    ::
         :: -> anisotropic ES          0.001859718670 Eh    ::
         :: -> anisotropic XC          0.006243114066 Eh    ::
         :: -> dispersion             -0.007554690518 Eh    ::
         :: repulsion energy           0.234255349629 Eh    ::
         :: add. restraining           0.000000000000 Eh    ::
         :: total charge               0.000000000000 e     ::
         :::::::::::::::::::::::::::::::::::::::::::::::::::::


Property printout bound to 'properties.out'

           -------------------------------------------------
          | TOTAL ENERGY              -19.247081930549 Eh   |
          | GRADIENT NORM               0.023622791926 Eh/α |
          | HOMO-LUMO GAP               6.768847421949 eV   |
           -------------------------------------------------

------------------------------------------------------------------------
 * finished run on 2026/02/12 at 17:30:17.324     
------------------------------------------------------------------------
 total:
 * wall-time:     0 d,  0 h,  0 min,  0.037 sec
 *  cpu-time:     0 d,  0 h,  0 min,  0.143 sec
 * ratio c/w:     3.819 speedup
 SCF:
 * wall-time:     0 d,  0 h,  0 min,  0.021 sec
 *  cpu-time:     0 d,  0 h,  0 min,  0.083 sec
 * ratio c/w:     3.977 speedup


-------------------------   --------------------
FINAL SINGLE POINT ENERGY       -19.247081930550
-------------------------   --------------------


-------------
DIPOLE MOMENT
-------------
                                X             Y             Z
Total Dipole Moment    :      0.22800      -0.58400      -0.38700
                        -----------------------------------------
Magnitude (a.u.)       :      0.73676
Magnitude (Debye)      :      1.87268


------------------
CARTESIAN GRADIENT
------------------

   1   C   :   -0.001304911   -0.000047894    0.000559820
   2   C   :   -0.002763686   -0.001595613   -0.000630327
   3   C   :   -0.002119920    0.005156526   -0.006546198
   4   C   :   -0.003898400    0.006688225   -0.005459205
   5   C   :   -0.000008237   -0.009134410    0.015124868
   6   O   :    0.001516590    0.004385174   -0.003852287
   7   H   :    0.000579644    0.000080632    0.000133194
   8   H   :    0.000503305   -0.000167451   -0.000113591
   9   H   :    0.000435014    0.000082332   -0.000234937
  10   H   :    0.001163686    0.000329711    0.000546410
  11   H   :    0.000828286    0.000777820    0.000756680
  12   H   :    0.000280852   -0.000901492   -0.000287205
  13   H   :    0.000760410   -0.000315235   -0.001616850
  14   H   :    0.001831613   -0.002136543    0.000588919
  15   H   :    0.002195754   -0.003201783    0.001030710

Difference to translation invariance:
           :    0.0000000000    0.0000000000   -0.0000000000

Difference to rotation invariance:
           :   -0.0000000000    0.0000000055   -0.0000000195

Norm of the Cartesian gradient     ...    0.0236227919
RMS gradient                       ...    0.0035214779
MAX gradient                       ...    0.0151248677
------------------------------------------------------------------------------
                         ORCA GEOMETRY RELAXATION STEP
------------------------------------------------------------------------------

Reading the OPT-File                    .... done
Getting information on internals        .... done
Copying old internal coords+grads       .... done
Making the new internal coordinates     .... (2022 redundants) done
Validating the new internal coordinates .... (2022 redundants) done
Calculating the B-matrix                .... done
Calculating the G,G- and P matrices     .... done
Transforming gradient to internals      .... done
Projecting the internal gradient        .... done
Number of atoms                         ....  15
Number of internal coordinates          ....  68
Current Energy                          ....   -19.247081931 Eh
Current gradient norm                   ....     0.023622792 Eh/bohr
Maximum allowed component of the step   ....  0.300
Current trust radius                    ....  0.300
Updating the Hessian (BFGS)             .... done
Forming the augmented Hessian           .... done
Diagonalizing the augmented Hessian     .... done
Last element of RFO vector              ....  0.975718745
Lowest eigenvalues of augmented Hessian:
 -0.002324057  0.011268446  0.011875023  0.013738454  0.048629908
Length of the computed step             ....  0.224477840
The final length of the internal step   ....  0.224477840
Converting the step to Cartesian space:
 Initial RMS(Int)=    0.0272219366
Transforming coordinates:
 Iter   0:  RMS(Cart)=    0.0491578349 RMS(Int)=    0.0274728311
 Iter   5:  RMS(Cart)=    0.0000001240 RMS(Int)=    0.0000001167
done
Storing new coordinates                 .... done
The predicted energy change is          ....    -0.001220584
Previously predicted energy change      ....    -0.002777169
Actually observed energy change         ....    -0.003751855
Ratio of predicted to observed change   ....     1.350963655
New trust radius                        ....     0.300000000

                                .--------------------.
          ----------------------|Geometry convergence|-------------------------
          Item                value                   Tolerance       Converged
          ---------------------------------------------------------------------
          Energy change      -0.0037518548            0.0000050000      NO
          RMS gradient        0.0016767947            0.0001000000      NO
          MAX gradient        0.0058434942            0.0003000000      NO
          RMS step            0.0272219366            0.0020000000      NO
          MAX step            0.1037252574            0.0040000000      NO
          -------------------------------------------------------------------------
          ........................................................
          Max(Bonds)      0.0051      Max(Angles)    3.21
          Max(Dihed)        5.94      Max(Improp)    0.00
          ---------------------------------------------------------------------

    ---------------------------------------------------------------------------
                         Redundant Internal Coordinates
                            (Angstroem and degrees)

        Definition                    Value    dE/dq     Step     New-Value
    ----------------------------------------------------------------------------
     1. B(C   1,C   0)                1.5233  0.000022  0.0003    1.5236   
     2. B(C   2,C   1)                1.5299 -0.000087  0.0005    1.5304   
     3. B(C   4,C   3)                1.4566 -0.000834  0.0008    1.4574   
     4. B(C   4,C   2)                1.4981  0.002042 -0.0030    1.4952   
     5. B(O   5,C   4)                1.3738  0.001943 -0.0051    1.3687   
     6. B(O   5,C   3)                1.4204  0.003358 -0.0028    1.4176   
     7. B(H   6,C   0)                1.0883  0.000550 -0.0022    1.0860   
     8. B(H   7,C   0)                1.0885  0.000246 -0.0015    1.0871   
     9. B(H   8,C   0)                1.0885  0.000248 -0.0015    1.0870   
    10. B(H   9,C   1)                1.0922  0.000321 -0.0015    1.0907   
    11. B(H  10,C   1)                1.0922  0.000331 -0.0015    1.0907   
    12. B(H  11,C   2)                1.0967 -0.000237  0.0006    1.0973   
    13. B(H  12,C   2)                1.0945  0.000763 -0.0022    1.0924   
    14. B(H  13,C   3)                1.0822 -0.000269  0.0008    1.0831   
    15. B(H  14,C   3)                1.0842 -0.000719  0.0022    1.0864   
    16. A(C   1,C   0,H   7)          110.87  0.000540   -0.20    110.67   
    17. A(C   1,C   0,H   6)          110.46  0.000075    0.03    110.49   
    18. A(H   6,C   0,H   7)          108.14 -0.000422    0.17    108.31   
    19. A(H   7,C   0,H   8)          108.26 -0.000342    0.04    108.30   
    20. A(C   1,C   0,H   8)          110.89  0.000472   -0.17    110.72   
    21. A(H   6,C   0,H   8)          108.12 -0.000375    0.15    108.27   
    22. A(C   2,C   1,H   9)          109.54  0.000807   -0.48    109.05   
    23. A(C   0,C   1,C   2)          111.73  0.000374   -0.09    111.64   
    24. A(H   9,C   1,H  10)          107.33 -0.001054    0.45    107.78   
    25. A(C   0,C   1,H   9)          109.29 -0.000954    0.35    109.63   
    26. A(C   2,C   1,H  10)          109.54  0.001622   -0.51    109.03   
    27. A(C   0,C   1,H  10)          109.32 -0.000862    0.32    109.63   
    28. A(C   1,C   2,H  12)          109.39  0.000267    0.05    109.44   
    29. A(H  11,C   2,H  12)          108.06 -0.002170    0.84    108.89   
    30. A(C   4,C   2,H  12)          109.23  0.001879   -0.49    108.74   
    31. A(C   4,C   2,H  11)          109.02  0.000692   -0.45    108.57   
    32. A(C   1,C   2,C   4)          111.73 -0.001335    0.44    112.17   
    33. A(C   1,C   2,H  11)          109.33  0.000626   -0.37    108.96   
    34. A(H  13,C   3,H  14)          116.13  0.000947   -0.23    115.89   
    35. A(O   5,C   3,H  14)          116.55  0.000174   -1.56    114.99   
    36. A(C   4,C   3,H  14)          119.38 -0.001566    1.72    121.10   
    37. A(O   5,C   3,H  13)          116.23  0.001467   -1.41    114.82   
    38. A(C   4,C   3,H  13)          118.32 -0.001290    1.56    119.87   
    39. A(C   4,C   3,O   5)           57.03  0.000345   -0.19     56.84   
    40. A(C   2,C   4,C   3)          126.62 -0.005843    2.67    129.28   
    41. A(C   3,C   4,O   5)           60.16  0.001266   -0.04     60.12   
    42. A(C   2,C   4,O   5)          119.50 -0.004672    3.21    122.70   
    43. A(C   3,O   5,C   4)           62.81 -0.001611    0.23     63.04   
    44. D(H   9,C   1,C   0,H   7)    178.22 -0.000425    0.30    178.53   
    45. D(C   2,C   1,C   0,H   7)    -60.38  0.000186   -0.13    -60.51   
    46. D(H   9,C   1,C   0,H   8)    -61.49 -0.000183    0.10    -61.38   
    47. D(C   2,C   1,C   0,H   8)     59.91  0.000428   -0.33     59.58   
    48. D(C   2,C   1,C   0,H   6)    179.75  0.000315   -0.23    179.52   
    49. D(H   9,C   1,C   0,H   6)     58.36 -0.000297    0.20     58.56   
    50. D(C   4,C   2,C   1,C   0)    176.37 -0.000260    1.98    178.35   
    51. D(H  11,C   2,C   1,H  10)    175.86 -0.000096    1.46    177.31   
    52. D(H  11,C   2,C   1,H   9)     58.39 -0.000238    1.50     59.89   
    53. D(H  11,C   2,C   1,C   0)    -62.86  0.000169    1.45    -61.41   
    54. D(C   4,C   2,C   1,H  10)     55.08 -0.000524    1.99     57.07   
    55. D(C   4,C   2,C   1,H   9)    -62.38 -0.000667    2.03    -60.35   
    56. D(C   3,C   4,C   2,H  12)    -71.18 -0.000144   -1.53    -72.71   
    57. D(C   3,C   4,C   2,H  11)     46.70 -0.001279   -1.07     45.63   
    58. D(C   3,C   4,C   2,C   1)    167.65 -0.000885   -1.55    166.10   
    59. D(O   5,C   4,C   3,H  14)    104.26  0.001187   -2.91    101.34   
    60. D(O   5,C   4,C   3,H  13)   -104.41 -0.002660    2.63   -101.78   
    61. D(C   2,C   4,C   3,H  14)     -2.06  0.004283   -5.94     -8.00   
    62. D(C   2,C   4,C   3,H  13)    149.27  0.000437   -0.40    148.87   
    63. D(C   2,C   4,C   3,O   5)   -106.32  0.003097   -3.03   -109.35   
    64. D(O   5,C   4,C   2,H  11)    -26.33  0.002032   -3.70    -30.03   
    65. D(O   5,C   4,C   2,C   1)     94.62  0.002426   -4.18     90.44   
    66. D(C   3,O   5,C   4,C   2)    117.75 -0.004954    1.97    119.71   
    67. D(C   4,O   5,C   3,H  14)   -109.25  0.001910   -2.87   -112.11   
    68. D(C   4,O   5,C   3,H  13)    108.10 -0.002247    2.60    110.70   
    ----------------------------------------------------------------------------

Geometry step timings:
Preparation and reading OPT file:      0.000 s ( 0.808 %)
Internal coordinates            :      0.000 s ( 1.270 %)
B/P matrices and projection     :      0.001 s (24.480 %)
Hessian update/contruction      :      0.001 s (26.828 %)
Making the step                 :      0.000 s (18.399 %)
Converting the step to Cartesian:      0.000 s ( 2.848 %)
Storing new data                :      0.000 s ( 1.309 %)
Checking convergence            :      0.000 s ( 1.963 %)
Final printing                  :      0.001 s (22.017 %)
Total time                      :      0.003 s

Time for energy+gradient        :      0.051 s
Time for complete geometry iter :      0.055 s

         *************************************************************
         *                GEOMETRY OPTIMIZATION CYCLE   3            *
         *************************************************************
---------------------------------
CARTESIAN COORDINATES (ANGSTROEM)
---------------------------------
  C     2.353740   -0.014888   -0.180643
  C     1.047497    0.222322    0.566910
  C    -0.157519   -0.288351   -0.226294
  C    -2.810968   -0.188508    0.021488
  C    -1.442154   -0.097020    0.514369
  O    -2.201720    1.035742    0.391407
  H     3.194620    0.361612    0.394398
  H     2.508042   -1.076529   -0.356296
  H     2.344083    0.492199   -1.142121
  H     0.922550    1.289044    0.756939
  H     1.079630   -0.286133    1.531308
  H    -0.216706    0.258052   -1.175992
  H    -0.029024   -1.352427   -0.437188
  H    -3.599551   -0.520990    0.685269
  H    -3.016727   -0.295126   -1.039913

----------------------------
CARTESIAN COORDINATES (A.U.)
----------------------------
  NO LB    ZA    FRAG    MASS        X           Y           Z
   0 C   6.0000    1    12.011    4.447924   -0.028134   -0.341365
   1 C   6.0000    1    12.011    1.979482    0.420128    1.071305
   2 C   6.0000    1    12.011   -0.297668   -0.544904   -0.427634
   3 C   6.0000    1    12.011   -5.311960   -0.356228    0.040607
   4 C   6.0000    1    12.011   -2.725277   -0.183341    0.972017
   5 O   8.0000    1    15.999   -4.160648    1.957268    0.739652
   6 H   1.0000    1     1.008    6.036957    0.683348    0.745304
   7 H   1.0000    1     1.008    4.739513   -2.034344   -0.673303
   8 H   1.0000    1     1.008    4.429674    0.930121   -2.158296
   9 H   1.0000    1     1.008    1.743366    2.435941    1.430407
  10 H   1.0000    1     1.008    2.040204   -0.540713    2.893752
  11 H   1.0000    1     1.008   -0.409515    0.487648   -2.222303
  12 H   1.0000    1     1.008   -0.054847   -2.555717   -0.826167
  13 H   1.0000    1     1.008   -6.802166   -0.984528    1.294971
  14 H   1.0000    1     1.008   -5.700787   -0.557707   -1.965151

      -----------------------------------------------------------      
     |                   =====================                   |     
     |                           x T B                           |     
     |                   =====================                   |     
     |                         S. Grimme                         |     
     |          Mulliken Center for Theoretical Chemistry        |     
     |                    University of Bonn                     |     
      -----------------------------------------------------------      

   * xtb version 6.7.1 (edcfbbe) compiled by 'albert@albert-system' on 2024-07-22

   xtb is free software: you can redistribute it and/or modify it under
   the terms of the GNU Lesser General Public License as published by
   the Free Software Foundation, either version 3 of the License, or
   (at your option) any later version.
   
   xtb is distributed in the hope that it will be useful,
   but WITHOUT ANY WARRANTY; without even the implied warranty of
   MERCHANTABILITY or FITNESS FOR A PARTICULAR PURPOSE.  See the
   GNU Lesser General Public License for more details.
   
   Cite this work as:
   * C. Bannwarth, E. Caldeweyher, S. Ehlert, A. Hansen, P. Pracht,
     J. Seibert, S. Spicher, S. Grimme, WIREs Comput. Mol. Sci., 2020, 11,
     e01493. DOI: 10.1002/wcms.1493
   
   for GFN2-xTB:
   * C. Bannwarth, S. Ehlert and S. Grimme., J. Chem. Theory Comput., 2019,
     15, 1652-1671. DOI: 10.1021/acs.jctc.8b01176
   for GFN1-xTB:
   * S. Grimme, C. Bannwarth, P. Shushkov, J. Chem. Theory Comput., 2017,
     13, 1989-2009. DOI: 10.1021/acs.jctc.7b00118
   for GFN0-xTB:
   * P. Pracht, E. Caldeweyher, S. Ehlert, S. Grimme, ChemRxiv, 2019, preprint.
     DOI: 10.26434/chemrxiv.8326202.v1
   for GFN-FF:
   * S. Spicher and S. Grimme, Angew. Chem. Int. Ed., 2020, 59, 15665-15673.
     DOI: 10.1002/anie.202004239
   
   for ALPB and GBSA implicit solvation:
   * S. Ehlert, M. Stahn, S. Spicher, S. Grimme, J. Chem. Theory Comput.,
     2021, 17, 4250-4261. DOI: 10.1021/acs.jctc.1c00471
   
   for ddCOSMO and CPCM-X implicit solvation:
   * M. Stahn, S. Ehlert, S. Grimme, J. Phys. Chem. A,
     2023, XX, XXXX-XXXX. DOI: 10.1021/acs.jpca.3c04382
   
   for DFT-D4:
   * E. Caldeweyher, C. Bannwarth and S. Grimme, J. Chem. Phys., 2017,
     147, 034112. DOI: 10.1063/1.4993215
   * E. Caldeweyher, S. Ehlert, A. Hansen, H. Neugebauer, S. Spicher,
     C. Bannwarth and S. Grimme, J. Chem. Phys., 2019, 150, 154122.
     DOI: 10.1063/1.5090222
   * E. Caldeweyher, J.-M. Mewes, S. Ehlert and S. Grimme, Phys. Chem. Chem. Phys.
     2020, 22, 8499-8512. DOI: 10.1039/D0CP00502A
   
   for sTDA-xTB:
   * S. Grimme and C. Bannwarth, J. Chem. Phys., 2016, 145, 054103.
     DOI: 10.1063/1.4959605
   
   in the mass-spec context:
   * V. Asgeirsson, C. Bauer and S. Grimme, Chem. Sci., 2017, 8, 4879.
     DOI: 10.1039/c7sc00601b
   * J. Koopman and S. Grimme, ACS Omega 2019, 4, 12, 15120-15133.
     DOI: 10.1021/acsomega.9b02011
   
   for metadynamics refer to:
   * S. Grimme, J. Chem. Theory Comput., 2019, 155, 2847-2862
     DOI: 10.1021/acs.jctc.9b00143
   
   for SPH calculations refer to:
   * S. Spicher and S. Grimme, J. Chem. Theory Comput., 2021, 17, 1701-1714
     DOI: 10.1021/acs.jctc.0c01306
   
   for ONIOM refer to:
   * C. Plett, A. Katbashev, S. Ehlert, S. Grimme, M. Bursch,
     Phys. Chem. Chem. Phys., 2023, 25, 17860-17868. DOI: 10.1039/D3CP02178E
   
   for DIPRO refer to:
   * J. Kohn, N. Gildemeister, S. Grimme, D. Fazzi, A. Hansen,
     J. Chem. Phys., 2023, just accepted.
   
   for PTB refer to:
   * S. Grimme, M. Mueller, A. Hansen, J. Chem. Phys., 2023, 158, 124111.
     DOI: 10.1063/5.0137838
   
   with help from (in alphabetical order)
   P. Atkinson, C. Bannwarth, F. Bohle, G. Brandenburg, E. Caldeweyher
   M. Checinski, S. Dohm, S. Ehlert, S. Ehrlich, I. Gerasimov, C. Hölzer
   A. Katbashev, J. Kohn, J. Koopman, C. Lavigne, S. Lehtola, F. März, M. Müller,
   F. Musil, H. Neugebauer, J. Pisarek, C. Plett, P. Pracht, F. Pultar,
   J. Seibert, P. Shushkov, S. Spicher, M. Stahn, M. Steiner, T. Strunk,
   J. Stückrath, T. Rose, and J. Unsleber
   
 * started run on 2026/02/12 at 17:30:17.343     
   ID    Z sym.   atoms
    1    6 C      1-5
    2    8 O      6
    3    1 H      7-15

           -------------------------------------------------
          |                Calculation Setup                |
           -------------------------------------------------

          program call               : /apps/eb/ORCA/6.1.1-gompi-2024a-avx2/bin/otool_xtb goat_XTB.xyz --grad -c 0 -u 1 -P 8 --namespace goat --input goat_XTB.input.tmp --acc 0.200000
          hostname                   : a2-4
          calculation namespace      : goat
          coordinate file            : goat_XTB.xyz
          omp threads                :                     8


           -------------------------------------------------
          |                 G F N 2 - x T B                 |
           -------------------------------------------------

        Reference                      10.1021/acs.jctc.8b01176
      * Hamiltonian:
        H0-scaling (s, p, d)           1.850000    2.230000    2.230000
        zeta-weighting                 0.500000
      * Dispersion:
        s8                             2.700000
        a1                             0.520000
        a2                             5.000000
        s9                             5.000000
      * Repulsion:
        kExp                           1.500000    1.000000
        rExp                           1.000000
      * Coulomb:
        alpha                          2.000000
        third order                    shell-resolved
        anisotropic                    true
        a3                             3.000000
        a5                             4.000000
        cn-shift                       1.200000
        cn-exp                         4.000000
        max-rad                        5.000000

q/qsh data taken from xtbrestart
CAMM data taken from xtbrestart

          ...................................................
          :                      SETUP                      :
          :.................................................:
          :  # basis functions                  33          :
          :  # atomic orbitals                  33          :
          :  # shells                           21          :
          :  # electrons                        35          :
          :  max. iterations                   250          :
          :  Hamiltonian                  GFN2-xTB          :
          :  restarted?                       true          :
          :  GBSA solvation                  false          :
          :  PC potential                    false          :
          :  electronic temp.          300.0000000     K    :
          :  accuracy                    0.2000000          :
          :  -> integral cutoff          0.3198970E+02      :
          :  -> integral neglect         0.2000000E-08      :
          :  -> SCF convergence          0.2000000E-06 Eh   :
          :  -> wf. convergence          0.2000000E-04 e    :
          :  Broyden damping             0.4000000          :
          :  net charge                          0          :
          :  unpaired electrons                  1          :
          ...................................................

 iter      E             dE          RMSdq      gap      omega  full diag
   1    -19.4843256 -0.194843E+02  0.211E-01    6.67       0.0  T
   2    -19.4843325 -0.693828E-05  0.128E-01    6.67       1.0  T
   3    -19.4843315  0.104505E-05  0.152E-02    6.67       1.7  T
   4    -19.4843340 -0.253806E-05  0.433E-03    6.67       6.0  T
   5    -19.4843341 -0.220193E-07  0.262E-03    6.67       9.9  T
   6    -19.4843341 -0.174032E-07  0.426E-04    6.67      60.6  T
   7    -19.4843341 -0.206569E-09  0.193E-04    6.67     134.1  T
   8    -19.4843341 -0.321343E-10  0.396E-05    6.67     652.6  T

   *** convergence criteria satisfied after 8 iterations ***

         #    Occupation            Energy/Eh            Energy/eV
      -------------------------------------------------------------
         1        2.0000           -0.7228092             -19.6686
       ...           ...                  ...                  ...
        12        2.0000           -0.4808118             -13.0836
        13        2.0000           -0.4617661             -12.5653
        14        2.0000           -0.4509885             -12.2720
        15        2.0000           -0.4446185             -12.0987
        16        2.0000           -0.4349538             -11.8357
        17        2.0000           -0.4302986             -11.7090
        18        1.0000           -0.3246631              -8.8345 (HOMO)
        19                         -0.0796060              -2.1662 (LUMO)
        20                          0.0677062               1.8424
        21                          0.0876769               2.3858
        22                          0.1202675               3.2726
        23                          0.1357292               3.6934
       ...                                ...                  ...
        33                          0.3834293              10.4336
      -------------------------------------------------------------
                  HL-Gap            0.2450571 Eh            6.6683 eV
             Fermi-level           -0.2898077 Eh           -7.8861 eV

 SCC (total)                   0 d,  0 h,  0 min,  0.027 sec
 SCC setup                      ...        0 min,  0.000 sec (  0.748%)
 Dispersion                     ...        0 min,  0.000 sec (  1.161%)
 classical contributions        ...        0 min,  0.000 sec (  0.571%)
 integral evaluation            ...        0 min,  0.009 sec ( 32.851%)
 iterations                     ...        0 min,  0.014 sec ( 50.338%)
 molecular gradient             ...        0 min,  0.003 sec ( 11.780%)
 printout                       ...        0 min,  0.001 sec (  2.463%)

         :::::::::::::::::::::::::::::::::::::::::::::::::::::
         ::                     SUMMARY                     ::
         :::::::::::::::::::::::::::::::::::::::::::::::::::::
         :: total energy             -19.248565973834 Eh    ::
         :: gradient norm              0.014165210291 Eh/a0 ::
         :: HOMO-LUMO gap              6.668343563038 eV    ::
         ::.................................................::
         :: SCC energy               -19.484338508925 Eh    ::
         :: -> isotropic ES            0.016515191289 Eh    ::
         :: -> anisotropic ES          0.001535999884 Eh    ::
         :: -> anisotropic XC          0.006155360044 Eh    ::
         :: -> dispersion             -0.007534280741 Eh    ::
         :: repulsion energy           0.235772535092 Eh    ::
         :: add. restraining           0.000000000000 Eh    ::
         :: total charge               0.000000000000 e     ::
         :::::::::::::::::::::::::::::::::::::::::::::::::::::


Property printout bound to 'properties.out'

           -------------------------------------------------
          | TOTAL ENERGY              -19.248565973834 Eh   |
          | GRADIENT NORM               0.014165210291 Eh/α |
          | HOMO-LUMO GAP               6.668343563038 eV   |
           -------------------------------------------------

------------------------------------------------------------------------
 * finished run on 2026/02/12 at 17:30:17.388     
------------------------------------------------------------------------
 total:
 * wall-time:     0 d,  0 h,  0 min,  0.044 sec
 *  cpu-time:     0 d,  0 h,  0 min,  0.168 sec
 * ratio c/w:     3.811 speedup
 SCF:
 * wall-time:     0 d,  0 h,  0 min,  0.027 sec
 *  cpu-time:     0 d,  0 h,  0 min,  0.109 sec
 * ratio c/w:     3.972 speedup


-------------------------   --------------------
FINAL SINGLE POINT ENERGY       -19.248565973830
-------------------------   --------------------


-------------
DIPOLE MOMENT
-------------
                                X             Y             Z
Total Dipole Moment    :      0.24700      -0.55900      -0.40400
                        -----------------------------------------
Magnitude (a.u.)       :      0.73260
Magnitude (Debye)      :      1.86213


------------------
CARTESIAN GRADIENT
------------------

   1   C   :    0.000665839    0.000006113    0.000053036
   2   C   :   -0.000597313   -0.000867004   -0.000048297
   3   C   :    0.001064654    0.001957496   -0.004779801
   4   C   :   -0.000546289    0.004254204   -0.001916527
   5   C   :    0.002535024   -0.003873624    0.009612564
   6   O   :   -0.003498220   -0.002502653   -0.003538689
   7   H   :   -0.000419331   -0.000292787   -0.000530405
   8   H   :    0.000097361    0.000681067    0.000059148
   9   H   :    0.000169954   -0.000380432    0.000556275
  10   H   :    0.000328993   -0.000434445   -0.000120042
  11   H   :   -0.000069449    0.000410989   -0.000351477
  12   H   :   -0.000252094    0.000288034    0.000820366
  13   H   :    0.000594386    0.000092457    0.000070527
  14   H   :   -0.000166457    0.000954827    0.000156659
  15   H   :    0.000092941   -0.000294244   -0.000043337

Difference to translation invariance:
           :   -0.0000000000   -0.0000000000    0.0000000000

Difference to rotation invariance:
           :    0.0000000975    0.0000000434   -0.0000002261

Norm of the Cartesian gradient     ...    0.0141652103
RMS gradient                       ...    0.0021116249
MAX gradient                       ...    0.0096125639
------------------------------------------------------------------------------
                         ORCA GEOMETRY RELAXATION STEP
------------------------------------------------------------------------------

Reading the OPT-File                    .... done
Getting information on internals        .... done
Copying old internal coords+grads       .... done
Making the new internal coordinates     .... (2022 redundants) done
Validating the new internal coordinates .... (2022 redundants) done
Calculating the B-matrix                .... done
Calculating the G,G- and P matrices     .... done
Transforming gradient to internals      .... done
Projecting the internal gradient        .... done
Number of atoms                         ....  15
Number of internal coordinates          ....  68
Current Energy                          ....   -19.248565974 Eh
Current gradient norm                   ....     0.014165210 Eh/bohr
Maximum allowed component of the step   ....  0.300
Current trust radius                    ....  0.300
Updating the Hessian (BFGS)             .... done
Forming the augmented Hessian           .... done
Diagonalizing the augmented Hessian     .... done
Last element of RFO vector              ....  0.987576138
Lowest eigenvalues of augmented Hessian:
 -0.000658024  0.010764976  0.011875861  0.012888845  0.038212646
Length of the computed step             ....  0.159118107
The final length of the internal step   ....  0.159118107
Converting the step to Cartesian space:
 Initial RMS(Int)=    0.0192959047
Transforming coordinates:
 Iter   0:  RMS(Cart)=    0.0346621726 RMS(Int)=    0.0194334120
done
Storing new coordinates                 .... done
The predicted energy change is          ....    -0.000337342
Previously predicted energy change      ....    -0.001220584
Actually observed energy change         ....    -0.001484043
Ratio of predicted to observed change   ....     1.215847196
New trust radius                        ....     0.450000000

                                .--------------------.
          ----------------------|Geometry convergence|-------------------------
          Item                value                   Tolerance       Converged
          ---------------------------------------------------------------------
          Energy change      -0.0014840433            0.0000050000      NO
          RMS gradient        0.0009464282            0.0001000000      NO
          MAX gradient        0.0032886787            0.0003000000      NO
          RMS step            0.0192959047            0.0020000000      NO
          MAX step            0.0695727872            0.0040000000      NO
          -------------------------------------------------------------------------
          ........................................................
          Max(Bonds)      0.0051      Max(Angles)    2.01
          Max(Dihed)        3.99      Max(Improp)    0.00
          ---------------------------------------------------------------------

    ---------------------------------------------------------------------------
                         Redundant Internal Coordinates
                            (Angstroem and degrees)

        Definition                    Value    dE/dq     Step     New-Value
    ----------------------------------------------------------------------------
     1. B(C   1,C   0)                1.5236  0.000371 -0.0003    1.5233   
     2. B(C   2,C   1)                1.5304 -0.000352  0.0010    1.5314   
     3. B(C   4,C   3)                1.4577  0.001996 -0.0031    1.4546   
     4. B(C   4,C   2)                1.4952  0.003289 -0.0051    1.4900   
     5. B(O   5,C   4)                1.3694  0.001233 -0.0038    1.3656   
     6. B(O   5,C   3)                1.4166 -0.002155  0.0045    1.4211   
     7. B(H   6,C   0)                1.0860 -0.000707  0.0002    1.0863   
     8. B(H   7,C   0)                1.0871 -0.000661  0.0003    1.0874   
     9. B(H   8,C   0)                1.0870 -0.000671  0.0003    1.0874   
    10. B(H   9,C   1)                1.0907 -0.000483  0.0001    1.0908   
    11. B(H  10,C   1)                1.0907 -0.000504  0.0002    1.0909   
    12. B(H  11,C   2)                1.0973 -0.000553  0.0012    1.0985   
    13. B(H  12,C   2)                1.0924 -0.000034 -0.0006    1.0917   
    14. B(H  13,C   3)                1.0831 -0.000076  0.0005    1.0836   
    15. B(H  14,C   3)                1.0864  0.000054  0.0008    1.0872   
    16. A(C   1,C   0,H   7)          110.67  0.000193   -0.11    110.56   
    17. A(C   1,C   0,H   6)          110.49  0.000207   -0.02    110.47   
    18. A(H   6,C   0,H   7)          108.31 -0.000217    0.10    108.42   
    19. A(H   7,C   0,H   8)          108.29 -0.000179    0.04    108.34   
    20. A(C   1,C   0,H   8)          110.72  0.000174   -0.10    110.62   
    21. A(H   6,C   0,H   8)          108.27 -0.000202    0.09    108.36   
    22. A(C   2,C   1,H   9)          109.05 -0.000035   -0.19    108.86   
    23. A(C   0,C   1,C   2)          111.64  0.000666   -0.15    111.49   
    24. A(H   9,C   1,H  10)          107.77 -0.000071    0.19    107.96   
    25. A(C   0,C   1,H   9)          109.63 -0.000346    0.18    109.81   
    26. A(C   2,C   1,H  10)          109.02 -0.000013   -0.17    108.86   
    27. A(C   0,C   1,H  10)          109.63 -0.000224    0.15    109.78   
    28. A(C   1,C   2,H  12)          109.42 -0.000508    0.21    109.63   
    29. A(H  11,C   2,H  12)          108.92 -0.000461    0.25    109.18   
    30. A(C   4,C   2,H  12)          108.75  0.000542   -0.27    108.47   
    31. A(C   4,C   2,H  11)          108.58 -0.000635   -0.03    108.56   
    32. A(C   1,C   2,C   4)          112.15  0.001021    0.02    112.18   
    33. A(C   1,C   2,H  11)          108.96  0.000001   -0.18    108.78   
    34. A(H  13,C   3,H  14)          115.51  0.000116   -0.35    115.16   
    35. A(O   5,C   3,H  14)          114.92 -0.000424   -0.61    114.31   
    36. A(C   4,C   3,H  14)          120.95 -0.000112    0.53    121.49   
    37. A(O   5,C   3,H  13)          114.73 -0.000152   -0.27    114.46   
    38. A(C   4,C   3,H  13)          119.72  0.000072    0.31    120.03   
    39. A(C   4,C   3,O   5)           56.88  0.000508   -0.20     56.68   
    40. A(C   2,C   4,C   3)          129.14 -0.001697    1.66    130.80   
    41. A(C   3,C   4,O   5)           60.05 -0.001649    0.37     60.42   
    42. A(C   2,C   4,O   5)          122.54 -0.000680    2.01    124.55   
    43. A(C   3,O   5,C   4)           63.07  0.001141   -0.17     62.90   
    44. D(H   9,C   1,C   0,H   7)    178.53 -0.000110    0.28    178.81   
    45. D(C   2,C   1,C   0,H   7)    -60.51  0.000047    0.06    -60.45   
    46. D(H   9,C   1,C   0,H   8)    -61.38 -0.000095    0.20    -61.18   
    47. D(C   2,C   1,C   0,H   8)     59.58  0.000063   -0.02     59.56   
    48. D(C   2,C   1,C   0,H   6)    179.52  0.000058    0.02    179.54   
    49. D(H   9,C   1,C   0,H   6)     58.56 -0.000099    0.24     58.80   
    50. D(C   4,C   2,C   1,C   0)    178.35 -0.000038    1.52    179.87   
    51. D(H  11,C   2,C   1,H  10)    177.32 -0.000323    1.41    178.73   
    52. D(H  11,C   2,C   1,H   9)     59.89 -0.000211    1.38     61.27   
    53. D(H  11,C   2,C   1,C   0)    -61.41 -0.000184    1.38    -60.02   
    54. D(C   4,C   2,C   1,H  10)     57.07 -0.000177    1.55     58.62   
    55. D(C   4,C   2,C   1,H   9)    -60.36 -0.000065    1.52    -58.84   
    56. D(C   3,C   4,C   2,H  12)    -72.67 -0.000641   -1.54    -74.20   
    57. D(C   3,C   4,C   2,H  11)     45.72 -0.001247   -1.41     44.31   
    58. D(C   3,C   4,C   2,C   1)    166.19 -0.001028   -1.63    164.55   
    59. D(O   5,C   4,C   3,H  14)    101.27 -0.000240   -1.16    100.11   
    60. D(O   5,C   4,C   3,H  13)   -101.70  0.000007    0.61   -101.09   
    61. D(C   2,C   4,C   3,H  14)     -8.09  0.001202   -3.39    -11.48   
    62. D(C   2,C   4,C   3,H  13)    148.94  0.001448   -1.62    147.32   
    63. D(C   2,C   4,C   3,O   5)   -109.36  0.001441   -2.23   -111.59   
    64. D(O   5,C   4,C   2,H  11)    -30.14  0.002237   -3.76    -33.90   
    65. D(O   5,C   4,C   2,C   1)     90.32  0.002456   -3.99     86.34   
    66. D(C   3,O   5,C   4,C   2)    119.77 -0.002542    1.43    121.20   
    67. D(C   4,O   5,C   3,H  14)   -111.97 -0.000203   -0.89   -112.86   
    68. D(C   4,O   5,C   3,H  13)    110.56  0.000294    0.44    111.00   
    ----------------------------------------------------------------------------

Geometry step timings:
Preparation and reading OPT file:      0.000 s ( 0.866 %)
Internal coordinates            :      0.000 s ( 1.318 %)
B/P matrices and projection     :      0.001 s (20.678 %)
Hessian update/contruction      :      0.001 s (30.056 %)
Making the step                 :      0.001 s (19.021 %)
Converting the step to Cartesian:      0.000 s ( 2.524 %)
Storing new data                :      0.000 s ( 1.318 %)
Checking convergence            :      0.000 s ( 2.147 %)
Final printing                  :      0.001 s (22.034 %)
Total time                      :      0.003 s

Time for energy+gradient        :      0.060 s
Time for complete geometry iter :      0.064 s

         *************************************************************
         *                GEOMETRY OPTIMIZATION CYCLE   4            *
         *************************************************************
---------------------------------
CARTESIAN COORDINATES (ANGSTROEM)
---------------------------------
  C     2.354507   -0.003167   -0.181280
  C     1.045892    0.218026    0.566335
  C    -0.150511   -0.315635   -0.226766
  C    -2.812245   -0.178180    0.016698
  C    -1.438935   -0.109711    0.492757
  O    -2.187509    1.030670    0.424001
  H     3.190212    0.388291    0.391736
  H     2.522102   -1.063860   -0.352303
  H     2.334591    0.499805   -1.145121
  H     0.900456    1.283419    0.749779
  H     1.082514   -0.287743    1.532157
  H    -0.199720    0.210717   -1.189696
  H    -0.022555   -1.384577   -0.408082
  H    -3.599100   -0.521589    0.677778
  H    -3.043906   -0.227467   -1.044352

----------------------------
CARTESIAN COORDINATES (A.U.)
----------------------------
  NO LB    ZA    FRAG    MASS        X           Y           Z
   0 C   6.0000    1    12.011    4.449374   -0.005984   -0.342570
   1 C   6.0000    1    12.011    1.976449    0.412010    1.070218
   2 C   6.0000    1    12.011   -0.284425   -0.596463   -0.428526
   3 C   6.0000    1    12.011   -5.314374   -0.336712    0.031555
   4 C   6.0000    1    12.011   -2.719193   -0.207323    0.931176
   5 O   8.0000    1    15.999   -4.133793    1.947684    0.801246
   6 H   1.0000    1     1.008    6.028627    0.733764    0.740274
   7 H   1.0000    1     1.008    4.766081   -2.010404   -0.665756
   8 H   1.0000    1     1.008    4.411738    0.944495   -2.163966
   9 H   1.0000    1     1.008    1.701615    2.425310    1.416877
  10 H   1.0000    1     1.008    2.045656   -0.543756    2.895357
  11 H   1.0000    1     1.008   -0.377416    0.398198   -2.248200
  12 H   1.0000    1     1.008   -0.042622   -2.616471   -0.771163
  13 H   1.0000    1     1.008   -6.801313   -0.985661    1.280815
  14 H   1.0000    1     1.008   -5.752149   -0.429851   -1.973539

      -----------------------------------------------------------      
     |                   =====================                   |     
     |                           x T B                           |     
     |                   =====================                   |     
     |                         S. Grimme                         |     
     |          Mulliken Center for Theoretical Chemistry        |     
     |                    University of Bonn                     |     
      -----------------------------------------------------------      

   * xtb version 6.7.1 (edcfbbe) compiled by 'albert@albert-system' on 2024-07-22

   xtb is free software: you can redistribute it and/or modify it under
   the terms of the GNU Lesser General Public License as published by
   the Free Software Foundation, either version 3 of the License, or
   (at your option) any later version.
   
   xtb is distributed in the hope that it will be useful,
   but WITHOUT ANY WARRANTY; without even the implied warranty of
   MERCHANTABILITY or FITNESS FOR A PARTICULAR PURPOSE.  See the
   GNU Lesser General Public License for more details.
   
   Cite this work as:
   * C. Bannwarth, E. Caldeweyher, S. Ehlert, A. Hansen, P. Pracht,
     J. Seibert, S. Spicher, S. Grimme, WIREs Comput. Mol. Sci., 2020, 11,
     e01493. DOI: 10.1002/wcms.1493
   
   for GFN2-xTB:
   * C. Bannwarth, S. Ehlert and S. Grimme., J. Chem. Theory Comput., 2019,
     15, 1652-1671. DOI: 10.1021/acs.jctc.8b01176
   for GFN1-xTB:
   * S. Grimme, C. Bannwarth, P. Shushkov, J. Chem. Theory Comput., 2017,
     13, 1989-2009. DOI: 10.1021/acs.jctc.7b00118
   for GFN0-xTB:
   * P. Pracht, E. Caldeweyher, S. Ehlert, S. Grimme, ChemRxiv, 2019, preprint.
     DOI: 10.26434/chemrxiv.8326202.v1
   for GFN-FF:
   * S. Spicher and S. Grimme, Angew. Chem. Int. Ed., 2020, 59, 15665-15673.
     DOI: 10.1002/anie.202004239
   
   for ALPB and GBSA implicit solvation:
   * S. Ehlert, M. Stahn, S. Spicher, S. Grimme, J. Chem. Theory Comput.,
     2021, 17, 4250-4261. DOI: 10.1021/acs.jctc.1c00471
   
   for ddCOSMO and CPCM-X implicit solvation:
   * M. Stahn, S. Ehlert, S. Grimme, J. Phys. Chem. A,
     2023, XX, XXXX-XXXX. DOI: 10.1021/acs.jpca.3c04382
   
   for DFT-D4:
   * E. Caldeweyher, C. Bannwarth and S. Grimme, J. Chem. Phys., 2017,
     147, 034112. DOI: 10.1063/1.4993215
   * E. Caldeweyher, S. Ehlert, A. Hansen, H. Neugebauer, S. Spicher,
     C. Bannwarth and S. Grimme, J. Chem. Phys., 2019, 150, 154122.
     DOI: 10.1063/1.5090222
   * E. Caldeweyher, J.-M. Mewes, S. Ehlert and S. Grimme, Phys. Chem. Chem. Phys.
     2020, 22, 8499-8512. DOI: 10.1039/D0CP00502A
   
   for sTDA-xTB:
   * S. Grimme and C. Bannwarth, J. Chem. Phys., 2016, 145, 054103.
     DOI: 10.1063/1.4959605
   
   in the mass-spec context:
   * V. Asgeirsson, C. Bauer and S. Grimme, Chem. Sci., 2017, 8, 4879.
     DOI: 10.1039/c7sc00601b
   * J. Koopman and S. Grimme, ACS Omega 2019, 4, 12, 15120-15133.
     DOI: 10.1021/acsomega.9b02011
   
   for metadynamics refer to:
   * S. Grimme, J. Chem. Theory Comput., 2019, 155, 2847-2862
     DOI: 10.1021/acs.jctc.9b00143
   
   for SPH calculations refer to:
   * S. Spicher and S. Grimme, J. Chem. Theory Comput., 2021, 17, 1701-1714
     DOI: 10.1021/acs.jctc.0c01306
   
   for ONIOM refer to:
   * C. Plett, A. Katbashev, S. Ehlert, S. Grimme, M. Bursch,
     Phys. Chem. Chem. Phys., 2023, 25, 17860-17868. DOI: 10.1039/D3CP02178E
   
   for DIPRO refer to:
   * J. Kohn, N. Gildemeister, S. Grimme, D. Fazzi, A. Hansen,
     J. Chem. Phys., 2023, just accepted.
   
   for PTB refer to:
   * S. Grimme, M. Mueller, A. Hansen, J. Chem. Phys., 2023, 158, 124111.
     DOI: 10.1063/5.0137838
   
   with help from (in alphabetical order)
   P. Atkinson, C. Bannwarth, F. Bohle, G. Brandenburg, E. Caldeweyher
   M. Checinski, S. Dohm, S. Ehlert, S. Ehrlich, I. Gerasimov, C. Hölzer
   A. Katbashev, J. Kohn, J. Koopman, C. Lavigne, S. Lehtola, F. März, M. Müller,
   F. Musil, H. Neugebauer, J. Pisarek, C. Plett, P. Pracht, F. Pultar,
   J. Seibert, P. Shushkov, S. Spicher, M. Stahn, M. Steiner, T. Strunk,
   J. Stückrath, T. Rose, and J. Unsleber
   
 * started run on 2026/02/12 at 17:30:17.407     
   ID    Z sym.   atoms
    1    6 C      1-5
    2    8 O      6
    3    1 H      7-15

           -------------------------------------------------
          |                Calculation Setup                |
           -------------------------------------------------

          program call               : /apps/eb/ORCA/6.1.1-gompi-2024a-avx2/bin/otool_xtb goat_XTB.xyz --grad -c 0 -u 1 -P 8 --namespace goat --input goat_XTB.input.tmp --acc 0.200000
          hostname                   : a2-4
          calculation namespace      : goat
          coordinate file            : goat_XTB.xyz
          omp threads                :                     8


           -------------------------------------------------
          |                 G F N 2 - x T B                 |
           -------------------------------------------------

        Reference                      10.1021/acs.jctc.8b01176
      * Hamiltonian:
        H0-scaling (s, p, d)           1.850000    2.230000    2.230000
        zeta-weighting                 0.500000
      * Dispersion:
        s8                             2.700000
        a1                             0.520000
        a2                             5.000000
        s9                             5.000000
      * Repulsion:
        kExp                           1.500000    1.000000
        rExp                           1.000000
      * Coulomb:
        alpha                          2.000000
        third order                    shell-resolved
        anisotropic                    true
        a3                             3.000000
        a5                             4.000000
        cn-shift                       1.200000
        cn-exp                         4.000000
        max-rad                        5.000000

q/qsh data taken from xtbrestart
CAMM data taken from xtbrestart

          ...................................................
          :                      SETUP                      :
          :.................................................:
          :  # basis functions                  33          :
          :  # atomic orbitals                  33          :
          :  # shells                           21          :
          :  # electrons                        35          :
          :  max. iterations                   250          :
          :  Hamiltonian                  GFN2-xTB          :
          :  restarted?                       true          :
          :  GBSA solvation                  false          :
          :  PC potential                    false          :
          :  electronic temp.          300.0000000     K    :
          :  accuracy                    0.2000000          :
          :  -> integral cutoff          0.3198970E+02      :
          :  -> integral neglect         0.2000000E-08      :
          :  -> SCF convergence          0.2000000E-06 Eh   :
          :  -> wf. convergence          0.2000000E-04 e    :
          :  Broyden damping             0.4000000          :
          :  net charge                          0          :
          :  unpaired electrons                  1          :
          ...................................................

 iter      E             dE          RMSdq      gap      omega  full diag
   1    -19.4854057 -0.194854E+02  0.132E-01    6.56       0.0  T
   2    -19.4854083 -0.260838E-05  0.791E-02    6.56       1.0  T
   3    -19.4854083  0.364853E-07  0.852E-03    6.56       3.0  T
   4    -19.4854088 -0.520368E-06  0.270E-03    6.56       9.5  T
   5    -19.4854088  0.275094E-09  0.887E-04    6.56      29.1  T
   6    -19.4854088 -0.507748E-08  0.296E-04    6.56      87.2  T
   7    -19.4854088 -0.208246E-09  0.120E-04    6.56     215.0  T
   8    -19.4854088 -0.140687E-10  0.381E-05    6.56     676.9  T

   *** convergence criteria satisfied after 8 iterations ***

         #    Occupation            Energy/Eh            Energy/eV
      -------------------------------------------------------------
         1        2.0000           -0.7224702             -19.6594
       ...           ...                  ...                  ...
        12        2.0000           -0.4803435             -13.0708
        13        2.0000           -0.4627314             -12.5916
        14        2.0000           -0.4510501             -12.2737
        15        2.0000           -0.4445056             -12.0956
        16        2.0000           -0.4350448             -11.8382
        17        2.0000           -0.4308091             -11.7229
        18        1.0000           -0.3207519              -8.7281 (HOMO)
        19                         -0.0796444              -2.1672 (LUMO)
        20                          0.0673298               1.8321
        21                          0.0875880               2.3834
        22                          0.1200223               3.2660
        23                          0.1355558               3.6887
       ...                                ...                  ...
        33                          0.3979878              10.8298
      -------------------------------------------------------------
                  HL-Gap            0.2411075 Eh            6.5609 eV
             Fermi-level           -0.2879893 Eh           -7.8366 eV

 SCC (total)                   0 d,  0 h,  0 min,  0.013 sec
 SCC setup                      ...        0 min,  0.000 sec (  1.550%)
 Dispersion                     ...        0 min,  0.000 sec (  1.514%)
 classical contributions        ...        0 min,  0.000 sec (  0.609%)
 integral evaluation            ...        0 min,  0.001 sec (  4.654%)
 iterations                     ...        0 min,  0.010 sec ( 75.941%)
 molecular gradient             ...        0 min,  0.002 sec ( 12.099%)
 printout                       ...        0 min,  0.000 sec (  3.400%)

         :::::::::::::::::::::::::::::::::::::::::::::::::::::
         ::                     SUMMARY                     ::
         :::::::::::::::::::::::::::::::::::::::::::::::::::::
         :: total energy             -19.249046375833 Eh    ::
         :: gradient norm              0.009249045012 Eh/a0 ::
         :: HOMO-LUMO gap              6.560869458654 eV    ::
         ::.................................................::
         :: SCC energy               -19.485413291812 Eh    ::
         :: -> isotropic ES            0.016605033751 Eh    ::
         :: -> anisotropic ES          0.001467146577 Eh    ::
         :: -> anisotropic XC          0.006198661300 Eh    ::
         :: -> dispersion             -0.007533965621 Eh    ::
         :: repulsion energy           0.236366915979 Eh    ::
         :: add. restraining           0.000000000000 Eh    ::
         :: total charge               0.000000000000 e     ::
         :::::::::::::::::::::::::::::::::::::::::::::::::::::


Property printout bound to 'properties.out'

           -------------------------------------------------
          | TOTAL ENERGY              -19.249046375833 Eh   |
          | GRADIENT NORM               0.009249045012 Eh/α |
          | HOMO-LUMO GAP               6.560869458654 eV   |
           -------------------------------------------------

------------------------------------------------------------------------
 * finished run on 2026/02/12 at 17:30:17.439     
------------------------------------------------------------------------
 total:
 * wall-time:     0 d,  0 h,  0 min,  0.031 sec
 *  cpu-time:     0 d,  0 h,  0 min,  0.189 sec
 * ratio c/w:     6.193 speedup
 SCF:
 * wall-time:     0 d,  0 h,  0 min,  0.013 sec
 *  cpu-time:     0 d,  0 h,  0 min,  0.092 sec
 * ratio c/w:     6.933 speedup


-------------------------   --------------------
FINAL SINGLE POINT ENERGY       -19.249046375830
-------------------------   --------------------


-------------
DIPOLE MOMENT
-------------
                                X             Y             Z
Total Dipole Moment    :      0.24900      -0.55200      -0.41900
                        -----------------------------------------
Magnitude (a.u.)       :      0.73639
Magnitude (Debye)      :      1.87175


------------------
CARTESIAN GRADIENT
------------------

   1   C   :    0.000746244    0.000016556   -0.000093528
   2   C   :    0.000480053   -0.000348881    0.000248186
   3   C   :    0.001067554    0.000126323   -0.003307871
   4   C   :    0.000963021    0.001884869   -0.000765044
   5   C   :    0.002278607   -0.000744223    0.005286153
   6   O   :   -0.003053466   -0.003415677   -0.002447901
   7   H   :   -0.000367153   -0.000166733   -0.000311400
   8   H   :   -0.000082630    0.000414208    0.000063522
   9   H   :   -0.000039320   -0.000256080    0.000353877
  10   H   :   -0.000010708   -0.000295172   -0.000271410
  11   H   :   -0.000318053   -0.000004625   -0.000369558
  12   H   :   -0.000586598    0.000939820    0.000985909
  13   H   :    0.000246203    0.000073885    0.000770608
  14   H   :   -0.000714729    0.001260573    0.000143167
  15   H   :   -0.000609026    0.000515154   -0.000284708

Difference to translation invariance:
           :   -0.0000000000    0.0000000000   -0.0000000000

Difference to rotation invariance:
           :    0.0000002256    0.0000000784   -0.0000002496

Norm of the Cartesian gradient     ...    0.0092490450
RMS gradient                       ...    0.0013787662
MAX gradient                       ...    0.0052861534
------------------------------------------------------------------------------
                         ORCA GEOMETRY RELAXATION STEP
------------------------------------------------------------------------------

Reading the OPT-File                    .... done
Getting information on internals        .... done
Copying old internal coords+grads       .... done
Making the new internal coordinates     .... (2022 redundants) done
Validating the new internal coordinates .... (2022 redundants) done
Calculating the B-matrix                .... done
Calculating the G,G- and P matrices     .... done
Transforming gradient to internals      .... done
Projecting the internal gradient        .... done
Number of atoms                         ....  15
Number of internal coordinates          ....  68
Current Energy                          ....   -19.249046376 Eh
Current gradient norm                   ....     0.009249045 Eh/bohr
Maximum allowed component of the step   ....  0.300
Current trust radius                    ....  0.450
Updating the Hessian (BFGS)             .... done
Forming the augmented Hessian           .... done
Diagonalizing the augmented Hessian     .... done
Last element of RFO vector              ....  0.983600641
Lowest eigenvalues of augmented Hessian:
 -0.000467233  0.008132694  0.011848778  0.012003447  0.035479465
Length of the computed step             ....  0.183367242
The final length of the internal step   ....  0.183367242
Converting the step to Cartesian space:
 Initial RMS(Int)=    0.0222365443
Transforming coordinates:
 Iter   0:  RMS(Cart)=    0.0395212199 RMS(Int)=    1.0732412012
 Iter   5:  RMS(Cart)=    0.0000000082 RMS(Int)=    0.0000000064
done
Storing new coordinates                 .... done
The predicted energy change is          ....    -0.000241471
Previously predicted energy change      ....    -0.000337342
Actually observed energy change         ....    -0.000480402
Ratio of predicted to observed change   ....     1.424078945
New trust radius                        ....     0.450000000

                                .--------------------.
          ----------------------|Geometry convergence|-------------------------
          Item                value                   Tolerance       Converged
          ---------------------------------------------------------------------
          Energy change      -0.0004804020            0.0000050000      NO
          RMS gradient        0.0007284073            0.0001000000      NO
          MAX gradient        0.0025049714            0.0003000000      NO
          RMS step            0.0222365443            0.0020000000      NO
          MAX step            0.0889556230            0.0040000000      NO
          -------------------------------------------------------------------------
          ........................................................
          Max(Bonds)      0.0074      Max(Angles)    1.73
          Max(Dihed)        5.10      Max(Improp)    0.00
          ---------------------------------------------------------------------

    ---------------------------------------------------------------------------
                         Redundant Internal Coordinates
                            (Angstroem and degrees)

        Definition                    Value    dE/dq     Step     New-Value
    ----------------------------------------------------------------------------
     1. B(C   1,C   0)                1.5233  0.000214 -0.0004    1.5229   
     2. B(C   2,C   1)                1.5314 -0.000101  0.0009    1.5323   
     3. B(C   4,C   3)                1.4551  0.001743 -0.0044    1.4507   
     4. B(C   4,C   2)                1.4900  0.001846 -0.0055    1.4846   
     5. B(O   5,C   4)                1.3659  0.000189 -0.0030    1.3629   
     6. B(O   5,C   3)                1.4204 -0.002505  0.0074    1.4278   
     7. B(H   6,C   0)                1.0863 -0.000507  0.0006    1.0869   
     8. B(H   7,C   0)                1.0874 -0.000427  0.0005    1.0879   
     9. B(H   8,C   0)                1.0874 -0.000431  0.0005    1.0879   
    10. B(H   9,C   1)                1.0908 -0.000333  0.0003    1.0911   
    11. B(H  10,C   1)                1.0909 -0.000336  0.0003    1.0912   
    12. B(H  11,C   2)                1.0985 -0.000388  0.0016    1.1001   
    13. B(H  12,C   2)                1.0917 -0.000171 -0.0002    1.0916   
    14. B(H  13,C   3)                1.0836  0.000207 -0.0001    1.0834   
    15. B(H  14,C   3)                1.0872  0.000384 -0.0002    1.0870   
    16. A(C   1,C   0,H   7)          110.56 -0.000034   -0.06    110.51   
    17. A(C   1,C   0,H   6)          110.47  0.000088   -0.02    110.45   
    18. A(H   6,C   0,H   7)          108.42  0.000001    0.05    108.47   
    19. A(H   7,C   0,H   8)          108.34 -0.000015    0.04    108.37   
    20. A(C   1,C   0,H   8)          110.62 -0.000045   -0.05    110.57   
    21. A(H   6,C   0,H   8)          108.36  0.000005    0.04    108.40   
    22. A(C   2,C   1,H   9)          108.86 -0.000194   -0.10    108.77   
    23. A(C   0,C   1,C   2)          111.49  0.000294   -0.12    111.37   
    24. A(H   9,C   1,H  10)          107.96  0.000288    0.05    108.01   
    25. A(C   0,C   1,H   9)          109.81  0.000003    0.12    109.93   
    26. A(C   2,C   1,H  10)          108.86 -0.000523   -0.01    108.85   
    27. A(C   0,C   1,H  10)          109.78  0.000126    0.06    109.84   
    28. A(C   1,C   2,H  12)          109.61 -0.000573    0.31    109.92   
    29. A(H  11,C   2,H  12)          109.20  0.000567   -0.18    109.01   
    30. A(C   4,C   2,H  12)          108.47 -0.000293   -0.15    108.33   
    31. A(C   4,C   2,H  11)          108.56 -0.001051    0.32    108.89   
    32. A(C   1,C   2,C   4)          112.17  0.001357   -0.16    112.01   
    33. A(C   1,C   2,H  11)          108.78 -0.000014   -0.14    108.64   
    34. A(H  13,C   3,H  14)          115.24 -0.000282   -0.19    115.04   
    35. A(O   5,C   3,H  14)          114.34 -0.000358   -0.24    114.10   
    36. A(C   4,C   3,H  14)          121.50  0.000331    0.14    121.65   
    37. A(O   5,C   3,H  13)          114.47 -0.000415    0.17    114.64   
    38. A(C   4,C   3,H  13)          120.04  0.000341   -0.07    119.97   
    39. A(C   4,C   3,O   5)           56.70  0.000195   -0.19     56.51   
    40. A(C   2,C   4,C   3)          130.66 -0.000553    1.57    132.23   
    41. A(C   3,C   4,O   5)           60.37 -0.001543    0.53     60.89   
    42. A(C   2,C   4,O   5)          124.40  0.000252    1.73    126.14   
    43. A(C   3,O   5,C   4)           62.93  0.001348   -0.34     62.59   
    44. D(H   9,C   1,C   0,H   7)    178.81  0.000029    0.36    179.17   
    45. D(C   2,C   1,C   0,H   7)    -60.45 -0.000020    0.24    -60.21   
    46. D(H   9,C   1,C   0,H   8)    -61.18 -0.000041    0.34    -60.83   
    47. D(C   2,C   1,C   0,H   8)     59.56 -0.000091    0.22     59.78   
    48. D(C   2,C   1,C   0,H   6)    179.54 -0.000057    0.23    179.77   
    49. D(H   9,C   1,C   0,H   6)     58.80 -0.000007    0.35     59.15   
    50. D(C   4,C   2,C   1,C   0)    179.87  0.000126    1.41    181.28   
    51. D(H  11,C   2,C   1,H  10)    178.73 -0.000338    1.62    180.35   
    52. D(H  11,C   2,C   1,H   9)     61.27 -0.000280    1.62     62.89   
    53. D(H  11,C   2,C   1,C   0)    -60.02 -0.000342    1.62    -58.40   
    54. D(C   4,C   2,C   1,H  10)     58.62  0.000130    1.41     60.03   
    55. D(C   4,C   2,C   1,H   9)    -58.84  0.000188    1.41    -57.42   
    56. D(C   3,C   4,C   2,H  12)    -74.17 -0.000604   -2.22    -76.39   
    57. D(C   3,C   4,C   2,H  11)     44.38 -0.000683   -2.33     42.04   
    58. D(C   3,C   4,C   2,C   1)    164.62 -0.000552   -2.40    162.22   
    59. D(O   5,C   4,C   3,H  14)    100.13 -0.000551   -0.51     99.62   
    60. D(O   5,C   4,C   3,H  13)   -101.10  0.000631   -0.15   -101.25   
    61. D(C   2,C   4,C   3,H  14)    -11.48  0.000038   -2.70    -14.18   
    62. D(C   2,C   4,C   3,H  13)    147.29  0.001219   -2.34    144.95   
    63. D(C   2,C   4,C   3,O   5)   -111.61  0.000588   -2.19   -113.80   
    64. D(O   5,C   4,C   2,H  11)    -33.98  0.001609   -5.03    -39.01   
    65. D(O   5,C   4,C   2,C   1)     86.26  0.001740   -5.10     81.16   
    66. D(C   3,O   5,C   4,C   2)    121.27 -0.001451    1.67    122.93   
    67. D(C   4,O   5,C   3,H  14)   -112.90 -0.000631   -0.25   -113.15   
    68. D(C   4,O   5,C   3,H  13)    111.05  0.000680   -0.23    110.82   
    ----------------------------------------------------------------------------

Geometry step timings:
Preparation and reading OPT file:      0.000 s ( 0.891 %)
Internal coordinates            :      0.000 s ( 1.383 %)
B/P matrices and projection     :      0.001 s (20.289 %)
Hessian update/contruction      :      0.001 s (32.063 %)
Making the step                 :      0.001 s (18.352 %)
Converting the step to Cartesian:      0.000 s ( 2.828 %)
Storing new data                :      0.000 s ( 1.260 %)
Checking convergence            :      0.000 s ( 1.998 %)
Final printing                  :      0.001 s (20.873 %)
Total time                      :      0.003 s

Time for energy+gradient        :      0.049 s
Time for complete geometry iter :      0.054 s

         *************************************************************
         *                GEOMETRY OPTIMIZATION CYCLE   5            *
         *************************************************************
---------------------------------
CARTESIAN COORDINATES (ANGSTROEM)
---------------------------------
  C     2.351742    0.009214   -0.181676
  C     1.039721    0.214616    0.563686
  C    -0.146060   -0.346461   -0.228178
  C    -2.812043   -0.160328    0.011608
  C    -1.436457   -0.126468    0.472084
  O    -2.163900    1.026194    0.469090
  H     3.181340    0.415825    0.390813
  H     2.534011   -1.050414   -0.347432
  H     2.324425    0.507801   -1.148198
  H     0.873555    1.278893    0.737677
  H     1.083004   -0.283132    1.533782
  H    -0.182678    0.152995   -1.207636
  H    -0.016843   -1.419588   -0.380528
  H    -3.593555   -0.529081    0.665124
  H    -3.060470   -0.151067   -1.046577

----------------------------
CARTESIAN COORDINATES (A.U.)
----------------------------
  NO LB    ZA    FRAG    MASS        X           Y           Z
   0 C   6.0000    1    12.011    4.444148    0.017412   -0.343318
   1 C   6.0000    1    12.011    1.964788    0.405566    1.065213
   2 C   6.0000    1    12.011   -0.276013   -0.654716   -0.431194
   3 C   6.0000    1    12.011   -5.313991   -0.302975    0.021936
   4 C   6.0000    1    12.011   -2.714511   -0.238990    0.892110
   5 O   8.0000    1    15.999   -4.089179    1.939226    0.886452
   6 H   1.0000    1     1.008    6.011861    0.785795    0.738530
   7 H   1.0000    1     1.008    4.788586   -1.984995   -0.656552
   8 H   1.0000    1     1.008    4.392527    0.959605   -2.169780
   9 H   1.0000    1     1.008    1.650780    2.416758    1.394008
  10 H   1.0000    1     1.008    2.046581   -0.535042    2.898428
  11 H   1.0000    1     1.008   -0.345211    0.289118   -2.282100
  12 H   1.0000    1     1.008   -0.031828   -2.682633   -0.719094
  13 H   1.0000    1     1.008   -6.790835   -0.999818    1.256903
  14 H   1.0000    1     1.008   -5.783450   -0.285474   -1.977743

      -----------------------------------------------------------      
     |                   =====================                   |     
     |                           x T B                           |     
     |                   =====================                   |     
     |                         S. Grimme                         |     
     |          Mulliken Center for Theoretical Chemistry        |     
     |                    University of Bonn                     |     
      -----------------------------------------------------------      

   * xtb version 6.7.1 (edcfbbe) compiled by 'albert@albert-system' on 2024-07-22

   xtb is free software: you can redistribute it and/or modify it under
   the terms of the GNU Lesser General Public License as published by
   the Free Software Foundation, either version 3 of the License, or
   (at your option) any later version.
   
   xtb is distributed in the hope that it will be useful,
   but WITHOUT ANY WARRANTY; without even the implied warranty of
   MERCHANTABILITY or FITNESS FOR A PARTICULAR PURPOSE.  See the
   GNU Lesser General Public License for more details.
   
   Cite this work as:
   * C. Bannwarth, E. Caldeweyher, S. Ehlert, A. Hansen, P. Pracht,
     J. Seibert, S. Spicher, S. Grimme, WIREs Comput. Mol. Sci., 2020, 11,
     e01493. DOI: 10.1002/wcms.1493
   
   for GFN2-xTB:
   * C. Bannwarth, S. Ehlert and S. Grimme., J. Chem. Theory Comput., 2019,
     15, 1652-1671. DOI: 10.1021/acs.jctc.8b01176
   for GFN1-xTB:
   * S. Grimme, C. Bannwarth, P. Shushkov, J. Chem. Theory Comput., 2017,
     13, 1989-2009. DOI: 10.1021/acs.jctc.7b00118
   for GFN0-xTB:
   * P. Pracht, E. Caldeweyher, S. Ehlert, S. Grimme, ChemRxiv, 2019, preprint.
     DOI: 10.26434/chemrxiv.8326202.v1
   for GFN-FF:
   * S. Spicher and S. Grimme, Angew. Chem. Int. Ed., 2020, 59, 15665-15673.
     DOI: 10.1002/anie.202004239
   
   for ALPB and GBSA implicit solvation:
   * S. Ehlert, M. Stahn, S. Spicher, S. Grimme, J. Chem. Theory Comput.,
     2021, 17, 4250-4261. DOI: 10.1021/acs.jctc.1c00471
   
   for ddCOSMO and CPCM-X implicit solvation:
   * M. Stahn, S. Ehlert, S. Grimme, J. Phys. Chem. A,
     2023, XX, XXXX-XXXX. DOI: 10.1021/acs.jpca.3c04382
   
   for DFT-D4:
   * E. Caldeweyher, C. Bannwarth and S. Grimme, J. Chem. Phys., 2017,
     147, 034112. DOI: 10.1063/1.4993215
   * E. Caldeweyher, S. Ehlert, A. Hansen, H. Neugebauer, S. Spicher,
     C. Bannwarth and S. Grimme, J. Chem. Phys., 2019, 150, 154122.
     DOI: 10.1063/1.5090222
   * E. Caldeweyher, J.-M. Mewes, S. Ehlert and S. Grimme, Phys. Chem. Chem. Phys.
     2020, 22, 8499-8512. DOI: 10.1039/D0CP00502A
   
   for sTDA-xTB:
   * S. Grimme and C. Bannwarth, J. Chem. Phys., 2016, 145, 054103.
     DOI: 10.1063/1.4959605
   
   in the mass-spec context:
   * V. Asgeirsson, C. Bauer and S. Grimme, Chem. Sci., 2017, 8, 4879.
     DOI: 10.1039/c7sc00601b
   * J. Koopman and S. Grimme, ACS Omega 2019, 4, 12, 15120-15133.
     DOI: 10.1021/acsomega.9b02011
   
   for metadynamics refer to:
   * S. Grimme, J. Chem. Theory Comput., 2019, 155, 2847-2862
     DOI: 10.1021/acs.jctc.9b00143
   
   for SPH calculations refer to:
   * S. Spicher and S. Grimme, J. Chem. Theory Comput., 2021, 17, 1701-1714
     DOI: 10.1021/acs.jctc.0c01306
   
   for ONIOM refer to:
   * C. Plett, A. Katbashev, S. Ehlert, S. Grimme, M. Bursch,
     Phys. Chem. Chem. Phys., 2023, 25, 17860-17868. DOI: 10.1039/D3CP02178E
   
   for DIPRO refer to:
   * J. Kohn, N. Gildemeister, S. Grimme, D. Fazzi, A. Hansen,
     J. Chem. Phys., 2023, just accepted.
   
   for PTB refer to:
   * S. Grimme, M. Mueller, A. Hansen, J. Chem. Phys., 2023, 158, 124111.
     DOI: 10.1063/5.0137838
   
   with help from (in alphabetical order)
   P. Atkinson, C. Bannwarth, F. Bohle, G. Brandenburg, E. Caldeweyher
   M. Checinski, S. Dohm, S. Ehlert, S. Ehrlich, I. Gerasimov, C. Hölzer
   A. Katbashev, J. Kohn, J. Koopman, C. Lavigne, S. Lehtola, F. März, M. Müller,
   F. Musil, H. Neugebauer, J. Pisarek, C. Plett, P. Pracht, F. Pultar,
   J. Seibert, P. Shushkov, S. Spicher, M. Stahn, M. Steiner, T. Strunk,
   J. Stückrath, T. Rose, and J. Unsleber
   
 * started run on 2026/02/12 at 17:30:17.463     
   ID    Z sym.   atoms
    1    6 C      1-5
    2    8 O      6
    3    1 H      7-15

           -------------------------------------------------
          |                Calculation Setup                |
           -------------------------------------------------

          program call               : /apps/eb/ORCA/6.1.1-gompi-2024a-avx2/bin/otool_xtb goat_XTB.xyz --grad -c 0 -u 1 -P 8 --namespace goat --input goat_XTB.input.tmp --acc 0.200000
          hostname                   : a2-4
          calculation namespace      : goat
          coordinate file            : goat_XTB.xyz
          omp threads                :                     8


           -------------------------------------------------
          |                 G F N 2 - x T B                 |
           -------------------------------------------------

        Reference                      10.1021/acs.jctc.8b01176
      * Hamiltonian:
        H0-scaling (s, p, d)           1.850000    2.230000    2.230000
        zeta-weighting                 0.500000
      * Dispersion:
        s8                             2.700000
        a1                             0.520000
        a2                             5.000000
        s9                             5.000000
      * Repulsion:
        kExp                           1.500000    1.000000
        rExp                           1.000000
      * Coulomb:
        alpha                          2.000000
        third order                    shell-resolved
        anisotropic                    true
        a3                             3.000000
        a5                             4.000000
        cn-shift                       1.200000
        cn-exp                         4.000000
        max-rad                        5.000000

q/qsh data taken from xtbrestart
CAMM data taken from xtbrestart

          ...................................................
          :                      SETUP                      :
          :.................................................:
          :  # basis functions                  33          :
          :  # atomic orbitals                  33          :
          :  # shells                           21          :
          :  # electrons                        35          :
          :  max. iterations                   250          :
          :  Hamiltonian                  GFN2-xTB          :
          :  restarted?                       true          :
          :  GBSA solvation                  false          :
          :  PC potential                    false          :
          :  electronic temp.          300.0000000     K    :
          :  accuracy                    0.2000000          :
          :  -> integral cutoff          0.3198970E+02      :
          :  -> integral neglect         0.2000000E-08      :
          :  -> SCF convergence          0.2000000E-06 Eh   :
          :  -> wf. convergence          0.2000000E-04 e    :
          :  Broyden damping             0.4000000          :
          :  net charge                          0          :
          :  unpaired electrons                  1          :
          ...................................................

 iter      E             dE          RMSdq      gap      omega  full diag
   1    -19.4863609 -0.194864E+02  0.159E-01    6.44       0.0  T
   2    -19.4863629 -0.200614E-05  0.951E-02    6.44       1.0  T
   3    -19.4863631 -0.214318E-06  0.746E-03    6.44       3.5  T
   4    -19.4863635 -0.341891E-06  0.306E-03    6.44       8.4  T
   5    -19.4863635 -0.215799E-08  0.864E-04    6.44      29.9  T
   6    -19.4863635 -0.389229E-08  0.368E-04    6.44      70.1  T
   7    -19.4863635 -0.389864E-09  0.121E-04    6.44     214.0  T
   8    -19.4863635 -0.129461E-10  0.431E-05    6.44     599.0  T

   *** convergence criteria satisfied after 8 iterations ***

         #    Occupation            Energy/Eh            Energy/eV
      -------------------------------------------------------------
         1        2.0000           -0.7218660             -19.6430
       ...           ...                  ...                  ...
        12        2.0000           -0.4796612             -13.0522
        13        2.0000           -0.4637896             -12.6204
        14        2.0000           -0.4510797             -12.2745
        15        2.0000           -0.4446635             -12.0999
        16        2.0000           -0.4349864             -11.8366
        17        2.0000           -0.4312292             -11.7343
        18        1.0000           -0.3168818              -8.6228 (HOMO)
        19                         -0.0802409              -2.1835 (LUMO)
        20                          0.0665074               1.8098
        21                          0.0855927               2.3291
        22                          0.1196122               3.2548
        23                          0.1355195               3.6877
       ...                                ...                  ...
        33                          0.4141657              11.2700
      -------------------------------------------------------------
                  HL-Gap            0.2366409 Eh            6.4393 eV
             Fermi-level           -0.2863084 Eh           -7.7908 eV

 SCC (total)                   0 d,  0 h,  0 min,  0.014 sec
 SCC setup                      ...        0 min,  0.000 sec (  1.772%)
 Dispersion                     ...        0 min,  0.000 sec (  1.735%)
 classical contributions        ...        0 min,  0.000 sec (  0.805%)
 integral evaluation            ...        0 min,  0.001 sec (  5.091%)
 iterations                     ...        0 min,  0.010 sec ( 76.275%)
 molecular gradient             ...        0 min,  0.001 sec ( 10.131%)
 printout                       ...        0 min,  0.001 sec (  3.849%)

         :::::::::::::::::::::::::::::::::::::::::::::::::::::
         ::                     SUMMARY                     ::
         :::::::::::::::::::::::::::::::::::::::::::::::::::::
         :: total energy             -19.249357996959 Eh    ::
         :: gradient norm              0.004927160124 Eh/a0 ::
         :: HOMO-LUMO gap              6.439325295572 eV    ::
         ::.................................................::
         :: SCC energy               -19.486367825582 Eh    ::
         :: -> isotropic ES            0.016718974451 Eh    ::
         :: -> anisotropic ES          0.001483040530 Eh    ::
         :: -> anisotropic XC          0.006268668514 Eh    ::
         :: -> dispersion             -0.007540866219 Eh    ::
         :: repulsion energy           0.237009828624 Eh    ::
         :: add. restraining           0.000000000000 Eh    ::
         :: total charge              -0.000000000000 e     ::
         :::::::::::::::::::::::::::::::::::::::::::::::::::::


Property printout bound to 'properties.out'

           -------------------------------------------------
          | TOTAL ENERGY              -19.249357996959 Eh   |
          | GRADIENT NORM               0.004927160124 Eh/α |
          | HOMO-LUMO GAP               6.439325295572 eV   |
           -------------------------------------------------

------------------------------------------------------------------------
 * finished run on 2026/02/12 at 17:30:17.510     
------------------------------------------------------------------------
 total:
 * wall-time:     0 d,  0 h,  0 min,  0.045 sec
 *  cpu-time:     0 d,  0 h,  0 min,  0.212 sec
 * ratio c/w:     4.706 speedup
 SCF:
 * wall-time:     0 d,  0 h,  0 min,  0.014 sec
 *  cpu-time:     0 d,  0 h,  0 min,  0.083 sec
 * ratio c/w:     6.026 speedup


-------------------------   --------------------
FINAL SINGLE POINT ENERGY       -19.249357996960
-------------------------   --------------------


-------------
DIPOLE MOMENT
-------------
                                X             Y             Z
Total Dipole Moment    :      0.24300      -0.54900      -0.44000
                        -----------------------------------------
Magnitude (a.u.)       :      0.74435
Magnitude (Debye)      :      1.89198


------------------
CARTESIAN GRADIENT
------------------

   1   C   :    0.000410359   -0.000018721   -0.000174674
   2   C   :    0.000980193    0.000131274    0.000445963
   3   C   :    0.000204874   -0.001276595   -0.001743848
   4   C   :    0.001265688   -0.000582102   -0.000425973
   5   C   :    0.000843816    0.001702194    0.001467100
   6   O   :   -0.000809748   -0.002015368   -0.000801346
   7   H   :   -0.000145368    0.000011674   -0.000006359
   8   H   :   -0.000151039    0.000044388    0.000042155
   9   H   :   -0.000170525   -0.000061735    0.000057419
  10   H   :   -0.000166975   -0.000074064   -0.000223732
  11   H   :   -0.000318019   -0.000236361   -0.000188780
  12   H   :   -0.000563405    0.001142431    0.000737773
  13   H   :   -0.000086693    0.000050027    0.000917534
  14   H   :   -0.000589558    0.000640817    0.000028960
  15   H   :   -0.000703599    0.000542143   -0.000132192

Difference to translation invariance:
           :   -0.0000000000    0.0000000000   -0.0000000000

Difference to rotation invariance:
           :    0.0000002129    0.0000001188   -0.0000002665

Norm of the Cartesian gradient     ...    0.0049271601
RMS gradient                       ...    0.0007344977
MAX gradient                       ...    0.0020153682
------------------------------------------------------------------------------
                         ORCA GEOMETRY RELAXATION STEP
------------------------------------------------------------------------------

Reading the OPT-File                    .... done
Getting information on internals        .... done
Copying old internal coords+grads       .... done
Making the new internal coordinates     .... (2022 redundants) done
Validating the new internal coordinates .... (2022 redundants) done
Calculating the B-matrix                .... done
Calculating the G,G- and P matrices     .... done
Transforming gradient to internals      .... done
Projecting the internal gradient        .... done
Number of atoms                         ....  15
Number of internal coordinates          ....  68
Current Energy                          ....   -19.249357997 Eh
Current gradient norm                   ....     0.004927160 Eh/bohr
Maximum allowed component of the step   ....  0.300
Current trust radius                    ....  0.450
Updating the Hessian (BFGS)             .... done
Forming the augmented Hessian           .... done
Diagonalizing the augmented Hessian     .... done
Last element of RFO vector              ....  0.992204124
Lowest eigenvalues of augmented Hessian:
 -0.000155117  0.006038265  0.011707651  0.011910978  0.038544660
Length of the computed step             ....  0.125602517
The final length of the internal step   ....  0.125602517
Converting the step to Cartesian space:
 Initial RMS(Int)=    0.0152315425
Transforming coordinates:
 Iter   0:  RMS(Cart)=    0.0268978051 RMS(Int)=    0.7615086455
done
Storing new coordinates                 .... done
The predicted energy change is          ....    -0.000078782
Previously predicted energy change      ....    -0.000241471
Actually observed energy change         ....    -0.000311621
Ratio of predicted to observed change   ....     1.290509295
New trust radius                        ....     0.450000000

                                .--------------------.
          ----------------------|Geometry convergence|-------------------------
          Item                value                   Tolerance       Converged
          ---------------------------------------------------------------------
          Energy change      -0.0003116211            0.0000050000      NO
          RMS gradient        0.0003972759            0.0001000000      NO
          MAX gradient        0.0010576465            0.0003000000      NO
          RMS step            0.0152315425            0.0020000000      NO
          MAX step            0.0650339938            0.0040000000      NO
          -------------------------------------------------------------------------
          ........................................................
          Max(Bonds)      0.0041      Max(Angles)    0.90
          Max(Dihed)        3.73      Max(Improp)    0.00
          ---------------------------------------------------------------------

    ---------------------------------------------------------------------------
                         Redundant Internal Coordinates
                            (Angstroem and degrees)

        Definition                    Value    dE/dq     Step     New-Value
    ----------------------------------------------------------------------------
     1. B(C   1,C   0)                1.5229 -0.000006 -0.0001    1.5228   
     2. B(C   2,C   1)                1.5323  0.000240 -0.0001    1.5322   
     3. B(C   4,C   3)                1.4510  0.000576 -0.0024    1.4486   
     4. B(C   4,C   2)                1.4846  0.000101 -0.0022    1.4823   
     5. B(O   5,C   4)                1.3630 -0.000704 -0.0004    1.3626   
     6. B(O   5,C   3)                1.4273 -0.000944  0.0041    1.4314   
     7. B(H   6,C   0)                1.0869 -0.000110  0.0003    1.0872   
     8. B(H   7,C   0)                1.0879 -0.000075  0.0002    1.0881   
     9. B(H   8,C   0)                1.0879 -0.000075  0.0002    1.0881   
    10. B(H   9,C   1)                1.0911 -0.000082  0.0002    1.0913   
    11. B(H  10,C   1)                1.0912 -0.000073  0.0002    1.0914   
    12. B(H  11,C   2)                1.1001 -0.000119  0.0009    1.1009   
    13. B(H  12,C   2)                1.0916 -0.000188  0.0002    1.0918   
    14. B(H  13,C   3)                1.0834  0.000225 -0.0004    1.0830   
    15. B(H  14,C   3)                1.0870  0.000294 -0.0005    1.0865   
    16. A(C   1,C   0,H   7)          110.51 -0.000159    0.01    110.52   
    17. A(C   1,C   0,H   6)          110.45 -0.000038   -0.00    110.44   
    18. A(H   6,C   0,H   7)          108.47  0.000143   -0.02    108.45   
    19. A(H   7,C   0,H   8)          108.38  0.000103    0.01    108.38   
    20. A(C   1,C   0,H   8)          110.57 -0.000180    0.03    110.60   
    21. A(H   6,C   0,H   8)          108.40  0.000145   -0.02    108.38   
    22. A(C   2,C   1,H   9)          108.77 -0.000137    0.00    108.77   
    23. A(C   0,C   1,C   2)          111.37 -0.000170    0.00    111.37   
    24. A(H   9,C   1,H  10)          108.01  0.000348   -0.08    107.93   
    25. A(C   0,C   1,H   9)          109.93  0.000212    0.01    109.93   
    26. A(C   2,C   1,H  10)          108.85 -0.000558    0.10    108.95   
    27. A(C   0,C   1,H  10)          109.84  0.000310   -0.04    109.81   
    28. A(C   1,C   2,H  12)          109.91 -0.000391    0.21    110.11   
    29. A(H  11,C   2,H  12)          109.03  0.001058   -0.46    108.56   
    30. A(C   4,C   2,H  12)          108.33 -0.000701    0.03    108.35   
    31. A(C   4,C   2,H  11)          108.89 -0.000896    0.43    109.32   
    32. A(C   1,C   2,C   4)          112.00  0.000944   -0.17    111.83   
    33. A(C   1,C   2,H  11)          108.64  0.000001   -0.04    108.61   
    34. A(H  13,C   3,H  14)          115.17 -0.000413    0.06    115.22   
    35. A(O   5,C   3,H  14)          114.12 -0.000030    0.04    114.17   
    36. A(C   4,C   3,H  14)          121.70  0.000438   -0.13    121.56   
    37. A(O   5,C   3,H  13)          114.66 -0.000207    0.25    114.91   
    38. A(C   4,C   3,H  13)          120.02  0.000292   -0.17    119.85   
    39. A(C   4,C   3,O   5)           56.52 -0.000230   -0.05     56.47   
    40. A(C   2,C   4,C   3)          132.14 -0.000329    0.90    133.03   
    41. A(C   3,C   4,O   5)           60.86 -0.000410    0.26     61.13   
    42. A(C   2,C   4,O   5)          126.03  0.000219    0.71    126.73   
    43. A(C   3,O   5,C   4)           62.62  0.000640   -0.21     62.40   
    44. D(H   9,C   1,C   0,H   7)    179.17  0.000092    0.25    179.42   
    45. D(C   2,C   1,C   0,H   7)    -60.21 -0.000049    0.26    -59.95   
    46. D(H   9,C   1,C   0,H   8)    -60.83  0.000001    0.28    -60.55   
    47. D(C   2,C   1,C   0,H   8)     59.78 -0.000141    0.29     60.08   
    48. D(C   2,C   1,C   0,H   6)    179.77 -0.000101    0.28    180.05   
    49. D(H   9,C   1,C   0,H   6)     59.15  0.000041    0.27     59.42   
    50. D(C   4,C   2,C   1,C   0)   -178.72  0.000199    0.53   -178.19   
    51. D(H  11,C   2,C   1,H  10)   -179.65 -0.000234    0.91   -178.74   
    52. D(H  11,C   2,C   1,H   9)     62.89 -0.000261    0.95     63.85   
    53. D(H  11,C   2,C   1,C   0)    -58.40 -0.000327    0.93    -57.47   
    54. D(C   4,C   2,C   1,H  10)     60.03  0.000291    0.51     60.54   
    55. D(C   4,C   2,C   1,H   9)    -57.43  0.000264    0.55    -56.88   
    56. D(C   3,C   4,C   2,H  12)    -76.37 -0.000302   -1.99    -78.35   
    57. D(C   3,C   4,C   2,H  11)     42.08  0.000061   -2.29     39.80   
    58. D(C   3,C   4,C   2,C   1)    162.26  0.000061   -2.16    160.10   
    59. D(O   5,C   4,C   3,H  14)     99.65 -0.000405    0.08     99.73   
    60. D(O   5,C   4,C   3,H  13)   -101.27  0.000534   -0.39   -101.66   
    61. D(C   2,C   4,C   3,H  14)    -14.17 -0.000469   -0.85    -15.02   
    62. D(C   2,C   4,C   3,H  13)    144.92  0.000470   -1.32    143.60   
    63. D(C   2,C   4,C   3,O   5)   -113.81 -0.000064   -0.93   -114.75   
    64. D(O   5,C   4,C   2,H  11)    -39.06  0.000685   -3.73    -42.79   
    65. D(O   5,C   4,C   2,C   1)     81.11  0.000685   -3.60     77.52   
    66. D(C   3,O   5,C   4,C   2)    122.98 -0.000661    1.11    124.09   
    67. D(C   4,O   5,C   3,H  14)   -113.20 -0.000501    0.19   -113.01   
    68. D(C   4,O   5,C   3,H  13)    110.89  0.000412   -0.35    110.53   
    ----------------------------------------------------------------------------

Geometry step timings:
Preparation and reading OPT file:      0.000 s ( 0.825 %)
Internal coordinates            :      0.000 s ( 1.189 %)
B/P matrices and projection     :      0.001 s (22.648 %)
Hessian update/contruction      :      0.001 s (17.993 %)
Making the step                 :      0.001 s (18.917 %)
Converting the step to Cartesian:      0.000 s ( 2.872 %)
Storing new data                :      0.000 s ( 1.354 %)
Checking convergence            :      0.000 s ( 2.113 %)
Final printing                  :      0.001 s (32.090 %)
Total time                      :      0.003 s

Time for energy+gradient        :      0.065 s
Time for complete geometry iter :      0.069 s

         *************************************************************
         *                GEOMETRY OPTIMIZATION CYCLE   6            *
         *************************************************************
---------------------------------
CARTESIAN COORDINATES (ANGSTROEM)
---------------------------------
  C     2.349199    0.016684   -0.181140
  C     1.033332    0.213529    0.559557
  C    -0.144405   -0.366598   -0.230431
  C    -2.812600   -0.145697    0.010003
  C    -1.436025   -0.142247    0.461429
  O    -2.145653    1.020214    0.504263
  H     3.173781    0.432566    0.392501
  H     2.541435   -1.042100   -0.342350
  H     2.321051    0.511701   -1.149715
  H     0.855075    1.277383    0.725102
  H     1.081047   -0.274840    1.534393
  H    -0.173523    0.113407   -1.220775
  H    -0.010621   -1.441306   -0.368748
  H    -3.590928   -0.534038    0.655248
  H    -3.065371   -0.099659   -1.045696

----------------------------
CARTESIAN COORDINATES (A.U.)
----------------------------
  NO LB    ZA    FRAG    MASS        X           Y           Z
   0 C   6.0000    1    12.011    4.439342    0.031529   -0.342305
   1 C   6.0000    1    12.011    1.952714    0.403512    1.057409
   2 C   6.0000    1    12.011   -0.272886   -0.692770   -0.435452
   3 C   6.0000    1    12.011   -5.315044   -0.275328    0.018903
   4 C   6.0000    1    12.011   -2.713694   -0.268808    0.871974
   5 O   8.0000    1    15.999   -4.054696    1.927925    0.952919
   6 H   1.0000    1     1.008    5.997576    0.817431    0.741719
   7 H   1.0000    1     1.008    4.802616   -1.969283   -0.646947
   8 H   1.0000    1     1.008    4.386150    0.966975   -2.172646
   9 H   1.0000    1     1.008    1.615857    2.413904    1.370244
  10 H   1.0000    1     1.008    2.042883   -0.519371    2.899582
  11 H   1.0000    1     1.008   -0.327910    0.214309   -2.306930
  12 H   1.0000    1     1.008   -0.020071   -2.723674   -0.696833
  13 H   1.0000    1     1.008   -6.785871   -1.009186    1.238240
  14 H   1.0000    1     1.008   -5.792712   -0.188328   -1.976078

      -----------------------------------------------------------      
     |                   =====================                   |     
     |                           x T B                           |     
     |                   =====================                   |     
     |                         S. Grimme                         |     
     |          Mulliken Center for Theoretical Chemistry        |     
     |                    University of Bonn                     |     
      -----------------------------------------------------------      

   * xtb version 6.7.1 (edcfbbe) compiled by 'albert@albert-system' on 2024-07-22

   xtb is free software: you can redistribute it and/or modify it under
   the terms of the GNU Lesser General Public License as published by
   the Free Software Foundation, either version 3 of the License, or
   (at your option) any later version.
   
   xtb is distributed in the hope that it will be useful,
   but WITHOUT ANY WARRANTY; without even the implied warranty of
   MERCHANTABILITY or FITNESS FOR A PARTICULAR PURPOSE.  See the
   GNU Lesser General Public License for more details.
   
   Cite this work as:
   * C. Bannwarth, E. Caldeweyher, S. Ehlert, A. Hansen, P. Pracht,
     J. Seibert, S. Spicher, S. Grimme, WIREs Comput. Mol. Sci., 2020, 11,
     e01493. DOI: 10.1002/wcms.1493
   
   for GFN2-xTB:
   * C. Bannwarth, S. Ehlert and S. Grimme., J. Chem. Theory Comput., 2019,
     15, 1652-1671. DOI: 10.1021/acs.jctc.8b01176
   for GFN1-xTB:
   * S. Grimme, C. Bannwarth, P. Shushkov, J. Chem. Theory Comput., 2017,
     13, 1989-2009. DOI: 10.1021/acs.jctc.7b00118
   for GFN0-xTB:
   * P. Pracht, E. Caldeweyher, S. Ehlert, S. Grimme, ChemRxiv, 2019, preprint.
     DOI: 10.26434/chemrxiv.8326202.v1
   for GFN-FF:
   * S. Spicher and S. Grimme, Angew. Chem. Int. Ed., 2020, 59, 15665-15673.
     DOI: 10.1002/anie.202004239
   
   for ALPB and GBSA implicit solvation:
   * S. Ehlert, M. Stahn, S. Spicher, S. Grimme, J. Chem. Theory Comput.,
     2021, 17, 4250-4261. DOI: 10.1021/acs.jctc.1c00471
   
   for ddCOSMO and CPCM-X implicit solvation:
   * M. Stahn, S. Ehlert, S. Grimme, J. Phys. Chem. A,
     2023, XX, XXXX-XXXX. DOI: 10.1021/acs.jpca.3c04382
   
   for DFT-D4:
   * E. Caldeweyher, C. Bannwarth and S. Grimme, J. Chem. Phys., 2017,
     147, 034112. DOI: 10.1063/1.4993215
   * E. Caldeweyher, S. Ehlert, A. Hansen, H. Neugebauer, S. Spicher,
     C. Bannwarth and S. Grimme, J. Chem. Phys., 2019, 150, 154122.
     DOI: 10.1063/1.5090222
   * E. Caldeweyher, J.-M. Mewes, S. Ehlert and S. Grimme, Phys. Chem. Chem. Phys.
     2020, 22, 8499-8512. DOI: 10.1039/D0CP00502A
   
   for sTDA-xTB:
   * S. Grimme and C. Bannwarth, J. Chem. Phys., 2016, 145, 054103.
     DOI: 10.1063/1.4959605
   
   in the mass-spec context:
   * V. Asgeirsson, C. Bauer and S. Grimme, Chem. Sci., 2017, 8, 4879.
     DOI: 10.1039/c7sc00601b
   * J. Koopman and S. Grimme, ACS Omega 2019, 4, 12, 15120-15133.
     DOI: 10.1021/acsomega.9b02011
   
   for metadynamics refer to:
   * S. Grimme, J. Chem. Theory Comput., 2019, 155, 2847-2862
     DOI: 10.1021/acs.jctc.9b00143
   
   for SPH calculations refer to:
   * S. Spicher and S. Grimme, J. Chem. Theory Comput., 2021, 17, 1701-1714
     DOI: 10.1021/acs.jctc.0c01306
   
   for ONIOM refer to:
   * C. Plett, A. Katbashev, S. Ehlert, S. Grimme, M. Bursch,
     Phys. Chem. Chem. Phys., 2023, 25, 17860-17868. DOI: 10.1039/D3CP02178E
   
   for DIPRO refer to:
   * J. Kohn, N. Gildemeister, S. Grimme, D. Fazzi, A. Hansen,
     J. Chem. Phys., 2023, just accepted.
   
   for PTB refer to:
   * S. Grimme, M. Mueller, A. Hansen, J. Chem. Phys., 2023, 158, 124111.
     DOI: 10.1063/5.0137838
   
   with help from (in alphabetical order)
   P. Atkinson, C. Bannwarth, F. Bohle, G. Brandenburg, E. Caldeweyher
   M. Checinski, S. Dohm, S. Ehlert, S. Ehrlich, I. Gerasimov, C. Hölzer
   A. Katbashev, J. Kohn, J. Koopman, C. Lavigne, S. Lehtola, F. März, M. Müller,
   F. Musil, H. Neugebauer, J. Pisarek, C. Plett, P. Pracht, F. Pultar,
   J. Seibert, P. Shushkov, S. Spicher, M. Stahn, M. Steiner, T. Strunk,
   J. Stückrath, T. Rose, and J. Unsleber
   
 * started run on 2026/02/12 at 17:30:17.532     
   ID    Z sym.   atoms
    1    6 C      1-5
    2    8 O      6
    3    1 H      7-15

           -------------------------------------------------
          |                Calculation Setup                |
           -------------------------------------------------

          program call               : /apps/eb/ORCA/6.1.1-gompi-2024a-avx2/bin/otool_xtb goat_XTB.xyz --grad -c 0 -u 1 -P 8 --namespace goat --input goat_XTB.input.tmp --acc 0.200000
          hostname                   : a2-4
          calculation namespace      : goat
          coordinate file            : goat_XTB.xyz
          omp threads                :                     8


           -------------------------------------------------
          |                 G F N 2 - x T B                 |
           -------------------------------------------------

        Reference                      10.1021/acs.jctc.8b01176
      * Hamiltonian:
        H0-scaling (s, p, d)           1.850000    2.230000    2.230000
        zeta-weighting                 0.500000
      * Dispersion:
        s8                             2.700000
        a1                             0.520000
        a2                             5.000000
        s9                             5.000000
      * Repulsion:
        kExp                           1.500000    1.000000
        rExp                           1.000000
      * Coulomb:
        alpha                          2.000000
        third order                    shell-resolved
        anisotropic                    true
        a3                             3.000000
        a5                             4.000000
        cn-shift                       1.200000
        cn-exp                         4.000000
        max-rad                        5.000000

q/qsh data taken from xtbrestart
CAMM data taken from xtbrestart

          ...................................................
          :                      SETUP                      :
          :.................................................:
          :  # basis functions                  33          :
          :  # atomic orbitals                  33          :
          :  # shells                           21          :
          :  # electrons                        35          :
          :  max. iterations                   250          :
          :  Hamiltonian                  GFN2-xTB          :
          :  restarted?                       true          :
          :  GBSA solvation                  false          :
          :  PC potential                    false          :
          :  electronic temp.          300.0000000     K    :
          :  accuracy                    0.2000000          :
          :  -> integral cutoff          0.3198970E+02      :
          :  -> integral neglect         0.2000000E-08      :
          :  -> SCF convergence          0.2000000E-06 Eh   :
          :  -> wf. convergence          0.2000000E-04 e    :
          :  Broyden damping             0.4000000          :
          :  net charge                          0          :
          :  unpaired electrons                  1          :
          ...................................................

 iter      E             dE          RMSdq      gap      omega  full diag
   1    -19.4867764 -0.194868E+02  0.117E-01    6.38       0.0  T
   2    -19.4867771 -0.634247E-06  0.701E-02    6.37       1.0  T
   3    -19.4867772 -0.124494E-06  0.485E-03    6.37       5.3  T
   4    -19.4867773 -0.155772E-06  0.223E-03    6.37      11.6  T
   5    -19.4867773 -0.214669E-08  0.787E-04    6.37      32.8  T
   6    -19.4867773 -0.170415E-08  0.237E-04    6.37     109.0  T
   7    -19.4867773 -0.113491E-09  0.765E-05    6.37     337.7  T
   8    -19.4867773 -0.600053E-11  0.277E-05    6.37     933.4  T

   *** convergence criteria satisfied after 8 iterations ***

         #    Occupation            Energy/Eh            Energy/eV
      -------------------------------------------------------------
         1        2.0000           -0.7214190             -19.6308
       ...           ...                  ...                  ...
        12        2.0000           -0.4791626             -13.0387
        13        2.0000           -0.4643755             -12.6363
        14        2.0000           -0.4510628             -12.2740
        15        2.0000           -0.4447853             -12.1032
        16        2.0000           -0.4348677             -11.8334
        17        2.0000           -0.4313900             -11.7387
        18        1.0000           -0.3150550              -8.5731 (HOMO)
        19                         -0.0808408              -2.1998 (LUMO)
        20                          0.0655290               1.7831
        21                          0.0843666               2.2957
        22                          0.1197407               3.2583
        23                          0.1352574               3.6805
       ...                                ...                  ...
        33                          0.4220217              11.4838
      -------------------------------------------------------------
                  HL-Gap            0.2342143 Eh            6.3733 eV
             Fermi-level           -0.2855852 Eh           -7.7712 eV

 SCC (total)                   0 d,  0 h,  0 min,  0.013 sec
 SCC setup                      ...        0 min,  0.000 sec (  2.258%)
 Dispersion                     ...        0 min,  0.000 sec (  2.369%)
 classical contributions        ...        0 min,  0.000 sec (  0.742%)
 integral evaluation            ...        0 min,  0.001 sec (  5.311%)
 iterations                     ...        0 min,  0.010 sec ( 72.310%)
 molecular gradient             ...        0 min,  0.002 sec ( 13.480%)
 printout                       ...        0 min,  0.000 sec (  3.246%)

         :::::::::::::::::::::::::::::::::::::::::::::::::::::
         ::                     SUMMARY                     ::
         :::::::::::::::::::::::::::::::::::::::::::::::::::::
         :: total energy             -19.249462546794 Eh    ::
         :: gradient norm              0.003718828124 Eh/a0 ::
         :: HOMO-LUMO gap              6.373294918990 eV    ::
         ::.................................................::
         :: SCC energy               -19.486781564830 Eh    ::
         :: -> isotropic ES            0.016793687497 Eh    ::
         :: -> anisotropic ES          0.001521765999 Eh    ::
         :: -> anisotropic XC          0.006297834002 Eh    ::
         :: -> dispersion             -0.007547419865 Eh    ::
         :: repulsion energy           0.237319018036 Eh    ::
         :: add. restraining           0.000000000000 Eh    ::
         :: total charge               0.000000000000 e     ::
         :::::::::::::::::::::::::::::::::::::::::::::::::::::


Property printout bound to 'properties.out'

           -------------------------------------------------
          | TOTAL ENERGY              -19.249462546794 Eh   |
          | GRADIENT NORM               0.003718828124 Eh/α |
          | HOMO-LUMO GAP               6.373294918990 eV   |
           -------------------------------------------------

------------------------------------------------------------------------
 * finished run on 2026/02/12 at 17:30:17.566     
------------------------------------------------------------------------
 total:
 * wall-time:     0 d,  0 h,  0 min,  0.032 sec
 *  cpu-time:     0 d,  0 h,  0 min,  0.195 sec
 * ratio c/w:     6.056 speedup
 SCF:
 * wall-time:     0 d,  0 h,  0 min,  0.014 sec
 *  cpu-time:     0 d,  0 h,  0 min,  0.092 sec
 * ratio c/w:     6.758 speedup


-------------------------   --------------------
FINAL SINGLE POINT ENERGY       -19.249462546790
-------------------------   --------------------


-------------
DIPOLE MOMENT
-------------
                                X             Y             Z
Total Dipole Moment    :      0.23600      -0.54600      -0.45600
                        -----------------------------------------
Magnitude (a.u.)       :      0.74950
Magnitude (Debye)      :      1.90507


------------------
CARTESIAN GRADIENT
------------------

   1   C   :    0.000149308   -0.000039329   -0.000149220
   2   C   :    0.000757887    0.000226698    0.000362689
   3   C   :   -0.000236039   -0.001499709   -0.000811658
   4   C   :    0.000668833   -0.001500691   -0.000393666
   5   C   :   -0.000313328    0.002230874   -0.000057557
   6   O   :    0.000539373   -0.000420216    0.000220286
   7   H   :   -0.000012909    0.000059715    0.000083375
   8   H   :   -0.000103800   -0.000078823    0.000023829
   9   H   :   -0.000141768    0.000026249   -0.000045680
  10   H   :   -0.000132177    0.000006531   -0.000096289
  11   H   :   -0.000174657   -0.000175780   -0.000052431
  12   H   :   -0.000223750    0.000806205    0.000400984
  13   H   :   -0.000163547    0.000051562    0.000550048
  14   H   :   -0.000215256    0.000076150   -0.000102950
  15   H   :   -0.000398169    0.000230564    0.000068240

Difference to translation invariance:
           :    0.0000000000    0.0000000000    0.0000000000

Difference to rotation invariance:
           :    0.0000000776    0.0000000921   -0.0000001876

Norm of the Cartesian gradient     ...    0.0037188281
RMS gradient                       ...    0.0005543702
MAX gradient                       ...    0.0022308745
------------------------------------------------------------------------------
                         ORCA GEOMETRY RELAXATION STEP
------------------------------------------------------------------------------

Reading the OPT-File                    .... done
Getting information on internals        .... done
Copying old internal coords+grads       .... done
Making the new internal coordinates     .... (2022 redundants) done
Validating the new internal coordinates .... (2022 redundants) done
Calculating the B-matrix                .... done
Calculating the G,G- and P matrices     .... done
Transforming gradient to internals      .... done
Projecting the internal gradient        .... done
Number of atoms                         ....  15
Number of internal coordinates          ....  68
Current Energy                          ....   -19.249462547 Eh
Current gradient norm                   ....     0.003718828 Eh/bohr
Maximum allowed component of the step   ....  0.300
Current trust radius                    ....  0.450
Updating the Hessian (BFGS)             .... done
Forming the augmented Hessian           .... done
Diagonalizing the augmented Hessian     .... done
Last element of RFO vector              ....  0.995232664
Lowest eigenvalues of augmented Hessian:
 -0.000065116  0.004234559  0.011429264  0.011901038  0.040952435
Length of the computed step             ....  0.097996375
The final length of the internal step   ....  0.097996375
Converting the step to Cartesian space:
 Initial RMS(Int)=    0.0118838060
Transforming coordinates:
 Iter   0:  RMS(Cart)=    0.0209369532 RMS(Int)=    0.0119249497
done
Storing new coordinates                 .... done
The predicted energy change is          ....    -0.000032871
Previously predicted energy change      ....    -0.000078782
Actually observed energy change         ....    -0.000104550
Ratio of predicted to observed change   ....     1.327076279
New trust radius                        ....     0.450000000

                                .--------------------.
          ----------------------|Geometry convergence|-------------------------
          Item                value                   Tolerance       Converged
          ---------------------------------------------------------------------
          Energy change      -0.0001045498            0.0000050000      NO
          RMS gradient        0.0002404067            0.0001000000      NO
          MAX gradient        0.0007835021            0.0003000000      NO
          RMS step            0.0118838060            0.0020000000      NO
          MAX step            0.0502103592            0.0040000000      NO
          -------------------------------------------------------------------------
          ........................................................
          Max(Bonds)      0.0010      Max(Angles)    0.55
          Max(Dihed)        2.88      Max(Improp)    0.00
          ---------------------------------------------------------------------

    ---------------------------------------------------------------------------
                         Redundant Internal Coordinates
                            (Angstroem and degrees)

        Definition                    Value    dE/dq     Step     New-Value
    ----------------------------------------------------------------------------
     1. B(C   1,C   0)                1.5228 -0.000048  0.0000    1.5228   
     2. B(C   2,C   1)                1.5322  0.000337 -0.0006    1.5316   
     3. B(C   4,C   3)                1.4487 -0.000174 -0.0008    1.4480   
     4. B(C   4,C   2)                1.4823 -0.000276 -0.0008    1.4815   
     5. B(O   5,C   4)                1.3626 -0.000700  0.0007    1.3633   
     6. B(O   5,C   3)                1.4312  0.000325  0.0010    1.4323   
     7. B(H   6,C   0)                1.0872  0.000057  0.0001    1.0873   
     8. B(H   7,C   0)                1.0881  0.000055  0.0000    1.0882   
     9. B(H   8,C   0)                1.0881  0.000056  0.0000    1.0882   
    10. B(H   9,C   1)                1.0913  0.000013  0.0001    1.0914   
    11. B(H  10,C   1)                1.0914  0.000024  0.0001    1.0914   
    12. B(H  11,C   2)                1.1009 -0.000003  0.0004    1.1014   
    13. B(H  12,C   2)                1.0918 -0.000140  0.0004    1.0922   
    14. B(H  13,C   3)                1.0830  0.000066 -0.0003    1.0828   
    15. B(H  14,C   3)                1.0865  0.000036 -0.0002    1.0863   
    16. A(C   1,C   0,H   7)          110.52 -0.000127    0.03    110.55   
    17. A(C   1,C   0,H   6)          110.44 -0.000049    0.00    110.45   
    18. A(H   6,C   0,H   7)          108.45  0.000119   -0.04    108.40   
    19. A(H   7,C   0,H   8)          108.38  0.000102   -0.01    108.37   
    20. A(C   1,C   0,H   8)          110.60 -0.000155    0.05    110.65   
    21. A(H   6,C   0,H   8)          108.38  0.000122   -0.04    108.34   
    22. A(C   2,C   1,H   9)          108.77 -0.000042    0.03    108.80   
    23. A(C   0,C   1,C   2)          111.38 -0.000262    0.06    111.43   
    24. A(H   9,C   1,H  10)          107.93  0.000190   -0.09    107.84   
    25. A(C   0,C   1,H   9)          109.93  0.000183   -0.03    109.90   
    26. A(C   2,C   1,H  10)          108.95 -0.000299    0.10    109.05   
    27. A(C   0,C   1,H  10)          109.81  0.000237   -0.06    109.74   
    28. A(C   1,C   2,H  12)          110.11 -0.000194    0.12    110.23   
    29. A(H  11,C   2,H  12)          108.57  0.000784   -0.46    108.11   
    30. A(C   4,C   2,H  12)          108.35 -0.000518    0.08    108.43   
    31. A(C   4,C   2,H  11)          109.32 -0.000422    0.35    109.67   
    32. A(C   1,C   2,C   4)          111.83  0.000433   -0.13    111.69   
    33. A(C   1,C   2,H  11)          108.61 -0.000067    0.04    108.64   
    34. A(H  13,C   3,H  14)          115.27 -0.000286    0.12    115.39   
    35. A(O   5,C   3,H  14)          114.17  0.000148    0.08    114.25   
    36. A(C   4,C   3,H  14)          121.58  0.000284   -0.17    121.41   
    37. A(O   5,C   3,H  13)          114.91  0.000001    0.15    115.06   
    38. A(C   4,C   3,H  13)          119.87  0.000131   -0.12    119.76   
    39. A(C   4,C   3,O   5)           56.47 -0.000320    0.03     56.50   
    40. A(C   2,C   4,C   3)          133.01 -0.000342    0.55    133.57   
    41. A(C   3,C   4,O   5)           61.12  0.000327    0.05     61.17   
    42. A(C   2,C   4,O   5)          126.70 -0.000026    0.17    126.87   
    43. A(C   3,O   5,C   4)           62.41 -0.000007   -0.08     62.33   
    44. D(H   9,C   1,C   0,H   7)    179.42  0.000069    0.14    179.57   
    45. D(C   2,C   1,C   0,H   7)    -59.95 -0.000033    0.20    -59.75   
    46. D(H   9,C   1,C   0,H   8)    -60.55  0.000013    0.19    -60.36   
    47. D(C   2,C   1,C   0,H   8)     60.08 -0.000089    0.24     60.32   
    48. D(C   2,C   1,C   0,H   6)   -179.95 -0.000068    0.22   -179.73   
    49. D(H   9,C   1,C   0,H   6)     59.42  0.000034    0.17     59.59   
    50. D(C   4,C   2,C   1,C   0)   -178.19  0.000131    0.07   -178.11   
    51. D(H  11,C   2,C   1,H  10)   -178.74 -0.000097    0.42   -178.32   
    52. D(H  11,C   2,C   1,H   9)     63.85 -0.000133    0.46     64.31   
    53. D(H  11,C   2,C   1,C   0)    -57.47 -0.000167    0.45    -57.02   
    54. D(C   4,C   2,C   1,H  10)     60.54  0.000202    0.05     60.59   
    55. D(C   4,C   2,C   1,H   9)    -56.88  0.000165    0.09    -56.78   
    56. D(C   3,C   4,C   2,H  12)    -78.35  0.000009   -1.96    -80.30   
    57. D(C   3,C   4,C   2,H  11)     39.81  0.000414   -2.27     37.54   
    58. D(C   3,C   4,C   2,C   1)    160.11  0.000325   -2.08    158.03   
    59. D(O   5,C   4,C   3,H  14)     99.74 -0.000130    0.20     99.94   
    60. D(O   5,C   4,C   3,H  13)   -101.66  0.000216   -0.26   -101.93   
    61. D(C   2,C   4,C   3,H  14)    -15.01 -0.000408    0.01    -15.00   
    62. D(C   2,C   4,C   3,H  13)    143.58 -0.000062   -0.46    143.13   
    63. D(C   2,C   4,C   3,O   5)   -114.75 -0.000278   -0.19   -114.95   
    64. D(O   5,C   4,C   2,H  11)    -42.80  0.000160   -2.88    -45.68   
    65. D(O   5,C   4,C   2,C   1)     77.50  0.000071   -2.68     74.82   
    66. D(C   3,O   5,C   4,C   2)    124.09 -0.000254    0.73    124.83   
    67. D(C   4,O   5,C   3,H  14)   -113.03 -0.000201    0.24   -112.79   
    68. D(C   4,O   5,C   3,H  13)    110.55  0.000081   -0.21    110.34   
    ----------------------------------------------------------------------------

Geometry step timings:
Preparation and reading OPT file:      0.000 s ( 0.913 %)
Internal coordinates            :      0.000 s ( 1.385 %)
B/P matrices and projection     :      0.001 s (21.214 %)
Hessian update/contruction      :      0.001 s (31.467 %)
Making the step                 :      0.001 s (18.032 %)
Converting the step to Cartesian:      0.000 s ( 2.652 %)
Storing new data                :      0.000 s ( 1.267 %)
Checking convergence            :      0.000 s ( 1.738 %)
Final printing                  :      0.001 s (21.243 %)
Total time                      :      0.003 s

Time for energy+gradient        :      0.054 s
Time for complete geometry iter :      0.059 s

         *************************************************************
         *                GEOMETRY OPTIMIZATION CYCLE   7            *
         *************************************************************
---------------------------------
CARTESIAN COORDINATES (ANGSTROEM)
---------------------------------
  C     2.347344    0.021861   -0.180220
  C     1.027614    0.213406    0.554986
  C    -0.143366   -0.381504   -0.232794
  C    -2.813352   -0.134014    0.009957
  C    -1.436017   -0.158846    0.455861
  O    -2.130884    1.011500    0.532975
  H     3.167331    0.445283    0.394636
  H     2.547626   -1.036248   -0.336312
  H     2.320515    0.512745   -1.150988
  H     0.841071    1.277142    0.712631
  H     1.078180   -0.265863    1.534269
  H    -0.169678    0.084729   -1.230255
  H    -0.002784   -1.456591   -0.364237
  H    -3.591812   -0.534596    0.647077
  H    -3.065996   -0.060006   -1.043946

----------------------------
CARTESIAN COORDINATES (A.U.)
----------------------------
  NO LB    ZA    FRAG    MASS        X           Y           Z
   0 C   6.0000    1    12.011    4.435837    0.041311   -0.340567
   1 C   6.0000    1    12.011    1.941910    0.403279    1.048771
   2 C   6.0000    1    12.011   -0.270923   -0.720938   -0.439918
   3 C   6.0000    1    12.011   -5.316465   -0.253249    0.018816
   4 C   6.0000    1    12.011   -2.713678   -0.300175    0.861453
   5 O   8.0000    1    15.999   -4.026788    1.911459    1.007177
   6 H   1.0000    1     1.008    5.985389    0.841462    0.745754
   7 H   1.0000    1     1.008    4.814316   -1.958225   -0.635537
   8 H   1.0000    1     1.008    4.385138    0.968948   -2.175051
   9 H   1.0000    1     1.008    1.589394    2.413448    1.346678
  10 H   1.0000    1     1.008    2.037465   -0.502408    2.899349
  11 H   1.0000    1     1.008   -0.320645    0.160115   -2.324845
  12 H   1.0000    1     1.008   -0.005262   -2.752558   -0.688309
  13 H   1.0000    1     1.008   -6.787541   -1.010239    1.222798
  14 H   1.0000    1     1.008   -5.793893   -0.113394   -1.972773

      -----------------------------------------------------------      
     |                   =====================                   |     
     |                           x T B                           |     
     |                   =====================                   |     
     |                         S. Grimme                         |     
     |          Mulliken Center for Theoretical Chemistry        |     
     |                    University of Bonn                     |     
      -----------------------------------------------------------      

   * xtb version 6.7.1 (edcfbbe) compiled by 'albert@albert-system' on 2024-07-22

   xtb is free software: you can redistribute it and/or modify it under
   the terms of the GNU Lesser General Public License as published by
   the Free Software Foundation, either version 3 of the License, or
   (at your option) any later version.
   
   xtb is distributed in the hope that it will be useful,
   but WITHOUT ANY WARRANTY; without even the implied warranty of
   MERCHANTABILITY or FITNESS FOR A PARTICULAR PURPOSE.  See the
   GNU Lesser General Public License for more details.
   
   Cite this work as:
   * C. Bannwarth, E. Caldeweyher, S. Ehlert, A. Hansen, P. Pracht,
     J. Seibert, S. Spicher, S. Grimme, WIREs Comput. Mol. Sci., 2020, 11,
     e01493. DOI: 10.1002/wcms.1493
   
   for GFN2-xTB:
   * C. Bannwarth, S. Ehlert and S. Grimme., J. Chem. Theory Comput., 2019,
     15, 1652-1671. DOI: 10.1021/acs.jctc.8b01176
   for GFN1-xTB:
   * S. Grimme, C. Bannwarth, P. Shushkov, J. Chem. Theory Comput., 2017,
     13, 1989-2009. DOI: 10.1021/acs.jctc.7b00118
   for GFN0-xTB:
   * P. Pracht, E. Caldeweyher, S. Ehlert, S. Grimme, ChemRxiv, 2019, preprint.
     DOI: 10.26434/chemrxiv.8326202.v1
   for GFN-FF:
   * S. Spicher and S. Grimme, Angew. Chem. Int. Ed., 2020, 59, 15665-15673.
     DOI: 10.1002/anie.202004239
   
   for ALPB and GBSA implicit solvation:
   * S. Ehlert, M. Stahn, S. Spicher, S. Grimme, J. Chem. Theory Comput.,
     2021, 17, 4250-4261. DOI: 10.1021/acs.jctc.1c00471
   
   for ddCOSMO and CPCM-X implicit solvation:
   * M. Stahn, S. Ehlert, S. Grimme, J. Phys. Chem. A,
     2023, XX, XXXX-XXXX. DOI: 10.1021/acs.jpca.3c04382
   
   for DFT-D4:
   * E. Caldeweyher, C. Bannwarth and S. Grimme, J. Chem. Phys., 2017,
     147, 034112. DOI: 10.1063/1.4993215
   * E. Caldeweyher, S. Ehlert, A. Hansen, H. Neugebauer, S. Spicher,
     C. Bannwarth and S. Grimme, J. Chem. Phys., 2019, 150, 154122.
     DOI: 10.1063/1.5090222
   * E. Caldeweyher, J.-M. Mewes, S. Ehlert and S. Grimme, Phys. Chem. Chem. Phys.
     2020, 22, 8499-8512. DOI: 10.1039/D0CP00502A
   
   for sTDA-xTB:
   * S. Grimme and C. Bannwarth, J. Chem. Phys., 2016, 145, 054103.
     DOI: 10.1063/1.4959605
   
   in the mass-spec context:
   * V. Asgeirsson, C. Bauer and S. Grimme, Chem. Sci., 2017, 8, 4879.
     DOI: 10.1039/c7sc00601b
   * J. Koopman and S. Grimme, ACS Omega 2019, 4, 12, 15120-15133.
     DOI: 10.1021/acsomega.9b02011
   
   for metadynamics refer to:
   * S. Grimme, J. Chem. Theory Comput., 2019, 155, 2847-2862
     DOI: 10.1021/acs.jctc.9b00143
   
   for SPH calculations refer to:
   * S. Spicher and S. Grimme, J. Chem. Theory Comput., 2021, 17, 1701-1714
     DOI: 10.1021/acs.jctc.0c01306
   
   for ONIOM refer to:
   * C. Plett, A. Katbashev, S. Ehlert, S. Grimme, M. Bursch,
     Phys. Chem. Chem. Phys., 2023, 25, 17860-17868. DOI: 10.1039/D3CP02178E
   
   for DIPRO refer to:
   * J. Kohn, N. Gildemeister, S. Grimme, D. Fazzi, A. Hansen,
     J. Chem. Phys., 2023, just accepted.
   
   for PTB refer to:
   * S. Grimme, M. Mueller, A. Hansen, J. Chem. Phys., 2023, 158, 124111.
     DOI: 10.1063/5.0137838
   
   with help from (in alphabetical order)
   P. Atkinson, C. Bannwarth, F. Bohle, G. Brandenburg, E. Caldeweyher
   M. Checinski, S. Dohm, S. Ehlert, S. Ehrlich, I. Gerasimov, C. Hölzer
   A. Katbashev, J. Kohn, J. Koopman, C. Lavigne, S. Lehtola, F. März, M. Müller,
   F. Musil, H. Neugebauer, J. Pisarek, C. Plett, P. Pracht, F. Pultar,
   J. Seibert, P. Shushkov, S. Spicher, M. Stahn, M. Steiner, T. Strunk,
   J. Stückrath, T. Rose, and J. Unsleber
   
 * started run on 2026/02/12 at 17:30:17.593     
   ID    Z sym.   atoms
    1    6 C      1-5
    2    8 O      6
    3    1 H      7-15

           -------------------------------------------------
          |                Calculation Setup                |
           -------------------------------------------------

          program call               : /apps/eb/ORCA/6.1.1-gompi-2024a-avx2/bin/otool_xtb goat_XTB.xyz --grad -c 0 -u 1 -P 8 --namespace goat --input goat_XTB.input.tmp --acc 0.200000
          hostname                   : a2-4
          calculation namespace      : goat
          coordinate file            : goat_XTB.xyz
          omp threads                :                     8


           -------------------------------------------------
          |                 G F N 2 - x T B                 |
           -------------------------------------------------

        Reference                      10.1021/acs.jctc.8b01176
      * Hamiltonian:
        H0-scaling (s, p, d)           1.850000    2.230000    2.230000
        zeta-weighting                 0.500000
      * Dispersion:
        s8                             2.700000
        a1                             0.520000
        a2                             5.000000
        s9                             5.000000
      * Repulsion:
        kExp                           1.500000    1.000000
        rExp                           1.000000
      * Coulomb:
        alpha                          2.000000
        third order                    shell-resolved
        anisotropic                    true
        a3                             3.000000
        a5                             4.000000
        cn-shift                       1.200000
        cn-exp                         4.000000
        max-rad                        5.000000

q/qsh data taken from xtbrestart
CAMM data taken from xtbrestart

          ...................................................
          :                      SETUP                      :
          :.................................................:
          :  # basis functions                  33          :
          :  # atomic orbitals                  33          :
          :  # shells                           21          :
          :  # electrons                        35          :
          :  max. iterations                   250          :
          :  Hamiltonian                  GFN2-xTB          :
          :  restarted?                       true          :
          :  GBSA solvation                  false          :
          :  PC potential                    false          :
          :  electronic temp.          300.0000000     K    :
          :  accuracy                    0.2000000          :
          :  -> integral cutoff          0.3198970E+02      :
          :  -> integral neglect         0.2000000E-08      :
          :  -> SCF convergence          0.2000000E-06 Eh   :
          :  -> wf. convergence          0.2000000E-04 e    :
          :  Broyden damping             0.4000000          :
          :  net charge                          0          :
          :  unpaired electrons                  1          :
          ...................................................

 iter      E             dE          RMSdq      gap      omega  full diag
   1    -19.4869155 -0.194869E+02  0.932E-02    6.35       0.0  T
   2    -19.4869161 -0.638403E-06  0.564E-02    6.35       1.0  T
   3    -19.4869159  0.215259E-06  0.624E-03    6.35       4.1  T
   4    -19.4869164 -0.459163E-06  0.189E-03    6.35      13.6  T
   5    -19.4869164 -0.133106E-08  0.718E-04    6.35      35.9  T
   6    -19.4869164 -0.889042E-09  0.149E-04    6.35     173.2  T
   7    -19.4869164 -0.201688E-10  0.466E-05    6.35     553.7  T

   *** convergence criteria satisfied after 7 iterations ***

         #    Occupation            Energy/Eh            Energy/eV
      -------------------------------------------------------------
         1        2.0000           -0.7211578             -19.6237
       ...           ...                  ...                  ...
        12        2.0000           -0.4788163             -13.0293
        13        2.0000           -0.4646827             -12.6447
        14        2.0000           -0.4510360             -12.2733
        15        2.0000           -0.4447366             -12.1019
        16        2.0000           -0.4347544             -11.8303
        17        2.0000           -0.4314338             -11.7399
        18        1.0000           -0.3143117              -8.5529 (HOMO)
        19                         -0.0811071              -2.2070 (LUMO)
        20                          0.0651882               1.7739
        21                          0.0839298               2.2838
        22                          0.1201748               3.2701
        23                          0.1347006               3.6654
       ...                                ...                  ...
        33                          0.4249669              11.5639
      -------------------------------------------------------------
                  HL-Gap            0.2332046 Eh            6.3458 eV
             Fermi-level           -0.2852911 Eh           -7.7632 eV

 SCC (total)                   0 d,  0 h,  0 min,  0.017 sec
 SCC setup                      ...        0 min,  0.000 sec (  1.369%)
 Dispersion                     ...        0 min,  0.000 sec (  1.679%)
 classical contributions        ...        0 min,  0.000 sec (  0.944%)
 integral evaluation            ...        0 min,  0.001 sec (  7.318%)
 iterations                     ...        0 min,  0.012 sec ( 71.272%)
 molecular gradient             ...        0 min,  0.002 sec ( 13.485%)
 printout                       ...        0 min,  0.001 sec (  3.744%)

         :::::::::::::::::::::::::::::::::::::::::::::::::::::
         ::                     SUMMARY                     ::
         :::::::::::::::::::::::::::::::::::::::::::::::::::::
         :: total energy             -19.249508761993 Eh    ::
         :: gradient norm              0.003155303881 Eh/a0 ::
         :: HOMO-LUMO gap              6.345820125589 eV    ::
         ::.................................................::
         :: SCC energy               -19.486920537235 Eh    ::
         :: -> isotropic ES            0.016836732193 Eh    ::
         :: -> anisotropic ES          0.001545731863 Eh    ::
         :: -> anisotropic XC          0.006295981175 Eh    ::
         :: -> dispersion             -0.007553164364 Eh    ::
         :: repulsion energy           0.237411775242 Eh    ::
         :: add. restraining           0.000000000000 Eh    ::
         :: total charge               0.000000000000 e     ::
         :::::::::::::::::::::::::::::::::::::::::::::::::::::


Property printout bound to 'properties.out'

           -------------------------------------------------
          | TOTAL ENERGY              -19.249508761993 Eh   |
          | GRADIENT NORM               0.003155303881 Eh/α |
          | HOMO-LUMO GAP               6.345820125589 eV   |
           -------------------------------------------------

------------------------------------------------------------------------
 * finished run on 2026/02/12 at 17:30:17.630     
------------------------------------------------------------------------
 total:
 * wall-time:     0 d,  0 h,  0 min,  0.036 sec
 *  cpu-time:     0 d,  0 h,  0 min,  0.167 sec
 * ratio c/w:     4.644 speedup
 SCF:
 * wall-time:     0 d,  0 h,  0 min,  0.017 sec
 *  cpu-time:     0 d,  0 h,  0 min,  0.086 sec
 * ratio c/w:     4.953 speedup


-------------------------   --------------------
FINAL SINGLE POINT ENERGY       -19.249508761990
-------------------------   --------------------


-------------
DIPOLE MOMENT
-------------
                                X             Y             Z
Total Dipole Moment    :      0.22900      -0.54000      -0.46900
                        -----------------------------------------
Magnitude (a.u.)       :      0.75100
Magnitude (Debye)      :      1.90889


------------------
CARTESIAN GRADIENT
------------------

   1   C   :   -0.000014952   -0.000031881   -0.000070896
   2   C   :    0.000318404    0.000105242    0.000151615
   3   C   :   -0.000317100   -0.001117282   -0.000145568
   4   C   :    0.000020064   -0.001499428   -0.000226649
   5   C   :   -0.000682917    0.001889639   -0.000649175
   6   O   :    0.000881326    0.000453111    0.000637200
   7   H   :    0.000040752    0.000040641    0.000065285
   8   H   :   -0.000032397   -0.000076627    0.000010266
   9   H   :   -0.000059266    0.000049925   -0.000049990
  10   H   :   -0.000049759    0.000025733    0.000004730
  11   H   :   -0.000027101   -0.000050053    0.000024895
  12   H   :    0.000109593    0.000352098    0.000148926
  13   H   :   -0.000136112    0.000041143    0.000112208
  14   H   :    0.000034865   -0.000182348   -0.000137889
  15   H   :   -0.000085399    0.000000089    0.000125044

Difference to translation invariance:
           :   -0.0000000000    0.0000000000    0.0000000000

Difference to rotation invariance:
           :    0.0000001803    0.0000001299   -0.0000003118

Norm of the Cartesian gradient     ...    0.0031553039
RMS gradient                       ...    0.0004703649
MAX gradient                       ...    0.0018896387
------------------------------------------------------------------------------
                         ORCA GEOMETRY RELAXATION STEP
------------------------------------------------------------------------------

Reading the OPT-File                    .... done
Getting information on internals        .... done
Copying old internal coords+grads       .... done
Making the new internal coordinates     .... (2022 redundants) done
Validating the new internal coordinates .... (2022 redundants) done
Calculating the B-matrix                .... done
Calculating the G,G- and P matrices     .... done
Transforming gradient to internals      .... done
Projecting the internal gradient        .... done
Number of atoms                         ....  15
Number of internal coordinates          ....  68
Current Energy                          ....   -19.249508762 Eh
Current gradient norm                   ....     0.003155304 Eh/bohr
Maximum allowed component of the step   ....  0.300
Current trust radius                    ....  0.450
Updating the Hessian (BFGS)             .... done
Forming the augmented Hessian           .... done
Diagonalizing the augmented Hessian     .... done
Last element of RFO vector              ....  0.994680268
Lowest eigenvalues of augmented Hessian:
 -0.000047688  0.002762316  0.010911843  0.011902485  0.034112361
Length of the computed step             ....  0.103561422
The final length of the internal step   ....  0.103561422
Converting the step to Cartesian space:
 Initial RMS(Int)=    0.0125586672
Transforming coordinates:
 Iter   0:  RMS(Cart)=    0.0220183269 RMS(Int)=    0.0125904884
done
Storing new coordinates                 .... done
The predicted energy change is          ....    -0.000024100
Previously predicted energy change      ....    -0.000032871
Actually observed energy change         ....    -0.000046215
Ratio of predicted to observed change   ....     1.405965618
New trust radius                        ....     0.450000000

                                .--------------------.
          ----------------------|Geometry convergence|-------------------------
          Item                value                   Tolerance       Converged
          ---------------------------------------------------------------------
          Energy change      -0.0000462152            0.0000050000      NO
          RMS gradient        0.0001895825            0.0001000000      NO
          MAX gradient        0.0007843976            0.0003000000      NO
          RMS step            0.0125586672            0.0020000000      NO
          MAX step            0.0490370031            0.0040000000      NO
          -------------------------------------------------------------------------
          ........................................................
          Max(Bonds)      0.0011      Max(Angles)    0.41
          Max(Dihed)        2.81      Max(Improp)    0.00
          ---------------------------------------------------------------------

    ---------------------------------------------------------------------------
                         Redundant Internal Coordinates
                            (Angstroem and degrees)

        Definition                    Value    dE/dq     Step     New-Value
    ----------------------------------------------------------------------------
     1. B(C   1,C   0)                1.5228 -0.000033  0.0000    1.5228   
     2. B(C   2,C   1)                1.5316  0.000229 -0.0009    1.5307   
     3. B(C   4,C   3)                1.4479 -0.000384  0.0001    1.4480   
     4. B(C   4,C   2)                1.4815 -0.000164 -0.0005    1.4810   
     5. B(O   5,C   4)                1.3633 -0.000362  0.0011    1.3644   
     6. B(O   5,C   3)                1.4323  0.000784 -0.0009    1.4315   
     7. B(H   6,C   0)                1.0873  0.000081 -0.0000    1.0872   
     8. B(H   7,C   0)                1.0882  0.000067 -0.0000    1.0881   
     9. B(H   8,C   0)                1.0882  0.000069 -0.0000    1.0881   
    10. B(H   9,C   1)                1.0914  0.000034  0.0001    1.0915   
    11. B(H  10,C   1)                1.0914  0.000043  0.0000    1.0915   
    12. B(H  11,C   2)                1.1014  0.000012  0.0003    1.1016   
    13. B(H  12,C   2)                1.0922 -0.000072  0.0004    1.0926   
    14. B(H  13,C   3)                1.0828 -0.000039 -0.0001    1.0827   
    15. B(H  14,C   3)                1.0863 -0.000101  0.0000    1.0863   
    16. A(C   1,C   0,H   7)          110.55 -0.000051    0.04    110.59   
    17. A(C   1,C   0,H   6)          110.45 -0.000017    0.00    110.45   
    18. A(H   6,C   0,H   7)          108.40  0.000044   -0.04    108.36   
    19. A(H   7,C   0,H   8)          108.37  0.000056   -0.02    108.36   
    20. A(C   1,C   0,H   8)          110.65 -0.000073    0.05    110.70   
    21. A(H   6,C   0,H   8)          108.34  0.000048   -0.04    108.30   
    22. A(C   2,C   1,H   9)          108.80  0.000019    0.03    108.83   
    23. A(C   0,C   1,C   2)          111.43 -0.000165    0.07    111.51   
    24. A(H   9,C   1,H  10)          107.84  0.000023   -0.08    107.76   
    25. A(C   0,C   1,H   9)          109.90  0.000076   -0.04    109.87   
    26. A(C   2,C   1,H  10)          109.05 -0.000034    0.08    109.13   
    27. A(C   0,C   1,H  10)          109.74  0.000086   -0.07    109.68   
    28. A(C   1,C   2,H  12)          110.23 -0.000043    0.08    110.31   
    29. A(H  11,C   2,H  12)          108.11  0.000316   -0.41    107.69   
    30. A(C   4,C   2,H  12)          108.43 -0.000207    0.09    108.53   
    31. A(C   4,C   2,H  11)          109.67  0.000006    0.25    109.92   
    32. A(C   1,C   2,C   4)          111.69  0.000066   -0.11    111.58   
    33. A(C   1,C   2,H  11)          108.64 -0.000127    0.09    108.74   
    34. A(H  13,C   3,H  14)          115.40 -0.000106    0.12    115.52   
    35. A(O   5,C   3,H  14)          114.24  0.000165    0.07    114.31   
    36. A(C   4,C   3,H  14)          121.41  0.000088   -0.17    121.25   
    37. A(O   5,C   3,H  13)          115.06  0.000077    0.07    115.13   
    38. A(C   4,C   3,H  13)          119.76  0.000011   -0.07    119.68   
    39. A(C   4,C   3,O   5)           56.50 -0.000226    0.07     56.56   
    40. A(C   2,C   4,C   3)          133.58 -0.000184    0.39    133.97   
    41. A(C   3,C   4,O   5)           61.17  0.000510   -0.07     61.11   
    42. A(C   2,C   4,O   5)          126.87 -0.000104   -0.10    126.77   
    43. A(C   3,O   5,C   4)           62.33 -0.000285    0.00     62.33   
    44. D(H   9,C   1,C   0,H   7)    179.57  0.000025    0.07    179.63   
    45. D(C   2,C   1,C   0,H   7)    -59.75 -0.000008    0.13    -59.63   
    46. D(H   9,C   1,C   0,H   8)    -60.36  0.000014    0.11    -60.26   
    47. D(C   2,C   1,C   0,H   8)     60.32 -0.000019    0.16     60.48   
    48. D(C   2,C   1,C   0,H   6)   -179.73 -0.000018    0.15   -179.58   
    49. D(H   9,C   1,C   0,H   6)     59.59  0.000015    0.09     59.68   
    50. D(C   4,C   2,C   1,C   0)   -178.11  0.000030   -0.13   -178.25   
    51. D(H  11,C   2,C   1,H  10)   -178.32  0.000016    0.15   -178.16   
    52. D(H  11,C   2,C   1,H   9)     64.31 -0.000003    0.19     64.50   
    53. D(H  11,C   2,C   1,C   0)    -57.02 -0.000005    0.17    -56.85   
    54. D(C   4,C   2,C   1,H  10)     60.59  0.000052   -0.15     60.44   
    55. D(C   4,C   2,C   1,H   9)    -56.78  0.000033   -0.12    -56.90   
    56. D(C   3,C   4,C   2,H  12)    -80.30  0.000229   -2.39    -82.70   
    57. D(C   3,C   4,C   2,H  11)     37.53  0.000493   -2.69     34.84   
    58. D(C   3,C   4,C   2,C   1)    158.03  0.000380   -2.48    155.55   
    59. D(O   5,C   4,C   3,H  14)     99.95  0.000052    0.21    100.16   
    60. D(O   5,C   4,C   3,H  13)   -101.93  0.000008   -0.15   -102.08   
    61. D(C   2,C   4,C   3,H  14)    -15.00 -0.000239    0.43    -14.57   
    62. D(C   2,C   4,C   3,H  13)    143.13 -0.000282    0.07    143.20   
    63. D(C   2,C   4,C   3,O   5)   -114.95 -0.000290    0.22   -114.72   
    64. D(O   5,C   4,C   2,H  11)    -45.68 -0.000076   -2.81    -48.49   
    65. D(O   5,C   4,C   2,C   1)     74.82 -0.000189   -2.60     72.22   
    66. D(C   3,O   5,C   4,C   2)    124.81  0.000055    0.50    125.32   
    67. D(C   4,O   5,C   3,H  14)   -112.79  0.000028    0.22   -112.57   
    68. D(C   4,O   5,C   3,H  13)    110.34 -0.000084   -0.11    110.23   
    ----------------------------------------------------------------------------

Geometry step timings:
Preparation and reading OPT file:      0.000 s ( 0.917 %)
Internal coordinates            :      0.000 s ( 1.245 %)
B/P matrices and projection     :      0.001 s (22.903 %)
Hessian update/contruction      :      0.001 s (31.389 %)
Making the step                 :      0.001 s (17.661 %)
Converting the step to Cartesian:      0.000 s ( 2.326 %)
Storing new data                :      0.000 s ( 1.311 %)
Checking convergence            :      0.000 s ( 1.802 %)
Final printing                  :      0.001 s (20.413 %)
Total time                      :      0.003 s

Time for energy+gradient        :      0.057 s
Time for complete geometry iter :      0.061 s

         *************************************************************
         *                GEOMETRY OPTIMIZATION CYCLE   8            *
         *************************************************************
---------------------------------
CARTESIAN COORDINATES (ANGSTROEM)
---------------------------------
  C     2.345340    0.026924   -0.179478
  C     1.021688    0.213608    0.549958
  C    -0.142340   -0.396638   -0.234654
  C    -2.813293   -0.122206    0.009874
  C    -1.435955   -0.179523    0.452964
  O    -2.115267    0.998534    0.563108
  H     3.160322    0.459564    0.395619
  H     2.554437   -1.030508   -0.328391
  H     2.319526    0.511629   -1.153363
  H     0.826959    1.277233    0.698717
  H     1.074893   -0.255843    1.533891
  H    -0.169700    0.057813   -1.237826
  H     0.007574   -1.471519   -0.361036
  H    -3.595542   -0.531526    0.636525
  H    -3.062850   -0.018540   -1.042266

----------------------------
CARTESIAN COORDINATES (A.U.)
----------------------------
  NO LB    ZA    FRAG    MASS        X           Y           Z
   0 C   6.0000    1    12.011    4.432050    0.050878   -0.339164
   1 C   6.0000    1    12.011    1.930710    0.403661    1.039269
   2 C   6.0000    1    12.011   -0.268983   -0.749537   -0.443433
   3 C   6.0000    1    12.011   -5.316353   -0.230936    0.018658
   4 C   6.0000    1    12.011   -2.713562   -0.339250    0.855978
   5 O   8.0000    1    15.999   -3.997275    1.886955    1.064120
   6 H   1.0000    1     1.008    5.972143    0.868450    0.747612
   7 H   1.0000    1     1.008    4.827187   -1.947378   -0.620569
   8 H   1.0000    1     1.008    4.383269    0.966838   -2.179540
   9 H   1.0000    1     1.008    1.562727    2.413620    1.320384
  10 H   1.0000    1     1.008    2.031253   -0.483473    2.898633
  11 H   1.0000    1     1.008   -0.320687    0.109250   -2.339153
  12 H   1.0000    1     1.008    0.014312   -2.780768   -0.682259
  13 H   1.0000    1     1.008   -6.794590   -1.004438    1.202858
  14 H   1.0000    1     1.008   -5.787948   -0.035036   -1.969598

      -----------------------------------------------------------      
     |                   =====================                   |     
     |                           x T B                           |     
     |                   =====================                   |     
     |                         S. Grimme                         |     
     |          Mulliken Center for Theoretical Chemistry        |     
     |                    University of Bonn                     |     
      -----------------------------------------------------------      

   * xtb version 6.7.1 (edcfbbe) compiled by 'albert@albert-system' on 2024-07-22

   xtb is free software: you can redistribute it and/or modify it under
   the terms of the GNU Lesser General Public License as published by
   the Free Software Foundation, either version 3 of the License, or
   (at your option) any later version.
   
   xtb is distributed in the hope that it will be useful,
   but WITHOUT ANY WARRANTY; without even the implied warranty of
   MERCHANTABILITY or FITNESS FOR A PARTICULAR PURPOSE.  See the
   GNU Lesser General Public License for more details.
   
   Cite this work as:
   * C. Bannwarth, E. Caldeweyher, S. Ehlert, A. Hansen, P. Pracht,
     J. Seibert, S. Spicher, S. Grimme, WIREs Comput. Mol. Sci., 2020, 11,
     e01493. DOI: 10.1002/wcms.1493
   
   for GFN2-xTB:
   * C. Bannwarth, S. Ehlert and S. Grimme., J. Chem. Theory Comput., 2019,
     15, 1652-1671. DOI: 10.1021/acs.jctc.8b01176
   for GFN1-xTB:
   * S. Grimme, C. Bannwarth, P. Shushkov, J. Chem. Theory Comput., 2017,
     13, 1989-2009. DOI: 10.1021/acs.jctc.7b00118
   for GFN0-xTB:
   * P. Pracht, E. Caldeweyher, S. Ehlert, S. Grimme, ChemRxiv, 2019, preprint.
     DOI: 10.26434/chemrxiv.8326202.v1
   for GFN-FF:
   * S. Spicher and S. Grimme, Angew. Chem. Int. Ed., 2020, 59, 15665-15673.
     DOI: 10.1002/anie.202004239
   
   for ALPB and GBSA implicit solvation:
   * S. Ehlert, M. Stahn, S. Spicher, S. Grimme, J. Chem. Theory Comput.,
     2021, 17, 4250-4261. DOI: 10.1021/acs.jctc.1c00471
   
   for ddCOSMO and CPCM-X implicit solvation:
   * M. Stahn, S. Ehlert, S. Grimme, J. Phys. Chem. A,
     2023, XX, XXXX-XXXX. DOI: 10.1021/acs.jpca.3c04382
   
   for DFT-D4:
   * E. Caldeweyher, C. Bannwarth and S. Grimme, J. Chem. Phys., 2017,
     147, 034112. DOI: 10.1063/1.4993215
   * E. Caldeweyher, S. Ehlert, A. Hansen, H. Neugebauer, S. Spicher,
     C. Bannwarth and S. Grimme, J. Chem. Phys., 2019, 150, 154122.
     DOI: 10.1063/1.5090222
   * E. Caldeweyher, J.-M. Mewes, S. Ehlert and S. Grimme, Phys. Chem. Chem. Phys.
     2020, 22, 8499-8512. DOI: 10.1039/D0CP00502A
   
   for sTDA-xTB:
   * S. Grimme and C. Bannwarth, J. Chem. Phys., 2016, 145, 054103.
     DOI: 10.1063/1.4959605
   
   in the mass-spec context:
   * V. Asgeirsson, C. Bauer and S. Grimme, Chem. Sci., 2017, 8, 4879.
     DOI: 10.1039/c7sc00601b
   * J. Koopman and S. Grimme, ACS Omega 2019, 4, 12, 15120-15133.
     DOI: 10.1021/acsomega.9b02011
   
   for metadynamics refer to:
   * S. Grimme, J. Chem. Theory Comput., 2019, 155, 2847-2862
     DOI: 10.1021/acs.jctc.9b00143
   
   for SPH calculations refer to:
   * S. Spicher and S. Grimme, J. Chem. Theory Comput., 2021, 17, 1701-1714
     DOI: 10.1021/acs.jctc.0c01306
   
   for ONIOM refer to:
   * C. Plett, A. Katbashev, S. Ehlert, S. Grimme, M. Bursch,
     Phys. Chem. Chem. Phys., 2023, 25, 17860-17868. DOI: 10.1039/D3CP02178E
   
   for DIPRO refer to:
   * J. Kohn, N. Gildemeister, S. Grimme, D. Fazzi, A. Hansen,
     J. Chem. Phys., 2023, just accepted.
   
   for PTB refer to:
   * S. Grimme, M. Mueller, A. Hansen, J. Chem. Phys., 2023, 158, 124111.
     DOI: 10.1063/5.0137838
   
   with help from (in alphabetical order)
   P. Atkinson, C. Bannwarth, F. Bohle, G. Brandenburg, E. Caldeweyher
   M. Checinski, S. Dohm, S. Ehlert, S. Ehrlich, I. Gerasimov, C. Hölzer
   A. Katbashev, J. Kohn, J. Koopman, C. Lavigne, S. Lehtola, F. März, M. Müller,
   F. Musil, H. Neugebauer, J. Pisarek, C. Plett, P. Pracht, F. Pultar,
   J. Seibert, P. Shushkov, S. Spicher, M. Stahn, M. Steiner, T. Strunk,
   J. Stückrath, T. Rose, and J. Unsleber
   
 * started run on 2026/02/12 at 17:30:17.651     
   ID    Z sym.   atoms
    1    6 C      1-5
    2    8 O      6
    3    1 H      7-15

           -------------------------------------------------
          |                Calculation Setup                |
           -------------------------------------------------

          program call               : /apps/eb/ORCA/6.1.1-gompi-2024a-avx2/bin/otool_xtb goat_XTB.xyz --grad -c 0 -u 1 -P 8 --namespace goat --input goat_XTB.input.tmp --acc 0.200000
          hostname                   : a2-4
          calculation namespace      : goat
          coordinate file            : goat_XTB.xyz
          omp threads                :                     8


           -------------------------------------------------
          |                 G F N 2 - x T B                 |
           -------------------------------------------------

        Reference                      10.1021/acs.jctc.8b01176
      * Hamiltonian:
        H0-scaling (s, p, d)           1.850000    2.230000    2.230000
        zeta-weighting                 0.500000
      * Dispersion:
        s8                             2.700000
        a1                             0.520000
        a2                             5.000000
        s9                             5.000000
      * Repulsion:
        kExp                           1.500000    1.000000
        rExp                           1.000000
      * Coulomb:
        alpha                          2.000000
        third order                    shell-resolved
        anisotropic                    true
        a3                             3.000000
        a5                             4.000000
        cn-shift                       1.200000
        cn-exp                         4.000000
        max-rad                        5.000000

q/qsh data taken from xtbrestart
CAMM data taken from xtbrestart

          ...................................................
          :                      SETUP                      :
          :.................................................:
          :  # basis functions                  33          :
          :  # atomic orbitals                  33          :
          :  # shells                           21          :
          :  # electrons                        35          :
          :  max. iterations                   250          :
          :  Hamiltonian                  GFN2-xTB          :
          :  restarted?                       true          :
          :  GBSA solvation                  false          :
          :  PC potential                    false          :
          :  electronic temp.          300.0000000     K    :
          :  accuracy                    0.2000000          :
          :  -> integral cutoff          0.3198970E+02      :
          :  -> integral neglect         0.2000000E-08      :
          :  -> SCF convergence          0.2000000E-06 Eh   :
          :  -> wf. convergence          0.2000000E-04 e    :
          :  Broyden damping             0.4000000          :
          :  net charge                          0          :
          :  unpaired electrons                  1          :
          ...................................................

 iter      E             dE          RMSdq      gap      omega  full diag
   1    -19.4869382 -0.194869E+02  0.988E-02    6.34       0.0  T
   2    -19.4869391 -0.949662E-06  0.600E-02    6.34       1.0  T
   3    -19.4869386  0.482910E-06  0.800E-03    6.34       3.2  T
   4    -19.4869395 -0.818588E-06  0.209E-03    6.34      12.4  T
   5    -19.4869395 -0.169283E-08  0.815E-04    6.34      31.7  T
   6    -19.4869395 -0.111212E-08  0.156E-04    6.34     165.3  T
   7    -19.4869395 -0.249756E-10  0.473E-05    6.34     546.3  T

   *** convergence criteria satisfied after 7 iterations ***

         #    Occupation            Energy/Eh            Energy/eV
      -------------------------------------------------------------
         1        2.0000           -0.7210220             -19.6200
       ...           ...                  ...                  ...
        12        2.0000           -0.4785103             -13.0209
        13        2.0000           -0.4649042             -12.6507
        14        2.0000           -0.4510055             -12.2725
        15        2.0000           -0.4445362             -12.0964
        16        2.0000           -0.4346196             -11.8266
        17        2.0000           -0.4314483             -11.7403
        18        1.0000           -0.3140761              -8.5464 (HOMO)
        19                         -0.0810763              -2.2062 (LUMO)
        20                          0.0655032               1.7824
        21                          0.0840449               2.2870
        22                          0.1207062               3.2846
        23                          0.1340930               3.6489
       ...                                ...                  ...
        33                          0.4255510              11.5798
      -------------------------------------------------------------
                  HL-Gap            0.2329998 Eh            6.3402 eV
             Fermi-level           -0.2851692 Eh           -7.7598 eV

 SCC (total)                   0 d,  0 h,  0 min,  0.041 sec
 SCC setup                      ...        0 min,  0.001 sec (  2.364%)
 Dispersion                     ...        0 min,  0.000 sec (  1.095%)
 classical contributions        ...        0 min,  0.000 sec (  0.864%)
 integral evaluation            ...        0 min,  0.001 sec (  3.538%)
 iterations                     ...        0 min,  0.026 sec ( 63.486%)
 molecular gradient             ...        0 min,  0.010 sec ( 25.286%)
 printout                       ...        0 min,  0.001 sec (  3.302%)

         :::::::::::::::::::::::::::::::::::::::::::::::::::::
         ::                     SUMMARY                     ::
         :::::::::::::::::::::::::::::::::::::::::::::::::::::
         :: total energy             -19.249543495058 Eh    ::
         :: gradient norm              0.002439666771 Eh/a0 ::
         :: HOMO-LUMO gap              6.340247838002 eV    ::
         ::.................................................::
         :: SCC energy               -19.486943555900 Eh    ::
         :: -> isotropic ES            0.016859670739 Eh    ::
         :: -> anisotropic ES          0.001556751255 Eh    ::
         :: -> anisotropic XC          0.006275524067 Eh    ::
         :: -> dispersion             -0.007559994029 Eh    ::
         :: repulsion energy           0.237400060842 Eh    ::
         :: add. restraining           0.000000000000 Eh    ::
         :: total charge              -0.000000000000 e     ::
         :::::::::::::::::::::::::::::::::::::::::::::::::::::


Property printout bound to 'properties.out'

           -------------------------------------------------
          | TOTAL ENERGY              -19.249543495058 Eh   |
          | GRADIENT NORM               0.002439666771 Eh/α |
          | HOMO-LUMO GAP               6.340247838002 eV   |
           -------------------------------------------------

------------------------------------------------------------------------
 * finished run on 2026/02/12 at 17:30:17.721     
------------------------------------------------------------------------
 total:
 * wall-time:     0 d,  0 h,  0 min,  0.069 sec
 *  cpu-time:     0 d,  0 h,  0 min,  0.268 sec
 * ratio c/w:     3.876 speedup
 SCF:
 * wall-time:     0 d,  0 h,  0 min,  0.041 sec
 *  cpu-time:     0 d,  0 h,  0 min,  0.162 sec
 * ratio c/w:     3.974 speedup


-------------------------   --------------------
FINAL SINGLE POINT ENERGY       -19.249543495060
-------------------------   --------------------


-------------
DIPOLE MOMENT
-------------
                                X             Y             Z
Total Dipole Moment    :      0.22300      -0.53000      -0.48300
                        -----------------------------------------
Magnitude (a.u.)       :      0.75094
Magnitude (Debye)      :      1.90875


------------------
CARTESIAN GRADIENT
------------------

   1   C   :   -0.000131935   -0.000006360    0.000025784
   2   C   :   -0.000152694   -0.000096935   -0.000074012
   3   C   :   -0.000292471   -0.000473477    0.000432210
   4   C   :   -0.000479471   -0.000995557    0.000096870
   5   C   :   -0.000458145    0.001160149   -0.000933850
   6   O   :    0.000625862    0.000727644    0.000651616
   7   H   :    0.000059895    0.000002344    0.000015883
   8   H   :    0.000036789   -0.000033977   -0.000003647
   9   H   :    0.000032872    0.000044268   -0.000024323
  10   H   :    0.000038751    0.000032391    0.000069274
  11   H   :    0.000097775    0.000066105    0.000069250
  12   H   :    0.000357739   -0.000068373   -0.000046435
  13   H   :   -0.000077993    0.000003803   -0.000268977
  14   H   :    0.000170392   -0.000238969   -0.000090220
  15   H   :    0.000172633   -0.000123057    0.000080578

Difference to translation invariance:
           :    0.0000000000   -0.0000000000    0.0000000000

Difference to rotation invariance:
           :    0.0000001113    0.0000001357   -0.0000003112

Norm of the Cartesian gradient     ...    0.0024396668
RMS gradient                       ...    0.0003636840
MAX gradient                       ...    0.0011601486
------------------------------------------------------------------------------
                         ORCA GEOMETRY RELAXATION STEP
------------------------------------------------------------------------------

Reading the OPT-File                    .... done
Getting information on internals        .... done
Copying old internal coords+grads       .... done
Making the new internal coordinates     .... (2022 redundants) done
Validating the new internal coordinates .... (2022 redundants) done
Calculating the B-matrix                .... done
Calculating the G,G- and P matrices     .... done
Transforming gradient to internals      .... done
Projecting the internal gradient        .... done
Number of atoms                         ....  15
Number of internal coordinates          ....  68
Current Energy                          ....   -19.249543495 Eh
Current gradient norm                   ....     0.002439667 Eh/bohr
Maximum allowed component of the step   ....  0.300
Current trust radius                    ....  0.450
Updating the Hessian (BFGS)             .... done
Forming the augmented Hessian           .... done
Diagonalizing the augmented Hessian     .... done
Last element of RFO vector              ....  0.992958952
Lowest eigenvalues of augmented Hessian:
 -0.000043993  0.001813090  0.010259507  0.011900608  0.027503627
Length of the computed step             ....  0.119298926
The final length of the internal step   ....  0.119298926
Converting the step to Cartesian space:
 Initial RMS(Int)=    0.0144671198
Transforming coordinates:
 Iter   0:  RMS(Cart)=    0.0256092479 RMS(Int)=    0.0144682482
done
Storing new coordinates                 .... done
The predicted energy change is          ....    -0.000022309
Previously predicted energy change      ....    -0.000024100
Actually observed energy change         ....    -0.000034733
Ratio of predicted to observed change   ....     1.441232179
New trust radius                        ....     0.450000000

                                .--------------------.
          ----------------------|Geometry convergence|-------------------------
          Item                value                   Tolerance       Converged
          ---------------------------------------------------------------------
          Energy change      -0.0000347331            0.0000050000      NO
          RMS gradient        0.0001706594            0.0001000000      NO
          MAX gradient        0.0006621254            0.0003000000      NO
          RMS step            0.0144671198            0.0020000000      NO
          MAX step            0.0566242492            0.0040000000      NO
          -------------------------------------------------------------------------
          ........................................................
          Max(Bonds)      0.0021      Max(Angles)    0.31
          Max(Dihed)        3.24      Max(Improp)    0.00
          ---------------------------------------------------------------------

    ---------------------------------------------------------------------------
                         Redundant Internal Coordinates
                            (Angstroem and degrees)

        Definition                    Value    dE/dq     Step     New-Value
    ----------------------------------------------------------------------------
     1. B(C   1,C   0)                1.5228 -0.000009  0.0000    1.5228   
     2. B(C   2,C   1)                1.5307  0.000029 -0.0009    1.5298   
     3. B(C   4,C   3)                1.4480 -0.000296  0.0007    1.4487   
     4. B(C   4,C   2)                1.4810 -0.000040 -0.0002    1.4809   
     5. B(O   5,C   4)                1.3643  0.000041  0.0012    1.3656   
     6. B(O   5,C   3)                1.4316  0.000662 -0.0021    1.4294   
     7. B(H   6,C   0)                1.0872  0.000054 -0.0000    1.0872   
     8. B(H   7,C   0)                1.0881  0.000041 -0.0000    1.0881   
     9. B(H   8,C   0)                1.0881  0.000041 -0.0000    1.0881   
    10. B(H   9,C   1)                1.0915  0.000034  0.0000    1.0915   
    11. B(H  10,C   1)                1.0915  0.000039  0.0000    1.0915   
    12. B(H  11,C   2)                1.1016  0.000005  0.0002    1.1018   
    13. B(H  12,C   2)                1.0926  0.000017  0.0004    1.0930   
    14. B(H  13,C   3)                1.0827 -0.000085  0.0000    1.0827   
    15. B(H  14,C   3)                1.0863 -0.000129  0.0002    1.0865   
    16. A(C   1,C   0,H   7)          110.59  0.000030    0.03    110.62   
    17. A(C   1,C   0,H   6)          110.45  0.000019   -0.00    110.45   
    18. A(H   6,C   0,H   7)          108.36 -0.000037   -0.03    108.34   
    19. A(H   7,C   0,H   8)          108.36 -0.000006   -0.02    108.34   
    20. A(C   1,C   0,H   8)          110.70  0.000024    0.04    110.74   
    21. A(H   6,C   0,H   8)          108.30 -0.000034   -0.03    108.27   
    22. A(C   2,C   1,H   9)          108.83  0.000055    0.02    108.85   
    23. A(C   0,C   1,C   2)          111.51 -0.000005    0.06    111.57   
    24. A(H   9,C   1,H  10)          107.76 -0.000109   -0.05    107.71   
    25. A(C   0,C   1,H   9)          109.87 -0.000047   -0.03    109.84   
    26. A(C   2,C   1,H  10)          109.13  0.000179    0.04    109.17   
    27. A(C   0,C   1,H  10)          109.68 -0.000074   -0.05    109.63   
    28. A(C   1,C   2,H  12)          110.31  0.000079    0.03    110.35   
    29. A(H  11,C   2,H  12)          107.69 -0.000142   -0.29    107.40   
    30. A(C   4,C   2,H  12)          108.53  0.000084    0.09    108.62   
    31. A(C   4,C   2,H  11)          109.91  0.000330    0.10    110.02   
    32. A(C   1,C   2,C   4)          111.58 -0.000201   -0.08    111.50   
    33. A(C   1,C   2,H  11)          108.74 -0.000145    0.14    108.87   
    34. A(H  13,C   3,H  14)          115.51  0.000077    0.09    115.60   
    35. A(O   5,C   3,H  14)          114.31  0.000090    0.05    114.36   
    36. A(C   4,C   3,H  14)          121.24 -0.000097   -0.12    121.12   
    37. A(O   5,C   3,H  13)          115.13  0.000064    0.00    115.13   
    38. A(C   4,C   3,H  13)          119.68 -0.000067   -0.04    119.64   
    39. A(C   4,C   3,O   5)           56.56 -0.000051    0.08     56.64   
    40. A(C   2,C   4,C   3)          133.99  0.000116    0.17    134.16   
    41. A(C   3,C   4,O   5)           61.11  0.000353   -0.14     60.97   
    42. A(C   2,C   4,O   5)          126.80 -0.000041   -0.31    126.49   
    43. A(C   3,O   5,C   4)           62.33 -0.000302    0.06     62.39   
    44. D(H   9,C   1,C   0,H   7)    179.63 -0.000019   -0.02    179.61   
    45. D(C   2,C   1,C   0,H   7)    -59.63  0.000014    0.03    -59.60   
    46. D(H   9,C   1,C   0,H   8)    -60.26  0.000009    0.00    -60.26   
    47. D(C   2,C   1,C   0,H   8)     60.48  0.000043    0.05     60.53   
    48. D(C   2,C   1,C   0,H   6)   -179.58  0.000029    0.04   -179.54   
    49. D(H   9,C   1,C   0,H   6)     59.68 -0.000005   -0.01     59.68   
    50. D(C   4,C   2,C   1,C   0)   -178.25 -0.000065   -0.23   -178.48   
    51. D(H  11,C   2,C   1,H  10)   -178.17  0.000098   -0.08   -178.24   
    52. D(H  11,C   2,C   1,H   9)     64.50  0.000097   -0.05     64.44   
    53. D(H  11,C   2,C   1,C   0)    -56.85  0.000123   -0.07    -56.92   
    54. D(C   4,C   2,C   1,H  10)     60.44 -0.000089   -0.24     60.20   
    55. D(C   4,C   2,C   1,H   9)    -56.90 -0.000091   -0.22    -57.12   
    56. D(C   3,C   4,C   2,H  12)    -82.70  0.000356   -3.01    -85.71   
    57. D(C   3,C   4,C   2,H  11)     34.83  0.000421   -3.24     31.59   
    58. D(C   3,C   4,C   2,C   1)    155.54  0.000329   -3.06    152.48   
    59. D(O   5,C   4,C   3,H  14)    100.15  0.000145    0.18    100.33   
    60. D(O   5,C   4,C   3,H  13)   -102.08 -0.000096   -0.06   -102.14   
    61. D(C   2,C   4,C   3,H  14)    -14.57 -0.000064    0.71    -13.86   
    62. D(C   2,C   4,C   3,H  13)    143.20 -0.000305    0.47    143.67   
    63. D(C   2,C   4,C   3,O   5)   -114.72 -0.000209    0.53   -114.19   
    64. D(O   5,C   4,C   2,H  11)    -48.48 -0.000157   -2.93    -51.41   
    65. D(O   5,C   4,C   2,C   1)     72.23 -0.000248   -2.74     69.49   
    66. D(C   3,O   5,C   4,C   2)    125.31  0.000337    0.21    125.52   
    67. D(C   4,O   5,C   3,H  14)   -112.57  0.000176    0.15   -112.41   
    68. D(C   4,O   5,C   3,H  13)    110.23 -0.000129   -0.02    110.20   
    ----------------------------------------------------------------------------

Geometry step timings:
Preparation and reading OPT file:      0.000 s ( 0.717 %)
Internal coordinates            :      0.000 s ( 1.513 %)
B/P matrices and projection     :      0.001 s (16.698 %)
Hessian update/contruction      :      0.002 s (44.412 %)
Making the step                 :      0.001 s (15.530 %)
Converting the step to Cartesian:      0.000 s ( 1.991 %)
Storing new data                :      0.000 s ( 1.009 %)
Checking convergence            :      0.000 s ( 1.487 %)
Final printing                  :      0.001 s (16.618 %)
Total time                      :      0.004 s

Time for energy+gradient        :      0.087 s
Time for complete geometry iter :      0.092 s

         *************************************************************
         *                GEOMETRY OPTIMIZATION CYCLE   9            *
         *************************************************************
---------------------------------
CARTESIAN COORDINATES (ANGSTROEM)
---------------------------------
  C     2.342617    0.032630   -0.179613
  C     1.015466    0.213841    0.544889
  C    -0.141305   -0.413863   -0.234964
  C    -2.811365   -0.109195    0.008609
  C    -1.435958   -0.205261    0.452990
  O    -2.097550    0.980506    0.597392
  H     3.152151    0.477692    0.393607
  H     2.562218   -1.023996   -0.318595
  H     2.315720    0.508250   -1.157906
  H     0.811329    1.277117    0.683510
  H     1.071856   -0.245054    1.533615
  H    -0.173994    0.030079   -1.242876
  H     0.020505   -1.488030   -0.356032
  H    -3.602030   -0.524897    0.620375
  H    -3.053868    0.029180   -1.041362

----------------------------
CARTESIAN COORDINATES (A.U.)
----------------------------
  NO LB    ZA    FRAG    MASS        X           Y           Z
   0 C   6.0000    1    12.011    4.426905    0.061663   -0.339419
   1 C   6.0000    1    12.011    1.918952    0.404101    1.029691
   2 C   6.0000    1    12.011   -0.267027   -0.782088   -0.444017
   3 C   6.0000    1    12.011   -5.312710   -0.206349    0.016270
   4 C   6.0000    1    12.011   -2.713568   -0.387887    0.856028
   5 O   8.0000    1    15.999   -3.963794    1.852888    1.128907
   6 H   1.0000    1     1.008    5.956701    0.902707    0.743810
   7 H   1.0000    1     1.008    4.841891   -1.935071   -0.602057
   8 H   1.0000    1     1.008    4.376076    0.960453   -2.188125
   9 H   1.0000    1     1.008    1.533190    2.413401    1.291647
  10 H   1.0000    1     1.008    2.025514   -0.463085    2.898113
  11 H   1.0000    1     1.008   -0.328802    0.056842   -2.348696
  12 H   1.0000    1     1.008    0.038749   -2.811968   -0.672803
  13 H   1.0000    1     1.008   -6.806849   -0.991912    1.172338
  14 H   1.0000    1     1.008   -5.770974    0.055142   -1.967888

      -----------------------------------------------------------      
     |                   =====================                   |     
     |                           x T B                           |     
     |                   =====================                   |     
     |                         S. Grimme                         |     
     |          Mulliken Center for Theoretical Chemistry        |     
     |                    University of Bonn                     |     
      -----------------------------------------------------------      

   * xtb version 6.7.1 (edcfbbe) compiled by 'albert@albert-system' on 2024-07-22

   xtb is free software: you can redistribute it and/or modify it under
   the terms of the GNU Lesser General Public License as published by
   the Free Software Foundation, either version 3 of the License, or
   (at your option) any later version.
   
   xtb is distributed in the hope that it will be useful,
   but WITHOUT ANY WARRANTY; without even the implied warranty of
   MERCHANTABILITY or FITNESS FOR A PARTICULAR PURPOSE.  See the
   GNU Lesser General Public License for more details.
   
   Cite this work as:
   * C. Bannwarth, E. Caldeweyher, S. Ehlert, A. Hansen, P. Pracht,
     J. Seibert, S. Spicher, S. Grimme, WIREs Comput. Mol. Sci., 2020, 11,
     e01493. DOI: 10.1002/wcms.1493
   
   for GFN2-xTB:
   * C. Bannwarth, S. Ehlert and S. Grimme., J. Chem. Theory Comput., 2019,
     15, 1652-1671. DOI: 10.1021/acs.jctc.8b01176
   for GFN1-xTB:
   * S. Grimme, C. Bannwarth, P. Shushkov, J. Chem. Theory Comput., 2017,
     13, 1989-2009. DOI: 10.1021/acs.jctc.7b00118
   for GFN0-xTB:
   * P. Pracht, E. Caldeweyher, S. Ehlert, S. Grimme, ChemRxiv, 2019, preprint.
     DOI: 10.26434/chemrxiv.8326202.v1
   for GFN-FF:
   * S. Spicher and S. Grimme, Angew. Chem. Int. Ed., 2020, 59, 15665-15673.
     DOI: 10.1002/anie.202004239
   
   for ALPB and GBSA implicit solvation:
   * S. Ehlert, M. Stahn, S. Spicher, S. Grimme, J. Chem. Theory Comput.,
     2021, 17, 4250-4261. DOI: 10.1021/acs.jctc.1c00471
   
   for ddCOSMO and CPCM-X implicit solvation:
   * M. Stahn, S. Ehlert, S. Grimme, J. Phys. Chem. A,
     2023, XX, XXXX-XXXX. DOI: 10.1021/acs.jpca.3c04382
   
   for DFT-D4:
   * E. Caldeweyher, C. Bannwarth and S. Grimme, J. Chem. Phys., 2017,
     147, 034112. DOI: 10.1063/1.4993215
   * E. Caldeweyher, S. Ehlert, A. Hansen, H. Neugebauer, S. Spicher,
     C. Bannwarth and S. Grimme, J. Chem. Phys., 2019, 150, 154122.
     DOI: 10.1063/1.5090222
   * E. Caldeweyher, J.-M. Mewes, S. Ehlert and S. Grimme, Phys. Chem. Chem. Phys.
     2020, 22, 8499-8512. DOI: 10.1039/D0CP00502A
   
   for sTDA-xTB:
   * S. Grimme and C. Bannwarth, J. Chem. Phys., 2016, 145, 054103.
     DOI: 10.1063/1.4959605
   
   in the mass-spec context:
   * V. Asgeirsson, C. Bauer and S. Grimme, Chem. Sci., 2017, 8, 4879.
     DOI: 10.1039/c7sc00601b
   * J. Koopman and S. Grimme, ACS Omega 2019, 4, 12, 15120-15133.
     DOI: 10.1021/acsomega.9b02011
   
   for metadynamics refer to:
   * S. Grimme, J. Chem. Theory Comput., 2019, 155, 2847-2862
     DOI: 10.1021/acs.jctc.9b00143
   
   for SPH calculations refer to:
   * S. Spicher and S. Grimme, J. Chem. Theory Comput., 2021, 17, 1701-1714
     DOI: 10.1021/acs.jctc.0c01306
   
   for ONIOM refer to:
   * C. Plett, A. Katbashev, S. Ehlert, S. Grimme, M. Bursch,
     Phys. Chem. Chem. Phys., 2023, 25, 17860-17868. DOI: 10.1039/D3CP02178E
   
   for DIPRO refer to:
   * J. Kohn, N. Gildemeister, S. Grimme, D. Fazzi, A. Hansen,
     J. Chem. Phys., 2023, just accepted.
   
   for PTB refer to:
   * S. Grimme, M. Mueller, A. Hansen, J. Chem. Phys., 2023, 158, 124111.
     DOI: 10.1063/5.0137838
   
   with help from (in alphabetical order)
   P. Atkinson, C. Bannwarth, F. Bohle, G. Brandenburg, E. Caldeweyher
   M. Checinski, S. Dohm, S. Ehlert, S. Ehrlich, I. Gerasimov, C. Hölzer
   A. Katbashev, J. Kohn, J. Koopman, C. Lavigne, S. Lehtola, F. März, M. Müller,
   F. Musil, H. Neugebauer, J. Pisarek, C. Plett, P. Pracht, F. Pultar,
   J. Seibert, P. Shushkov, S. Spicher, M. Stahn, M. Steiner, T. Strunk,
   J. Stückrath, T. Rose, and J. Unsleber
   
 * started run on 2026/02/12 at 17:30:17.744     
   ID    Z sym.   atoms
    1    6 C      1-5
    2    8 O      6
    3    1 H      7-15

           -------------------------------------------------
          |                Calculation Setup                |
           -------------------------------------------------

          program call               : /apps/eb/ORCA/6.1.1-gompi-2024a-avx2/bin/otool_xtb goat_XTB.xyz --grad -c 0 -u 1 -P 8 --namespace goat --input goat_XTB.input.tmp --acc 0.200000
          hostname                   : a2-4
          calculation namespace      : goat
          coordinate file            : goat_XTB.xyz
          omp threads                :                     8


           -------------------------------------------------
          |                 G F N 2 - x T B                 |
           -------------------------------------------------

        Reference                      10.1021/acs.jctc.8b01176
      * Hamiltonian:
        H0-scaling (s, p, d)           1.850000    2.230000    2.230000
        zeta-weighting                 0.500000
      * Dispersion:
        s8                             2.700000
        a1                             0.520000
        a2                             5.000000
        s9                             5.000000
      * Repulsion:
        kExp                           1.500000    1.000000
        rExp                           1.000000
      * Coulomb:
        alpha                          2.000000
        third order                    shell-resolved
        anisotropic                    true
        a3                             3.000000
        a5                             4.000000
        cn-shift                       1.200000
        cn-exp                         4.000000
        max-rad                        5.000000

q/qsh data taken from xtbrestart
CAMM data taken from xtbrestart

          ...................................................
          :                      SETUP                      :
          :.................................................:
          :  # basis functions                  33          :
          :  # atomic orbitals                  33          :
          :  # shells                           21          :
          :  # electrons                        35          :
          :  max. iterations                   250          :
          :  Hamiltonian                  GFN2-xTB          :
          :  restarted?                       true          :
          :  GBSA solvation                  false          :
          :  PC potential                    false          :
          :  electronic temp.          300.0000000     K    :
          :  accuracy                    0.2000000          :
          :  -> integral cutoff          0.3198970E+02      :
          :  -> integral neglect         0.2000000E-08      :
          :  -> SCF convergence          0.2000000E-06 Eh   :
          :  -> wf. convergence          0.2000000E-04 e    :
          :  Broyden damping             0.4000000          :
          :  net charge                          0          :
          :  unpaired electrons                  1          :
          ...................................................

 iter      E             dE          RMSdq      gap      omega  full diag
   1    -19.4868874 -0.194869E+02  0.115E-01    6.36       0.0  T
   2    -19.4868887 -0.127933E-05  0.700E-02    6.35       1.0  T
   3    -19.4868880  0.678939E-06  0.936E-03    6.35       2.8  T
   4    -19.4868892 -0.113998E-05  0.246E-03    6.35      10.5  T
   5    -19.4868892 -0.292130E-08  0.858E-04    6.35      30.1  T
   6    -19.4868892 -0.135806E-08  0.229E-04    6.35     112.7  T
   7    -19.4868892 -0.984386E-10  0.636E-05    6.35     406.2  T
   8    -19.4868892 -0.343192E-11  0.269E-05    6.35     959.2  T

   *** convergence criteria satisfied after 8 iterations ***

         #    Occupation            Energy/Eh            Energy/eV
      -------------------------------------------------------------
         1        2.0000           -0.7210054             -19.6196
       ...           ...                  ...                  ...
        12        2.0000           -0.4782014             -13.0125
        13        2.0000           -0.4651292             -12.6568
        14        2.0000           -0.4509685             -12.2715
        15        2.0000           -0.4442187             -12.0878
        16        2.0000           -0.4344401             -11.8217
        17        2.0000           -0.4314874             -11.7414
        18        1.0000           -0.3142357              -8.5508 (HOMO)
        19                         -0.0808420              -2.1998 (LUMO)
        20                          0.0663904               1.8066
        21                          0.0846496               2.3034
        22                          0.1211973               3.2979
        23                          0.1336067               3.6356
       ...                                ...                  ...
        33                          0.4243291              11.5466
      -------------------------------------------------------------
                  HL-Gap            0.2333937 Eh            6.3510 eV
             Fermi-level           -0.2852002 Eh           -7.7607 eV

 SCC (total)                   0 d,  0 h,  0 min,  0.025 sec
 SCC setup                      ...        0 min,  0.000 sec (  1.040%)
 Dispersion                     ...        0 min,  0.000 sec (  1.560%)
 classical contributions        ...        0 min,  0.000 sec (  0.913%)
 integral evaluation            ...        0 min,  0.001 sec (  4.390%)
 iterations                     ...        0 min,  0.017 sec ( 70.100%)
 molecular gradient             ...        0 min,  0.004 sec ( 17.988%)
 printout                       ...        0 min,  0.001 sec (  3.895%)

         :::::::::::::::::::::::::::::::::::::::::::::::::::::
         ::                     SUMMARY                     ::
         :::::::::::::::::::::::::::::::::::::::::::::::::::::
         :: total energy             -19.249575642197 Eh    ::
         :: gradient norm              0.002091285345 Eh/a0 ::
         :: HOMO-LUMO gap              6.350965161395 eV    ::
         ::.................................................::
         :: SCC energy               -19.486893192644 Eh    ::
         :: -> isotropic ES            0.016861316729 Eh    ::
         :: -> anisotropic ES          0.001557662439 Eh    ::
         :: -> anisotropic XC          0.006243778016 Eh    ::
         :: -> dispersion             -0.007568822920 Eh    ::
         :: repulsion energy           0.237317550447 Eh    ::
         :: add. restraining           0.000000000000 Eh    ::
         :: total charge               0.000000000000 e     ::
         :::::::::::::::::::::::::::::::::::::::::::::::::::::


Property printout bound to 'properties.out'

           -------------------------------------------------
          | TOTAL ENERGY              -19.249575642197 Eh   |
          | GRADIENT NORM               0.002091285345 Eh/α |
          | HOMO-LUMO GAP               6.350965161395 eV   |
           -------------------------------------------------

------------------------------------------------------------------------
 * finished run on 2026/02/12 at 17:30:17.789     
------------------------------------------------------------------------
 total:
 * wall-time:     0 d,  0 h,  0 min,  0.043 sec
 *  cpu-time:     0 d,  0 h,  0 min,  0.163 sec
 * ratio c/w:     3.791 speedup
 SCF:
 * wall-time:     0 d,  0 h,  0 min,  0.025 sec
 *  cpu-time:     0 d,  0 h,  0 min,  0.098 sec
 * ratio c/w:     3.966 speedup


-------------------------   --------------------
FINAL SINGLE POINT ENERGY       -19.249575642200
-------------------------   --------------------


-------------
DIPOLE MOMENT
-------------
                                X             Y             Z
Total Dipole Moment    :      0.21700      -0.51500      -0.50000
                        -----------------------------------------
Magnitude (a.u.)       :      0.74988
Magnitude (Debye)      :      1.90603


------------------
CARTESIAN GRADIENT
------------------

   1   C   :   -0.000189824    0.000027491    0.000108804
   2   C   :   -0.000502695   -0.000276086   -0.000220404
   3   C   :   -0.000249369    0.000180709    0.000836091
   4   C   :   -0.000691598   -0.000192519    0.000498906
   5   C   :    0.000136045    0.000255867   -0.001013191
   6   O   :   -0.000001945    0.000523112    0.000335469
   7   H   :    0.000055372   -0.000032802   -0.000031888
   8   H   :    0.000083626    0.000015681   -0.000017947
   9   H   :    0.000104267    0.000020257    0.000005626
  10   H   :    0.000107224    0.000034172    0.000085332
  11   H   :    0.000168785    0.000133495    0.000077990
  12   H   :    0.000461657   -0.000336758   -0.000174790
  13   H   :   -0.000015146   -0.000048574   -0.000489165
  14   H   :    0.000204124   -0.000159963    0.000016251
  15   H   :    0.000329478   -0.000144082   -0.000017084

Difference to translation invariance:
           :    0.0000000000   -0.0000000000    0.0000000000

Difference to rotation invariance:
           :    0.0000000035    0.0000000946   -0.0000001842

Norm of the Cartesian gradient     ...    0.0020912853
RMS gradient                       ...    0.0003117504
MAX gradient                       ...    0.0010131914
------------------------------------------------------------------------------
                         ORCA GEOMETRY RELAXATION STEP
------------------------------------------------------------------------------

Reading the OPT-File                    .... done
Getting information on internals        .... done
Copying old internal coords+grads       .... done
Making the new internal coordinates     .... (2022 redundants) done
Validating the new internal coordinates .... (2022 redundants) done
Calculating the B-matrix                .... done
Calculating the G,G- and P matrices     .... done
Transforming gradient to internals      .... done
Projecting the internal gradient        .... done
Number of atoms                         ....  15
Number of internal coordinates          ....  68
Current Energy                          ....   -19.249575642 Eh
Current gradient norm                   ....     0.002091285 Eh/bohr
Maximum allowed component of the step   ....  0.300
Current trust radius                    ....  0.450
Updating the Hessian (BFGS)             .... done
Forming the augmented Hessian           .... done
Diagonalizing the augmented Hessian     .... done
Last element of RFO vector              ....  0.991726898
Lowest eigenvalues of augmented Hessian:
 -0.000041098  0.001270968  0.009709710  0.011876500  0.023900678
Length of the computed step             ....  0.129436568
The final length of the internal step   ....  0.129436568
Converting the step to Cartesian space:
 Initial RMS(Int)=    0.0156964894
Transforming coordinates:
 Iter   0:  RMS(Cart)=    0.0289717046 RMS(Int)=    0.0156399487
done
Storing new coordinates                 .... done
The predicted energy change is          ....    -0.000020894
Previously predicted energy change      ....    -0.000022309
Actually observed energy change         ....    -0.000032147
Ratio of predicted to observed change   ....     1.440972936
New trust radius                        ....     0.450000000

                                .--------------------.
          ----------------------|Geometry convergence|-------------------------
          Item                value                   Tolerance       Converged
          ---------------------------------------------------------------------
          Energy change      -0.0000321471            0.0000050000      NO
          RMS gradient        0.0001867185            0.0001000000      NO
          MAX gradient        0.0005415077            0.0003000000      NO
          RMS step            0.0156964894            0.0020000000      NO
          MAX step            0.0621012621            0.0040000000      NO
          -------------------------------------------------------------------------
          ........................................................
          Max(Bonds)      0.0024      Max(Angles)    0.43
          Max(Dihed)        3.56      Max(Improp)    0.00
          ---------------------------------------------------------------------

    ---------------------------------------------------------------------------
                         Redundant Internal Coordinates
                            (Angstroem and degrees)

        Definition                    Value    dE/dq     Step     New-Value
    ----------------------------------------------------------------------------
     1. B(C   1,C   0)                1.5228  0.000012  0.0000    1.5229   
     2. B(C   2,C   1)                1.5298 -0.000159 -0.0006    1.5292   
     3. B(C   4,C   3)                1.4486 -0.000057  0.0009    1.4495   
     4. B(C   4,C   2)                1.4809 -0.000023  0.0003    1.4811   
     5. B(O   5,C   4)                1.3655  0.000378  0.0009    1.3664   
     6. B(O   5,C   3)                1.4296  0.000129 -0.0024    1.4272   
     7. B(H   6,C   0)                1.0872  0.000011 -0.0001    1.0871   
     8. B(H   7,C   0)                1.0881  0.000004 -0.0000    1.0881   
     9. B(H   8,C   0)                1.0881  0.000001 -0.0000    1.0881   
    10. B(H   9,C   1)                1.0915  0.000024  0.0000    1.0915   
    11. B(H  10,C   1)                1.0915  0.000023 -0.0000    1.0914   
    12. B(H  11,C   2)                1.1018  0.000011  0.0001    1.1019   
    13. B(H  12,C   2)                1.0930  0.000100  0.0002    1.0932   
    14. B(H  13,C   3)                1.0827 -0.000078  0.0001    1.0828   
    15. B(H  14,C   3)                1.0865 -0.000075  0.0002    1.0867   
    16. A(C   1,C   0,H   7)          110.62  0.000091    0.01    110.63   
    17. A(C   1,C   0,H   6)          110.45  0.000042   -0.01    110.44   
    18. A(H   6,C   0,H   7)          108.34 -0.000093   -0.00    108.33   
    19. A(H   7,C   0,H   8)          108.34 -0.000063   -0.02    108.32   
    20. A(C   1,C   0,H   8)          110.74  0.000107    0.02    110.76   
    21. A(H   6,C   0,H   8)          108.27 -0.000093   -0.00    108.27   
    22. A(C   2,C   1,H   9)          108.85  0.000065   -0.00    108.84   
    23. A(C   0,C   1,C   2)          111.57  0.000147    0.03    111.60   
    24. A(H   9,C   1,H  10)          107.71 -0.000170   -0.00    107.71   
    25. A(C   0,C   1,H   9)          109.84 -0.000146   -0.00    109.83   
    26. A(C   2,C   1,H  10)          109.17  0.000287   -0.02    109.15   
    27. A(C   0,C   1,H  10)          109.63 -0.000190   -0.01    109.62   
    28. A(C   1,C   2,H  12)          110.35  0.000152   -0.01    110.34   
    29. A(H  11,C   2,H  12)          107.40 -0.000452   -0.09    107.31   
    30. A(C   4,C   2,H  12)          108.62  0.000275    0.07    108.70   
    31. A(C   4,C   2,H  11)          110.02  0.000489   -0.09    109.93   
    32. A(C   1,C   2,C   4)          111.50 -0.000351   -0.04    111.46   
    33. A(C   1,C   2,H  11)          108.87 -0.000113    0.15    109.02   
    34. A(H  13,C   3,H  14)          115.59  0.000221    0.02    115.61   
    35. A(O   5,C   3,H  14)          114.36 -0.000030    0.03    114.39   
    36. A(C   4,C   3,H  14)          121.12 -0.000225   -0.04    121.09   
    37. A(O   5,C   3,H  13)          115.13 -0.000005   -0.04    115.09   
    38. A(C   4,C   3,H  13)          119.64 -0.000105   -0.00    119.64   
    39. A(C   4,C   3,O   5)           56.64  0.000144    0.07     56.71   
    40. A(C   2,C   4,C   3)          134.18  0.000448   -0.13    134.05   
    41. A(C   3,C   4,O   5)           60.98 -0.000006   -0.15     60.82   
    42. A(C   2,C   4,O   5)          126.52  0.000113   -0.43    126.09   
    43. A(C   3,O   5,C   4)           62.38 -0.000138    0.08     62.47   
    44. D(H   9,C   1,C   0,H   7)    179.61 -0.000050   -0.11    179.50   
    45. D(C   2,C   1,C   0,H   7)    -59.60  0.000029   -0.09    -59.69   
    46. D(H   9,C   1,C   0,H   8)    -60.26  0.000001   -0.11    -60.37   
    47. D(C   2,C   1,C   0,H   8)     60.53  0.000080   -0.10     60.43   
    48. D(C   2,C   1,C   0,H   6)   -179.54  0.000060   -0.09   -179.63   
    49. D(H   9,C   1,C   0,H   6)     59.68 -0.000019   -0.11     59.57   
    50. D(C   4,C   2,C   1,C   0)   -178.48 -0.000126   -0.20   -178.67   
    51. D(H  11,C   2,C   1,H  10)   -178.24  0.000134   -0.23   -178.47   
    52. D(H  11,C   2,C   1,H   9)     64.44  0.000140   -0.21     64.23   
    53. D(H  11,C   2,C   1,C   0)    -56.92  0.000185   -0.23    -57.15   
    54. D(C   4,C   2,C   1,H  10)     60.20 -0.000176   -0.19     60.01   
    55. D(C   4,C   2,C   1,H   9)    -57.12 -0.000171   -0.18    -57.30   
    56. D(C   3,C   4,C   2,H  12)    -85.71  0.000361   -3.44    -89.15   
    57. D(C   3,C   4,C   2,H  11)     31.58  0.000254   -3.56     28.02   
    58. D(C   3,C   4,C   2,C   1)    152.47  0.000210   -3.45    149.02   
    59. D(O   5,C   4,C   3,H  14)    100.33  0.000158    0.10    100.43   
    60. D(O   5,C   4,C   3,H  13)   -102.14 -0.000115    0.01   -102.12   
    61. D(C   2,C   4,C   3,H  14)    -13.86  0.000082    0.77    -13.09   
    62. D(C   2,C   4,C   3,H  13)    143.68 -0.000191    0.68    144.36   
    63. D(C   2,C   4,C   3,O   5)   -114.19 -0.000076    0.67   -113.51   
    64. D(O   5,C   4,C   2,H  11)    -51.39 -0.000117   -2.91    -54.31   
    65. D(O   5,C   4,C   2,C   1)     69.50 -0.000161   -2.81     66.69   
    66. D(C   3,O   5,C   4,C   2)    125.51  0.000542   -0.17    125.35   
    67. D(C   4,O   5,C   3,H  14)   -112.41  0.000226    0.04   -112.36   
    68. D(C   4,O   5,C   3,H  13)    110.20 -0.000089    0.03    110.23   
    ----------------------------------------------------------------------------

Geometry step timings:
Preparation and reading OPT file:      0.000 s ( 1.129 %)
Internal coordinates            :      0.000 s ( 1.403 %)
B/P matrices and projection     :      0.001 s (22.142 %)
Hessian update/contruction      :      0.000 s (16.564 %)
Making the step                 :      0.001 s (19.713 %)
Converting the step to Cartesian:      0.000 s ( 2.567 %)
Storing new data                :      0.000 s ( 1.300 %)
Checking convergence            :      0.000 s ( 1.848 %)
Final printing                  :      0.001 s (33.333 %)
Total time                      :      0.003 s

Time for energy+gradient        :      0.064 s
Time for complete geometry iter :      0.069 s

         *************************************************************
         *                GEOMETRY OPTIMIZATION CYCLE  10            *
         *************************************************************
---------------------------------
CARTESIAN COORDINATES (ANGSTROEM)
---------------------------------
  C     2.338841    0.039098   -0.181364
  C     1.009470    0.213793    0.540706
  C    -0.140397   -0.433034   -0.232591
  C    -2.806776   -0.095278    0.005243
  C    -1.436353   -0.234122    0.456351
  O    -2.078674    0.958585    0.634797
  H     3.143043    0.499575    0.387053
  H     2.570327   -1.016465   -0.308393
  H     2.307309    0.503142   -1.165035
  H     0.794493    1.276241    0.668899
  H     1.070137   -0.234810    1.533851
  H    -0.182258    0.001775   -1.244200
  H     0.034619   -1.506062   -0.346894
  H    -3.610453   -0.515345    0.596992
  H    -3.037537    0.081908   -1.041776

----------------------------
CARTESIAN COORDINATES (A.U.)
----------------------------
  NO LB    ZA    FRAG    MASS        X           Y           Z
   0 C   6.0000    1    12.011    4.419768    0.073884   -0.342728
   1 C   6.0000    1    12.011    1.907621    0.404011    1.021787
   2 C   6.0000    1    12.011   -0.265312   -0.818317   -0.439534
   3 C   6.0000    1    12.011   -5.304038   -0.180050    0.009909
   4 C   6.0000    1    12.011   -2.714313   -0.442427    0.862379
   5 O   8.0000    1    15.999   -3.928125    1.811463    1.199592
   6 H   1.0000    1     1.008    5.939491    0.944059    0.731423
   7 H   1.0000    1     1.008    4.857214   -1.920841   -0.582778
   8 H   1.0000    1     1.008    4.360183    0.950800   -2.201596
   9 H   1.0000    1     1.008    1.501373    2.411747    1.264036
  10 H   1.0000    1     1.008    2.022266   -0.443726    2.898559
  11 H   1.0000    1     1.008   -0.344417    0.003354   -2.351197
  12 H   1.0000    1     1.008    0.065421   -2.846045   -0.655534
  13 H   1.0000    1     1.008   -6.822767   -0.973861    1.128151
  14 H   1.0000    1     1.008   -5.740113    0.154784   -1.968672

      -----------------------------------------------------------      
     |                   =====================                   |     
     |                           x T B                           |     
     |                   =====================                   |     
     |                         S. Grimme                         |     
     |          Mulliken Center for Theoretical Chemistry        |     
     |                    University of Bonn                     |     
      -----------------------------------------------------------      

   * xtb version 6.7.1 (edcfbbe) compiled by 'albert@albert-system' on 2024-07-22

   xtb is free software: you can redistribute it and/or modify it under
   the terms of the GNU Lesser General Public License as published by
   the Free Software Foundation, either version 3 of the License, or
   (at your option) any later version.
   
   xtb is distributed in the hope that it will be useful,
   but WITHOUT ANY WARRANTY; without even the implied warranty of
   MERCHANTABILITY or FITNESS FOR A PARTICULAR PURPOSE.  See the
   GNU Lesser General Public License for more details.
   
   Cite this work as:
   * C. Bannwarth, E. Caldeweyher, S. Ehlert, A. Hansen, P. Pracht,
     J. Seibert, S. Spicher, S. Grimme, WIREs Comput. Mol. Sci., 2020, 11,
     e01493. DOI: 10.1002/wcms.1493
   
   for GFN2-xTB:
   * C. Bannwarth, S. Ehlert and S. Grimme., J. Chem. Theory Comput., 2019,
     15, 1652-1671. DOI: 10.1021/acs.jctc.8b01176
   for GFN1-xTB:
   * S. Grimme, C. Bannwarth, P. Shushkov, J. Chem. Theory Comput., 2017,
     13, 1989-2009. DOI: 10.1021/acs.jctc.7b00118
   for GFN0-xTB:
   * P. Pracht, E. Caldeweyher, S. Ehlert, S. Grimme, ChemRxiv, 2019, preprint.
     DOI: 10.26434/chemrxiv.8326202.v1
   for GFN-FF:
   * S. Spicher and S. Grimme, Angew. Chem. Int. Ed., 2020, 59, 15665-15673.
     DOI: 10.1002/anie.202004239
   
   for ALPB and GBSA implicit solvation:
   * S. Ehlert, M. Stahn, S. Spicher, S. Grimme, J. Chem. Theory Comput.,
     2021, 17, 4250-4261. DOI: 10.1021/acs.jctc.1c00471
   
   for ddCOSMO and CPCM-X implicit solvation:
   * M. Stahn, S. Ehlert, S. Grimme, J. Phys. Chem. A,
     2023, XX, XXXX-XXXX. DOI: 10.1021/acs.jpca.3c04382
   
   for DFT-D4:
   * E. Caldeweyher, C. Bannwarth and S. Grimme, J. Chem. Phys., 2017,
     147, 034112. DOI: 10.1063/1.4993215
   * E. Caldeweyher, S. Ehlert, A. Hansen, H. Neugebauer, S. Spicher,
     C. Bannwarth and S. Grimme, J. Chem. Phys., 2019, 150, 154122.
     DOI: 10.1063/1.5090222
   * E. Caldeweyher, J.-M. Mewes, S. Ehlert and S. Grimme, Phys. Chem. Chem. Phys.
     2020, 22, 8499-8512. DOI: 10.1039/D0CP00502A
   
   for sTDA-xTB:
   * S. Grimme and C. Bannwarth, J. Chem. Phys., 2016, 145, 054103.
     DOI: 10.1063/1.4959605
   
   in the mass-spec context:
   * V. Asgeirsson, C. Bauer and S. Grimme, Chem. Sci., 2017, 8, 4879.
     DOI: 10.1039/c7sc00601b
   * J. Koopman and S. Grimme, ACS Omega 2019, 4, 12, 15120-15133.
     DOI: 10.1021/acsomega.9b02011
   
   for metadynamics refer to:
   * S. Grimme, J. Chem. Theory Comput., 2019, 155, 2847-2862
     DOI: 10.1021/acs.jctc.9b00143
   
   for SPH calculations refer to:
   * S. Spicher and S. Grimme, J. Chem. Theory Comput., 2021, 17, 1701-1714
     DOI: 10.1021/acs.jctc.0c01306
   
   for ONIOM refer to:
   * C. Plett, A. Katbashev, S. Ehlert, S. Grimme, M. Bursch,
     Phys. Chem. Chem. Phys., 2023, 25, 17860-17868. DOI: 10.1039/D3CP02178E
   
   for DIPRO refer to:
   * J. Kohn, N. Gildemeister, S. Grimme, D. Fazzi, A. Hansen,
     J. Chem. Phys., 2023, just accepted.
   
   for PTB refer to:
   * S. Grimme, M. Mueller, A. Hansen, J. Chem. Phys., 2023, 158, 124111.
     DOI: 10.1063/5.0137838
   
   with help from (in alphabetical order)
   P. Atkinson, C. Bannwarth, F. Bohle, G. Brandenburg, E. Caldeweyher
   M. Checinski, S. Dohm, S. Ehlert, S. Ehrlich, I. Gerasimov, C. Hölzer
   A. Katbashev, J. Kohn, J. Koopman, C. Lavigne, S. Lehtola, F. März, M. Müller,
   F. Musil, H. Neugebauer, J. Pisarek, C. Plett, P. Pracht, F. Pultar,
   J. Seibert, P. Shushkov, S. Spicher, M. Stahn, M. Steiner, T. Strunk,
   J. Stückrath, T. Rose, and J. Unsleber
   
 * started run on 2026/02/12 at 17:30:17.811     
   ID    Z sym.   atoms
    1    6 C      1-5
    2    8 O      6
    3    1 H      7-15

           -------------------------------------------------
          |                Calculation Setup                |
           -------------------------------------------------

          program call               : /apps/eb/ORCA/6.1.1-gompi-2024a-avx2/bin/otool_xtb goat_XTB.xyz --grad -c 0 -u 1 -P 8 --namespace goat --input goat_XTB.input.tmp --acc 0.200000
          hostname                   : a2-4
          calculation namespace      : goat
          coordinate file            : goat_XTB.xyz
          omp threads                :                     8


           -------------------------------------------------
          |                 G F N 2 - x T B                 |
           -------------------------------------------------

        Reference                      10.1021/acs.jctc.8b01176
      * Hamiltonian:
        H0-scaling (s, p, d)           1.850000    2.230000    2.230000
        zeta-weighting                 0.500000
      * Dispersion:
        s8                             2.700000
        a1                             0.520000
        a2                             5.000000
        s9                             5.000000
      * Repulsion:
        kExp                           1.500000    1.000000
        rExp                           1.000000
      * Coulomb:
        alpha                          2.000000
        third order                    shell-resolved
        anisotropic                    true
        a3                             3.000000
        a5                             4.000000
        cn-shift                       1.200000
        cn-exp                         4.000000
        max-rad                        5.000000

q/qsh data taken from xtbrestart
CAMM data taken from xtbrestart

          ...................................................
          :                      SETUP                      :
          :.................................................:
          :  # basis functions                  33          :
          :  # atomic orbitals                  33          :
          :  # shells                           21          :
          :  # electrons                        35          :
          :  max. iterations                   250          :
          :  Hamiltonian                  GFN2-xTB          :
          :  restarted?                       true          :
          :  GBSA solvation                  false          :
          :  PC potential                    false          :
          :  electronic temp.          300.0000000     K    :
          :  accuracy                    0.2000000          :
          :  -> integral cutoff          0.3198970E+02      :
          :  -> integral neglect         0.2000000E-08      :
          :  -> SCF convergence          0.2000000E-06 Eh   :
          :  -> wf. convergence          0.2000000E-04 e    :
          :  Broyden damping             0.4000000          :
          :  net charge                          0          :
          :  unpaired electrons                  1          :
          ...................................................

 iter      E             dE          RMSdq      gap      omega  full diag
   1    -19.4867956 -0.194868E+02  0.131E-01    6.38       0.0  T
   2    -19.4867970 -0.136183E-05  0.789E-02    6.37       1.0  T
   3    -19.4867964  0.586316E-06  0.927E-03    6.37       2.8  T
   4    -19.4867975 -0.108868E-05  0.269E-03    6.37       9.6  T
   5    -19.4867975 -0.465020E-08  0.991E-04    6.37      26.1  T
   6    -19.4867975 -0.194101E-08  0.307E-04    6.37      84.0  T
   7    -19.4867975 -0.209763E-09  0.716E-05    6.37     360.4  T
   8    -19.4867975 -0.341061E-11  0.237E-05    6.37    1088.3  T

   *** convergence criteria satisfied after 8 iterations ***

         #    Occupation            Energy/Eh            Energy/eV
      -------------------------------------------------------------
         1        2.0000           -0.7210884             -19.6218
       ...           ...                  ...                  ...
        12        2.0000           -0.4778748             -13.0036
        13        2.0000           -0.4654196             -12.6647
        14        2.0000           -0.4509257             -12.2703
        15        2.0000           -0.4438774             -12.0785
        16        2.0000           -0.4342168             -11.8156
        17        2.0000           -0.4315976             -11.7444
        18        1.0000           -0.3146915              -8.5632 (HOMO)
        19                         -0.0805908              -2.1930 (LUMO)
        20                          0.0675123               1.8371
        21                          0.0855840               2.3289
        22                          0.1215297               3.3070
        23                          0.1333466               3.6285
       ...                                ...                  ...
        33                          0.4218134              11.4781
      -------------------------------------------------------------
                  HL-Gap            0.2341007 Eh            6.3702 eV
             Fermi-level           -0.2853929 Eh           -7.7659 eV

 SCC (total)                   0 d,  0 h,  0 min,  0.023 sec
 SCC setup                      ...        0 min,  0.000 sec (  1.106%)
 Dispersion                     ...        0 min,  0.000 sec (  1.694%)
 classical contributions        ...        0 min,  0.000 sec (  0.893%)
 integral evaluation            ...        0 min,  0.001 sec (  3.325%)
 iterations                     ...        0 min,  0.016 sec ( 72.752%)
 molecular gradient             ...        0 min,  0.004 sec ( 16.447%)
 printout                       ...        0 min,  0.001 sec (  3.639%)

         :::::::::::::::::::::::::::::::::::::::::::::::::::::
         ::                     SUMMARY                     ::
         :::::::::::::::::::::::::::::::::::::::::::::::::::::
         :: total energy             -19.249605190245 Eh    ::
         :: gradient norm              0.002428906852 Eh/a0 ::
         :: HOMO-LUMO gap              6.370204729490 eV    ::
         ::.................................................::
         :: SCC energy               -19.486801343250 Eh    ::
         :: -> isotropic ES            0.016842041381 Eh    ::
         :: -> anisotropic ES          0.001552916385 Eh    ::
         :: -> anisotropic XC          0.006212890458 Eh    ::
         :: -> dispersion             -0.007579485826 Eh    ::
         :: repulsion energy           0.237196153005 Eh    ::
         :: add. restraining           0.000000000000 Eh    ::
         :: total charge              -0.000000000000 e     ::
         :::::::::::::::::::::::::::::::::::::::::::::::::::::


Property printout bound to 'properties.out'

           -------------------------------------------------
          | TOTAL ENERGY              -19.249605190245 Eh   |
          | GRADIENT NORM               0.002428906852 Eh/α |
          | HOMO-LUMO GAP               6.370204729490 eV   |
           -------------------------------------------------

------------------------------------------------------------------------
 * finished run on 2026/02/12 at 17:30:17.852     
------------------------------------------------------------------------
 total:
 * wall-time:     0 d,  0 h,  0 min,  0.040 sec
 *  cpu-time:     0 d,  0 h,  0 min,  0.153 sec
 * ratio c/w:     3.811 speedup
 SCF:
 * wall-time:     0 d,  0 h,  0 min,  0.023 sec
 *  cpu-time:     0 d,  0 h,  0 min,  0.090 sec
 * ratio c/w:     3.969 speedup


-------------------------   --------------------
FINAL SINGLE POINT ENERGY       -19.249605190250
-------------------------   --------------------


-------------
DIPOLE MOMENT
-------------
                                X             Y             Z
Total Dipole Moment    :      0.21100      -0.49600      -0.51800
                        -----------------------------------------
Magnitude (a.u.)       :      0.74757
Magnitude (Debye)      :      1.90017


------------------
CARTESIAN GRADIENT
------------------

   1   C   :   -0.000167827    0.000053403    0.000142161
   2   C   :   -0.000578857   -0.000321566   -0.000218282
   3   C   :   -0.000214078    0.000568393    0.000910080
   4   C   :   -0.000547730    0.000585171    0.000802645
   5   C   :    0.000730499   -0.000553331   -0.000873325
   6   O   :   -0.000657028    0.000089487   -0.000156998
   7   H   :    0.000031827   -0.000047147   -0.000053599
   8   H   :    0.000088811    0.000045949   -0.000028073
   9   H   :    0.000124221   -0.000009984    0.000022405
  10   H   :    0.000127019    0.000027938    0.000050061
  11   H   :    0.000157066    0.000123871    0.000049441
  12   H   :    0.000386074   -0.000360055   -0.000205926
  13   H   :    0.000028175   -0.000082155   -0.000462869
  14   H   :    0.000154225   -0.000031024    0.000127314
  15   H   :    0.000337605   -0.000088948   -0.000105037

Difference to translation invariance:
           :   -0.0000000000    0.0000000000    0.0000000000

Difference to rotation invariance:
           :    0.0000000134    0.0000000915   -0.0000001727

Norm of the Cartesian gradient     ...    0.0024289069
RMS gradient                       ...    0.0003620801
MAX gradient                       ...    0.0009100798
------------------------------------------------------------------------------
                         ORCA GEOMETRY RELAXATION STEP
------------------------------------------------------------------------------

Reading the OPT-File                    .... done
Getting information on internals        .... done
Copying old internal coords+grads       .... done
Making the new internal coordinates     .... (2022 redundants) done
Validating the new internal coordinates .... (2022 redundants) done
Calculating the B-matrix                .... done
Calculating the G,G- and P matrices     .... done
Transforming gradient to internals      .... done
Projecting the internal gradient        .... done
Number of atoms                         ....  15
Number of internal coordinates          ....  68
Current Energy                          ....   -19.249605190 Eh
Current gradient norm                   ....     0.002428907 Eh/bohr
Maximum allowed component of the step   ....  0.300
Current trust radius                    ....  0.450
Updating the Hessian (BFGS)             .... done
Forming the augmented Hessian           .... done
Diagonalizing the augmented Hessian     .... done
Last element of RFO vector              ....  0.993503742
Lowest eigenvalues of augmented Hessian:
 -0.000032477  0.001001893  0.009582680  0.011814018  0.022625864
Length of the computed step             ....  0.114543556
The final length of the internal step   ....  0.114543556
Converting the step to Cartesian space:
 Initial RMS(Int)=    0.0138904464
Transforming coordinates:
 Iter   0:  RMS(Cart)=    0.0277968277 RMS(Int)=    0.0138132620
done
Storing new coordinates                 .... done
The predicted energy change is          ....    -0.000016452
Previously predicted energy change      ....    -0.000020894
Actually observed energy change         ....    -0.000029548
Ratio of predicted to observed change   ....     1.414220694
New trust radius                        ....     0.450000000

                                .--------------------.
          ----------------------|Geometry convergence|-------------------------
          Item                value                   Tolerance       Converged
          ---------------------------------------------------------------------
          Energy change      -0.0000295481            0.0000050000      NO
          RMS gradient        0.0002131258            0.0001000000      NO
          MAX gradient        0.0006448524            0.0003000000      NO
          RMS step            0.0138904464            0.0020000000      NO
          MAX step            0.0544477006            0.0040000000      NO
          -------------------------------------------------------------------------
          ........................................................
          Max(Bonds)      0.0013      Max(Angles)    0.38
          Max(Dihed)        3.12      Max(Improp)    0.00
          ---------------------------------------------------------------------

    ---------------------------------------------------------------------------
                         Redundant Internal Coordinates
                            (Angstroem and degrees)

        Definition                    Value    dE/dq     Step     New-Value
    ----------------------------------------------------------------------------
     1. B(C   1,C   0)                1.5229  0.000023 -0.0000    1.5229   
     2. B(C   2,C   1)                1.5292 -0.000236 -0.0001    1.5291   
     3. B(C   4,C   3)                1.4494  0.000175  0.0006    1.4500   
     4. B(C   4,C   2)                1.4811 -0.000111  0.0007    1.4818   
     5. B(O   5,C   4)                1.3664  0.000530  0.0002    1.3666   
     6. B(O   5,C   3)                1.4273 -0.000496 -0.0013    1.4260   
     7. B(H   6,C   0)                1.0871 -0.000024 -0.0000    1.0871   
     8. B(H   7,C   0)                1.0881 -0.000022 -0.0000    1.0881   
     9. B(H   8,C   0)                1.0881 -0.000028 -0.0000    1.0881   
    10. B(H   9,C   1)                1.0915  0.000008 -0.0000    1.0915   
    11. B(H  10,C   1)                1.0914  0.000003 -0.0001    1.0914   
    12. B(H  11,C   2)                1.1019  0.000032 -0.0001    1.1018   
    13. B(H  12,C   2)                1.0932  0.000134 -0.0001    1.0931   
    14. B(H  13,C   3)                1.0828 -0.000033  0.0002    1.0830   
    15. B(H  14,C   3)                1.0867  0.000015  0.0001    1.0868   
    16. A(C   1,C   0,H   7)          110.63  0.000105   -0.01    110.62   
    17. A(C   1,C   0,H   6)          110.44  0.000040   -0.01    110.43   
    18. A(H   6,C   0,H   7)          108.33 -0.000101    0.03    108.36   
    19. A(H   7,C   0,H   8)          108.32 -0.000091   -0.00    108.32   
    20. A(C   1,C   0,H   8)          110.76  0.000138   -0.02    110.74   
    21. A(H   6,C   0,H   8)          108.27 -0.000104    0.02    108.29   
    22. A(C   2,C   1,H   9)          108.84  0.000046   -0.02    108.82   
    23. A(C   0,C   1,C   2)          111.60  0.000223   -0.02    111.58   
    24. A(H   9,C   1,H  10)          107.71 -0.000137    0.03    107.74   
    25. A(C   0,C   1,H   9)          109.83 -0.000176    0.03    109.86   
    26. A(C   2,C   1,H  10)          109.15  0.000247   -0.06    109.09   
    27. A(C   0,C   1,H  10)          109.62 -0.000211    0.04    109.66   
    28. A(C   1,C   2,H  12)          110.34  0.000157   -0.03    110.31   
    29. A(H  11,C   2,H  12)          107.30 -0.000496    0.09    107.39   
    30. A(C   4,C   2,H  12)          108.70  0.000299    0.03    108.73   
    31. A(C   4,C   2,H  11)          109.93  0.000439   -0.23    109.69   
    32. A(C   1,C   2,C   4)          111.46 -0.000350    0.02    111.48   
    33. A(C   1,C   2,H  11)          109.02 -0.000051    0.12    109.14   
    34. A(H  13,C   3,H  14)          115.61  0.000270   -0.05    115.55   
    35. A(O   5,C   3,H  14)          114.39 -0.000132    0.01    114.40   
    36. A(C   4,C   3,H  14)          121.08 -0.000249    0.06    121.15   
    37. A(O   5,C   3,H  13)          115.09 -0.000081   -0.03    115.05   
    38. A(C   4,C   3,H  13)          119.64 -0.000105    0.03    119.66   
    39. A(C   4,C   3,O   5)           56.71  0.000282    0.02     56.73   
    40. A(C   2,C   4,C   3)          134.06  0.000645   -0.38    133.67   
    41. A(C   3,C   4,O   5)           60.83 -0.000366   -0.08     60.75   
    42. A(C   2,C   4,O   5)          126.11  0.000255   -0.37    125.74   
    43. A(C   3,O   5,C   4)           62.46  0.000083    0.06     62.52   
    44. D(H   9,C   1,C   0,H   7)    179.50 -0.000055   -0.14    179.36   
    45. D(C   2,C   1,C   0,H   7)    -59.69  0.000030   -0.16    -59.86   
    46. D(H   9,C   1,C   0,H   8)    -60.37 -0.000009   -0.17    -60.53   
    47. D(C   2,C   1,C   0,H   8)     60.43  0.000077   -0.19     60.25   
    48. D(C   2,C   1,C   0,H   6)   -179.63  0.000062   -0.18   -179.81   
    49. D(H   9,C   1,C   0,H   6)     59.57 -0.000023   -0.16     59.41   
    50. D(C   4,C   2,C   1,C   0)   -178.67 -0.000131   -0.01   -178.69   
    51. D(H  11,C   2,C   1,H  10)   -178.47  0.000113   -0.20   -178.67   
    52. D(H  11,C   2,C   1,H   9)     64.23  0.000113   -0.20     64.03   
    53. D(H  11,C   2,C   1,C   0)    -57.15  0.000159   -0.21    -57.36   
    54. D(C   4,C   2,C   1,H  10)     60.01 -0.000177   -0.01     60.00   
    55. D(C   4,C   2,C   1,H   9)    -57.30 -0.000177   -0.00    -57.30   
    56. D(C   3,C   4,C   2,H  12)    -89.15  0.000236   -3.12    -92.27   
    57. D(C   3,C   4,C   2,H  11)     28.02  0.000061   -3.12     24.90   
    58. D(C   3,C   4,C   2,C   1)    149.01  0.000063   -3.11    145.90   
    59. D(O   5,C   4,C   3,H  14)    100.43  0.000107   -0.00    100.42   
    60. D(O   5,C   4,C   3,H  13)   -102.12 -0.000079    0.05   -102.08   
    61. D(C   2,C   4,C   3,H  14)    -13.09  0.000166    0.49    -12.60   
    62. D(C   2,C   4,C   3,H  13)    144.36 -0.000019    0.54    144.90   
    63. D(C   2,C   4,C   3,O   5)   -113.51  0.000060    0.49   -113.02   
    64. D(O   5,C   4,C   2,H  11)    -54.30  0.000001   -2.47    -56.77   
    65. D(O   5,C   4,C   2,C   1)     66.70  0.000003   -2.47     64.23   
    66. D(C   3,O   5,C   4,C   2)    125.35  0.000581   -0.46    124.89   
    67. D(C   4,O   5,C   3,H  14)   -112.36  0.000171   -0.07   -112.43   
    68. D(C   4,O   5,C   3,H  13)    110.23 -0.000014    0.06    110.29   
    ----------------------------------------------------------------------------

Geometry step timings:
Preparation and reading OPT file:      0.000 s ( 1.018 %)
Internal coordinates            :      0.000 s ( 1.548 %)
B/P matrices and projection     :      0.001 s (23.503 %)
Hessian update/contruction      :      0.000 s (20.081 %)
Making the step                 :      0.001 s (21.874 %)
Converting the step to Cartesian:      0.000 s ( 2.729 %)
Storing new data                :      0.000 s ( 1.507 %)
Checking convergence            :      0.000 s ( 2.200 %)
Final printing                  :      0.001 s (25.540 %)
Total time                      :      0.002 s

Time for energy+gradient        :      0.057 s
Time for complete geometry iter :      0.061 s

         *************************************************************
         *                GEOMETRY OPTIMIZATION CYCLE  11            *
         *************************************************************
---------------------------------
CARTESIAN COORDINATES (ANGSTROEM)
---------------------------------
  C     2.334461    0.045441   -0.184768
  C     1.004847    0.213281    0.538476
  C    -0.139777   -0.451103   -0.227506
  C    -2.800285   -0.082711   -0.000056
  C    -1.437343   -0.259734    0.462019
  O    -2.062386    0.937699    0.669178
  H     3.134603    0.521096    0.376769
  H     2.577036   -1.008873   -0.300855
  H     2.295151    0.498225   -1.173390
  H     0.779159    1.274453    0.658241
  H     1.070729   -0.227229    1.534843
  H    -0.191666   -0.023724   -1.241712
  H     0.046537   -1.522962   -0.333740
  H    -3.618507   -0.505568    0.569647
  H    -3.016768    0.130708   -1.043504

----------------------------
CARTESIAN COORDINATES (A.U.)
----------------------------
  NO LB    ZA    FRAG    MASS        X           Y           Z
   0 C   6.0000    1    12.011    4.411492    0.085872   -0.349160
   1 C   6.0000    1    12.011    1.898885    0.403043    1.017572
   2 C   6.0000    1    12.011   -0.264141   -0.852461   -0.429925
   3 C   6.0000    1    12.011   -5.291771   -0.156301   -0.000106
   4 C   6.0000    1    12.011   -2.716184   -0.490826    0.873089
   5 O   8.0000    1    15.999   -3.897344    1.771994    1.264563
   6 H   1.0000    1     1.008    5.923541    0.984728    0.711989
   7 H   1.0000    1     1.008    4.869893   -1.906493   -0.568533
   8 H   1.0000    1     1.008    4.337206    0.941509   -2.217387
   9 H   1.0000    1     1.008    1.472398    2.408368    1.243894
  10 H   1.0000    1     1.008    2.023385   -0.429401    2.900432
  11 H   1.0000    1     1.008   -0.362197   -0.044832   -2.346495
  12 H   1.0000    1     1.008    0.087943   -2.877981   -0.630678
  13 H   1.0000    1     1.008   -6.837987   -0.955384    1.076477
  14 H   1.0000    1     1.008   -5.700865    0.247002   -1.971936

      -----------------------------------------------------------      
     |                   =====================                   |     
     |                           x T B                           |     
     |                   =====================                   |     
     |                         S. Grimme                         |     
     |          Mulliken Center for Theoretical Chemistry        |     
     |                    University of Bonn                     |     
      -----------------------------------------------------------      

   * xtb version 6.7.1 (edcfbbe) compiled by 'albert@albert-system' on 2024-07-22

   xtb is free software: you can redistribute it and/or modify it under
   the terms of the GNU Lesser General Public License as published by
   the Free Software Foundation, either version 3 of the License, or
   (at your option) any later version.
   
   xtb is distributed in the hope that it will be useful,
   but WITHOUT ANY WARRANTY; without even the implied warranty of
   MERCHANTABILITY or FITNESS FOR A PARTICULAR PURPOSE.  See the
   GNU Lesser General Public License for more details.
   
   Cite this work as:
   * C. Bannwarth, E. Caldeweyher, S. Ehlert, A. Hansen, P. Pracht,
     J. Seibert, S. Spicher, S. Grimme, WIREs Comput. Mol. Sci., 2020, 11,
     e01493. DOI: 10.1002/wcms.1493
   
   for GFN2-xTB:
   * C. Bannwarth, S. Ehlert and S. Grimme., J. Chem. Theory Comput., 2019,
     15, 1652-1671. DOI: 10.1021/acs.jctc.8b01176
   for GFN1-xTB:
   * S. Grimme, C. Bannwarth, P. Shushkov, J. Chem. Theory Comput., 2017,
     13, 1989-2009. DOI: 10.1021/acs.jctc.7b00118
   for GFN0-xTB:
   * P. Pracht, E. Caldeweyher, S. Ehlert, S. Grimme, ChemRxiv, 2019, preprint.
     DOI: 10.26434/chemrxiv.8326202.v1
   for GFN-FF:
   * S. Spicher and S. Grimme, Angew. Chem. Int. Ed., 2020, 59, 15665-15673.
     DOI: 10.1002/anie.202004239
   
   for ALPB and GBSA implicit solvation:
   * S. Ehlert, M. Stahn, S. Spicher, S. Grimme, J. Chem. Theory Comput.,
     2021, 17, 4250-4261. DOI: 10.1021/acs.jctc.1c00471
   
   for ddCOSMO and CPCM-X implicit solvation:
   * M. Stahn, S. Ehlert, S. Grimme, J. Phys. Chem. A,
     2023, XX, XXXX-XXXX. DOI: 10.1021/acs.jpca.3c04382
   
   for DFT-D4:
   * E. Caldeweyher, C. Bannwarth and S. Grimme, J. Chem. Phys., 2017,
     147, 034112. DOI: 10.1063/1.4993215
   * E. Caldeweyher, S. Ehlert, A. Hansen, H. Neugebauer, S. Spicher,
     C. Bannwarth and S. Grimme, J. Chem. Phys., 2019, 150, 154122.
     DOI: 10.1063/1.5090222
   * E. Caldeweyher, J.-M. Mewes, S. Ehlert and S. Grimme, Phys. Chem. Chem. Phys.
     2020, 22, 8499-8512. DOI: 10.1039/D0CP00502A
   
   for sTDA-xTB:
   * S. Grimme and C. Bannwarth, J. Chem. Phys., 2016, 145, 054103.
     DOI: 10.1063/1.4959605
   
   in the mass-spec context:
   * V. Asgeirsson, C. Bauer and S. Grimme, Chem. Sci., 2017, 8, 4879.
     DOI: 10.1039/c7sc00601b
   * J. Koopman and S. Grimme, ACS Omega 2019, 4, 12, 15120-15133.
     DOI: 10.1021/acsomega.9b02011
   
   for metadynamics refer to:
   * S. Grimme, J. Chem. Theory Comput., 2019, 155, 2847-2862
     DOI: 10.1021/acs.jctc.9b00143
   
   for SPH calculations refer to:
   * S. Spicher and S. Grimme, J. Chem. Theory Comput., 2021, 17, 1701-1714
     DOI: 10.1021/acs.jctc.0c01306
   
   for ONIOM refer to:
   * C. Plett, A. Katbashev, S. Ehlert, S. Grimme, M. Bursch,
     Phys. Chem. Chem. Phys., 2023, 25, 17860-17868. DOI: 10.1039/D3CP02178E
   
   for DIPRO refer to:
   * J. Kohn, N. Gildemeister, S. Grimme, D. Fazzi, A. Hansen,
     J. Chem. Phys., 2023, just accepted.
   
   for PTB refer to:
   * S. Grimme, M. Mueller, A. Hansen, J. Chem. Phys., 2023, 158, 124111.
     DOI: 10.1063/5.0137838
   
   with help from (in alphabetical order)
   P. Atkinson, C. Bannwarth, F. Bohle, G. Brandenburg, E. Caldeweyher
   M. Checinski, S. Dohm, S. Ehlert, S. Ehrlich, I. Gerasimov, C. Hölzer
   A. Katbashev, J. Kohn, J. Koopman, C. Lavigne, S. Lehtola, F. März, M. Müller,
   F. Musil, H. Neugebauer, J. Pisarek, C. Plett, P. Pracht, F. Pultar,
   J. Seibert, P. Shushkov, S. Spicher, M. Stahn, M. Steiner, T. Strunk,
   J. Stückrath, T. Rose, and J. Unsleber
   
 * started run on 2026/02/12 at 17:30:17.872     
   ID    Z sym.   atoms
    1    6 C      1-5
    2    8 O      6
    3    1 H      7-15

           -------------------------------------------------
          |                Calculation Setup                |
           -------------------------------------------------

          program call               : /apps/eb/ORCA/6.1.1-gompi-2024a-avx2/bin/otool_xtb goat_XTB.xyz --grad -c 0 -u 1 -P 8 --namespace goat --input goat_XTB.input.tmp --acc 0.200000
          hostname                   : a2-4
          calculation namespace      : goat
          coordinate file            : goat_XTB.xyz
          omp threads                :                     8


           -------------------------------------------------
          |                 G F N 2 - x T B                 |
           -------------------------------------------------

        Reference                      10.1021/acs.jctc.8b01176
      * Hamiltonian:
        H0-scaling (s, p, d)           1.850000    2.230000    2.230000
        zeta-weighting                 0.500000
      * Dispersion:
        s8                             2.700000
        a1                             0.520000
        a2                             5.000000
        s9                             5.000000
      * Repulsion:
        kExp                           1.500000    1.000000
        rExp                           1.000000
      * Coulomb:
        alpha                          2.000000
        third order                    shell-resolved
        anisotropic                    true
        a3                             3.000000
        a5                             4.000000
        cn-shift                       1.200000
        cn-exp                         4.000000
        max-rad                        5.000000

q/qsh data taken from xtbrestart
CAMM data taken from xtbrestart

          ...................................................
          :                      SETUP                      :
          :.................................................:
          :  # basis functions                  33          :
          :  # atomic orbitals                  33          :
          :  # shells                           21          :
          :  # electrons                        35          :
          :  max. iterations                   250          :
          :  Hamiltonian                  GFN2-xTB          :
          :  restarted?                       true          :
          :  GBSA solvation                  false          :
          :  PC potential                    false          :
          :  electronic temp.          300.0000000     K    :
          :  accuracy                    0.2000000          :
          :  -> integral cutoff          0.3198970E+02      :
          :  -> integral neglect         0.2000000E-08      :
          :  -> SCF convergence          0.2000000E-06 Eh   :
          :  -> wf. convergence          0.2000000E-04 e    :
          :  Broyden damping             0.4000000          :
          :  net charge                          0          :
          :  unpaired electrons                  1          :
          ...................................................

 iter      E             dE          RMSdq      gap      omega  full diag
   1    -19.4867105 -0.194867E+02  0.125E-01    6.39       0.0  T
   2    -19.4867115 -0.102332E-05  0.750E-02    6.39       1.0  T
   3    -19.4867114  0.153303E-06  0.676E-03    6.39       3.8  T
   4    -19.4867118 -0.493810E-06  0.238E-03    6.39      10.9  T
   5    -19.4867119 -0.604698E-08  0.110E-03    6.39      23.5  T
   6    -19.4867119 -0.273235E-08  0.323E-04    6.39      80.0  T
   7    -19.4867119 -0.189868E-09  0.689E-05    6.39     374.6  T
   8    -19.4867119 -0.417089E-11  0.306E-05    6.39     843.6  T

   *** convergence criteria satisfied after 8 iterations ***

         #    Occupation            Energy/Eh            Energy/eV
      -------------------------------------------------------------
         1        2.0000           -0.7212000             -19.6249
       ...           ...                  ...                  ...
        12        2.0000           -0.4775548             -12.9949
        13        2.0000           -0.4657778             -12.6745
        14        2.0000           -0.4508909             -12.2694
        15        2.0000           -0.4436631             -12.0727
        16        2.0000           -0.4339943             -11.8096
        17        2.0000           -0.4317809             -11.7494
        18        1.0000           -0.3151811              -8.5765 (HOMO)
        19                         -0.0805201              -2.1911 (LUMO)
        20                          0.0682250               1.8565
        21                          0.0864396               2.3521
        22                          0.1216531               3.3103
        23                          0.1332995               3.6273
       ...                                ...                  ...
        33                          0.4192496              11.4084
      -------------------------------------------------------------
                  HL-Gap            0.2346610 Eh            6.3855 eV
             Fermi-level           -0.2856658 Eh           -7.7734 eV

 SCC (total)                   0 d,  0 h,  0 min,  0.022 sec
 SCC setup                      ...        0 min,  0.000 sec (  0.897%)
 Dispersion                     ...        0 min,  0.000 sec (  1.078%)
 classical contributions        ...        0 min,  0.000 sec (  0.567%)
 integral evaluation            ...        0 min,  0.001 sec (  4.696%)
 iterations                     ...        0 min,  0.015 sec ( 70.106%)
 molecular gradient             ...        0 min,  0.004 sec ( 17.376%)
 printout                       ...        0 min,  0.001 sec (  5.123%)

         :::::::::::::::::::::::::::::::::::::::::::::::::::::
         ::                     SUMMARY                     ::
         :::::::::::::::::::::::::::::::::::::::::::::::::::::
         :: total energy             -19.249627588687 Eh    ::
         :: gradient norm              0.002375309467 Eh/a0 ::
         :: HOMO-LUMO gap              6.385451761423 eV    ::
         ::.................................................::
         :: SCC energy               -19.486715527598 Eh    ::
         :: -> isotropic ES            0.016811742212 Eh    ::
         :: -> anisotropic ES          0.001549114235 Eh    ::
         :: -> anisotropic XC          0.006198695344 Eh    ::
         :: -> dispersion             -0.007589786366 Eh    ::
         :: repulsion energy           0.237087938912 Eh    ::
         :: add. restraining           0.000000000000 Eh    ::
         :: total charge              -0.000000000000 e     ::
         :::::::::::::::::::::::::::::::::::::::::::::::::::::


Property printout bound to 'properties.out'

           -------------------------------------------------
          | TOTAL ENERGY              -19.249627588687 Eh   |
          | GRADIENT NORM               0.002375309467 Eh/α |
          | HOMO-LUMO GAP               6.385451761423 eV   |
           -------------------------------------------------

------------------------------------------------------------------------
 * finished run on 2026/02/12 at 17:30:17.911     
------------------------------------------------------------------------
 total:
 * wall-time:     0 d,  0 h,  0 min,  0.038 sec
 *  cpu-time:     0 d,  0 h,  0 min,  0.214 sec
 * ratio c/w:     5.691 speedup
 SCF:
 * wall-time:     0 d,  0 h,  0 min,  0.022 sec
 *  cpu-time:     0 d,  0 h,  0 min,  0.129 sec
 * ratio c/w:     5.937 speedup


-------------------------   --------------------
FINAL SINGLE POINT ENERGY       -19.249627588690
-------------------------   --------------------


-------------
DIPOLE MOMENT
-------------
                                X             Y             Z
Total Dipole Moment    :      0.20700      -0.47700      -0.53500
                        -----------------------------------------
Magnitude (a.u.)       :      0.74606
Magnitude (Debye)      :      1.89633


------------------
CARTESIAN GRADIENT
------------------

   1   C   :   -0.000079083    0.000053483    0.000107454
   2   C   :   -0.000349832   -0.000185931   -0.000085882
   3   C   :   -0.000176896    0.000511091    0.000612981
   4   C   :   -0.000176798    0.000912650    0.000788575
   5   C   :    0.000902120   -0.000915733   -0.000551233
   6   O   :   -0.000894493   -0.000213076   -0.000495197
   7   H   :    0.000001119   -0.000033409   -0.000039462
   8   H   :    0.000051594    0.000041105   -0.000026942
   9   H   :    0.000082697   -0.000029500    0.000018227
  10   H   :    0.000086436    0.000011447   -0.000009849
  11   H   :    0.000072654    0.000048363    0.000002706
  12   H   :    0.000182268   -0.000167199   -0.000134190
  13   H   :    0.000034185   -0.000065297   -0.000225302
  14   H   :    0.000063438    0.000048312    0.000163537
  15   H   :    0.000200592   -0.000016306   -0.000125421

Difference to translation invariance:
           :    0.0000000000   -0.0000000000    0.0000000000

Difference to rotation invariance:
           :    0.0000001053    0.0000001234   -0.0000002387

Norm of the Cartesian gradient     ...    0.0023753095
RMS gradient                       ...    0.0003540902
MAX gradient                       ...    0.0009157329
------------------------------------------------------------------------------
                         ORCA GEOMETRY RELAXATION STEP
------------------------------------------------------------------------------

Reading the OPT-File                    .... done
Getting information on internals        .... done
Copying old internal coords+grads       .... done
Making the new internal coordinates     .... (2022 redundants) done
Validating the new internal coordinates .... (2022 redundants) done
Calculating the B-matrix                .... done
Calculating the G,G- and P matrices     .... done
Transforming gradient to internals      .... done
Projecting the internal gradient        .... done
Number of atoms                         ....  15
Number of internal coordinates          ....  68
Current Energy                          ....   -19.249627589 Eh
Current gradient norm                   ....     0.002375309 Eh/bohr
Maximum allowed component of the step   ....  0.300
Current trust radius                    ....  0.450
Updating the Hessian (BFGS)             .... done
Forming the augmented Hessian           .... done
Diagonalizing the augmented Hessian     .... done
Last element of RFO vector              ....  0.997856299
Lowest eigenvalues of augmented Hessian:
 -0.000017713  0.000928632  0.009940130  0.011707233  0.023358345
Length of the computed step             ....  0.065583751
The final length of the internal step   ....  0.065583751
Converting the step to Cartesian space:
 Initial RMS(Int)=    0.0079531980
Transforming coordinates:
 Iter   0:  RMS(Cart)=    0.0180812732 RMS(Int)=    0.0079285196
done
Storing new coordinates                 .... done
The predicted energy change is          ....    -0.000008895
Previously predicted energy change      ....    -0.000016452
Actually observed energy change         ....    -0.000022398
Ratio of predicted to observed change   ....     1.361473056
New trust radius                        ....     0.450000000

                                .--------------------.
          ----------------------|Geometry convergence|-------------------------
          Item                value                   Tolerance       Converged
          ---------------------------------------------------------------------
          Energy change      -0.0000223984            0.0000050000      NO
          RMS gradient        0.0001892557            0.0001000000      NO
          MAX gradient        0.0007722963            0.0003000000      NO
          RMS step            0.0079531980            0.0020000000      NO
          MAX step            0.0307076560            0.0040000000      NO
          -------------------------------------------------------------------------
          ........................................................
          Max(Bonds)      0.0008      Max(Angles)    0.38
          Max(Dihed)        1.76      Max(Improp)    0.00
          ---------------------------------------------------------------------

    ---------------------------------------------------------------------------
                         Redundant Internal Coordinates
                            (Angstroem and degrees)

        Definition                    Value    dE/dq     Step     New-Value
    ----------------------------------------------------------------------------
     1. B(C   1,C   0)                1.5229  0.000018 -0.0000    1.5229   
     2. B(C   2,C   1)                1.5291 -0.000159  0.0002    1.5294   
     3. B(C   4,C   3)                1.4500  0.000247  0.0000    1.4500   
     4. B(C   4,C   2)                1.4818 -0.000209  0.0008    1.4826   
     5. B(O   5,C   4)                1.3665  0.000447 -0.0005    1.3660   
     6. B(O   5,C   3)                1.4260 -0.000772  0.0005    1.4265   
     7. B(H   6,C   0)                1.0871 -0.000034  0.0000    1.0871   
     8. B(H   7,C   0)                1.0881 -0.000025 -0.0000    1.0881   
     9. B(H   8,C   0)                1.0881 -0.000032  0.0000    1.0881   
    10. B(H   9,C   1)                1.0915 -0.000008 -0.0000    1.0915   
    11. B(H  10,C   1)                1.0914 -0.000013 -0.0000    1.0914   
    12. B(H  11,C   2)                1.1018  0.000050 -0.0002    1.1016   
    13. B(H  12,C   2)                1.0931  0.000092 -0.0002    1.0929   
    14. B(H  13,C   3)                1.0830  0.000019  0.0001    1.0830   
    15. B(H  14,C   3)                1.0868  0.000077 -0.0000    1.0868   
    16. A(C   1,C   0,H   7)          110.62  0.000069   -0.02    110.59   
    17. A(C   1,C   0,H   6)          110.43  0.000015   -0.01    110.43   
    18. A(H   6,C   0,H   7)          108.36 -0.000058    0.03    108.39   
    19. A(H   7,C   0,H   8)          108.32 -0.000073    0.01    108.33   
    20. A(C   1,C   0,H   8)          110.74  0.000101   -0.04    110.70   
    21. A(H   6,C   0,H   8)          108.29 -0.000062    0.03    108.32   
    22. A(C   2,C   1,H   9)          108.82  0.000010   -0.03    108.79   
    23. A(C   0,C   1,C   2)          111.58  0.000181   -0.05    111.53   
    24. A(H   9,C   1,H  10)          107.74 -0.000038    0.03    107.77   
    25. A(C   0,C   1,H   9)          109.86 -0.000120    0.04    109.91   
    26. A(C   2,C   1,H  10)          109.09  0.000090   -0.05    109.05   
    27. A(C   0,C   1,H  10)          109.66 -0.000128    0.05    109.71   
    28. A(C   1,C   2,H  12)          110.31  0.000097   -0.03    110.29   
    29. A(H  11,C   2,H  12)          107.39 -0.000278    0.14    107.53   
    30. A(C   4,C   2,H  12)          108.73  0.000167   -0.00    108.73   
    31. A(C   4,C   2,H  11)          109.69  0.000230   -0.21    109.48   
    32. A(C   1,C   2,C   4)          111.49 -0.000218    0.05    111.54   
    33. A(C   1,C   2,H  11)          109.14  0.000001    0.05    109.18   
    34. A(H  13,C   3,H  14)          115.55  0.000197   -0.08    115.47   
    35. A(O   5,C   3,H  14)          114.40 -0.000150   -0.01    114.39   
    36. A(C   4,C   3,H  14)          121.14 -0.000159    0.10    121.24   
    37. A(O   5,C   3,H  13)          115.05 -0.000104   -0.01    115.05   
    38. A(C   4,C   3,H  13)          119.66 -0.000077    0.04    119.70   
    39. A(C   4,C   3,O   5)           56.73  0.000286   -0.03     56.70   
    40. A(C   2,C   4,C   3)          133.68  0.000569   -0.38    133.29   
    41. A(C   3,C   4,O   5)           60.75 -0.000486    0.03     60.78   
    42. A(C   2,C   4,O   5)          125.75  0.000266   -0.13    125.62   
    43. A(C   3,O   5,C   4)           62.52  0.000201    0.00     62.52   
    44. D(H   9,C   1,C   0,H   7)    179.36 -0.000033   -0.08    179.28   
    45. D(C   2,C   1,C   0,H   7)    -59.86  0.000018   -0.12    -59.98   
    46. D(H   9,C   1,C   0,H   8)    -60.53 -0.000013   -0.11    -60.64   
    47. D(C   2,C   1,C   0,H   8)     60.25  0.000037   -0.14     60.10   
    48. D(C   2,C   1,C   0,H   6)   -179.81  0.000036   -0.14   -179.95   
    49. D(H   9,C   1,C   0,H   6)     59.41 -0.000015   -0.10     59.31   
    50. D(C   4,C   2,C   1,C   0)   -178.69 -0.000081    0.18   -178.51   
    51. D(H  11,C   2,C   1,H  10)   -178.67  0.000050   -0.02   -178.69   
    52. D(H  11,C   2,C   1,H   9)     64.03  0.000040   -0.01     64.02   
    53. D(H  11,C   2,C   1,C   0)    -57.36  0.000067   -0.02    -57.38   
    54. D(C   4,C   2,C   1,H  10)     60.00 -0.000098    0.18     60.18   
    55. D(C   4,C   2,C   1,H   9)    -57.30 -0.000108    0.19    -57.11   
    56. D(C   3,C   4,C   2,H  12)    -92.28  0.000048   -1.76    -94.04   
    57. D(C   3,C   4,C   2,H  11)     24.89 -0.000059   -1.71     23.18   
    58. D(C   3,C   4,C   2,C   1)    145.90 -0.000046   -1.76    144.14   
    59. D(O   5,C   4,C   3,H  14)    100.42  0.000036   -0.08    100.34   
    60. D(O   5,C   4,C   3,H  13)   -102.08 -0.000036    0.04   -102.03   
    61. D(C   2,C   4,C   3,H  14)    -12.60  0.000168   -0.02    -12.62   
    62. D(C   2,C   4,C   3,H  13)    144.90  0.000096    0.11    145.01   
    63. D(C   2,C   4,C   3,O   5)   -113.02  0.000132    0.06   -112.96   
    64. D(O   5,C   4,C   2,H  11)    -56.77  0.000108   -1.44    -58.21   
    65. D(O   5,C   4,C   2,C   1)     64.24  0.000121   -1.49     62.74   
    66. D(C   3,O   5,C   4,C   2)    124.90  0.000424   -0.44    124.46   
    67. D(C   4,O   5,C   3,H  14)   -112.43  0.000052   -0.12   -112.55   
    68. D(C   4,O   5,C   3,H  13)    110.28  0.000034    0.04    110.32   
    ----------------------------------------------------------------------------

Geometry step timings:
Preparation and reading OPT file:      0.000 s ( 0.839 %)
Internal coordinates            :      0.000 s ( 1.183 %)
B/P matrices and projection     :      0.000 s (18.924 %)
Hessian update/contruction      :      0.001 s (30.408 %)
Making the step                 :      0.001 s (21.786 %)
Converting the step to Cartesian:      0.000 s ( 2.518 %)
Storing new data                :      0.000 s ( 1.450 %)
Checking convergence            :      0.000 s ( 1.946 %)
Final printing                  :      0.001 s (20.755 %)
Total time                      :      0.003 s

Time for energy+gradient        :      0.055 s
Time for complete geometry iter :      0.059 s

         *************************************************************
         *                GEOMETRY OPTIMIZATION CYCLE  12            *
         *************************************************************
---------------------------------
CARTESIAN COORDINATES (ANGSTROEM)
---------------------------------
  C     2.331135    0.049672   -0.188326
  C     1.002842    0.212571    0.538435
  C    -0.139530   -0.462462   -0.222013
  C    -2.795045   -0.075258   -0.005141
  C    -1.438538   -0.273543    0.467108
  O    -2.053753    0.925452    0.690623
  H     3.129675    0.534664    0.367473
  H     2.580356   -1.003712   -0.298606
  H     2.284508    0.495945   -1.179607
  H     0.770077    1.272627    0.654186
  H     1.073318   -0.223903    1.536225
  H    -0.197583   -0.040033   -1.237782
  H     0.052388   -1.533752   -0.321453
  H    -3.623364   -0.500102    0.548370
  H    -3.000695    0.160834   -1.045853

----------------------------
CARTESIAN COORDINATES (A.U.)
----------------------------
  NO LB    ZA    FRAG    MASS        X           Y           Z
   0 C   6.0000    1    12.011    4.405206    0.093867   -0.355885
   1 C   6.0000    1    12.011    1.895097    0.401701    1.017495
   2 C   6.0000    1    12.011   -0.263673   -0.873926   -0.419543
   3 C   6.0000    1    12.011   -5.281870   -0.142217   -0.009716
   4 C   6.0000    1    12.011   -2.718443   -0.516921    0.882707
   5 O   8.0000    1    15.999   -3.881030    1.748852    1.305088
   6 H   1.0000    1     1.008    5.914229    1.010369    0.694423
   7 H   1.0000    1     1.008    4.876166   -1.896741   -0.564284
   8 H   1.0000    1     1.008    4.317094    0.937200   -2.229134
   9 H   1.0000    1     1.008    1.455235    2.404916    1.236233
  10 H   1.0000    1     1.008    2.028278   -0.423116    2.903045
  11 H   1.0000    1     1.008   -0.373378   -0.075652   -2.339069
  12 H   1.0000    1     1.008    0.099000   -2.898372   -0.607457
  13 H   1.0000    1     1.008   -6.847166   -0.945056    1.036269
  14 H   1.0000    1     1.008   -5.670492    0.303932   -1.976375

      -----------------------------------------------------------      
     |                   =====================                   |     
     |                           x T B                           |     
     |                   =====================                   |     
     |                         S. Grimme                         |     
     |          Mulliken Center for Theoretical Chemistry        |     
     |                    University of Bonn                     |     
      -----------------------------------------------------------      

   * xtb version 6.7.1 (edcfbbe) compiled by 'albert@albert-system' on 2024-07-22

   xtb is free software: you can redistribute it and/or modify it under
   the terms of the GNU Lesser General Public License as published by
   the Free Software Foundation, either version 3 of the License, or
   (at your option) any later version.
   
   xtb is distributed in the hope that it will be useful,
   but WITHOUT ANY WARRANTY; without even the implied warranty of
   MERCHANTABILITY or FITNESS FOR A PARTICULAR PURPOSE.  See the
   GNU Lesser General Public License for more details.
   
   Cite this work as:
   * C. Bannwarth, E. Caldeweyher, S. Ehlert, A. Hansen, P. Pracht,
     J. Seibert, S. Spicher, S. Grimme, WIREs Comput. Mol. Sci., 2020, 11,
     e01493. DOI: 10.1002/wcms.1493
   
   for GFN2-xTB:
   * C. Bannwarth, S. Ehlert and S. Grimme., J. Chem. Theory Comput., 2019,
     15, 1652-1671. DOI: 10.1021/acs.jctc.8b01176
   for GFN1-xTB:
   * S. Grimme, C. Bannwarth, P. Shushkov, J. Chem. Theory Comput., 2017,
     13, 1989-2009. DOI: 10.1021/acs.jctc.7b00118
   for GFN0-xTB:
   * P. Pracht, E. Caldeweyher, S. Ehlert, S. Grimme, ChemRxiv, 2019, preprint.
     DOI: 10.26434/chemrxiv.8326202.v1
   for GFN-FF:
   * S. Spicher and S. Grimme, Angew. Chem. Int. Ed., 2020, 59, 15665-15673.
     DOI: 10.1002/anie.202004239
   
   for ALPB and GBSA implicit solvation:
   * S. Ehlert, M. Stahn, S. Spicher, S. Grimme, J. Chem. Theory Comput.,
     2021, 17, 4250-4261. DOI: 10.1021/acs.jctc.1c00471
   
   for ddCOSMO and CPCM-X implicit solvation:
   * M. Stahn, S. Ehlert, S. Grimme, J. Phys. Chem. A,
     2023, XX, XXXX-XXXX. DOI: 10.1021/acs.jpca.3c04382
   
   for DFT-D4:
   * E. Caldeweyher, C. Bannwarth and S. Grimme, J. Chem. Phys., 2017,
     147, 034112. DOI: 10.1063/1.4993215
   * E. Caldeweyher, S. Ehlert, A. Hansen, H. Neugebauer, S. Spicher,
     C. Bannwarth and S. Grimme, J. Chem. Phys., 2019, 150, 154122.
     DOI: 10.1063/1.5090222
   * E. Caldeweyher, J.-M. Mewes, S. Ehlert and S. Grimme, Phys. Chem. Chem. Phys.
     2020, 22, 8499-8512. DOI: 10.1039/D0CP00502A
   
   for sTDA-xTB:
   * S. Grimme and C. Bannwarth, J. Chem. Phys., 2016, 145, 054103.
     DOI: 10.1063/1.4959605
   
   in the mass-spec context:
   * V. Asgeirsson, C. Bauer and S. Grimme, Chem. Sci., 2017, 8, 4879.
     DOI: 10.1039/c7sc00601b
   * J. Koopman and S. Grimme, ACS Omega 2019, 4, 12, 15120-15133.
     DOI: 10.1021/acsomega.9b02011
   
   for metadynamics refer to:
   * S. Grimme, J. Chem. Theory Comput., 2019, 155, 2847-2862
     DOI: 10.1021/acs.jctc.9b00143
   
   for SPH calculations refer to:
   * S. Spicher and S. Grimme, J. Chem. Theory Comput., 2021, 17, 1701-1714
     DOI: 10.1021/acs.jctc.0c01306
   
   for ONIOM refer to:
   * C. Plett, A. Katbashev, S. Ehlert, S. Grimme, M. Bursch,
     Phys. Chem. Chem. Phys., 2023, 25, 17860-17868. DOI: 10.1039/D3CP02178E
   
   for DIPRO refer to:
   * J. Kohn, N. Gildemeister, S. Grimme, D. Fazzi, A. Hansen,
     J. Chem. Phys., 2023, just accepted.
   
   for PTB refer to:
   * S. Grimme, M. Mueller, A. Hansen, J. Chem. Phys., 2023, 158, 124111.
     DOI: 10.1063/5.0137838
   
   with help from (in alphabetical order)
   P. Atkinson, C. Bannwarth, F. Bohle, G. Brandenburg, E. Caldeweyher
   M. Checinski, S. Dohm, S. Ehlert, S. Ehrlich, I. Gerasimov, C. Hölzer
   A. Katbashev, J. Kohn, J. Koopman, C. Lavigne, S. Lehtola, F. März, M. Müller,
   F. Musil, H. Neugebauer, J. Pisarek, C. Plett, P. Pracht, F. Pultar,
   J. Seibert, P. Shushkov, S. Spicher, M. Stahn, M. Steiner, T. Strunk,
   J. Stückrath, T. Rose, and J. Unsleber
   
 * started run on 2026/02/12 at 17:30:17.934     
   ID    Z sym.   atoms
    1    6 C      1-5
    2    8 O      6
    3    1 H      7-15

           -------------------------------------------------
          |                Calculation Setup                |
           -------------------------------------------------

          program call               : /apps/eb/ORCA/6.1.1-gompi-2024a-avx2/bin/otool_xtb goat_XTB.xyz --grad -c 0 -u 1 -P 8 --namespace goat --input goat_XTB.input.tmp --acc 0.200000
          hostname                   : a2-4
          calculation namespace      : goat
          coordinate file            : goat_XTB.xyz
          omp threads                :                     8


           -------------------------------------------------
          |                 G F N 2 - x T B                 |
           -------------------------------------------------

        Reference                      10.1021/acs.jctc.8b01176
      * Hamiltonian:
        H0-scaling (s, p, d)           1.850000    2.230000    2.230000
        zeta-weighting                 0.500000
      * Dispersion:
        s8                             2.700000
        a1                             0.520000
        a2                             5.000000
        s9                             5.000000
      * Repulsion:
        kExp                           1.500000    1.000000
        rExp                           1.000000
      * Coulomb:
        alpha                          2.000000
        third order                    shell-resolved
        anisotropic                    true
        a3                             3.000000
        a5                             4.000000
        cn-shift                       1.200000
        cn-exp                         4.000000
        max-rad                        5.000000

q/qsh data taken from xtbrestart
CAMM data taken from xtbrestart

          ...................................................
          :                      SETUP                      :
          :.................................................:
          :  # basis functions                  33          :
          :  # atomic orbitals                  33          :
          :  # shells                           21          :
          :  # electrons                        35          :
          :  max. iterations                   250          :
          :  Hamiltonian                  GFN2-xTB          :
          :  restarted?                       true          :
          :  GBSA solvation                  false          :
          :  PC potential                    false          :
          :  electronic temp.          300.0000000     K    :
          :  accuracy                    0.2000000          :
          :  -> integral cutoff          0.3198970E+02      :
          :  -> integral neglect         0.2000000E-08      :
          :  -> SCF convergence          0.2000000E-06 Eh   :
          :  -> wf. convergence          0.2000000E-04 e    :
          :  Broyden damping             0.4000000          :
          :  net charge                          0          :
          :  unpaired electrons                  1          :
          ...................................................

 iter      E             dE          RMSdq      gap      omega  full diag
   1    -19.4866800 -0.194867E+02  0.804E-02    6.39       0.0  T
   2    -19.4866805 -0.484683E-06  0.480E-02    6.39       1.0  T
   3    -19.4866805 -0.336179E-07  0.349E-03    6.39       7.4  T
   4    -19.4866806 -0.726127E-07  0.129E-03    6.39      20.1  T
   5    -19.4866806 -0.794842E-09  0.492E-04    6.39      52.4  T
   6    -19.4866806 -0.687294E-09  0.164E-04    6.39     157.0  T
   7    -19.4866806 -0.746283E-10  0.505E-05    6.39     510.8  T

   *** convergence criteria satisfied after 7 iterations ***

         #    Occupation            Energy/Eh            Energy/eV
      -------------------------------------------------------------
         1        2.0000           -0.7212531             -19.6263
       ...           ...                  ...                  ...
        12        2.0000           -0.4773205             -12.9886
        13        2.0000           -0.4660902             -12.6830
        14        2.0000           -0.4508831             -12.2692
        15        2.0000           -0.4436659             -12.0728
        16        2.0000           -0.4338489             -11.8056
        17        2.0000           -0.4319538             -11.7541
        18        1.0000           -0.3153802              -8.5819 (HOMO)
        19                         -0.0806710              -2.1952 (LUMO)
        20                          0.0681120               1.8534
        21                          0.0867503               2.3606
        22                          0.1216403               3.3100
        23                          0.1333384               3.6283
       ...                                ...                  ...
        33                          0.4181211              11.3777
      -------------------------------------------------------------
                  HL-Gap            0.2347092 Eh            6.3868 eV
             Fermi-level           -0.2858463 Eh           -7.7783 eV

 SCC (total)                   0 d,  0 h,  0 min,  0.036 sec
 SCC setup                      ...        0 min,  0.002 sec (  4.322%)
 Dispersion                     ...        0 min,  0.000 sec (  1.401%)
 classical contributions        ...        0 min,  0.000 sec (  0.983%)
 integral evaluation            ...        0 min,  0.002 sec (  5.634%)
 iterations                     ...        0 min,  0.024 sec ( 66.103%)
 molecular gradient             ...        0 min,  0.006 sec ( 17.942%)
 printout                       ...        0 min,  0.001 sec (  3.521%)

         :::::::::::::::::::::::::::::::::::::::::::::::::::::
         ::                     SUMMARY                     ::
         :::::::::::::::::::::::::::::::::::::::::::::::::::::
         :: total energy             -19.249639180767 Eh    ::
         :: gradient norm              0.001451628960 Eh/a0 ::
         :: HOMO-LUMO gap              6.386762519663 eV    ::
         ::.................................................::
         :: SCC energy               -19.486684102610 Eh    ::
         :: -> isotropic ES            0.016788853209 Eh    ::
         :: -> anisotropic ES          0.001551005820 Eh    ::
         :: -> anisotropic XC          0.006206119397 Eh    ::
         :: -> dispersion             -0.007595859992 Eh    ::
         :: repulsion energy           0.237044921843 Eh    ::
         :: add. restraining           0.000000000000 Eh    ::
         :: total charge              -0.000000000000 e     ::
         :::::::::::::::::::::::::::::::::::::::::::::::::::::


Property printout bound to 'properties.out'

           -------------------------------------------------
          | TOTAL ENERGY              -19.249639180767 Eh   |
          | GRADIENT NORM               0.001451628960 Eh/α |
          | HOMO-LUMO GAP               6.386762519663 eV   |
           -------------------------------------------------

------------------------------------------------------------------------
 * finished run on 2026/02/12 at 17:30:17.996     
------------------------------------------------------------------------
 total:
 * wall-time:     0 d,  0 h,  0 min,  0.061 sec
 *  cpu-time:     0 d,  0 h,  0 min,  0.237 sec
 * ratio c/w:     3.876 speedup
 SCF:
 * wall-time:     0 d,  0 h,  0 min,  0.036 sec
 *  cpu-time:     0 d,  0 h,  0 min,  0.142 sec
 * ratio c/w:     3.972 speedup


-------------------------   --------------------
FINAL SINGLE POINT ENERGY       -19.249639180770
-------------------------   --------------------


-------------
DIPOLE MOMENT
-------------
                                X             Y             Z
Total Dipole Moment    :      0.20600      -0.46600      -0.54500
                        -----------------------------------------
Magnitude (a.u.)       :      0.74607
Magnitude (Debye)      :      1.89635


------------------
CARTESIAN GRADIENT
------------------

   1   C   :    0.000007513    0.000027568    0.000036916
   2   C   :   -0.000026279    0.000010553    0.000049004
   3   C   :   -0.000120117    0.000151847    0.000178930
   4   C   :    0.000114861    0.000656597    0.000450947
   5   C   :    0.000552259   -0.000668526   -0.000232933
   6   O   :   -0.000585934   -0.000202166   -0.000409726
   7   H   :   -0.000016913   -0.000006866   -0.000008477
   8   H   :    0.000005409    0.000014296   -0.000014566
   9   H   :    0.000017558   -0.000027189    0.000003176
  10   H   :    0.000020200   -0.000005774   -0.000044375
  11   H   :   -0.000014113   -0.000024502   -0.000024818
  12   H   :    0.000006139    0.000044114   -0.000022836
  13   H   :    0.000016391   -0.000014609    0.000015841
  14   H   :   -0.000003628    0.000035858    0.000098389
  15   H   :    0.000026654    0.000008800   -0.000075470

Difference to translation invariance:
           :   -0.0000000000    0.0000000000   -0.0000000000

Difference to rotation invariance:
           :    0.0000003753    0.0000001246   -0.0000002347

Norm of the Cartesian gradient     ...    0.0014516290
RMS gradient                       ...    0.0002163961
MAX gradient                       ...    0.0006685263
------------------------------------------------------------------------------
                         ORCA GEOMETRY RELAXATION STEP
------------------------------------------------------------------------------

Reading the OPT-File                    .... done
Getting information on internals        .... done
Copying old internal coords+grads       .... done
Making the new internal coordinates     .... (2022 redundants) done
Validating the new internal coordinates .... (2022 redundants) done
Calculating the B-matrix                .... done
Calculating the G,G- and P matrices     .... done
Transforming gradient to internals      .... done
Projecting the internal gradient        .... done
Number of atoms                         ....  15
Number of internal coordinates          ....  68
Current Energy                          ....   -19.249639181 Eh
Current gradient norm                   ....     0.001451629 Eh/bohr
Maximum allowed component of the step   ....  0.300
Current trust radius                    ....  0.450
Updating the Hessian (BFGS)             .... done
Forming the augmented Hessian           .... done
Diagonalizing the augmented Hessian     .... done
Last element of RFO vector              ....  0.999829710
Lowest eigenvalues of augmented Hessian:
 -0.000005461  0.000963455  0.009964428  0.011676679  0.024429598
Length of the computed step             ....  0.018457150
The final length of the internal step   ....  0.018457150
Converting the step to Cartesian space:
 Initial RMS(Int)=    0.0022382582
Transforming coordinates:
 Iter   0:  RMS(Cart)=    0.0060312240 RMS(Int)=    0.0022391956
done
Storing new coordinates                 .... done
The predicted energy change is          ....    -0.000002732
Previously predicted energy change      ....    -0.000008895
Actually observed energy change         ....    -0.000011592
Ratio of predicted to observed change   ....     1.303277681
New trust radius                        ....     0.450000000

                                .--------------------.
          ----------------------|Geometry convergence|-------------------------
          Item                value                   Tolerance       Converged
          ---------------------------------------------------------------------
          Energy change      -0.0000115921            0.0000050000      NO
          RMS gradient        0.0001082808            0.0001000000      NO
          MAX gradient        0.0005314184            0.0003000000      NO
          RMS step            0.0022382582            0.0020000000      NO
          MAX step            0.0075087056            0.0040000000      NO
          -------------------------------------------------------------------------
          ........................................................
          Max(Bonds)      0.0011      Max(Angles)    0.18
          Max(Dihed)        0.43      Max(Improp)    0.00
          ---------------------------------------------------------------------

    ---------------------------------------------------------------------------
                         Redundant Internal Coordinates
                            (Angstroem and degrees)

        Definition                    Value    dE/dq     Step     New-Value
    ----------------------------------------------------------------------------
     1. B(C   1,C   0)                1.5229  0.000003 -0.0000    1.5228   
     2. B(C   2,C   1)                1.5294 -0.000012  0.0001    1.5295   
     3. B(C   4,C   3)                1.4500  0.000138 -0.0002    1.4497   
     4. B(C   4,C   2)                1.4826 -0.000191  0.0004    1.4830   
     5. B(O   5,C   4)                1.3660  0.000229 -0.0006    1.3655   
     6. B(O   5,C   3)                1.4265 -0.000531  0.0011    1.4276   
     7. B(H   6,C   0)                1.0871 -0.000020  0.0000    1.0871   
     8. B(H   7,C   0)                1.0881 -0.000011  0.0000    1.0881   
     9. B(H   8,C   0)                1.0881 -0.000015  0.0000    1.0881   
    10. B(H   9,C   1)                1.0915 -0.000015  0.0000    1.0915   
    11. B(H  10,C   1)                1.0914 -0.000014  0.0000    1.0914   
    12. B(H  11,C   2)                1.1016  0.000038 -0.0001    1.1015   
    13. B(H  12,C   2)                1.0929  0.000016 -0.0001    1.0928   
    14. B(H  13,C   3)                1.0830  0.000039 -0.0000    1.0830   
    15. B(H  14,C   3)                1.0868  0.000069 -0.0001    1.0867   
    16. A(C   1,C   0,H   7)          110.59  0.000015   -0.01    110.58   
    17. A(C   1,C   0,H   6)          110.43 -0.000011    0.00    110.43   
    18. A(H   6,C   0,H   7)          108.39 -0.000003    0.01    108.40   
    19. A(H   7,C   0,H   8)          108.33 -0.000029    0.01    108.35   
    20. A(C   1,C   0,H   8)          110.70  0.000031   -0.02    110.68   
    21. A(H   6,C   0,H   8)          108.32 -0.000005    0.01    108.33   
    22. A(C   2,C   1,H   9)          108.79 -0.000018   -0.01    108.78   
    23. A(C   0,C   1,C   2)          111.53  0.000068   -0.03    111.50   
    24. A(H   9,C   1,H  10)          107.77  0.000043    0.00    107.77   
    25. A(C   0,C   1,H   9)          109.91 -0.000028    0.02    109.93   
    26. A(C   2,C   1,H  10)          109.05 -0.000052   -0.01    109.04   
    27. A(C   0,C   1,H  10)          109.71 -0.000015    0.02    109.73   
    28. A(C   1,C   2,H  12)          110.29  0.000020   -0.00    110.29   
    29. A(H  11,C   2,H  12)          107.53 -0.000010    0.05    107.58   
    30. A(C   4,C   2,H  12)          108.73  0.000014   -0.01    108.72   
    31. A(C   4,C   2,H  11)          109.48  0.000031   -0.07    109.41   
    32. A(C   1,C   2,C   4)          111.54 -0.000064    0.04    111.57   
    33. A(C   1,C   2,H  11)          109.18  0.000011    0.00    109.19   
    34. A(H  13,C   3,H  14)          115.46  0.000063   -0.04    115.42   
    35. A(O   5,C   3,H  14)          114.39 -0.000077   -0.01    114.38   
    36. A(C   4,C   3,H  14)          121.24 -0.000032    0.05    121.29   
    37. A(O   5,C   3,H  13)          115.05 -0.000064    0.01    115.05   
    38. A(C   4,C   3,H  13)          119.70 -0.000042    0.03    119.73   
    39. A(C   4,C   3,O   5)           56.70  0.000170   -0.04     56.65   
    40. A(C   2,C   4,C   3)          133.29  0.000300   -0.18    133.12   
    41. A(C   3,C   4,O   5)           60.79 -0.000311    0.07     60.86   
    42. A(C   2,C   4,O   5)          125.63  0.000149    0.05    125.68   
    43. A(C   3,O   5,C   4)           62.52  0.000141   -0.03     62.49   
    44. D(H   9,C   1,C   0,H   7)    179.28 -0.000003    0.00    179.28   
    45. D(C   2,C   1,C   0,H   7)    -59.98  0.000001   -0.02    -59.99   
    46. D(H   9,C   1,C   0,H   8)    -60.64 -0.000009   -0.00    -60.64   
    47. D(C   2,C   1,C   0,H   8)     60.10 -0.000005   -0.02     60.08   
    48. D(C   2,C   1,C   0,H   6)   -179.95  0.000002   -0.02   -179.97   
    49. D(H   9,C   1,C   0,H   6)     59.31 -0.000002   -0.00     59.31   
    50. D(C   4,C   2,C   1,C   0)   -178.51 -0.000020    0.18   -178.32   
    51. D(H  11,C   2,C   1,H  10)   -178.69 -0.000006    0.11   -178.57   
    52. D(H  11,C   2,C   1,H   9)     64.02 -0.000018    0.12     64.14   
    53. D(H  11,C   2,C   1,C   0)    -57.38 -0.000015    0.12    -57.26   
    54. D(C   4,C   2,C   1,H  10)     60.18 -0.000010    0.18     60.36   
    55. D(C   4,C   2,C   1,H   9)    -57.11 -0.000023    0.19    -56.93   
    56. D(C   3,C   4,C   2,H  12)    -94.04 -0.000066   -0.36    -94.39   
    57. D(C   3,C   4,C   2,H  11)     23.18 -0.000052   -0.35     22.83   
    58. D(C   3,C   4,C   2,C   1)    144.13 -0.000060   -0.37    143.76   
    59. D(O   5,C   4,C   3,H  14)    100.34  0.000002   -0.07    100.27   
    60. D(O   5,C   4,C   3,H  13)   -102.03 -0.000016    0.02   -102.01   
    61. D(C   2,C   4,C   3,H  14)    -12.62  0.000103   -0.24    -12.87   
    62. D(C   2,C   4,C   3,H  13)    145.01  0.000084   -0.15    144.86   
    63. D(C   2,C   4,C   3,O   5)   -112.96  0.000101   -0.18   -113.14   
    64. D(O   5,C   4,C   2,H  11)    -58.21  0.000112   -0.41    -58.62   
    65. D(O   5,C   4,C   2,C   1)     62.75  0.000105   -0.43     62.32   
    66. D(C   3,O   5,C   4,C   2)    124.46  0.000195   -0.19    124.27   
    67. D(C   4,O   5,C   3,H  14)   -112.55 -0.000039   -0.06   -112.61   
    68. D(C   4,O   5,C   3,H  13)    110.32  0.000026    0.02    110.34   
    ----------------------------------------------------------------------------

Geometry step timings:
Preparation and reading OPT file:      0.000 s ( 0.813 %)
Internal coordinates            :      0.000 s ( 1.244 %)
B/P matrices and projection     :      0.001 s (18.791 %)
Hessian update/contruction      :      0.001 s (31.056 %)
Making the step                 :      0.001 s (17.623 %)
Converting the step to Cartesian:      0.000 s ( 2.006 %)
Storing new data                :      0.000 s ( 1.219 %)
Checking convergence            :      0.000 s ( 1.828 %)
Final printing                  :      0.001 s (25.394 %)
Total time                      :      0.004 s

Time for energy+gradient        :      0.082 s
Time for complete geometry iter :      0.087 s

         *************************************************************
         *                GEOMETRY OPTIMIZATION CYCLE  13            *
         *************************************************************
---------------------------------
CARTESIAN COORDINATES (ANGSTROEM)
---------------------------------
  C     2.329861    0.051082   -0.190247
  C     1.002827    0.212124    0.539208
  C    -0.139553   -0.465764   -0.218930
  C    -2.793152   -0.073384   -0.007717
  C    -1.439269   -0.275776    0.469502
  O    -2.052355    0.922875    0.697147
  H     3.128665    0.538234    0.363317
  H     2.580674   -1.001988   -0.299950
  H     2.279869    0.496343   -1.181835
  H     0.767905    1.271744    0.654625
  H     1.075721   -0.223572    1.537167
  H    -0.198834   -0.045693   -1.235498
  H     0.052872   -1.537128   -0.315286
  H    -3.624787   -0.499513    0.539714
  H    -2.994651    0.169417   -1.047578

----------------------------
CARTESIAN COORDINATES (A.U.)
----------------------------
  NO LB    ZA    FRAG    MASS        X           Y           Z
   0 C   6.0000    1    12.011    4.402799    0.096531   -0.359515
   1 C   6.0000    1    12.011    1.895068    0.400857    1.018955
   2 C   6.0000    1    12.011   -0.263717   -0.880167   -0.413717
   3 C   6.0000    1    12.011   -5.278293   -0.138676   -0.014583
   4 C   6.0000    1    12.011   -2.719824   -0.521141    0.887230
   5 O   8.0000    1    15.999   -3.878390    1.743980    1.317418
   6 H   1.0000    1     1.008    5.912320    1.017115    0.686570
   7 H   1.0000    1     1.008    4.876766   -1.893483   -0.566823
   8 H   1.0000    1     1.008    4.308328    0.937952   -2.233345
   9 H   1.0000    1     1.008    1.451131    2.403249    1.237063
  10 H   1.0000    1     1.008    2.032819   -0.422490    2.904825
  11 H   1.0000    1     1.008   -0.375742   -0.086347   -2.334752
  12 H   1.0000    1     1.008    0.099913   -2.904752   -0.595804
  13 H   1.0000    1     1.008   -6.849855   -0.943943    1.019912
  14 H   1.0000    1     1.008   -5.659069    0.320151   -1.979635

      -----------------------------------------------------------      
     |                   =====================                   |     
     |                           x T B                           |     
     |                   =====================                   |     
     |                         S. Grimme                         |     
     |          Mulliken Center for Theoretical Chemistry        |     
     |                    University of Bonn                     |     
      -----------------------------------------------------------      

   * xtb version 6.7.1 (edcfbbe) compiled by 'albert@albert-system' on 2024-07-22

   xtb is free software: you can redistribute it and/or modify it under
   the terms of the GNU Lesser General Public License as published by
   the Free Software Foundation, either version 3 of the License, or
   (at your option) any later version.
   
   xtb is distributed in the hope that it will be useful,
   but WITHOUT ANY WARRANTY; without even the implied warranty of
   MERCHANTABILITY or FITNESS FOR A PARTICULAR PURPOSE.  See the
   GNU Lesser General Public License for more details.
   
   Cite this work as:
   * C. Bannwarth, E. Caldeweyher, S. Ehlert, A. Hansen, P. Pracht,
     J. Seibert, S. Spicher, S. Grimme, WIREs Comput. Mol. Sci., 2020, 11,
     e01493. DOI: 10.1002/wcms.1493
   
   for GFN2-xTB:
   * C. Bannwarth, S. Ehlert and S. Grimme., J. Chem. Theory Comput., 2019,
     15, 1652-1671. DOI: 10.1021/acs.jctc.8b01176
   for GFN1-xTB:
   * S. Grimme, C. Bannwarth, P. Shushkov, J. Chem. Theory Comput., 2017,
     13, 1989-2009. DOI: 10.1021/acs.jctc.7b00118
   for GFN0-xTB:
   * P. Pracht, E. Caldeweyher, S. Ehlert, S. Grimme, ChemRxiv, 2019, preprint.
     DOI: 10.26434/chemrxiv.8326202.v1
   for GFN-FF:
   * S. Spicher and S. Grimme, Angew. Chem. Int. Ed., 2020, 59, 15665-15673.
     DOI: 10.1002/anie.202004239
   
   for ALPB and GBSA implicit solvation:
   * S. Ehlert, M. Stahn, S. Spicher, S. Grimme, J. Chem. Theory Comput.,
     2021, 17, 4250-4261. DOI: 10.1021/acs.jctc.1c00471
   
   for ddCOSMO and CPCM-X implicit solvation:
   * M. Stahn, S. Ehlert, S. Grimme, J. Phys. Chem. A,
     2023, XX, XXXX-XXXX. DOI: 10.1021/acs.jpca.3c04382
   
   for DFT-D4:
   * E. Caldeweyher, C. Bannwarth and S. Grimme, J. Chem. Phys., 2017,
     147, 034112. DOI: 10.1063/1.4993215
   * E. Caldeweyher, S. Ehlert, A. Hansen, H. Neugebauer, S. Spicher,
     C. Bannwarth and S. Grimme, J. Chem. Phys., 2019, 150, 154122.
     DOI: 10.1063/1.5090222
   * E. Caldeweyher, J.-M. Mewes, S. Ehlert and S. Grimme, Phys. Chem. Chem. Phys.
     2020, 22, 8499-8512. DOI: 10.1039/D0CP00502A
   
   for sTDA-xTB:
   * S. Grimme and C. Bannwarth, J. Chem. Phys., 2016, 145, 054103.
     DOI: 10.1063/1.4959605
   
   in the mass-spec context:
   * V. Asgeirsson, C. Bauer and S. Grimme, Chem. Sci., 2017, 8, 4879.
     DOI: 10.1039/c7sc00601b
   * J. Koopman and S. Grimme, ACS Omega 2019, 4, 12, 15120-15133.
     DOI: 10.1021/acsomega.9b02011
   
   for metadynamics refer to:
   * S. Grimme, J. Chem. Theory Comput., 2019, 155, 2847-2862
     DOI: 10.1021/acs.jctc.9b00143
   
   for SPH calculations refer to:
   * S. Spicher and S. Grimme, J. Chem. Theory Comput., 2021, 17, 1701-1714
     DOI: 10.1021/acs.jctc.0c01306
   
   for ONIOM refer to:
   * C. Plett, A. Katbashev, S. Ehlert, S. Grimme, M. Bursch,
     Phys. Chem. Chem. Phys., 2023, 25, 17860-17868. DOI: 10.1039/D3CP02178E
   
   for DIPRO refer to:
   * J. Kohn, N. Gildemeister, S. Grimme, D. Fazzi, A. Hansen,
     J. Chem. Phys., 2023, just accepted.
   
   for PTB refer to:
   * S. Grimme, M. Mueller, A. Hansen, J. Chem. Phys., 2023, 158, 124111.
     DOI: 10.1063/5.0137838
   
   with help from (in alphabetical order)
   P. Atkinson, C. Bannwarth, F. Bohle, G. Brandenburg, E. Caldeweyher
   M. Checinski, S. Dohm, S. Ehlert, S. Ehrlich, I. Gerasimov, C. Hölzer
   A. Katbashev, J. Kohn, J. Koopman, C. Lavigne, S. Lehtola, F. März, M. Müller,
   F. Musil, H. Neugebauer, J. Pisarek, C. Plett, P. Pracht, F. Pultar,
   J. Seibert, P. Shushkov, S. Spicher, M. Stahn, M. Steiner, T. Strunk,
   J. Stückrath, T. Rose, and J. Unsleber
   
 * started run on 2026/02/12 at 17:30:18.023     
   ID    Z sym.   atoms
    1    6 C      1-5
    2    8 O      6
    3    1 H      7-15

           -------------------------------------------------
          |                Calculation Setup                |
           -------------------------------------------------

          program call               : /apps/eb/ORCA/6.1.1-gompi-2024a-avx2/bin/otool_xtb goat_XTB.xyz --grad -c 0 -u 1 -P 8 --namespace goat --input goat_XTB.input.tmp --acc 0.200000
          hostname                   : a2-4
          calculation namespace      : goat
          coordinate file            : goat_XTB.xyz
          omp threads                :                     8


           -------------------------------------------------
          |                 G F N 2 - x T B                 |
           -------------------------------------------------

        Reference                      10.1021/acs.jctc.8b01176
      * Hamiltonian:
        H0-scaling (s, p, d)           1.850000    2.230000    2.230000
        zeta-weighting                 0.500000
      * Dispersion:
        s8                             2.700000
        a1                             0.520000
        a2                             5.000000
        s9                             5.000000
      * Repulsion:
        kExp                           1.500000    1.000000
        rExp                           1.000000
      * Coulomb:
        alpha                          2.000000
        third order                    shell-resolved
        anisotropic                    true
        a3                             3.000000
        a5                             4.000000
        cn-shift                       1.200000
        cn-exp                         4.000000
        max-rad                        5.000000

q/qsh data taken from xtbrestart
CAMM data taken from xtbrestart

          ...................................................
          :                      SETUP                      :
          :.................................................:
          :  # basis functions                  33          :
          :  # atomic orbitals                  33          :
          :  # shells                           21          :
          :  # electrons                        35          :
          :  max. iterations                   250          :
          :  Hamiltonian                  GFN2-xTB          :
          :  restarted?                       true          :
          :  GBSA solvation                  false          :
          :  PC potential                    false          :
          :  electronic temp.          300.0000000     K    :
          :  accuracy                    0.2000000          :
          :  -> integral cutoff          0.3198970E+02      :
          :  -> integral neglect         0.2000000E-08      :
          :  -> SCF convergence          0.2000000E-06 Eh   :
          :  -> wf. convergence          0.2000000E-04 e    :
          :  Broyden damping             0.4000000          :
          :  net charge                          0          :
          :  unpaired electrons                  1          :
          ...................................................

 iter      E             dE          RMSdq      gap      omega  full diag
   1    -19.4866924 -0.194867E+02  0.257E-02    6.38       0.0  T
   2    -19.4866925 -0.137857E-06  0.151E-02    6.38       1.7  T
   3    -19.4866925  0.250155E-07  0.245E-03    6.38      10.5  T
   4    -19.4866925 -0.426612E-07  0.458E-04    6.38      56.4  T
   5    -19.4866925 -0.781409E-09  0.252E-04    6.38     102.5  T
   6    -19.4866925 -0.499369E-10  0.538E-05    6.38     479.8  T
   7    -19.4866925 -0.732570E-11  0.193E-05    6.38    1336.1  T

   *** convergence criteria satisfied after 7 iterations ***

         #    Occupation            Energy/Eh            Energy/eV
      -------------------------------------------------------------
         1        2.0000           -0.7212457             -19.6261
       ...           ...                  ...                  ...
        12        2.0000           -0.4772178             -12.9858
        13        2.0000           -0.4662389             -12.6870
        14        2.0000           -0.4508933             -12.2694
        15        2.0000           -0.4437700             -12.0756
        16        2.0000           -0.4338034             -11.8044
        17        2.0000           -0.4320298             -11.7561
        18        1.0000           -0.3153163              -8.5802 (HOMO)
        19                         -0.0808684              -2.2005 (LUMO)
        20                          0.0676657               1.8413
        21                          0.0866088               2.3567
        22                          0.1216338               3.3098
        23                          0.1333427               3.6284
       ...                                ...                  ...
        33                          0.4182712              11.3817
      -------------------------------------------------------------
                  HL-Gap            0.2344479 Eh            6.3797 eV
             Fermi-level           -0.2858827 Eh           -7.7793 eV

 SCC (total)                   0 d,  0 h,  0 min,  0.008 sec
 SCC setup                      ...        0 min,  0.000 sec (  2.318%)
 Dispersion                     ...        0 min,  0.000 sec (  1.021%)
 classical contributions        ...        0 min,  0.000 sec (  0.276%)
 integral evaluation            ...        0 min,  0.000 sec (  5.201%)
 iterations                     ...        0 min,  0.006 sec ( 75.026%)
 molecular gradient             ...        0 min,  0.001 sec ( 12.633%)
 printout                       ...        0 min,  0.000 sec (  3.147%)

         :::::::::::::::::::::::::::::::::::::::::::::::::::::
         ::                     SUMMARY                     ::
         :::::::::::::::::::::::::::::::::::::::::::::::::::::
         :: total energy             -19.249642506271 Eh    ::
         :: gradient norm              0.000555117914 Eh/a0 ::
         :: HOMO-LUMO gap              6.379651613451 eV    ::
         ::.................................................::
         :: SCC energy               -19.486695931673 Eh    ::
         :: -> isotropic ES            0.016781310010 Eh    ::
         :: -> anisotropic ES          0.001555789537 Eh    ::
         :: -> anisotropic XC          0.006218821831 Eh    ::
         :: -> dispersion             -0.007597103253 Eh    ::
         :: repulsion energy           0.237053425401 Eh    ::
         :: add. restraining           0.000000000000 Eh    ::
         :: total charge               0.000000000000 e     ::
         :::::::::::::::::::::::::::::::::::::::::::::::::::::


Property printout bound to 'properties.out'

           -------------------------------------------------
          | TOTAL ENERGY              -19.249642506271 Eh   |
          | GRADIENT NORM               0.000555117914 Eh/α |
          | HOMO-LUMO GAP               6.379651613451 eV   |
           -------------------------------------------------

------------------------------------------------------------------------
 * finished run on 2026/02/12 at 17:30:18.044     
------------------------------------------------------------------------
 total:
 * wall-time:     0 d,  0 h,  0 min,  0.020 sec
 *  cpu-time:     0 d,  0 h,  0 min,  0.140 sec
 * ratio c/w:     6.930 speedup
 SCF:
 * wall-time:     0 d,  0 h,  0 min,  0.008 sec
 *  cpu-time:     0 d,  0 h,  0 min,  0.064 sec
 * ratio c/w:     7.890 speedup


-------------------------   --------------------
FINAL SINGLE POINT ENERGY       -19.249642506270
-------------------------   --------------------


-------------
DIPOLE MOMENT
-------------
                                X             Y             Z
Total Dipole Moment    :      0.20600      -0.46400      -0.54900
                        -----------------------------------------
Magnitude (a.u.)       :      0.74775
Magnitude (Debye)      :      1.90063


------------------
CARTESIAN GRADIENT
------------------

   1   C   :    0.000032774    0.000001941   -0.000006851
   2   C   :    0.000116955    0.000087893    0.000081098
   3   C   :   -0.000057203   -0.000098910   -0.000059953
   4   C   :    0.000166317    0.000252477    0.000127068
   5   C   :    0.000120493   -0.000228128   -0.000078186
   6   O   :   -0.000176017   -0.000054970   -0.000130010
   7   H   :   -0.000015210    0.000007142    0.000008027
   8   H   :   -0.000012827   -0.000003099   -0.000002909
   9   H   :   -0.000015294   -0.000012834   -0.000004892
  10   H   :   -0.000014911   -0.000010641   -0.000035944
  11   H   :   -0.000039892   -0.000037841   -0.000020463
  12   H   :   -0.000039814    0.000101791    0.000036141
  13   H   :    0.000006124    0.000015181    0.000087241
  14   H   :   -0.000017087   -0.000007825    0.000017883
  15   H   :   -0.000054408   -0.000012175   -0.000018251

Difference to translation invariance:
           :   -0.0000000000   -0.0000000000   -0.0000000000

Difference to rotation invariance:
           :    0.0000001543    0.0000000170    0.0000000195

Norm of the Cartesian gradient     ...    0.0005551179
RMS gradient                       ...    0.0000827521
MAX gradient                       ...    0.0002524766
------------------------------------------------------------------------------
                         ORCA GEOMETRY RELAXATION STEP
------------------------------------------------------------------------------

Reading the OPT-File                    .... done
Getting information on internals        .... done
Copying old internal coords+grads       .... done
Making the new internal coordinates     .... (2022 redundants) done
Validating the new internal coordinates .... (2022 redundants) done
Calculating the B-matrix                .... done
Calculating the G,G- and P matrices     .... done
Transforming gradient to internals      .... done
Projecting the internal gradient        .... done
Number of atoms                         ....  15
Number of internal coordinates          ....  68
Current Energy                          ....   -19.249642506 Eh
Current gradient norm                   ....     0.000555118 Eh/bohr
Maximum allowed component of the step   ....  0.300
Current trust radius                    ....  0.450
Updating the Hessian (BFGS)             .... done
Forming the augmented Hessian           .... done
Diagonalizing the augmented Hessian     .... done
Last element of RFO vector              ....  0.999985544
Lowest eigenvalues of augmented Hessian:
 -0.000000810  0.000983064  0.009241863  0.011744884  0.023537423
Length of the computed step             ....  0.005377061
The final length of the internal step   ....  0.005377061
Converting the step to Cartesian space:
 Initial RMS(Int)=    0.0006520645
Transforming coordinates:
 Iter   0:  RMS(Cart)=    0.0010825093 RMS(Int)=    0.0006517932
done
Storing new coordinates                 .... done
The predicted energy change is          ....    -0.000000405
Previously predicted energy change      ....    -0.000002732
Actually observed energy change         ....    -0.000003325
Ratio of predicted to observed change   ....     1.217442885
New trust radius                        ....     0.675000000

                                .--------------------.
          ----------------------|Geometry convergence|-------------------------
          Item                value                   Tolerance       Converged
          ---------------------------------------------------------------------
          Energy change      -0.0000033255            0.0000050000      YES
          RMS gradient        0.0000401364            0.0001000000      YES
          MAX gradient        0.0001628911            0.0003000000      YES
          RMS step            0.0006520645            0.0020000000      YES
          MAX step            0.0020612216            0.0040000000      YES
          -------------------------------------------------------------------------
          ........................................................
          Max(Bonds)      0.0005      Max(Angles)    0.05
          Max(Dihed)        0.12      Max(Improp)    0.00
          ---------------------------------------------------------------------

                    ***********************HURRAY********************
                    ***        THE OPTIMIZATION HAS CONVERGED     ***
                    *************************************************


    ---------------------------------------------------------------------------
                         Redundant Internal Coordinates

                          --- Optimized Parameters ---  
                            (Angstroem and degrees)

        Definition                    OldVal   dE/dq     Step     FinalVal
    ----------------------------------------------------------------------------
     1. B(C   1,C   0)                1.5228 -0.000005  0.0000    1.5229   
     2. B(C   2,C   1)                1.5295  0.000062 -0.0001    1.5294   
     3. B(C   4,C   3)                1.4497  0.000009 -0.0001    1.4496   
     4. B(C   4,C   2)                1.4830 -0.000079  0.0001    1.4831   
     5. B(O   5,C   4)                1.3655  0.000066 -0.0002    1.3652   
     6. B(O   5,C   3)                1.4276 -0.000163  0.0005    1.4281   
     7. B(H   6,C   0)                1.0871 -0.000004  0.0000    1.0871   
     8. B(H   7,C   0)                1.0881  0.000000  0.0000    1.0881   
     9. B(H   8,C   0)                1.0881 -0.000000  0.0000    1.0881   
    10. B(H   9,C   1)                1.0915 -0.000011  0.0000    1.0915   
    11. B(H  10,C   1)                1.0914 -0.000006  0.0000    1.0914   
    12. B(H  11,C   2)                1.1015  0.000008 -0.0000    1.1015   
    13. B(H  12,C   2)                1.0928 -0.000021  0.0000    1.0928   
    14. B(H  13,C   3)                1.0830  0.000025 -0.0000    1.0829   
    15. B(H  14,C   3)                1.0867  0.000025 -0.0001    1.0866   
    16. A(C   1,C   0,H   7)          110.58 -0.000010    0.00    110.58   
    17. A(C   1,C   0,H   6)          110.43 -0.000017    0.00    110.43   
    18. A(H   6,C   0,H   7)          108.40  0.000019   -0.00    108.40   
    19. A(H   7,C   0,H   8)          108.35  0.000002    0.00    108.35   
    20. A(C   1,C   0,H   8)          110.68 -0.000011   -0.00    110.68   
    21. A(H   6,C   0,H   8)          108.33  0.000019   -0.00    108.32   
    22. A(C   2,C   1,H   9)          108.78 -0.000020    0.00    108.78   
    23. A(C   0,C   1,C   2)          111.50 -0.000008   -0.00    111.50   
    24. A(H   9,C   1,H  10)          107.77  0.000051   -0.01    107.76   
    25. A(C   0,C   1,H   9)          109.93  0.000021   -0.00    109.93   
    26. A(C   2,C   1,H  10)          109.04 -0.000077    0.01    109.05   
    27. A(C   0,C   1,H  10)          109.73  0.000034   -0.00    109.73   
    28. A(C   1,C   2,H  12)          110.29 -0.000020    0.01    110.29   
    29. A(H  11,C   2,H  12)          107.58  0.000090   -0.03    107.55   
    30. A(C   4,C   2,H  12)          108.72 -0.000034   -0.00    108.71   
    31. A(C   4,C   2,H  11)          109.41 -0.000034    0.01    109.42   
    32. A(C   1,C   2,C   4)          111.57  0.000004    0.01    111.59   
    33. A(C   1,C   2,H  11)          109.19 -0.000003    0.00    109.19   
    34. A(H  13,C   3,H  14)          115.42 -0.000020    0.00    115.42   
    35. A(O   5,C   3,H  14)          114.38 -0.000001   -0.01    114.37   
    36. A(C   4,C   3,H  14)          121.29  0.000032   -0.00    121.29   
    37. A(O   5,C   3,H  13)          115.05 -0.000017    0.00    115.06   
    38. A(C   4,C   3,H  13)          119.72 -0.000019    0.01    119.74   
    39. A(C   4,C   3,O   5)           56.65  0.000057   -0.02     56.64   
    40. A(C   2,C   4,C   3)          133.12  0.000088   -0.03    133.09   
    41. A(C   3,C   4,O   5)           60.86 -0.000087    0.03     60.89   
    42. A(C   2,C   4,O   5)          125.69  0.000040    0.05    125.73   
    43. A(C   3,O   5,C   4)           62.49  0.000029   -0.01     62.48   
    44. D(H   9,C   1,C   0,H   7)    179.28  0.000010    0.02    179.31   
    45. D(C   2,C   1,C   0,H   7)    -59.99 -0.000007    0.03    -59.96   
    46. D(H   9,C   1,C   0,H   8)    -60.64 -0.000002    0.03    -60.61   
    47. D(C   2,C   1,C   0,H   8)     60.08 -0.000018    0.03     60.12   
    48. D(C   2,C   1,C   0,H   6)   -179.97 -0.000013    0.03   -179.94   
    49. D(H   9,C   1,C   0,H   6)     59.31  0.000004    0.03     59.33   
    50. D(C   4,C   2,C   1,C   0)   -178.32  0.000007    0.07   -178.25   
    51. D(H  11,C   2,C   1,H  10)   -178.57 -0.000021    0.08   -178.49   
    52. D(H  11,C   2,C   1,H   9)     64.14 -0.000027    0.09     64.23   
    53. D(H  11,C   2,C   1,C   0)    -57.26 -0.000035    0.09    -57.17   
    54. D(C   4,C   2,C   1,H  10)     60.36  0.000021    0.06     60.42   
    55. D(C   4,C   2,C   1,H   9)    -56.93  0.000015    0.07    -56.86   
    56. D(C   3,C   4,C   2,H  12)    -94.39 -0.000065    0.07    -94.32   
    57. D(C   3,C   4,C   2,H  11)     22.83  0.000005    0.04     22.87   
    58. D(C   3,C   4,C   2,C   1)    143.76 -0.000019    0.06    143.82   
    59. D(O   5,C   4,C   3,H  14)    100.27  0.000010   -0.02    100.25   
    60. D(O   5,C   4,C   3,H  13)   -102.01 -0.000015    0.01   -102.00   
    61. D(C   2,C   4,C   3,H  14)    -12.87  0.000040   -0.12    -12.98   
    62. D(C   2,C   4,C   3,H  13)    144.86  0.000016   -0.09    144.77   
    63. D(C   2,C   4,C   3,O   5)   -113.14  0.000031   -0.10   -113.23   
    64. D(O   5,C   4,C   2,H  11)    -58.61  0.000049   -0.03    -58.64   
    65. D(O   5,C   4,C   2,C   1)     62.32  0.000025   -0.01     62.31   
    66. D(C   3,O   5,C   4,C   2)    124.27  0.000060   -0.03    124.24   
    67. D(C   4,O   5,C   3,H  14)   -112.61 -0.000052    0.00   -112.60   
    68. D(C   4,O   5,C   3,H  13)    110.34 -0.000000    0.01    110.35   
    ----------------------------------------------------------------------------

Geometry step timings:
Preparation and reading OPT file:      0.000 s ( 1.054 %)
Internal coordinates            :      0.000 s ( 1.445 %)
B/P matrices and projection     :      0.001 s (24.209 %)
Hessian update/contruction      :      0.000 s (18.430 %)
Making the step                 :      0.001 s (23.038 %)
Converting the step to Cartesian:      0.000 s ( 2.382 %)
Storing new data                :      0.000 s ( 1.484 %)
Checking convergence            :      0.000 s ( 2.811 %)
Final printing                  :      0.001 s (25.146 %)
Total time                      :      0.003 s
                 *******************************************************
                 *** FINAL ENERGY EVALUATION AT THE STATIONARY POINT ***
                 ***               (AFTER   13 CYCLES)               ***
                 *******************************************************
---------------------------------
CARTESIAN COORDINATES (ANGSTROEM)
---------------------------------
  C     2.329655    0.051251   -0.190714
  C     1.003012    0.211986    0.539532
  C    -0.139632   -0.465861   -0.218109
  C    -2.793021   -0.073475   -0.008248
  C    -1.439488   -0.274963    0.470048
  O    -2.052853    0.923323    0.697508
  H     3.128853    0.537915    0.362733
  H     2.580294   -1.001778   -0.301219
  H     2.279224    0.497231   -1.181961
  H     0.768072    1.271577    0.655366
  H     1.076654   -0.223705    1.537453
  H    -0.198529   -0.046737   -1.235076
  H     0.052244   -1.537388   -0.313936
  H    -3.624943   -0.499903    0.538416
  H    -2.993749    0.169526   -1.048152

----------------------------
CARTESIAN COORDINATES (A.U.)
----------------------------
  NO LB    ZA    FRAG    MASS        X           Y           Z
   0 C   6.0000    1    12.011    4.402409    0.096850   -0.360398
   1 C   6.0000    1    12.011    1.895418    0.400595    1.019567
   2 C   6.0000    1    12.011   -0.263866   -0.880350   -0.412167
   3 C   6.0000    1    12.011   -5.278045   -0.138847   -0.015587
   4 C   6.0000    1    12.011   -2.720239   -0.519604    0.888262
   5 O   8.0000    1    15.999   -3.879330    1.744828    1.318098
   6 H   1.0000    1     1.008    5.912676    1.016512    0.685467
   7 H   1.0000    1     1.008    4.876048   -1.893086   -0.569222
   8 H   1.0000    1     1.008    4.307109    0.939631   -2.233582
   9 H   1.0000    1     1.008    1.451447    2.402932    1.238462
  10 H   1.0000    1     1.008    2.034582   -0.422740    2.905364
  11 H   1.0000    1     1.008   -0.375165   -0.088320   -2.333955
  12 H   1.0000    1     1.008    0.098726   -2.905243   -0.593252
  13 H   1.0000    1     1.008   -6.850150   -0.944679    1.017458
  14 H   1.0000    1     1.008   -5.657366    0.320358   -1.980720

      -----------------------------------------------------------      
     |                   =====================                   |     
     |                           x T B                           |     
     |                   =====================                   |     
     |                         S. Grimme                         |     
     |          Mulliken Center for Theoretical Chemistry        |     
     |                    University of Bonn                     |     
      -----------------------------------------------------------      

   * xtb version 6.7.1 (edcfbbe) compiled by 'albert@albert-system' on 2024-07-22

   xtb is free software: you can redistribute it and/or modify it under
   the terms of the GNU Lesser General Public License as published by
   the Free Software Foundation, either version 3 of the License, or
   (at your option) any later version.
   
   xtb is distributed in the hope that it will be useful,
   but WITHOUT ANY WARRANTY; without even the implied warranty of
   MERCHANTABILITY or FITNESS FOR A PARTICULAR PURPOSE.  See the
   GNU Lesser General Public License for more details.
   
   Cite this work as:
   * C. Bannwarth, E. Caldeweyher, S. Ehlert, A. Hansen, P. Pracht,
     J. Seibert, S. Spicher, S. Grimme, WIREs Comput. Mol. Sci., 2020, 11,
     e01493. DOI: 10.1002/wcms.1493
   
   for GFN2-xTB:
   * C. Bannwarth, S. Ehlert and S. Grimme., J. Chem. Theory Comput., 2019,
     15, 1652-1671. DOI: 10.1021/acs.jctc.8b01176
   for GFN1-xTB:
   * S. Grimme, C. Bannwarth, P. Shushkov, J. Chem. Theory Comput., 2017,
     13, 1989-2009. DOI: 10.1021/acs.jctc.7b00118
   for GFN0-xTB:
   * P. Pracht, E. Caldeweyher, S. Ehlert, S. Grimme, ChemRxiv, 2019, preprint.
     DOI: 10.26434/chemrxiv.8326202.v1
   for GFN-FF:
   * S. Spicher and S. Grimme, Angew. Chem. Int. Ed., 2020, 59, 15665-15673.
     DOI: 10.1002/anie.202004239
   
   for ALPB and GBSA implicit solvation:
   * S. Ehlert, M. Stahn, S. Spicher, S. Grimme, J. Chem. Theory Comput.,
     2021, 17, 4250-4261. DOI: 10.1021/acs.jctc.1c00471
   
   for ddCOSMO and CPCM-X implicit solvation:
   * M. Stahn, S. Ehlert, S. Grimme, J. Phys. Chem. A,
     2023, XX, XXXX-XXXX. DOI: 10.1021/acs.jpca.3c04382
   
   for DFT-D4:
   * E. Caldeweyher, C. Bannwarth and S. Grimme, J. Chem. Phys., 2017,
     147, 034112. DOI: 10.1063/1.4993215
   * E. Caldeweyher, S. Ehlert, A. Hansen, H. Neugebauer, S. Spicher,
     C. Bannwarth and S. Grimme, J. Chem. Phys., 2019, 150, 154122.
     DOI: 10.1063/1.5090222
   * E. Caldeweyher, J.-M. Mewes, S. Ehlert and S. Grimme, Phys. Chem. Chem. Phys.
     2020, 22, 8499-8512. DOI: 10.1039/D0CP00502A
   
   for sTDA-xTB:
   * S. Grimme and C. Bannwarth, J. Chem. Phys., 2016, 145, 054103.
     DOI: 10.1063/1.4959605
   
   in the mass-spec context:
   * V. Asgeirsson, C. Bauer and S. Grimme, Chem. Sci., 2017, 8, 4879.
     DOI: 10.1039/c7sc00601b
   * J. Koopman and S. Grimme, ACS Omega 2019, 4, 12, 15120-15133.
     DOI: 10.1021/acsomega.9b02011
   
   for metadynamics refer to:
   * S. Grimme, J. Chem. Theory Comput., 2019, 155, 2847-2862
     DOI: 10.1021/acs.jctc.9b00143
   
   for SPH calculations refer to:
   * S. Spicher and S. Grimme, J. Chem. Theory Comput., 2021, 17, 1701-1714
     DOI: 10.1021/acs.jctc.0c01306
   
   for ONIOM refer to:
   * C. Plett, A. Katbashev, S. Ehlert, S. Grimme, M. Bursch,
     Phys. Chem. Chem. Phys., 2023, 25, 17860-17868. DOI: 10.1039/D3CP02178E
   
   for DIPRO refer to:
   * J. Kohn, N. Gildemeister, S. Grimme, D. Fazzi, A. Hansen,
     J. Chem. Phys., 2023, just accepted.
   
   for PTB refer to:
   * S. Grimme, M. Mueller, A. Hansen, J. Chem. Phys., 2023, 158, 124111.
     DOI: 10.1063/5.0137838
   
   with help from (in alphabetical order)
   P. Atkinson, C. Bannwarth, F. Bohle, G. Brandenburg, E. Caldeweyher
   M. Checinski, S. Dohm, S. Ehlert, S. Ehrlich, I. Gerasimov, C. Hölzer
   A. Katbashev, J. Kohn, J. Koopman, C. Lavigne, S. Lehtola, F. März, M. Müller,
   F. Musil, H. Neugebauer, J. Pisarek, C. Plett, P. Pracht, F. Pultar,
   J. Seibert, P. Shushkov, S. Spicher, M. Stahn, M. Steiner, T. Strunk,
   J. Stückrath, T. Rose, and J. Unsleber
   
 * started run on 2026/02/12 at 17:30:18.071     
   ID    Z sym.   atoms
    1    6 C      1-5
    2    8 O      6
    3    1 H      7-15

           -------------------------------------------------
          |                Calculation Setup                |
           -------------------------------------------------

          program call               : /apps/eb/ORCA/6.1.1-gompi-2024a-avx2/bin/otool_xtb goat_XTB.xyz --grad -c 0 -u 1 -P 8 --namespace goat --input goat_XTB.input.tmp --acc 0.200000
          hostname                   : a2-4
          calculation namespace      : goat
          coordinate file            : goat_XTB.xyz
          omp threads                :                     8


           -------------------------------------------------
          |                 G F N 2 - x T B                 |
           -------------------------------------------------

        Reference                      10.1021/acs.jctc.8b01176
      * Hamiltonian:
        H0-scaling (s, p, d)           1.850000    2.230000    2.230000
        zeta-weighting                 0.500000
      * Dispersion:
        s8                             2.700000
        a1                             0.520000
        a2                             5.000000
        s9                             5.000000
      * Repulsion:
        kExp                           1.500000    1.000000
        rExp                           1.000000
      * Coulomb:
        alpha                          2.000000
        third order                    shell-resolved
        anisotropic                    true
        a3                             3.000000
        a5                             4.000000
        cn-shift                       1.200000
        cn-exp                         4.000000
        max-rad                        5.000000

q/qsh data taken from xtbrestart
CAMM data taken from xtbrestart

          ...................................................
          :                      SETUP                      :
          :.................................................:
          :  # basis functions                  33          :
          :  # atomic orbitals                  33          :
          :  # shells                           21          :
          :  # electrons                        35          :
          :  max. iterations                   250          :
          :  Hamiltonian                  GFN2-xTB          :
          :  restarted?                       true          :
          :  GBSA solvation                  false          :
          :  PC potential                    false          :
          :  electronic temp.          300.0000000     K    :
          :  accuracy                    0.2000000          :
          :  -> integral cutoff          0.3198970E+02      :
          :  -> integral neglect         0.2000000E-08      :
          :  -> SCF convergence          0.2000000E-06 Eh   :
          :  -> wf. convergence          0.2000000E-04 e    :
          :  Broyden damping             0.4000000          :
          :  net charge                          0          :
          :  unpaired electrons                  1          :
          ...................................................

 iter      E             dE          RMSdq      gap      omega  full diag
   1    -19.4867012 -0.194867E+02  0.371E-03    6.38       0.0  T
   2    -19.4867012 -0.150162E-07  0.220E-03    6.38      11.7  T
   3    -19.4867012  0.102196E-08  0.875E-04    6.38      29.5  T
   4    -19.4867012 -0.363933E-08  0.138E-04    6.38     186.6  T
   5    -19.4867012 -0.651887E-10  0.792E-05    6.38     326.2  T

   *** convergence criteria satisfied after 5 iterations ***

         #    Occupation            Energy/Eh            Energy/eV
      -------------------------------------------------------------
         1        2.0000           -0.7212341             -19.6258
       ...           ...                  ...                  ...
        12        2.0000           -0.4771925             -12.9851
        13        2.0000           -0.4662652             -12.6877
        14        2.0000           -0.4508996             -12.2696
        15        2.0000           -0.4438255             -12.0771
        16        2.0000           -0.4338012             -11.8043
        17        2.0000           -0.4320356             -11.7563
        18        1.0000           -0.3152572              -8.5786 (HOMO)
        19                         -0.0809557              -2.2029 (LUMO)
        20                          0.0674790               1.8362
        21                          0.0864799               2.3532
        22                          0.1216708               3.3108
        23                          0.1332893               3.6270
       ...                                ...                  ...
        33                          0.4184680              11.3871
      -------------------------------------------------------------
                  HL-Gap            0.2343015 Eh            6.3757 eV
             Fermi-level           -0.2858764 Eh           -7.7791 eV

 SCC (total)                   0 d,  0 h,  0 min,  0.027 sec
 SCC setup                      ...        0 min,  0.006 sec ( 23.232%)
 Dispersion                     ...        0 min,  0.001 sec (  2.422%)
 classical contributions        ...        0 min,  0.000 sec (  1.172%)
 integral evaluation            ...        0 min,  0.001 sec (  4.220%)
 iterations                     ...        0 min,  0.012 sec ( 46.200%)
 molecular gradient             ...        0 min,  0.005 sec ( 19.141%)
 printout                       ...        0 min,  0.001 sec (  3.495%)

         :::::::::::::::::::::::::::::::::::::::::::::::::::::
         ::                     SUMMARY                     ::
         :::::::::::::::::::::::::::::::::::::::::::::::::::::
         :: total energy             -19.249643018852 Eh    ::
         :: gradient norm              0.000263475740 Eh/a0 ::
         :: HOMO-LUMO gap              6.375667650822 eV    ::
         ::.................................................::
         :: SCC energy               -19.486704592459 Eh    ::
         :: -> isotropic ES            0.016780161641 Eh    ::
         :: -> anisotropic ES          0.001558238141 Eh    ::
         :: -> anisotropic XC          0.006223412274 Eh    ::
         :: -> dispersion             -0.007596881422 Eh    ::
         :: repulsion energy           0.237061573608 Eh    ::
         :: add. restraining           0.000000000000 Eh    ::
         :: total charge               0.000000000000 e     ::
         :::::::::::::::::::::::::::::::::::::::::::::::::::::


Property printout bound to 'properties.out'

           -------------------------------------------------
          | TOTAL ENERGY              -19.249643018852 Eh   |
          | GRADIENT NORM               0.000263475740 Eh/α |
          | HOMO-LUMO GAP               6.375667650822 eV   |
           -------------------------------------------------

------------------------------------------------------------------------
 * finished run on 2026/02/12 at 17:30:18.118     
------------------------------------------------------------------------
 total:
 * wall-time:     0 d,  0 h,  0 min,  0.046 sec
 *  cpu-time:     0 d,  0 h,  0 min,  0.174 sec
 * ratio c/w:     3.793 speedup
 SCF:
 * wall-time:     0 d,  0 h,  0 min,  0.027 sec
 *  cpu-time:     0 d,  0 h,  0 min,  0.108 sec
 * ratio c/w:     3.966 speedup


-------------------------   --------------------
FINAL SINGLE POINT ENERGY       -19.249643018850
-------------------------   --------------------


-------------
DIPOLE MOMENT
-------------
                                X             Y             Z
Total Dipole Moment    :      0.20600      -0.46400      -0.54900
                        -----------------------------------------
Magnitude (a.u.)       :      0.74775
Magnitude (Debye)      :      1.90063

                                *** OPTIMIZATION RUN DONE ***

		     ------------------------------
			                   _   
			                  | |  
			  __ _  ___   __ _| |_ 
			 / _` |/ _ \ / _` | __|
			| (_| | (_) | (_| | |_ 
			 \__, |\___/ \__,_|\__|
			 __/ |                
			|___/                 

		      A Global Optimizer Algorithm
		     ------------------------------

Global parameters
-----------------
  GOAT version                               ... default
  Minimum global steps                       ... 3
  Number of base workers                     ... 4
  Split workers by                           ... 2
  Final number of workers                    ... 8
  Number of available CPUs                   ... 8
  Parameter list (worker : temperature)      ...  0 : 2903.97,  1 : 1451.98, 
                                                  2 :  725.99,  3 :  363.00, 
                                                  4 : 2903.97,  5 : 1451.98, 
                                                  6 :  725.99,  7 :  363.00 
  GradComp (mean : sigma)                    ... 1.00 : 0.50
  Number of fragments                        ... 1
  Number of atoms                            ... 15
  Flexibility parameter                      ... 0.75
  Optimizations per global step              ... 168
  Optimizations per worker                   ... 21

Filtering criteria
------------------
  RMSD                                       ... 0.125 Angs (atom. pos.)
  EnDiff                                     ... 0.100 kcal/mol
  RotConst                                   ... 1.00-2.50 %
  Maximum Conf. Energy                       ... 6.000 kcal/mol

Thermodynamics
--------------
  Ensemble temperature                       ... 298.15 K
  Degeneracy of conformers                   ... 1
  *No rotamers will be included in Gconf

------------------------------------------------------------------------------
   Iter  MinTemp     MaxEn       GradComp    NOpt   NProcs    Output
------------------------------------------------------------------------------
List of participating nodes    ...  goat.goat.0.hostnames

   0     2903.97     45.00    1.00 : 0.50      21        1    goat.goat.0.0.out
   3      363.00     45.00    1.00 : 0.50      21        1    goat.goat.0.3.out
   5     1451.98     45.00    1.00 : 0.50      21        1    goat.goat.0.5.out
   7      363.00     45.00    1.00 : 0.50      21        1    goat.goat.0.7.out
   2      725.99     45.00    1.00 : 0.50      21        1    goat.goat.0.2.out
   6      725.99     45.00    1.00 : 0.50      21        1    goat.goat.0.6.out
   4     2903.97     45.00    1.00 : 0.50      21        1    goat.goat.0.4.out
   1     1451.98     45.00    1.00 : 0.50      21        1    goat.goat.0.1.out

			     GOAT Global Iter 1
		Iter    Min En       Sconf       Gconf   
		        Hartree      cal/(molK)  kcal/mol
		=========================================

		   1    -19.250919   4.685       -0.875

List of participating nodes    ...  goat.goat.1.hostnames

   2      725.99     45.00    1.00 : 0.50      21        1    goat.goat.1.2.out
   0     2903.97     45.00    1.00 : 0.50      21        1    goat.goat.1.0.out
   3      363.00     45.00    1.00 : 0.50      21        1    goat.goat.1.3.out
   4     2903.97     45.00    1.00 : 0.50      21        1    goat.goat.1.4.out
   1     1451.98     45.00    1.00 : 0.50      21        1    goat.goat.1.1.out
   7      363.00     45.00    1.00 : 0.50      21        1    goat.goat.1.7.out
   5     1451.98     45.00    1.00 : 0.50      21        1    goat.goat.1.5.out
   6      725.99     45.00    1.00 : 0.50      21        1    goat.goat.1.6.out

			     GOAT Global Iter 2
		Iter    Min En       Sconf       Gconf   
		        Hartree      cal/(molK)  kcal/mol
		=========================================

		   1    -19.250919   4.685       -0.875
		   2    -19.250919   4.696       -0.876

List of participating nodes    ...  goat.goat.2.hostnames

   5     1451.98     45.00    1.00 : 0.50      21        1    goat.goat.2.5.out
   0     2903.97     45.00    1.00 : 0.50      21        1    goat.goat.2.0.out
   7      363.00     45.00    1.00 : 0.50      21        1    goat.goat.2.7.out
   4     2903.97     45.00    1.00 : 0.50      21        1    goat.goat.2.4.out
   3      363.00     45.00    1.00 : 0.50      21        1    goat.goat.2.3.out
   1     1451.98     45.00    1.00 : 0.50      21        1    goat.goat.2.1.out
   2      725.99     45.00    1.00 : 0.50      21        1    goat.goat.2.2.out
   6      725.99     45.00    1.00 : 0.50      21        1    goat.goat.2.6.out

			     GOAT Global Iter 3
		Iter    Min En       Sconf       Gconf   
		        Hartree      cal/(molK)  kcal/mol
		=========================================

		   1    -19.250919   4.685       -0.875
		   2    -19.250919   4.696       -0.876
		   3    -19.250919   4.931       -0.908

		Global minimum found!
		Writing structure to goat.globalminimum.xyz

		# Final ensemble info #
		Conformer     Energy     Degen.   % total   % cumul.  
		              (kcal/mol)
		------------------------------------------------------
		        0     0.000	     1      21.60      21.60
		        1     0.276	     1      13.55      35.16
		        2     0.349	     1      11.99      47.15
		        3     0.588	     1       8.01      55.16
		        4     0.639	     1       7.34      62.50
		        5     0.666	     1       7.02      69.52
		        6     0.801	     1       5.59      75.11
		        7     0.925	     1       4.53      79.64
		        8     1.024	     1       3.83      83.47
		        9     1.115	     1       3.29      86.76
		       10     1.221	     1       2.75      89.51
		       11     1.275	     1       2.51      92.03
		       12     1.302	     1       2.40      94.43
		       13     1.342	     1       2.24      96.67
		       14     1.503	     1       1.71      98.38
		       15     1.565	     1       1.54      99.92
		       16     3.293	     1       0.08     100.00

		Conformers below 3 kcal/mol: 16
		Lowest energy conformer    : -19.250919 Eh
		Sconf at 298.15 K          :  4.93 cal/(molK)
		Gconf at 298.15 K          : -0.91 kcal/mol

		Writing final ensemble to goat.finalensemble.xyz

--------------------------------
SUGGESTED CITATIONS FOR THIS RUN
--------------------------------

Below you find a list of papers that are relevant to this ORCA run
We neither can nor want to force you to cite these papers, but we appreciate if you do
You receive ORCA, which is the product of decades of hard work by many enthusiastic individuals, for free
The only thing we kindly ask in return is that you cite our papers,
We deeply appreciate it, if you show your appreciation for ORCA by not just citing the generic ORCA reference.

Please note that relegating all ORCA citations to the supporting information does *not* help us.
SI sections are not indexed - citations you put there will not count into any citation statistics
But we need these citations in order to attract the funding resources that allow us to do what we are doing

Therefore, if you are a happy ORCA user, please consider citing a few of the papers listed below in the main body of your paper

In addition to the list printed below, the program has created the file goat.bibtex that contains the list in bibtex format
You can import this file easily into all common literature databanks and citation aid programs

It goes without saying that in many instances, there are alternative algorithms to achieve similar
results as the ones you have gotten from ORCA. It is, of course, also the case that in some instances
ORCA just re-implements algorithms worked out by others. We are fully aware of that and we are also
fully appreciative of our colleagues work. Hence this citation list should not be read as indicating
that the listed papers, which are focused on our own work, are the only ones worth citing. It simply
meant to make it easier for users to cite ORCA specific papers. It is not a substitute for doing your
own literature research and citing the relevant literature in a scientifically appropriate manner.

List of essential papers. We consider these as the minimum necessary citations

  1. Bannwarth, C.; Ehlert, S.; Grimme, S.
     GFN2-xTB—An Accurate and Broadly Parametrized Self-Consistent Tight-Binding Quantum Chemical Method with Multipole Electrostatics and Density-Dependent Dispersion Contributions
     J. Chem. Theory Comput. 2019 15(3), 1652-1671
     doi.org/10.1021/acs.jctc.8b01176
  2. Neese, F.
     Software update: the ORCA program system, version 6.0
     WIRES Comput. Molec. Sci. 2025 15(1), e70019
     doi.org/10.1002/wcms.70019
  3. de Souza, B.
     GOAT: A Global Optimization Algorithm for Molecules and Atomic Clusters
     Angewandte Chemie 2025 64(18), e202500393
     doi.org/10.1002/anie.202500393

List of papers to cite with high priority. The work reported in these papers was absolutely
necessary for this run to complete.
Our perspective: the developers of density functionals and basis sets usually get cited in chemistry papers
Good! But without the algorithms to do something with them, the functionals or basis sets would not do anything.
Hence, in our opinion, the algorithm design and method developments papers are equally worthy of getting cited

  1. Bannwarth, C.; Caldeweyher, E.; Ehlert, S.; Hansen, A.; Pracht, P.; Seibert, J.; Spicher, S.; Grimme, S.
     Extended tight-binding quantum chemistry methods
     WIRES Comput. Molec. Sci. 2020 11(2), e1493
     doi.org/10.1002/wcms.1493

List of suggested additional citations. These are papers that are important in the 'surrounding' of 
of this run, or papers that preceded the highly important papers. If you like your results we are grateful for a citation.

  1. Neese, F.
     The ORCA program system
     WIRES Comput. Molec. Sci. 2012 2(1), 73-78
     doi.org/10.1002/wcms.81
  2. Neese, F.
     Software update: the ORCA program system, version 4.0
     WIRES Comput. Molec. Sci. 2018 8(1), 1-6
     doi.org/10.1002/wcms.1327
  3. Neese, F.; Wennmohs, F.; Becker, U.; Riplinger, C.
     The ORCA quantum chemistry program package
     J. Chem. Phys. 2020 152(22), 224108
     doi.org/10.1063/5.0004608
  4. Neese, F.
     Software update: The ORCA program system—Version 5.0
     WIRES Comput. Molec. Sci. 2022 12(1), e1606
     doi.org/10.1002/wcms.1606

List of optional additional citations

  1. Neese, F.
     Approximate second-order SCF convergence for spin unrestricted wavefunctions
     Chem. Phys. Lett. 2000 325(1-3), 93-98
     doi.org/10.1016/s0009-2614(00)00662-x

Timings for individual modules:

Sum of individual times          ...      150.287 sec (=   2.505 min)
Geometry relaxation              ...        0.047 sec (=   0.001 min)   0.0 %
GOAT                             ...      149.408 sec (=   2.490 min)  99.4 %
XTB module                       ...        0.832 sec (=   0.014 min)   0.6 %
                             ****ORCA TERMINATED NORMALLY****
TOTAL RUN TIME: 0 days 0 hours 2 minutes 32 seconds 859 msec
