17
Coordinates from ORCA-job freq E -421.394956172538
  C           2.35617168418467      0.26952706292409      0.47597396681736
  C           1.09927402108677     -0.22237766568317     -0.15632221772447
  O           0.95940805113273     -1.52411015450466     -0.56472581155245
  C           0.00268129124399     -1.01099268992338      0.39178178428506
  C          -1.38893757456201     -0.78008160226693     -0.14266296137654
  C          -1.93404614833668      0.60065142993343      0.22199488479499
  O          -0.95036136706971      1.62129615628871      0.10925932686289
  O          -0.33649157497237      1.53467106369606     -1.12515310242004
  H           2.19307498918538      1.26172386314352      0.89247996524544
  H           2.65768424904094     -0.41291183092568      1.27400315497443
  H           3.15769012580327      0.32163409539576     -0.25944046316633
  H           0.51641170749743      0.70531524955914     -0.90907557838914
  H           0.11471786562494     -1.44903087896016      1.37850216032873
  H          -2.08163206695925     -1.54149490038365      0.21679045475563
  H          -1.33501778955116     -0.86940859474184     -1.22654122530788
  H          -2.79152466343172      0.84117484345785     -0.41053523607980
  H          -2.23910279991718      0.65441355299091      1.26755989795216
