17
Coordinates from ORCA-job freq E -421.395295699540
  C       2.346434      0.269134      0.504632
  C       1.116131     -0.246094     -0.154729
  O       0.949568     -1.540185     -0.572216
  C       0.010944     -1.040962      0.378715
  C      -1.390355     -0.786900     -0.142033
  C      -1.912292      0.613015      0.223331
  O      -0.963891      1.643070      0.029561
  O      -0.307916      1.533959     -1.188510
  H       2.137542      1.234544      0.959171
  H       2.683266     -0.426210      1.278063
  H       3.144164      0.382843     -0.226622
  H       0.496377      0.761626     -0.967136
  H       0.096474     -1.493247      1.363466
  H      -2.085825     -1.531513      0.243996
  H      -1.361057     -0.876279     -1.230674
  H      -2.823438      0.813224     -0.355278
  H      -2.136127      0.689972      1.290153
17
Coordinates from ORCA-job freq E -421.394849336687
  C       2.348749      0.272570      0.487780
  C       1.103871     -0.227631     -0.159647
  O       0.955826     -1.527244     -0.568908
  C       0.004555     -1.019130      0.383676
  C      -1.390679     -0.780337     -0.144577
  C      -1.923536      0.606833      0.223694
  O      -0.950509      1.628242      0.072387
  O      -0.320402      1.515460     -1.154905
  H       2.162112      1.248481      0.931111
  H       2.666075     -0.423865      1.267561
  H       3.149329      0.362354     -0.244546
  H       0.515631      0.705462     -0.925742
  H       0.107764     -1.459646      1.370795
  H      -2.085095     -1.534951      0.224910
  H      -1.346786     -0.868519     -1.230084
  H      -2.807761      0.832724     -0.379821
  H      -2.189146      0.669199      1.280203
17
Coordinates from ORCA-job freq E -421.394961039354
  C       2.355982      0.270077      0.473505
  C       1.097774     -0.220812     -0.156832
  O       0.958290     -1.522895     -0.564658
  C       0.002282     -1.010569      0.391962
  C      -1.389322     -0.780937     -0.143002
  C      -1.935211      0.599545      0.221278
  O      -0.949177      1.617960      0.116467
  O      -0.334494      1.537605     -1.117825
  H       2.197322      1.266146      0.882491
  H       2.653519     -0.407684      1.276909
  H       3.158176      0.313109     -0.261834
  H       0.520500      0.705315     -0.903807
  H       0.114992     -1.447573      1.379036
  H      -2.081664     -1.543065      0.215675
  H      -1.334323     -0.870336     -1.226784
  H      -2.789930      0.842106     -0.414204
  H      -2.244716      0.652008      1.265511
17
Coordinates from ORCA-job freq E -421.394956259290
  C       2.356901      0.269142      0.476622
  C       1.099550     -0.221020     -0.156147
  O       0.959615     -1.522380     -0.566131
  C       0.003198     -1.010646      0.391078
  C      -1.388745     -0.779922     -0.142717
  C      -1.934575      0.600400      0.222381
  O      -0.951698      1.621754      0.108979
  O      -0.338465      1.535030     -1.125533
  H       2.196331      1.263073      0.889960
  H       2.655210     -0.411713      1.277200
  H       3.159598      0.316553     -0.257831
  H       0.515279      0.705835     -0.909742
  H       0.115616     -1.449628      1.377340
  H      -2.080845     -1.541814      0.216877
  H      -1.335351     -0.869059     -1.226634
  H      -2.792390      0.840409     -0.409870
  H      -2.239227      0.653986      1.268058
17
Coordinates from ORCA-job freq E -421.394865455151
  C       2.347254      0.273249      0.475929
  C       1.096853     -0.233592     -0.157922
  O       0.957140     -1.540966     -0.547747
  C      -0.002968     -1.012311      0.397179
  C      -1.389833     -0.777640     -0.145954
  C      -1.926182      0.604457      0.221513
  O      -0.944010      1.625161      0.085103
  O      -0.322238      1.514549     -1.142901
  H       2.153857      1.238086      0.940989
  H       2.686596     -0.435143      1.235114
  H       3.134513      0.390041     -0.267300
  H       0.532483      0.686529     -0.907599
  H       0.103061     -1.439220      1.389435
  H      -2.090309     -1.535076      0.206662
  H      -1.328922     -0.862605     -1.229699
  H      -2.798277      0.842060     -0.392071
  H      -2.209020      0.662421      1.273156
17
Coordinates from ORCA-job freq E -421.394956152470
  C       2.355823      0.269481      0.476275
  C       1.099388     -0.223075     -0.156491
  O       0.959236     -1.525269     -0.563466
  C       0.002476     -1.010844      0.392231
  C      -1.388954     -0.779944     -0.142658
  C      -1.933581      0.600955      0.221821
  O      -0.949721      1.621301      0.107612
  O      -0.336522      1.533738     -1.127007
  H       2.190408      1.259352      0.897384
  H       2.660217     -0.415723      1.270823
  H       3.156367      0.327138     -0.259781
  H       0.516607      0.704583     -0.910538
  H       0.114135     -1.447815      1.379474
  H      -2.081938     -1.541163      0.216649
  H      -1.334738     -0.869303     -1.226515
  H      -2.791888      0.841298     -0.409664
  H      -2.237314      0.655292      1.267740
17
Coordinates from ORCA-job freq E -421.394966741148
  C       2.356281      0.269485      0.475983
  C       1.099296     -0.222272     -0.156284
  O       0.959401     -1.523990     -0.564747
  C       0.002688     -1.010913      0.391780
  C      -1.388936     -0.780067     -0.142678
  C      -1.934162      0.600615      0.221974
  O      -0.950555      1.621342      0.109257
  O      -0.336590      1.534735     -1.125104
  H       2.193457      1.261787      0.892331
  H       2.657640     -0.412911      1.274113
  H       3.157808      0.321249     -0.259450
  H       0.516394      0.705461     -0.908981
  H       0.114714     -1.448986      1.378486
  H      -2.081543     -1.541549      0.216798
  H      -1.334992     -0.869416     -1.226549
  H      -2.791651      0.841074     -0.410569
  H      -2.239251      0.654353      1.267528
17
Coordinates from ORCA-job freq E -421.394956172538
  C       2.356172      0.269527      0.475974
  C       1.099274     -0.222378     -0.156322
  O       0.959408     -1.524110     -0.564726
  C       0.002681     -1.010993      0.391782
  C      -1.388938     -0.780082     -0.142663
  C      -1.934046      0.600651      0.221995
  O      -0.950361      1.621296      0.109259
  O      -0.336492      1.534671     -1.125153
  H       2.193075      1.261724      0.892480
  H       2.657684     -0.412912      1.274003
  H       3.157690      0.321634     -0.259440
  H       0.516412      0.705315     -0.909076
  H       0.114718     -1.449031      1.378502
  H      -2.081632     -1.541495      0.216790
  H      -1.335018     -0.869409     -1.226541
  H      -2.791525      0.841175     -0.410535
  H      -2.239103      0.654414      1.267560
