17
Coordinates from ORCA-job freq E -421.393058927607
  C          -2.16479555138300     -0.42662581374357     -0.97089642946947
  C           2.51251818355533      0.23773316015531     -0.58632099244413
  C           0.30743584596776     -0.53193124281557      0.31082270553443
  C           1.12875149752726     -0.32461464741994     -0.91549472600548
  C          -0.98051496462798     -0.12715450127507      0.43955834223765
  O          -1.67858377142561      0.89181768383318      2.32091433423062
  O          -1.61365493804591      0.73420956976789     -0.44088890866512
  O          -1.68085767475779     -0.34179514403371      1.59694566426252
  H          -1.73064152209483     -0.78465216643791     -1.89310955136858
  H          -3.16593651786452     -0.68615286511650     -0.66040267409271
  H           3.05015713591321     -0.42859231911155      0.08879509016496
  H           3.10893714694339      0.35624189996797     -1.49017400287345
  H           2.42681627950541      1.20895992792772     -0.10048737497890
  H           0.71500554395131     -1.10094318960598      1.13581926689076
  H           1.24885588430653     -1.27937593549588     -1.43905715956052
  H           0.60362216887129      0.34723583825577     -1.59558046292664
  H          -2.39280774634181      1.37728474514785      1.88694887906405
