15
Coordinates from ORCA-job freq E -270.982923492952
  C           1.95553778042904      0.35777215488565      0.22445657244272
  C          -1.47076555458682      0.17863506313210     -0.79138947261385
  C           1.06104724880915     -0.77470727474849      0.43512013778475
  C          -1.49060955271265      0.12791255813769      0.70601425577429
  C          -0.36860085765216     -0.51643071544769      1.40419728108937
  O          -0.47819993780302      0.83722735213312      1.65844935932759
  H           1.34660256263129      1.19988881622035      0.49459699270788
  H           2.36496529060298      0.32846617888509     -0.79048611303272
  H           2.84987861395428      0.39688266449835      0.86225701970051
  H          -2.17693537137320      0.86469593947812     -1.24200129384689
  H          -1.69798117085488     -0.83367742664548     -1.16495228708159
  H          -0.45841935526767      0.37594778096155     -1.12673509926871
  H           1.15802120466841     -1.71092663179301     -0.09752126644470
  H          -2.45765522329554      0.49126346776608      1.01496489131111
  H          -0.10070367754918     -1.31442892746343      2.09495302215012
