15
Coordinates from ORCA-job freq E -270.988868531039
  C       2.288069     -0.451553      0.441333
  C      -2.347466     -0.049668      0.610523
  C       1.369713      0.072626     -0.641783
  C      -0.845621     -0.059693      0.720696
  C       0.019128      0.560755     -0.312046
  O      -0.191525      1.159535      0.944967
  H       2.328856      0.682299     -0.221432
  H       1.979040     -0.352589      1.463107
  H       3.007865     -1.205910      0.191053
  H      -2.680090      0.839747      0.080873
  H      -2.683157     -0.934062      0.072961
  H      -2.797483     -0.050233      1.601556
  H       1.493308     -0.331446     -1.634393
  H      -0.427879     -0.900026      1.270905
  H      -0.495926      1.062618     -1.131835
15
Coordinates from ORCA-job freq E -270.989495046575
  C       2.279904     -0.429741      0.431524
  C      -2.353943     -0.037144      0.613983
  C       1.367843      0.041929     -0.639357
  C      -0.855408     -0.090306      0.706026
  C       0.016558      0.533840     -0.313177
  O      -0.176687      1.117641      0.960406
  H       2.318920      0.662639     -0.220773
  H       1.987911     -0.288361      1.460908
  H       3.040804     -1.156991      0.197024
  H      -2.668005      0.870446      0.100165
  H      -2.722820     -0.903738      0.066066
  H      -2.797728     -0.041529      1.609794
  H       1.513928     -0.352573     -1.634492
  H      -0.448696     -0.947493      1.237260
  H      -0.485748      1.063781     -1.118870
15
Coordinates from ORCA-job freq E -270.988131200820
  C       2.259081     -0.432276      0.422722
  C      -2.340233     -0.045803      0.618604
  C       1.365938      0.050556     -0.643715
  C      -0.842161     -0.068036      0.712973
  C       0.013873      0.544139     -0.324744
  O      -0.181736      1.159724      0.936754
  H       2.333876      0.629020     -0.164848
  H       1.940967     -0.316996      1.446470
  H       3.004368     -1.172826      0.183755
  H      -2.672167      0.859065      0.111602
  H      -2.692124     -0.914883      0.063282
  H      -2.786648     -0.067361      1.612807
  H       1.530750     -0.324481     -1.643201
  H      -0.416344     -0.902245      1.265540
  H      -0.500606      1.044803     -1.141516
15
Coordinates from ORCA-job freq E -270.991254485583
  C       2.233564     -0.488673      0.435513
  C      -2.344766     -0.029588      0.640434
  C       1.371957      0.028841     -0.650653
  C      -0.846910     -0.075686      0.697685
  C       0.004560      0.499657     -0.362776
  O      -0.183759      1.159959      0.879228
  H       2.298928      0.690156     -0.150108
  H       1.910469     -0.382985      1.462568
  H       3.073226     -1.130744      0.211449
  H      -2.675690      0.898658      0.174592
  H      -2.723348     -0.872038      0.060580
  H      -2.771368     -0.084080      1.643088
  H       1.595364     -0.257396     -1.668814
  H      -0.417924     -0.889415      1.277130
  H      -0.507469      0.975732     -1.193430
15
Coordinates from ORCA-job freq E -270.991609833647
  C       2.228695     -0.471802      0.425444
  C      -2.340630     -0.032907      0.639887
  C       1.359590      0.019921     -0.658609
  C      -0.843736     -0.074150      0.703427
  C      -0.001797      0.499589     -0.363346
  O      -0.174180      1.164563      0.886106
  H       2.326207      0.659136     -0.105328
  H       1.897405     -0.367870      1.447245
  H       3.056292     -1.125089      0.200728
  H      -2.668984      0.888284      0.159977
  H      -2.720790     -0.881832      0.070254
  H      -2.773935     -0.073663      1.639571
  H       1.598938     -0.253146     -1.675814
  H      -0.407749     -0.888771      1.275651
  H      -0.518492      0.980136     -1.188706
15
Coordinates from ORCA-job freq E -270.991452322246
  C       2.235969     -0.475805      0.429475
  C      -2.346936     -0.028105      0.635134
  C       1.360356      0.012090     -0.652022
  C      -0.850575     -0.090472      0.699683
  C       0.001590      0.496895     -0.351677
  O      -0.168538      1.135394      0.911359
  H       2.308737      0.682137     -0.144930
  H       1.923552     -0.351121      1.454518
  H       3.077476     -1.111110      0.205277
  H      -2.661462      0.887087      0.134970
  H      -2.739927     -0.883655      0.084694
  H      -2.779436     -0.039926      1.635816
  H       1.590177     -0.266039     -1.669981
  H      -0.426754     -0.924416      1.253265
  H      -0.507398      0.999446     -1.169094
15
Coordinates from ORCA-job freq E -270.991678808527
  C       2.245250     -0.465179      0.430399
  C      -2.350595     -0.028008      0.628931
  C       1.356009      0.009304     -0.649788
  C      -0.855268     -0.105784      0.694569
  C       0.004129      0.503480     -0.338991
  O      -0.164190      1.107758      0.942256
  H       2.313634      0.686809     -0.163050
  H       1.941446     -0.325263      1.455876
  H       3.079449     -1.108406      0.202302
  H      -2.654882      0.871589      0.095047
  H      -2.754449     -0.898644      0.111636
  H      -2.781835      0.003311      1.629910
  H       1.576129     -0.283042     -1.665722
  H      -0.438820     -0.957417      1.226608
  H      -0.499173      1.031893     -1.143497
15
Coordinates from ORCA-job freq E -270.991762943843
  C       2.249257     -0.460091      0.431813
  C      -2.352721     -0.028153      0.626448
  C       1.355149      0.010274     -0.648468
  C      -0.857934     -0.116089      0.687915
  C       0.006333      0.508030     -0.333614
  O      -0.162975      1.090342      0.957552
  H       2.319181      0.692993     -0.171034
  H       1.946144     -0.313858      1.456492
  H       3.078766     -1.108310      0.201267
  H      -2.653524      0.859183      0.070458
  H      -2.765788     -0.909342      0.135115
  H      -2.778183      0.033588      1.628560
  H       1.571521     -0.290023     -1.662811
  H      -0.444633     -0.977235      1.207026
  H      -0.493761      1.051090     -1.130232
15
Coordinates from ORCA-job freq E -270.991775895830
  C       2.250541     -0.458356      0.432959
  C      -2.353986     -0.028633      0.625521
  C       1.356029      0.012933     -0.647337
  C      -0.859375     -0.121493      0.682803
  C       0.007744      0.511195     -0.331941
  O      -0.163366      1.082078      0.963288
  H       2.324683      0.697020     -0.173349
  H       1.946504     -0.309499      1.456911
  H       3.076805     -1.109951      0.200621
  H      -2.655061      0.851302      0.058111
  H      -2.773008     -0.915730      0.150177
  H      -2.773425      0.050148      1.628997
  H       1.570738     -0.292236     -1.660655
  H      -0.446758     -0.986903      1.195326
  H      -0.491233      1.060524     -1.124945
15
Coordinates from ORCA-job freq E -270.991782295446
  C       2.250248     -0.458637      0.433321
  C      -2.354247     -0.029135      0.625299
  C       1.356726      0.014750     -0.646759
  C      -0.859641     -0.122339      0.681275
  C       0.008034      0.512476     -0.332026
  O      -0.164071      1.081394      0.963391
  H       2.327460      0.697448     -0.172899
  H       1.946347     -0.308763      1.457166
  H       3.075211     -1.111588      0.200225
  H      -2.656372      0.849146      0.055931
  H      -2.774759     -0.917543      0.153778
  H      -2.771298      0.053108      1.629526
  H       1.570776     -0.292015     -1.659808
  H      -0.446520     -0.988093      1.192782
  H      -0.491061      1.062189     -1.124714
15
Coordinates from ORCA-job freq E -270.991790990867
  C       2.249791     -0.459182      0.433431
  C      -2.354189     -0.029432      0.625273
  C       1.356976      0.015543     -0.646546
  C      -0.859571     -0.122037      0.681086
  C       0.007982      0.512867     -0.332340
  O      -0.164531      1.082278      0.962610
  H       2.328504      0.697056     -0.172414
  H       1.946327     -0.308709      1.457324
  H       3.074351     -1.112567      0.200109
  H      -2.656930      0.849025      0.056519
  H      -2.774701     -0.917735      0.153583
  H      -2.770691      0.052243      1.629791
  H       1.570783     -0.291568     -1.659567
  H      -0.445962     -0.987278      1.193019
  H      -0.491306      1.061895     -1.125391
15
Coordinates from ORCA-job freq E -270.991778580035
  C       2.249474     -0.459566      0.433513
  C      -2.354153     -0.029626      0.625268
  C       1.357102      0.016006     -0.646406
  C      -0.859527     -0.121775      0.681032
  C       0.007911      0.513081     -0.332562
  O      -0.164865      1.082961      0.962063
  H       2.329256      0.696684     -0.172184
  H       1.946451     -0.308430      1.457439
  H       3.073760     -1.113254      0.200078
  H      -2.657270      0.849166      0.057242
  H      -2.774561     -0.917688      0.153051
  H      -2.770432      0.051233      1.629958
  H       1.570731     -0.291368     -1.659408
  H      -0.445563     -0.986627      1.193308
  H      -0.491482      1.061601     -1.125905
15
Coordinates from ORCA-job freq E -270.991777146254
  C       2.249266     -0.459818      0.433576
  C      -2.354117     -0.029779      0.625247
  C       1.357155      0.016325     -0.646294
  C      -0.859486     -0.121548      0.681064
  C       0.007847      0.513240     -0.332685
  O      -0.165114      1.083498      0.961700
  H       2.329855      0.696382     -0.172144
  H       1.946639     -0.308052      1.457526
  H       3.073266     -1.113828      0.200050
  H      -2.657458      0.849369      0.057891
  H      -2.774377     -0.917583      0.152416
  H      -2.770352      0.050266      1.630027
  H       1.570594     -0.291345     -1.659256
  H      -0.445266     -0.986109      1.193614
  H      -0.491619      1.061379     -1.126245
15
Coordinates from ORCA-job freq E -270.991782159547
  C       2.249126     -0.459980      0.433636
  C      -2.354100     -0.029868      0.625228
  C       1.357170      0.016506     -0.646194
  C      -0.859472     -0.121426      0.681082
  C       0.007785      0.513321     -0.332759
  O      -0.165285      1.083816      0.961487
  H       2.330305      0.696159     -0.172216
  H       1.946845     -0.307601      1.457591
  H       3.072949     -1.114196      0.200065
  H      -2.657546      0.849611      0.058456
  H      -2.774275     -0.917412      0.151844
  H      -2.770333      0.049487      1.630064
  H       1.570464     -0.291428     -1.659120
  H      -0.445075     -0.985807      1.193781
  H      -0.491725      1.061217     -1.126459
15
Coordinates from ORCA-job freq E -270.991782138456
  C       2.249047     -0.460072      0.433686
  C      -2.354086     -0.029948      0.625209
  C       1.357171      0.016650     -0.646117
  C      -0.859454     -0.121314      0.681121
  C       0.007739      0.513402     -0.332804
  O      -0.165424      1.084078      0.961334
  H       2.330695      0.695979     -0.172328
  H       1.947020     -0.307183      1.457641
  H       3.072653     -1.114543      0.200077
  H      -2.657608      0.849834      0.058944
  H      -2.774154     -0.917261      0.151299
  H      -2.770364      0.048778      1.630082
  H       1.570318     -0.291563     -1.658997
  H      -0.444915     -0.985549      1.193954
  H      -0.491803      1.061108     -1.126614
15
Coordinates from ORCA-job freq E -270.991784461955
  C       2.248984     -0.460116      0.433737
  C      -2.354087     -0.030005      0.625189
  C       1.357159      0.016724     -0.646045
  C      -0.859449     -0.121264      0.681130
  C       0.007708      0.513461     -0.332823
  O      -0.165514      1.084213      0.961267
  H       2.331013      0.695835     -0.172501
  H       1.947215     -0.306697      1.457689
  H       3.072417     -1.114797      0.200117
  H      -2.657640      0.850041      0.059357
  H      -2.774104     -0.917107      0.150840
  H      -2.770400      0.048208      1.630092
  H       1.570180     -0.291758     -1.658872
  H      -0.444808     -0.985423      1.193998
  H      -0.491842      1.061084     -1.126686
15
Coordinates from ORCA-job freq E -270.991783707191
  C       2.248981     -0.460097      0.433781
  C      -2.354102     -0.030040      0.625171
  C       1.357143      0.016753     -0.645989
  C      -0.859465     -0.121224      0.681160
  C       0.007678      0.513489     -0.332821
  O      -0.165577      1.084303      0.961235
  H       2.331288      0.695699     -0.172725
  H       1.947442     -0.306176      1.457724
  H       3.072237     -1.115004      0.200173
  H      -2.657660      0.850297      0.059792
  H      -2.774046     -0.916909      0.150322
  H      -2.770488      0.047608      1.630088
  H       1.570026     -0.292025     -1.658762
  H      -0.444767     -0.985342      1.194056
  H      -0.491857      1.061069     -1.126717
15
Coordinates from ORCA-job freq E -270.991785265989
  C       2.248971     -0.460113      0.433810
  C      -2.354105     -0.030070      0.625151
  C       1.357115      0.016772     -0.645940
  C      -0.859464     -0.121157      0.681223
  C       0.007644      0.513517     -0.332812
  O      -0.165627      1.084427      0.961199
  H       2.331499      0.695588     -0.172892
  H       1.947622     -0.305808      1.457751
  H       3.072090     -1.115194      0.200200
  H      -2.657669      0.850499      0.060141
  H      -2.773943     -0.916754      0.149865
  H      -2.770582      0.047092      1.630064
  H       1.569895     -0.292203     -1.658680
  H      -0.444707     -0.985218      1.194168
  H      -0.491906      1.061022     -1.126759
15
Coordinates from ORCA-job freq E -270.991793962306
  C       2.248948     -0.460116      0.433836
  C      -2.354100     -0.030102      0.625140
  C       1.357096      0.016800     -0.645902
  C      -0.859458     -0.121115      0.681258
  C       0.007628      0.513550     -0.332809
  O      -0.165670      1.084511      0.961176
  H       2.331685      0.695509     -0.173045
  H       1.947728     -0.305485      1.457763
  H       3.071943     -1.115353      0.200236
  H      -2.657661      0.850660      0.060436
  H      -2.773873     -0.916628      0.149503
  H      -2.770641      0.046673      1.630054
  H       1.569793     -0.292374     -1.658602
  H      -0.444651     -0.985128      1.194232
  H      -0.491934      1.060997     -1.126789
15
Coordinates from ORCA-job freq E -270.991781012934
  C       2.248919     -0.460106      0.433873
  C      -2.354085     -0.030133      0.625139
  C       1.357073      0.016816     -0.645870
  C      -0.859444     -0.121073      0.681267
  C       0.007613      0.513594     -0.332818
  O      -0.165706      1.084593      0.961146
  H       2.331844      0.695432     -0.173189
  H       1.947807     -0.305173      1.457788
  H       3.071783     -1.115514      0.200298
  H      -2.657660      0.850814      0.060728
  H      -2.773794     -0.916517      0.149171
  H      -2.770674      0.046273      1.630066
  H       1.569696     -0.292543     -1.658530
  H      -0.444585     -0.985054      1.194242
  H      -0.491954      1.060990     -1.126824
15
Coordinates from ORCA-job freq E -270.991798613872
  C       2.248925     -0.460080      0.433891
  C      -2.354087     -0.030147      0.625134
  C       1.357048      0.016789     -0.645851
  C      -0.859440     -0.121012      0.681323
  C       0.007590      0.513596     -0.332823
  O      -0.165730      1.084691      0.961103
  H       2.331964      0.695336     -0.173341
  H       1.947943     -0.304867      1.457803
  H       3.071693     -1.115625      0.200354
  H      -2.657658      0.851048      0.061107
  H      -2.773698     -0.916326      0.148704
  H      -2.770777      0.045755      1.630056
  H       1.569600     -0.292745     -1.658472
  H      -0.444549     -0.984942      1.194364
  H      -0.491990      1.060930     -1.126866
15
Coordinates from ORCA-job freq E -270.991780229612
  C       2.248923     -0.460063      0.433918
  C      -2.354085     -0.030145      0.625146
  C       1.357026      0.016741     -0.645834
  C      -0.859436     -0.120960      0.681361
  C       0.007566      0.513565     -0.332852
  O      -0.165747      1.084782      0.961025
  H       2.332024      0.695275     -0.173471
  H       1.948028     -0.304626      1.457818
  H       3.071640     -1.115684      0.200426
  H      -2.657657      0.851303      0.061514
  H      -2.773612     -0.916120      0.148266
  H      -2.770856      0.045250      1.630066
  H       1.569544     -0.292920     -1.658424
  H      -0.444515     -0.984837      1.194466
  H      -0.492009      1.060837     -1.126937
15
Coordinates from ORCA-job freq E -270.991795200339
  C       2.248923     -0.460030      0.433950
  C      -2.354090     -0.030152      0.625146
  C       1.357012      0.016729     -0.645816
  C      -0.859442     -0.120965      0.681357
  C       0.007558      0.513576     -0.332855
  O      -0.165750      1.084775      0.961025
  H       2.332130      0.695247     -0.173604
  H       1.948101     -0.304357      1.457839
  H       3.071564     -1.115754      0.200489
  H      -2.657654      0.851430      0.061726
  H      -2.773608     -0.916009      0.148043
  H      -2.770882      0.044994      1.630077
  H       1.569483     -0.293087     -1.658373
  H      -0.444501     -0.984855      1.194423
  H      -0.492013      1.060857     -1.126940
15
Coordinates from ORCA-job freq E -270.991784949188
  C       2.248922     -0.459994      0.433975
  C      -2.354090     -0.030163      0.625133
  C       1.356990      0.016717     -0.645795
  C      -0.859447     -0.120978      0.681350
  C       0.007556      0.513603     -0.332839
  O      -0.165748      1.084748      0.961065
  H       2.332229      0.695216     -0.173737
  H       1.948175     -0.304102      1.457850
  H       3.071491     -1.115817      0.200536
  H      -2.657644      0.851516      0.061856
  H      -2.773604     -0.915943      0.147875
  H      -2.770896      0.044815      1.630071
  H       1.569404     -0.293247     -1.658321
  H      -0.444496     -0.984886      1.194375
  H      -0.492006      1.060915     -1.126907
15
Coordinates from ORCA-job freq E -270.991793500196
  C       2.248954     -0.459965      0.433989
  C      -2.354108     -0.030173      0.625113
  C       1.356981      0.016723     -0.645768
  C      -0.859465     -0.120993      0.681347
  C       0.007553      0.513637     -0.332808
  O      -0.165765      1.084718      0.961118
  H       2.332336      0.695193     -0.173846
  H       1.948277     -0.303905      1.457858
  H       3.071449     -1.115880      0.200547
  H      -2.657649      0.851551      0.061904
  H      -2.773618     -0.915913      0.147781
  H      -2.770928      0.044727      1.630052
  H       1.569327     -0.293375     -1.658271
  H      -0.444505     -0.984925      1.194328
  H      -0.492005      1.060980     -1.126858
15
Coordinates from ORCA-job freq E -270.991786979576
  C       2.248937     -0.459961      0.433997
  C      -2.354098     -0.030187      0.625102
  C       1.356972      0.016743     -0.645756
  C      -0.859457     -0.120989      0.681352
  C       0.007550      0.513662     -0.332798
  O      -0.165766      1.084724      0.961133
  H       2.332411      0.695171     -0.173902
  H       1.948294     -0.303789      1.457857
  H       3.071374     -1.115953      0.200565
  H      -2.657646      0.851566      0.061937
  H      -2.773592     -0.915908      0.147719
  H      -2.770928      0.044650      1.630041
  H       1.569283     -0.293420     -1.658244
  H      -0.444481     -0.984919      1.194323
  H      -0.492019      1.061009     -1.126838
