15
Coordinates from ORCA-job freq E -270.991786979576
  C           2.24893739127278     -0.45996134178642      0.43399708802221
  C          -2.35409804704836     -0.03018727746702      0.62510192175787
  C           1.35697163108929      0.01674320424651     -0.64575613223273
  C          -0.85945706015424     -0.12098936817573      0.68135158685901
  C           0.00755042860289      0.51366243243937     -0.33279779268989
  O          -0.16576620902542      1.08472358789028      0.96113326532179
  H           2.33241058124932      0.69517068325020     -0.17390217243439
  H           1.94829362007590     -0.30378905545667      1.45785732389435
  H           3.07137376120861     -1.11595310091050      0.20056496565933
  H          -2.65764634395665      0.85156649302922      0.06193650384689
  H          -2.77359211031903     -0.91590834241858      0.14771896189842
  H          -2.77092786144781      0.04465031517407      1.63004062356064
  H           1.56928306153772     -0.29341965816886     -1.65824369760787
  H          -0.44448116401706     -0.98491863081386      1.19432294911459
  H          -0.49201867906793      1.06100905916798     -1.12683839497024
