15
Coordinates from ORCA-job freq E -270.978399335475
  C           2.41784457293015     -0.69187103156185      0.28145669581076
  C          -1.68449474783054      0.08321897772338     -1.05168812525741
  C           1.20514539951983     -0.39444811000957      1.11252028200661
  C          -0.74715419647289     -0.04746767966026      0.09639521604559
  C           0.33802231106565      0.74377831322050      0.65816960317261
  O          -0.94307080863965      0.63902107055098      1.29078981370344
  H           0.07324197629142     -1.09324444313195      0.59237779809166
  H           2.84661441168667     -1.65929214863183      0.53683089983914
  H           2.16661417363690     -0.69858979330226     -0.78156780616028
  H           3.19599825290386      0.06411282596699      0.42636731461842
  H          -1.25047845700292     -0.35485058826198     -1.94849832177733
  H          -2.62366358375012     -0.42409791553712     -0.83515946644735
  H          -1.89384377196287      1.13947733096759     -1.23784334441314
  H           1.28290234740348     -0.54067569972963      2.18757087199673
  H           0.65229212022102      1.74095389139703      0.37825456877054
