17
Coordinates from ORCA-job freq E -421.388895910987
  C      -2.344685      0.191041     -0.117260
  C       0.106416      0.312892     -0.583595
  C      -1.179002     -0.370753     -0.941869
  C       0.792598     -0.124772      0.659949
  C       2.276379     -0.198093      0.587940
  O       2.221037     -0.394602     -1.675511
  O       1.632849      0.782203      1.325492
  O       2.848518      0.212440     -0.591900
  H       1.060486     -0.054908     -1.449255
  H      -2.164556      0.049899      0.945195
  H      -2.466290      1.254283     -0.307272
  H      -3.266747     -0.317337     -0.386439
  H       0.113314      1.391455     -0.724066
  H      -1.093771     -1.444666     -0.765978
  H      -1.392062     -0.213129     -2.000643
  H       0.288200     -0.851269      1.292017
  H       2.822477     -0.953793      1.146579
17
Coordinates from ORCA-job freq E -421.390244481382
  C      -2.334043      0.186389     -0.102919
  C       0.120403      0.300865     -0.615934
  C      -1.187623     -0.360361     -0.958988
  C       0.785997     -0.140718      0.640795
  C       2.255609     -0.199669      0.604569
  O       2.234817     -0.430370     -1.638339
  O       1.612321      0.791072      1.335064
  O       2.817579      0.253844     -0.582273
  H       1.069827     -0.082075     -1.453140
  H      -2.140310      0.028034      0.958460
  H      -2.457206      1.257310     -0.263034
  H      -3.272926     -0.306381     -0.352312
  H       0.158353      1.380038     -0.760496
  H      -1.101202     -1.439520     -0.814318
  H      -1.413083     -0.199456     -2.013608
  H       0.259152     -0.847933      1.274133
  H       2.847497     -0.920179      1.155721
17
Coordinates from ORCA-job freq E -421.390255277443
  C      -2.326573      0.174095     -0.088244
  C       0.123391      0.301256     -0.631018
  C      -1.190356     -0.349817     -0.971652
  C       0.776846     -0.128629      0.635583
  C       2.247194     -0.193249      0.612796
  O       2.241933     -0.455674     -1.628080
  O       1.604541      0.810605      1.324437
  O       2.821616      0.238918     -0.577447
  H       1.074483     -0.102629     -1.456423
  H      -2.122499     -0.013303      0.966465
  H      -2.451416      1.249068     -0.217463
  H      -3.268303     -0.311781     -0.340979
  H       0.177170      1.377540     -0.791556
  H      -1.102289     -1.432582     -0.856633
  H      -1.427889     -0.162888     -2.019320
  H       0.241833     -0.822460      1.276558
  H       2.835479     -0.907580      1.176359
17
Coordinates from ORCA-job freq E -421.390259571586
  C      -2.328739      0.180095     -0.091886
  C       0.122787      0.297818     -0.627710
  C      -1.191131     -0.353501     -0.967839
  C       0.778957     -0.136273      0.635853
  C       2.249581     -0.193152      0.611233
  O       2.244627     -0.445198     -1.629070
  O       1.602345      0.801192      1.332085
  O       2.817523      0.252576     -0.576898
  H       1.074596     -0.100951     -1.456077
  H      -2.125182      0.007571      0.965397
  H      -2.454423      1.253102     -0.236019
  H      -3.269917     -0.309676     -0.339003
  H       0.175191      1.374672     -0.784930
  H      -1.105346     -1.435515     -0.843999
  H      -1.425954     -0.174255     -2.017368
  H       0.248355     -0.838214      1.271644
  H       2.841894     -0.909401      1.167969
17
Coordinates from ORCA-job freq E -421.390267639522
  C      -2.329114      0.180029     -0.092672
  C       0.122555      0.298389     -0.626934
  C      -1.190750     -0.353938     -0.967375
  C       0.779465     -0.136052      0.636216
  C       2.249900     -0.194021      0.610846
  O       2.243306     -0.444276     -1.630234
  O       1.603908      0.801508      1.331086
  O       2.818811      0.250259     -0.577381
  H       1.073959     -0.098612     -1.455975
  H      -2.126721      0.007069      0.964782
  H      -2.454286      1.253120     -0.236559
  H      -3.270184     -0.309422     -0.340847
  H       0.173396      1.375540     -0.782710
  H      -1.104682     -1.435766     -0.842326
  H      -1.424902     -0.175752     -2.017254
  H       0.248504     -0.836960      1.272856
  H       2.841998     -0.910226      1.167862
17
Coordinates from ORCA-job freq E -421.390263832557
  C      -2.328845      0.179639     -0.092076
  C       0.122690      0.298249     -0.627485
  C      -1.190892     -0.353635     -0.967757
  C       0.779153     -0.135561      0.636083
  C       2.249669     -0.193412      0.611116
  O       2.243702     -0.445672     -1.629507
  O       1.603472      0.802194      1.331006
  O       2.818322      0.250650     -0.577354
  H       1.074230     -0.099929     -1.456058
  H      -2.126567      0.004872      0.965089
  H      -2.453339      1.253035     -0.234285
  H      -3.270252     -0.308778     -0.341023
  H       0.174243      1.375209     -0.784328
  H      -1.104840     -1.435601     -0.843814
  H      -1.425479     -0.174454     -2.017362
  H       0.248196     -0.836396      1.272793
  H       2.841699     -0.909517      1.168341
