15
Coordinates from ORCA-job freq E -270.967275877740
  C       2.216091      0.285499     -0.199680
  C      -2.279607      0.709713      0.471757
  C       1.413444     -0.776184      0.487075
  C      -0.034600     -0.554251      0.702667
  C      -1.228924     -0.225467     -0.067590
  O      -1.070351     -1.486001      0.570306
  H       0.752436     -0.385730      1.563801
  H       3.252800      0.270899      0.135585
  H       2.217602      0.143928     -1.285294
  H       1.797781      1.270182      0.002720
  H      -3.260597      0.433662      0.090828
  H      -2.301739      0.663749      1.557867
  H      -2.057374      1.728394      0.160578
  H       1.757970     -1.797774      0.401629
  H      -1.174933     -0.280619     -1.155454
15
Coordinates from ORCA-job freq E -270.965057463006
  C       2.218821      0.280624     -0.188700
  C      -2.287030      0.702125      0.474248
  C       1.386799     -0.771515      0.478638
  C      -0.027097     -0.545245      0.660538
  C      -1.235129     -0.215484     -0.080460
  O      -1.058576     -1.477320      0.567251
  H       0.799373     -0.371261      1.493592
  H       3.257082      0.234531      0.137966
  H       2.206326      0.157748     -1.275973
  H       1.831716      1.276818      0.031877
  H      -3.274190      0.415558      0.111124
  H      -2.285606      0.657318      1.561541
  H      -2.084568      1.725335      0.158752
  H       1.746329     -1.794746      0.472374
  H      -1.194249     -0.274488     -1.165971
15
Coordinates from ORCA-job freq E -270.968455615861
  C       2.248565      0.268251     -0.188648
  C      -2.318249      0.691054      0.471520
  C       1.375693     -0.770322      0.451648
  C      -0.037129     -0.531631      0.630920
  C      -1.250210     -0.195754     -0.093319
  O      -1.062191     -1.461802      0.568506
  H       0.843714     -0.330361      1.480382
  H       3.293024      0.146461      0.093411
  H       2.185933      0.210680     -1.279276
  H       1.932195      1.272851      0.100068
  H      -3.303330      0.378700      0.122845
  H      -2.297067      0.650697      1.559155
  H      -2.150261      1.720061      0.151601
  H       1.758440     -1.780467      0.545731
  H      -1.219128     -0.268416     -1.177748
15
Coordinates from ORCA-job freq E -270.971534047890
  C       2.247891      0.265128     -0.192991
  C      -2.323055      0.689493      0.465751
  C       1.377489     -0.773113      0.454996
  C      -0.044691     -0.533928      0.627839
  C      -1.249534     -0.185118     -0.103422
  O      -1.064002     -1.462034      0.552843
  H       0.871016     -0.322918      1.519757
  H       3.296429      0.115706      0.054699
  H       2.150864      0.239267     -1.282643
  H       1.963422      1.269230      0.129409
  H      -3.305609      0.360511      0.127516
  H      -2.289668      0.655079      1.553132
  H      -2.176299      1.720407      0.140475
  H       1.759470     -1.778644      0.577364
  H      -1.213722     -0.259065     -1.187929
15
Coordinates from ORCA-job freq E -270.971842579174
  C       2.238761      0.266516     -0.201127
  C      -2.315882      0.691294      0.464364
  C       1.385562     -0.776025      0.461705
  C      -0.043972     -0.538977      0.645440
  C      -1.239170     -0.184059     -0.099610
  O      -1.062830     -1.466411      0.545090
  H       0.850606     -0.325324      1.568848
  H       3.289644      0.134977      0.048456
  H       2.142871      0.224293     -1.290278
  H       1.939420      1.270052      0.108196
  H      -3.295902      0.365804      0.115134
  H      -2.293446      0.650950      1.551771
  H      -2.163512      1.723205      0.145715
  H       1.758390     -1.788343      0.557217
  H      -1.190539     -0.247953     -1.184125
15
Coordinates from ORCA-job freq E -270.971922537917
  C       2.222954      0.268857     -0.206247
  C      -2.300847      0.694232      0.464929
  C       1.390292     -0.778719      0.470011
  C      -0.037546     -0.546592      0.659047
  C      -1.225468     -0.184914     -0.096321
  O      -1.056895     -1.472125      0.534708
  H       0.822658     -0.335600      1.603559
  H       3.274559      0.169902      0.056048
  H       2.139024      0.199674     -1.295375
  H       1.894543      1.270385      0.078230
  H      -3.280425      0.373909      0.110213
  H      -2.284612      0.650369      1.552206
  H      -2.142365      1.726092      0.149860
  H       1.749224     -1.798061      0.536866
  H      -1.165096     -0.237410     -1.180938
15
Coordinates from ORCA-job freq E -270.972065149676
  C       2.214077      0.269460     -0.206579
  C      -2.293013      0.695720      0.464866
  C       1.391456     -0.779454      0.478978
  C      -0.034932     -0.552736      0.657947
  C      -1.218527     -0.181102     -0.100392
  O      -1.053839     -1.475345      0.518875
  H       0.819807     -0.345300      1.618697
  H       3.267039      0.183036      0.054875
  H       2.128879      0.192518     -1.295226
  H       1.876938      1.269792      0.071329
  H      -3.273941      0.368239      0.120745
  H      -2.266857      0.658131      1.552156
  H      -2.143976      1.726805      0.142887
  H       1.740335     -1.802354      0.542689
  H      -1.153445     -0.227411     -1.185055
15
Coordinates from ORCA-job freq E -270.972115983727
  C       2.215311      0.269072     -0.206475
  C      -2.291195      0.696528      0.467727
  C       1.393207     -0.779221      0.479807
  C      -0.034410     -0.556657      0.652443
  C      -1.218112     -0.178386     -0.102582
  O      -1.054774     -1.476798      0.509093
  H       0.814075     -0.349917      1.619887
  H       3.266891      0.195759      0.064729
  H       2.139944      0.182023     -1.295049
  H       1.865983      1.268346      0.059948
  H      -3.273832      0.364651      0.132410
  H      -2.256784      0.663130      1.554956
  H      -2.148720      1.726969      0.140811
  H       1.735853     -1.804379      0.546479
  H      -1.153437     -0.221120     -1.187387
15
Coordinates from ORCA-job freq E -270.972154864437
  C       2.221098      0.267336     -0.206476
  C      -2.291997      0.696954      0.473541
  C       1.394905     -0.778069      0.478261
  C      -0.035500     -0.560555      0.640982
  C      -1.220922     -0.173876     -0.106000
  O      -1.057285     -1.477980      0.495339
  H       0.807888     -0.353138      1.613331
  H       3.268577      0.209154      0.083060
  H       2.164663      0.165953     -1.294954
  H       1.856552      1.265955      0.041674
  H      -3.276414      0.359026      0.149720
  H      -2.246130      0.667234      1.560457
  H      -2.159002      1.727167      0.141815
  H       1.733504     -1.803756      0.557306
  H      -1.159937     -0.211406     -1.191260
15
Coordinates from ORCA-job freq E -270.972163013451
  C       2.223430      0.266278     -0.207529
  C      -2.292747      0.696759      0.476492
  C       1.395261     -0.776969      0.477692
  C      -0.036372     -0.561676      0.636586
  C      -1.222317     -0.172152     -0.107053
  O      -1.058129     -1.478605      0.489814
  H       0.804858     -0.352307      1.609793
  H       3.268709      0.213296      0.090853
  H       2.176298      0.157632     -1.295748
  H       1.853516      1.265214      0.031237
  H      -3.277263      0.358885      0.152956
  H      -2.245576      0.664327      1.563265
  H      -2.160840      1.727840      0.147065
  H       1.734578     -1.801755      0.563927
  H      -1.163405     -0.206769     -1.192555
15
Coordinates from ORCA-job freq E -270.972172953767
  C       2.224915      0.264899     -0.210043
  C      -2.293054      0.696240      0.480222
  C       1.395497     -0.774984      0.478638
  C      -0.037564     -0.563699      0.632300
  C      -1.223179     -0.170081     -0.108275
  O      -1.059028     -1.480067      0.481933
  H       0.800923     -0.350132      1.607237
  H       3.267569      0.218816      0.098675
  H       2.188815      0.145365     -1.297540
  H       1.848826      1.264576      0.015390
  H      -3.277287      0.361490      0.152558
  H      -2.247678      0.655997      1.566783
  H      -2.159442      1.729430      0.158198
  H       1.736866     -1.798107      0.574756
  H      -1.166179     -0.199743     -1.194039
15
Coordinates from ORCA-job freq E -270.972184677092
  C       2.224305      0.263356     -0.214407
  C      -2.292192      0.695438      0.484295
  C       1.395804     -0.772214      0.481963
  C      -0.038857     -0.567364      0.629933
  C      -1.222577     -0.168120     -0.109141
  O      -1.060057     -1.482798      0.471999
  H       0.795599     -0.346895      1.607387
  H       3.264282      0.227766      0.104779
  H       2.199716      0.128202     -1.300387
  H       1.840212      1.263742     -0.006725
  H      -3.275681      0.369213      0.145972
  H      -2.253783      0.640643      1.570480
  H      -2.151903      1.732100      0.176682
  H       1.740769     -1.792993      0.589053
  H      -1.165637     -0.190076     -1.195088
15
Coordinates from ORCA-job freq E -270.972197219505
  C       2.220624      0.261298     -0.221787
  C      -2.289555      0.694171      0.489256
  C       1.396166     -0.768146      0.488751
  C      -0.040668     -0.574147      0.630022
  C      -1.219851     -0.166015     -0.109489
  O      -1.061703     -1.487595      0.457865
  H       0.787990     -0.342067      1.610431
  H       3.257515      0.243252      0.108955
  H       2.209372      0.102142     -1.304751
  H       1.824422      1.261859     -0.039921
  H      -3.271437      0.385608      0.130377
  H      -2.266139      0.613840      1.574255
  H      -2.134866      1.736209      0.207753
  H       1.747875     -1.784925      0.610537
  H      -1.159747     -0.175483     -1.195458
15
Coordinates from ORCA-job freq E -270.972211450302
  C       2.215386      0.259483     -0.229143
  C      -2.286411      0.692995      0.492920
  C       1.396406     -0.764619      0.495804
  C      -0.042214     -0.581311      0.632747
  C      -1.216006     -0.164506     -0.108967
  O      -1.063252     -1.492310      0.445450
  H       0.781380     -0.337790      1.614701
  H       3.250111      0.258530      0.108843
  H       2.213322      0.078587     -1.308756
  H       1.808044      1.259290     -0.069640
  H      -3.266103      0.404023      0.112497
  H      -2.280006      0.587244      1.575988
  H      -2.115963      1.739516      0.238376
  H       1.755528     -1.777128      0.630622
  H      -1.150224     -0.162004     -1.194646
15
Coordinates from ORCA-job freq E -270.972226245130
  C       2.207006      0.256983     -0.239351
  C      -2.281792      0.691411      0.497006
  C       1.396543     -0.760117      0.505519
  C      -0.044169     -0.591627      0.638216
  C      -1.209679     -0.162407     -0.107620
  O      -1.065238     -1.498557      0.428879
  H       0.773126     -0.332495      1.621118
  H       3.239527      0.278472      0.104607
  H       2.213978      0.048752     -1.314019
  H       1.785553      1.254808     -0.107115
  H      -3.257363      0.430392      0.087130
  H      -2.300135      0.551529      1.576110
  H      -2.089948      1.742722      0.280061
  H       1.766418     -1.766065      0.658733
  H      -1.133829     -0.143801     -1.192479
15
Coordinates from ORCA-job freq E -270.972237309945
  C       2.199942      0.254673     -0.247696
  C      -2.278193      0.690020      0.500028
  C       1.396488     -0.756480      0.513216
  C      -0.045564     -0.600114      0.643084
  C      -1.203927     -0.160059     -0.106333
  O      -1.066574     -1.503181      0.414564
  H       0.766516     -0.328573      1.626293
  H       3.231182      0.292768      0.098642
  H       2.212044      0.026166     -1.318202
  H       1.768369      1.250513     -0.135233
  H      -3.249558      0.450702      0.067667
  H      -2.316247      0.523926      1.574922
  H      -2.071057      1.744204      0.312900
  H       1.775061     -1.756441      0.683135
  H      -1.118482     -0.128126     -1.190192
15
Coordinates from ORCA-job freq E -270.972249422707
  C       2.192947      0.251510     -0.256885
  C      -2.274864      0.688215      0.503685
  C       1.396261     -0.752050      0.521398
  C      -0.047114     -0.609317      0.647589
  C      -1.197434     -0.156231     -0.105159
  O      -1.067851     -1.507603      0.396568
  H       0.758865     -0.324269      1.631260
  H       3.222932      0.305891      0.090971
  H       2.209793      0.001840     -1.322620
  H       1.751856      1.245200     -0.165026
  H      -3.241076      0.469959      0.049251
  H      -2.332623      0.495277      1.573217
  H      -2.054624      1.744821      0.347593
  H       1.783892     -1.744620      0.712493
  H      -1.100960     -0.108623     -1.187541
15
Coordinates from ORCA-job freq E -270.972262066730
  C       2.186916      0.247419     -0.266402
  C      -2.272264      0.685945      0.508081
  C       1.395821     -0.746823      0.529607
  C      -0.048767     -0.618503      0.651030
  C      -1.190631     -0.150727     -0.104199
  O      -1.068967     -1.511235      0.375286
  H       0.750101     -0.319585      1.635626
  H       3.215526      0.316835      0.082784
  H       2.208615     -0.023792     -1.326817
  H       1.737627      1.239064     -0.195770
  H      -3.232804      0.485924      0.033712
  H      -2.347879      0.467160      1.571512
  H      -2.042641      1.744573      0.381942
  H       1.792185     -1.730888      0.744995
  H      -1.082837     -0.085367     -1.184593
15
Coordinates from ORCA-job freq E -270.972276744978
  C       2.183987      0.244028     -0.272685
  C      -2.271281      0.684071      0.511538
  C       1.395311     -0.742856      0.534886
  C      -0.049791     -0.624330      0.652348
  C      -1.186025     -0.145809     -0.103802
  O      -1.069618     -1.512817      0.358872
  H       0.743288     -0.316282      1.638217
  H       3.211735      0.321739      0.077304
  H       2.208668     -0.041334     -1.329344
  H       1.730847      1.234756     -0.216087
  H      -3.228149      0.492669      0.026305
  H      -2.356296      0.449892      1.570997
  H      -2.038900      1.744037      0.402909
  H       1.797204     -1.720632      0.767925
  H      -1.070980     -0.067131     -1.182588
15
Coordinates from ORCA-job freq E -270.972288932156
  C       2.181816      0.240026     -0.278895
  C      -2.270792      0.681809      0.515451
  C       1.394478     -0.738418      0.540318
  C      -0.050982     -0.630251      0.652733
  C      -1.181284     -0.139760     -0.103725
  O      -1.070383     -1.513747      0.339981
  H       0.735601     -0.312932      1.640533
  H       3.208833      0.324447      0.071645
  H       2.208880     -0.059431     -1.331609
  H       1.726411      1.230343     -0.236195
  H      -3.224319      0.495744      0.021609
  H      -2.362595      0.433939      1.571229
  H      -2.038719      1.743253      0.421869
  H       1.802162     -1.709055      0.792412
  H      -1.059108     -0.045965     -1.180561
15
Coordinates from ORCA-job freq E -270.972297148058
  C       2.180940      0.237355     -0.282266
  C      -2.270705      0.680276      0.517957
  C       1.393798     -0.735635      0.543748
  C      -0.051750     -0.633954      0.652405
  C      -1.178293     -0.135500     -0.103952
  O      -1.070955     -1.513889      0.327084
  H       0.730118     -0.311158      1.642006
  H       3.207771      0.324480      0.068169
  H       2.208542     -0.070129     -1.332655
  H       1.725344      1.227853     -0.247220
  H      -3.222770      0.494294      0.021229
  H      -2.364000      0.426418      1.572177
  H      -2.041287      1.742808      0.430398
  H       1.805206     -1.701739      0.807109
  H      -1.051959     -0.031478     -1.179394
15
Coordinates from ORCA-job freq E -270.972307408827
  C       2.180094      0.234034     -0.285803
  C      -2.270596      0.678369      0.520970
  C       1.392867     -0.732353      0.548094
  C      -0.052791     -0.638692      0.651506
  C      -1.174523     -0.129906     -0.104475
  O      -1.071781     -1.513728      0.310337
  H       0.722861     -0.309489      1.643803
  H       3.206956      0.323151      0.063941
  H       2.207269     -0.082363     -1.333550
  H       1.725256      1.225096     -0.258901
  H      -3.221537      0.489302      0.023178
  H      -2.363030      0.419926      1.574145
  H      -2.046681      1.742387      0.437301
  H       1.808926     -1.692904      0.824261
  H      -1.043291     -0.012832     -1.178012
15
Coordinates from ORCA-job freq E -270.972311742462
  C       2.179735      0.232757     -0.286665
  C      -2.270464      0.677663      0.522024
  C       1.392470     -0.731323      0.550044
  C      -0.053175     -0.640881      0.650919
  C      -1.172759     -0.127349     -0.104856
  O      -1.072254     -1.513430      0.302930
  H       0.719454     -0.309411      1.644762
  H       3.206967      0.321517      0.062054
  H       2.205529     -0.086239     -1.333655
  H       1.725992      1.224354     -0.261657
  H      -3.221513      0.484459      0.025988
  H      -2.360272      0.420025      1.575622
  H      -2.050731      1.742410      0.436659
  H       1.810602     -1.689860      0.830170
  H      -1.039581     -0.004690     -1.177543
15
Coordinates from ORCA-job freq E -270.972321215356
  C       2.179207      0.230772     -0.287400
  C      -2.270242      0.676659      0.523505
  C       1.391883     -0.730141      0.553280
  C      -0.053778     -0.644654      0.649639
  C      -1.169736     -0.122868     -0.105623
  O      -1.073200     -1.512667      0.290496
  H       0.713891     -0.310079      1.646332
  H       3.207475      0.317466      0.058695
  H       2.201268     -0.090877     -1.333654
  H       1.728205      1.223628     -0.263495
  H      -3.221977      0.473370      0.032737
  H      -2.353344      0.423434      1.578718
  H      -2.059599      1.742720      0.431683
  H       1.813374     -1.685633      0.838750
  H      -1.033425      0.008871     -1.176866
15
Coordinates from ORCA-job freq E -270.972324355418
  C       2.179084      0.230604     -0.286812
  C      -2.270085      0.676669      0.523470
  C       1.391787     -0.730493      0.553820
  C      -0.053868     -0.645529      0.649157
  C      -1.169072     -0.121869     -0.105942
  O      -1.073613     -1.512350      0.288143
  H       0.712910     -0.310974      1.646600
  H       3.207984      0.315389      0.057856
  H       2.199009     -0.089719     -1.333513
  H       1.729510      1.224058     -0.260898
  H      -3.222506      0.468273      0.036177
  H      -2.349487      0.427418      1.579904
  H      -2.063227      1.743019      0.426690
  H       1.813856     -1.685796      0.839098
  H      -1.032281      0.011299     -1.176954
15
Coordinates from ORCA-job freq E -270.972317864969
  C       2.178946      0.230498     -0.284525
  C      -2.269811      0.676994      0.522919
  C       1.391753     -0.732118      0.554751
  C      -0.053919     -0.647379      0.647856
  C      -1.167527     -0.119457     -0.106772
  O      -1.074655     -1.511331      0.283327
  H       0.711177     -0.314002      1.647128
  H       3.209847      0.308798      0.055605
  H       2.192110     -0.084085     -1.333068
  H       1.733915      1.225772     -0.250842
  H      -3.224309      0.452938      0.046670
  H      -2.337917      0.440937      1.583143
  H      -2.074326      1.743899      0.410105
  H       1.814580     -1.687699      0.837851
  H      -1.029863      0.016235     -1.177351
15
Coordinates from ORCA-job freq E -270.972327455801
  C       2.179105      0.230849     -0.283323
  C      -2.269860      0.677323      0.522329
  C       1.391852     -0.733087      0.554387
  C      -0.053822     -0.647224      0.647559
  C      -1.167527     -0.119310     -0.107003
  O      -1.074879     -1.510996      0.283929
  H       0.711849     -0.315202      1.646952
  H       3.210748      0.306305      0.055175
  H       2.189778     -0.080260     -1.332934
  H       1.735877      1.226799     -0.245562
  H      -3.225128      0.448176      0.050052
  H      -2.334194      0.446385      1.583918
  H      -2.077744      1.744193      0.403513
  H       1.814120     -1.689476      0.835539
  H      -1.030173      0.015525     -1.177734
15
Coordinates from ORCA-job freq E -270.972333139790
  C       2.179728      0.232134     -0.279725
  C      -2.270081      0.678352      0.520395
  C       1.392259     -0.735932      0.552871
  C      -0.053432     -0.646073      0.647041
  C      -1.167933     -0.119513     -0.107517
  O      -1.075250     -1.510132      0.287414
  H       0.714391     -0.318543      1.646373
  H       3.213402      0.299545      0.054208
  H       2.183514     -0.068487     -1.332429
  H       1.741502      1.229799     -0.229886
  H      -3.227413      0.435785      0.059116
  H      -2.324336      0.461876      1.585572
  H      -2.086633      1.744734      0.384894
  H       1.812111     -1.695281      0.827312
  H      -1.031828      0.011738     -1.178845
15
Coordinates from ORCA-job freq E -270.972341456480
  C       2.180274      0.232987     -0.277841
  C      -2.270447      0.678899      0.519143
  C       1.392563     -0.737404      0.551733
  C      -0.053081     -0.644699      0.647156
  C      -1.168498     -0.120087     -0.107627
  O      -1.075145     -1.509614      0.290923
  H       0.716589     -0.320142      1.646143
  H       3.215002      0.296073      0.053674
  H       2.180467     -0.061767     -1.332210
  H       1.744743      1.231515     -0.221394
  H      -3.228643      0.430773      0.062626
  H      -2.320590      0.469131      1.585864
  H      -2.090363      1.744873      0.376104
  H       1.810638     -1.698702      0.821954
  H      -1.033509      0.008165     -1.179455
15
Coordinates from ORCA-job freq E -270.972345375309
  C       2.181489      0.234711     -0.274442
  C      -2.271339      0.679871      0.516674
  C       1.393108     -0.739898      0.549311
  C      -0.052396     -0.641452      0.647680
  C      -1.169983     -0.121743     -0.107692
  O      -1.074666     -1.508712      0.299001
  H       0.721407     -0.322743      1.645624
  H       3.218031      0.289900      0.052790
  H       2.175339     -0.049208     -1.331762
  H       1.750913      1.234673     -0.205921
  H      -3.230920      0.423430      0.067710
  H      -2.315253      0.481184      1.585767
  H      -2.095964      1.744910      0.361413
  H       1.807539     -1.705045      0.811197
  H      -1.037305      0.000124     -1.180556
15
Coordinates from ORCA-job freq E -270.972350196864
  C       2.182531      0.235993     -0.272305
  C      -2.272084      0.680443      0.514958
  C       1.393419     -0.741278      0.547422
  C      -0.051936     -0.638732      0.648288
  C      -1.171391     -0.123392     -0.107610
  O      -1.074176     -1.508174      0.305664
  H       0.725012     -0.324007      1.645172
  H       3.220097      0.286112      0.052452
  H       2.172658     -0.040994     -1.331436
  H       1.755139      1.236806     -0.196198
  H      -3.232418      0.420384      0.069743
  H      -2.313171      0.487688      1.585257
  H      -2.098305      1.744787      0.353285
  H       1.805173     -1.709156      0.803336
  H      -1.040548     -0.006480     -1.181232
15
Coordinates from ORCA-job freq E -270.972351048239
  C       2.184032      0.237799     -0.269634
  C      -2.273229      0.681137      0.512600
  C       1.393809     -0.742860      0.544724
  C      -0.051262     -0.634639      0.649349
  C      -1.173585     -0.126074     -0.107368
  O      -1.073320     -1.507471      0.315679
  H       0.730209     -0.325225      1.644556
  H       3.222827      0.281353      0.052119
  H       2.169605     -0.030285     -1.330992
  H       1.760781      1.239636     -0.183879
  H      -3.234449      0.418275      0.070930
  H      -2.311982      0.494698      1.584105
  H      -2.099958      1.744534      0.344300
  H       1.801966     -1.714414      0.792376
  H      -1.045445     -0.016464     -1.182070
15
Coordinates from ORCA-job freq E -270.972353999807
  C       2.184905      0.238852     -0.268355
  C      -2.273936      0.681444      0.511283
  C       1.393950     -0.743524      0.543118
  C      -0.050864     -0.632101      0.650116
  C      -1.175055     -0.127946     -0.107117
  O      -1.072780     -1.507113      0.322038
  H       0.733324     -0.325423      1.644143
  H       3.224247      0.278986      0.052057
  H       2.168379     -0.024701     -1.330816
  H       1.763835      1.241209     -0.177798
  H      -3.235469      0.418843      0.070175
  H      -2.312737      0.496955      1.583123
  H      -2.099491      1.744355      0.341103
  H       1.800311     -1.716980      0.786189
  H      -1.048620     -0.022858     -1.182465
15
Coordinates from ORCA-job freq E -270.972356519690
  C       2.185756      0.239979     -0.267230
  C      -2.274655      0.681719      0.509955
  C       1.394039     -0.744039      0.541418
  C      -0.050459     -0.629399      0.650973
  C      -1.176783     -0.130246     -0.106794
  O      -1.072208     -1.506867      0.329155
  H       0.736737     -0.325167      1.643563
  H       3.225526      0.276953      0.052151
  H       2.167528     -0.019383     -1.330697
  H       1.766675      1.242788     -0.172333
  H      -3.236385      0.421088      0.068127
  H      -2.314736      0.497786      1.581844
  H      -2.097645      1.744179      0.339529
  H       1.798825     -1.719280      0.779957
  H      -1.052215     -0.030111     -1.182824
15
Coordinates from ORCA-job freq E -270.972355582101
  C       2.185822      0.240312     -0.267101
  C      -2.274775      0.681774      0.509586
  C       1.394052     -0.744092      0.541015
  C      -0.050319     -0.628664      0.651357
  C      -1.177310     -0.131148     -0.106633
  O      -1.072033     -1.506911      0.331479
  H       0.737735     -0.324725      1.643423
  H       3.225660      0.276810      0.052127
  H       2.167347     -0.018310     -1.330740
  H       1.767008      1.243168     -0.171466
  H      -3.236419      0.423104      0.066423
  H      -2.316282      0.496767      1.581235
  H      -2.095927      1.744140      0.340525
  H       1.798695     -1.719674      0.778424
  H      -1.053255     -0.032551     -1.182861
15
Coordinates from ORCA-job freq E -270.972344792776
  C       2.185617      0.240178     -0.267411
  C      -2.274642      0.681709      0.509778
  C       1.393998     -0.743939      0.541247
  C      -0.050386     -0.629027      0.651328
  C      -1.177186     -0.131085     -0.106636
  O      -1.072149     -1.507050      0.330864
  H       0.737388     -0.324390      1.643403
  H       3.225323      0.277377      0.052149
  H       2.167628     -0.019350     -1.330837
  H       1.766344      1.242931     -0.172766
  H      -3.236147      0.424038      0.065737
  H      -2.316890      0.495513      1.581191
  H      -2.095137      1.744175      0.342035
  H       1.799170     -1.719089      0.779508
  H      -1.052931     -0.031989     -1.182797
15
Coordinates from ORCA-job freq E -270.972330961697
  C       2.185310      0.239952     -0.267842
  C      -2.274426      0.681615      0.510085
  C       1.393961     -0.743702      0.541672
  C      -0.050468     -0.629585      0.651258
  C      -1.176896     -0.130841     -0.106658
  O      -1.072249     -1.507221      0.329652
  H       0.736725     -0.324080      1.643505
  H       3.224841      0.278235      0.052159
  H       2.167996     -0.020962     -1.330941
  H       1.765323      1.242540     -0.174674
  H      -3.235760      0.424921      0.065105
  H      -2.317428      0.494050      1.581234
  H      -2.094369      1.744221      0.343839
  H       1.799712     -1.718326      0.781094
  H      -1.052271     -0.030818     -1.182691
15
Coordinates from ORCA-job freq E -270.972344019056
  C       2.185079      0.239836     -0.268140
  C      -2.274282      0.681550      0.510242
  C       1.393916     -0.743535      0.541926
  C      -0.050526     -0.629884      0.651277
  C      -1.176763     -0.130808     -0.106655
  O      -1.072306     -1.507364      0.329141
  H       0.736458     -0.323776      1.643540
  H       3.224504      0.278824      0.052131
  H       2.168183     -0.021959     -1.331030
  H       1.764628      1.242313     -0.175913
  H      -3.235466      0.425918      0.064335
  H      -2.318084      0.492779      1.581146
  H      -2.093509      1.744250      0.345357
  H       1.800100     -1.717799      0.782063
  H      -1.051930     -0.030345     -1.182625
15
Coordinates from ORCA-job freq E -270.972343988568
  C       2.184896      0.239746     -0.268397
  C      -2.274185      0.681495      0.510363
  C       1.393885     -0.743403      0.542118
  C      -0.050569     -0.630132      0.651333
  C      -1.176654     -0.130791     -0.106620
  O      -1.072360     -1.507483      0.328773
  H       0.736244     -0.323500      1.643572
  H       3.224237      0.279277      0.052081
  H       2.168329     -0.022755     -1.331120
  H       1.764094      1.242141     -0.176919
  H      -3.235234      0.426780      0.063632
  H      -2.318709      0.491702      1.581057
  H      -2.092780      1.744268      0.346633
  H       1.800448     -1.717369      0.782827
  H      -1.051643     -0.029975     -1.182540
15
Coordinates from ORCA-job freq E -270.972354348746
  C       2.184775      0.239748     -0.268521
  C      -2.274130      0.681480      0.510373
  C       1.393844     -0.743360      0.542149
  C      -0.050596     -0.630234      0.651426
  C      -1.176656     -0.130925     -0.106577
  O      -1.072413     -1.507589      0.328879
  H       0.736293     -0.323278      1.643521
  H       3.224088      0.279456      0.052023
  H       2.168311     -0.022975     -1.331188
  H       1.763857      1.242115     -0.177282
  H      -3.235087      0.427553      0.063004
  H      -2.319270      0.490994      1.580919
  H      -2.092106      1.744272      0.347454
  H       1.800705     -1.717134      0.783111
  H      -1.051615     -0.030122     -1.182496
15
Coordinates from ORCA-job freq E -270.972352734799
  C       2.184639      0.239745     -0.268633
  C      -2.274056      0.681469      0.510381
  C       1.393818     -0.743325      0.542200
  C      -0.050614     -0.630351      0.651513
  C      -1.176630     -0.131028     -0.106543
  O      -1.072452     -1.507686      0.328913
  H       0.736295     -0.323092      1.643502
  H       3.223936      0.279628      0.051942
  H       2.168234     -0.023182     -1.331250
  H       1.763603      1.242080     -0.177589
  H      -3.234932      0.428195      0.062472
  H      -2.319713      0.490400      1.580803
  H      -2.091525      1.744281      0.348147
  H       1.800939     -1.716932      0.783394
  H      -1.051540     -0.030201     -1.182457
15
Coordinates from ORCA-job freq E -270.972348706706
  C       2.184455      0.239651     -0.268834
  C      -2.273950      0.681429      0.510483
  C       1.393799     -0.743241      0.542392
  C      -0.050641     -0.630607      0.651552
  C      -1.176473     -0.130945     -0.106523
  O      -1.072496     -1.507766      0.328465
  H       0.736073     -0.322922      1.643558
  H       3.223702      0.279954      0.051841
  H       2.168237     -0.023807     -1.331323
  H       1.763150      1.241922     -0.178341
  H      -3.234717      0.428677      0.062038
  H      -2.320070      0.489691      1.580766
  H      -2.091100      1.744302      0.349008
  H       1.801219     -1.716594      0.784089
  H      -1.051187     -0.029746     -1.182376
15
Coordinates from ORCA-job freq E -270.972342907850
  C       2.184267      0.239513     -0.269085
  C      -2.273825      0.681373      0.510658
  C       1.393776     -0.743114      0.542644
  C      -0.050695     -0.630960      0.651539
  C      -1.176272     -0.130771     -0.106523
  O      -1.072565     -1.507862      0.327708
  H       0.735665     -0.322757      1.643626
  H       3.223433      0.280396      0.051785
  H       2.168369     -0.024705     -1.331390
  H       1.762592      1.241698     -0.179385
  H      -3.234481      0.429073      0.061726
  H      -2.320328      0.488924      1.580797
  H      -2.090747      1.744324      0.349951
  H       1.801534     -1.716154      0.785039
  H      -1.050725     -0.028979     -1.182295
15
Coordinates from ORCA-job freq E -270.972349857534
  C       2.184119      0.239437     -0.269262
  C      -2.273749      0.681334      0.510732
  C       1.393756     -0.743028      0.542806
  C      -0.050716     -0.631135      0.651590
  C      -1.176157     -0.130718     -0.106505
  O      -1.072584     -1.507925      0.327393
  H       0.735526     -0.322595      1.643682
  H       3.223253      0.280666      0.051676
  H       2.168360     -0.025238     -1.331456
  H       1.762222      1.241567     -0.180019
  H      -3.234301      0.429570      0.061278
  H      -2.320705      0.488225      1.580729
  H      -2.090328      1.744340      0.350765
  H       1.801760     -1.715857      0.785620
  H      -1.050455     -0.028644     -1.182233
15
Coordinates from ORCA-job freq E -270.972353734279
  C       2.184035      0.239431     -0.269353
  C      -2.273712      0.681319      0.510738
  C       1.393742     -0.742991      0.542842
  C      -0.050726     -0.631198      0.651666
  C      -1.176141     -0.130790     -0.106470
  O      -1.072605     -1.507984      0.327439
  H       0.735538     -0.322451      1.643669
  H       3.223155      0.280793      0.051611
  H       2.168327     -0.025410     -1.331506
  H       1.762054      1.241537     -0.180275
  H      -3.234197      0.430066      0.060852
  H      -2.321084      0.487747      1.580635
  H      -2.089902      1.744339      0.351317
  H       1.801914     -1.715709      0.785818
  H      -1.050397     -0.028700     -1.182189
15
Coordinates from ORCA-job freq E -270.972358428089
  C       2.183957      0.239454     -0.269393
  C      -2.273685      0.681318      0.510694
  C       1.393724     -0.742995      0.542837
  C      -0.050725     -0.631208      0.651763
  C      -1.176147     -0.130894     -0.106431
  O      -1.072619     -1.508027      0.327637
  H       0.735652     -0.322339      1.643652
  H       3.223102      0.280792      0.051494
  H       2.168156     -0.025359     -1.331551
  H       1.762000      1.241569     -0.180252
  H      -3.234112      0.430462      0.060462
  H      -2.321405      0.487430      1.580521
  H      -2.089538      1.744338      0.351658
  H       1.802030     -1.715645      0.785862
  H      -1.050391     -0.028895     -1.182158
15
Coordinates from ORCA-job freq E -270.972356146689
  C       2.183858      0.239427     -0.269486
  C      -2.273630      0.681300      0.510721
  C       1.393709     -0.742960      0.542911
  C      -0.050740     -0.631321      0.651814
  C      -1.176078     -0.130895     -0.106412
  O      -1.072641     -1.508079      0.327506
  H       0.735571     -0.322228      1.643676
  H       3.222999      0.280904      0.051400
  H       2.168080     -0.025573     -1.331598
  H       1.761818      1.241520     -0.180519
  H      -3.233996      0.430752      0.060194
  H      -2.321620      0.487069      1.580473
  H      -2.089269      1.744342      0.352074
  H       1.802162     -1.715493      0.786156
  H      -1.050226     -0.028766     -1.182115
15
Coordinates from ORCA-job freq E -270.972351047397
  C       2.183771      0.239363     -0.269617
  C      -2.273578      0.681272      0.510803
  C       1.393700     -0.742894      0.543026
  C      -0.050768     -0.631504      0.651820
  C      -1.175990     -0.130835     -0.106405
  O      -1.072676     -1.508145      0.327162
  H       0.735385     -0.322122      1.643697
  H       3.222874      0.281110      0.051346
  H       2.168138     -0.025990     -1.331641
  H       1.761567      1.241416     -0.181022
  H      -3.233891      0.431017      0.059990
  H      -2.321808      0.486652      1.580469
  H      -2.089047      1.744350      0.352595
  H       1.802329     -1.715260      0.786640
  H      -1.050005     -0.028428     -1.182068
15
Coordinates from ORCA-job freq E -270.972353589159
  C       2.183674      0.239324     -0.269721
  C      -2.273528      0.681249      0.510840
  C       1.393694     -0.742841      0.543122
  C      -0.050772     -0.631602      0.651852
  C      -1.175921     -0.130818     -0.106395
  O      -1.072676     -1.508186      0.326995
  H       0.735312     -0.322027      1.643729
  H       3.222762      0.281260      0.051269
  H       2.168100     -0.026274     -1.331686
  H       1.761351      1.241346     -0.181360
  H      -3.233778      0.431334      0.059709
  H      -2.322049      0.486245      1.580427
  H      -2.088768      1.744353      0.353072
  H       1.802452     -1.715091      0.786974
  H      -1.049854     -0.028270     -1.182032
15
Coordinates from ORCA-job freq E -270.972353189659
  C       2.183544      0.239285     -0.269822
  C      -2.273452      0.681230      0.510877
  C       1.393680     -0.742805      0.543233
  C      -0.050787     -0.631746      0.651900
  C      -1.175821     -0.130782     -0.106374
  O      -1.072695     -1.508236      0.326774
  H       0.735207     -0.321971      1.643780
  H       3.222628      0.281411      0.051154
  H       2.167996     -0.026549     -1.331732
  H       1.761097      1.241274     -0.181677
  H      -3.233636      0.431575      0.059460
  H      -2.322224      0.485910      1.580397
  H      -2.088519      1.744356      0.353467
  H       1.802606     -1.714922      0.787336
  H      -1.049625     -0.028032     -1.181978
15
Coordinates from ORCA-job freq E -270.972362821782
  C       2.183469      0.239273     -0.269890
  C      -2.273414      0.681219      0.510888
  C       1.393674     -0.742779      0.543288
  C      -0.050795     -0.631824      0.651949
  C      -1.175780     -0.130804     -0.106357
  O      -1.072707     -1.508286      0.326708
  H       0.735155     -0.321904      1.643802
  H       3.222554      0.281501      0.051071
  H       2.167921     -0.026694     -1.331763
  H       1.760961      1.241248     -0.181868
  H      -3.233555      0.431834      0.059233
  H      -2.322416      0.485634      1.580350
  H      -2.088279      1.744359      0.353792
  H       1.802717     -1.714811      0.787539
  H      -1.049505     -0.027965     -1.181945
15
Coordinates from ORCA-job freq E -270.972352418604
  C       2.183432      0.239274     -0.269934
  C      -2.273401      0.681206      0.510886
  C       1.393659     -0.742759      0.543297
  C      -0.050806     -0.631856      0.651987
  C      -1.175779     -0.130848     -0.106344
  O      -1.072719     -1.508324      0.326737
  H       0.735165     -0.321820      1.643790
  H       3.222521      0.281512      0.051013
  H       2.167871     -0.026736     -1.331800
  H       1.760928      1.241254     -0.181947
  H      -3.233515      0.432076      0.059029
  H      -2.322595      0.485404      1.580298
  H      -2.088075      1.744349      0.354054
  H       1.802791     -1.714725      0.787660
  H      -1.049477     -0.028007     -1.181931
15
Coordinates from ORCA-job freq E -270.972355332230
  C       2.183448      0.239304     -0.269945
  C      -2.273423      0.681203      0.510849
  C       1.393663     -0.742750      0.543252
  C      -0.050797     -0.631791      0.652045
  C      -1.175833     -0.130944     -0.106314
  O      -1.072710     -1.508334      0.326982
  H       0.735268     -0.321725      1.643765
  H       3.222549      0.281462      0.050966
  H       2.167835     -0.026624     -1.331830
  H       1.761010      1.241304     -0.181865
  H      -3.233502      0.432354      0.058766
  H      -2.322850      0.485202      1.580216
  H      -2.087850      1.744341      0.354261
  H       1.802797     -1.714723      0.787570
  H      -1.049605     -0.028280     -1.181923
15
Coordinates from ORCA-job freq E -270.972361593358
  C       2.183386      0.239293     -0.269985
  C      -2.273392      0.681194      0.510849
  C       1.393653     -0.742740      0.543287
  C      -0.050802     -0.631847      0.652075
  C      -1.175800     -0.130948     -0.106301
  O      -1.072726     -1.508358      0.326942
  H       0.735257     -0.321683      1.643768
  H       3.222500      0.281476      0.050882
  H       2.167732     -0.026677     -1.331855
  H       1.760939      1.241292     -0.181931
  H      -3.233439      0.432490      0.058618
  H      -2.322956      0.485041      1.580181
  H      -2.087708      1.744335      0.354437
  H       1.802879     -1.714641      0.787726
  H      -1.049524     -0.028227     -1.181899
15
Coordinates from ORCA-job freq E -270.972363919792
  C       2.183319      0.239223     -0.270089
  C      -2.273349      0.681171      0.510923
  C       1.393652     -0.742684      0.543403
  C      -0.050816     -0.631993      0.652059
  C      -1.175700     -0.130848     -0.106305
  O      -1.072745     -1.508384      0.326590
  H       0.735084     -0.321620      1.643803
  H       3.222407      0.281621      0.050826
  H       2.167762     -0.027039     -1.331891
  H       1.760741      1.241188     -0.182330
  H      -3.233349      0.432584      0.058522
  H      -2.323035      0.484748      1.580199
  H      -2.087646      1.744359      0.354794
  H       1.802993     -1.714457      0.788156
  H      -1.049319     -0.027870     -1.181867
15
Coordinates from ORCA-job freq E -270.972357861396
  C       2.183248      0.239131     -0.270211
  C      -2.273302      0.681132      0.511026
  C       1.393634     -0.742611      0.543543
  C      -0.050849     -0.632166      0.652019
  C      -1.175587     -0.130708     -0.106326
  O      -1.072775     -1.508410      0.326107
  H       0.734854     -0.321550      1.643834
  H       3.222306      0.281776      0.050785
  H       2.167822     -0.027506     -1.331918
  H       1.760528      1.241072     -0.182842
  H      -3.233256      0.432623      0.058490
  H      -2.323066      0.484438      1.580246
  H      -2.087627      1.744364      0.355178
  H       1.803124     -1.714218      0.788701
  H      -1.049055     -0.027369     -1.181838
15
Coordinates from ORCA-job freq E -270.972359378965
  C       2.183212      0.239141     -0.270236
  C      -2.273285      0.681125      0.511014
  C       1.393633     -0.742584      0.543559
  C      -0.050848     -0.632158      0.652054
  C      -1.175594     -0.130768     -0.106321
  O      -1.072756     -1.508442      0.326171
  H       0.734868     -0.321496      1.643843
  H       3.222270      0.281813      0.050748
  H       2.167777     -0.027537     -1.331934
  H       1.760476      1.241077     -0.182900
  H      -3.233225      0.432857      0.058313
  H      -2.323218      0.484245      1.580196
  H      -2.087416      1.744353      0.355387
  H       1.803152     -1.714175      0.788730
  H      -1.049048     -0.027454     -1.181829
15
Coordinates from ORCA-job freq E -270.972353751875
  C       2.183195      0.239166     -0.270229
  C      -2.273280      0.681129      0.510978
  C       1.393621     -0.742592      0.543533
  C      -0.050851     -0.632132      0.652094
  C      -1.175623     -0.130838     -0.106311
  O      -1.072765     -1.508457      0.326329
  H       0.734956     -0.321455      1.643816
  H       3.222277      0.281764      0.050695
  H       2.167677     -0.027417     -1.331948
  H       1.760510      1.241112     -0.182774
  H      -3.233205      0.433010      0.058174
  H      -2.323325      0.484168      1.580136
  H      -2.087270      1.744346      0.355457
  H       1.803179     -1.714174      0.788679
  H      -1.049096     -0.027631     -1.181834
15
Coordinates from ORCA-job freq E -270.972352682550
  C       2.183213      0.239251     -0.270156
  C      -2.273302      0.681155      0.510869
  C       1.393623     -0.742643      0.543423
  C      -0.050829     -0.631993      0.652180
  C      -1.175719     -0.131015     -0.106284
  O      -1.072747     -1.508461      0.326823
  H       0.735181     -0.321422      1.643781
  H       3.222347      0.281602      0.050631
  H       2.167501     -0.026991     -1.331958
  H       1.760685      1.241232     -0.182321
  H      -3.233235      0.433202      0.057990
  H      -2.323467      0.484219      1.580026
  H      -2.087082      1.744337      0.355351
  H       1.803128     -1.714317      0.788295
  H      -1.049297     -0.028153     -1.181855
15
Coordinates from ORCA-job freq E -270.972362215236
  C       2.183153      0.239245     -0.270172
  C      -2.273271      0.681153      0.510858
  C       1.393619     -0.742654      0.543455
  C      -0.050828     -0.632045      0.652203
  C      -1.175677     -0.131011     -0.106281
  O      -1.072753     -1.508476      0.326782
  H       0.735174     -0.321413      1.643797
  H       3.222308      0.281589      0.050542
  H       2.167359     -0.026982     -1.331973
  H       1.760639      1.241231     -0.182295
  H      -3.233188      0.433238      0.057929
  H      -2.323486      0.484181      1.580005
  H      -2.087028      1.744338      0.355389
  H       1.803187     -1.714286      0.788394
  H      -1.049210     -0.028108     -1.181841
