17
Coordinates from ORCA-job freq E -421.427014474512
  C          -2.33621243655741     -1.03749804866741      0.49904801207887
  C           2.07905822205766     -0.56506274429669      0.05150093593450
  C           1.13632105256085      0.31218913551039     -0.75948993470070
  C          -0.91528313314653     -0.76477844072913      0.53751113513337
  C          -0.28196115772798      0.31573837901696     -0.25416452925468
  O          -0.83049640590900      2.39680917249614     -0.96062678223866
  O          -0.48715093362193      0.50248263531364      1.11278818150880
  O          -1.17857190556659      1.02128734570782     -1.04904643552536
  H          -2.70029056723772     -2.02881842915860      0.71320708934932
  H          -3.03077028099325     -0.25429873233558      0.24468347383930
  H           2.01476505048808     -0.32306355761943      1.11209908103229
  H           3.10763617454194     -0.41080403267717     -0.26942959159769
  H           1.85137903719281     -1.62341314933019     -0.07529260284815
  H           1.11027162371100     -0.00005809773345     -1.80406781445391
  H           1.47473725727550      1.34950068016843     -0.74628399881406
  H          -0.26912209021496     -1.58672780598504      0.82161514873471
  H          -1.24116450685245      2.64603469031932     -0.12158136817789
