
                                 *****************
                                 * O   R   C   A *
                                 *****************

                                            #,                                       
                                            ###                                      
                                            ####                                     
                                            #####                                    
                                            ######                                   
                                           ########,                                 
                                     ,,################,,,,,                         
                               ,,#################################,,                 
                          ,,##########################################,,             
                       ,#########################################, ''#####,          
                    ,#############################################,,   '####,        
                  ,##################################################,,,,####,       
                ,###########''''           ''''###############################       
              ,#####''   ,,,,##########,,,,          '''####'''          '####       
            ,##' ,,,,###########################,,,                        '##       
           ' ,,###''''                  '''############,,,                           
         ,,##''                                '''############,,,,        ,,,,,,###''
      ,#''                                            '''#######################'''  
     '                                                          ''''####''''         
             ,#######,   #######,   ,#######,      ##                                
            ,#'     '#,  ##    ##  ,#'     '#,    #''#        ,####,    ,#,          
            ##       ##  ##   ,#'  ##            #'  '#       #'       ,# #          
            ##       ##  #######   ##           ,######,      #####,      #          
            '#,     ,#'  ##    ##  '#,     ,#' ,#      #,     #,   #      #          
             '#######'   ##     ##  '#######'  #'      '#     '####' #    #          



                #########################################################
                #                        -***-                          #
                #          Department of theory and spectroscopy        #
                #                                                       #
                #                      Frank Neese                      #
                #                                                       #
                #     Directorship, Architecture, Infrastructure        #
                #                    SHARK, DRIVERS                     #
                #        Core code/Algorithms in most modules           #
                #                                                       #
                #        Max Planck Institute fuer Kohlenforschung      #
                #                Kaiser Wilhelm Platz 1                 #
                #                 D-45470 Muelheim/Ruhr                 #
                #                      Germany                          #
                #                                                       #
                #                  All rights reserved                  #
                #                        -***-                          #
                #########################################################


                         Program Version 6.1.1  -  RELEASE   -
                                (GIT: $487d211c$)
                          ($2025-11-21 10:33:24 +0100$)


 With contributions from (in alphabetic order):
[Max-Planck-Institut fuer Kohlenforschung]                               
  Daniel Aravena         : Magnetic Suceptibility                        
  Michael Atanasov       : Ab Initio Ligand Field Theory (pilot matlab implementation)
  Alexander A. Auer      : GIAO ZORA, VPT2 properties, NMR spectrum      
  Ute Becker             : All parallelization in ORCA, NUMFREQ, NUMCALC 
  Giovanni Bistoni       : ED, misc. LED, open-shell LED, HFLD           
  Dmytro Bykov           : pre 5.0 version of the SCF Hessian            
  Marcos Casanova-Páez   : Triplet and SCS-CIS(D). UHF-(DLPNO)-IP/EA/STEOM-CCSD. UHF-CVS-IP/STEOM-CCSD   
  Vijay G. Chilkuri      : MRCI spin determinant printing, contributions to CSF-ICE 
  Pauline Colinet        : FMM embedding                                 
  Dipayan Datta          : RHF DLPNO-CCSD density                        
  Achintya Kumar Dutta   : EOM-CC, STEOM-CC                              
  Nicolas Foglia         : Exact transition moments, OPA infrastructure, MCD improvements    
  Dmitry Ganyushin       : Spin-Orbit,Spin-Spin,Magnetic field MRCI      
  Miquel Garcia-Rates    : C-PCM and meta-GGA Hessian, CCSD/C-PCM, Gaussian charge scheme 
  Tiago L. C. Gouveia    : GS-ROHF, GS-ROCIS                             
  Yang Guo               : DLPNO-NEVPT2, F12-NEVPT2, CIM, IAO-localization        
  Andreas Hansen         : Spin unrestricted coupled pair/coupled cluster methods 
  Ingolf Harden          : AUTO-CI MPn and infrastructure                
  Benjamin Helmich-Paris : MC-RPA, TRAH-(SCF,CASSCF), AVAS, COSX integrals, SCF dyn. polar., MC-PDFT, srDFT 
  Lee Huntington         : MR-EOM, pCC                                   
  Robert Izsak           : Overlap fitted RIJCOSX, COSX-SCS-MP3, EOM     
  Riya Kayal             : Wick's Theorem for AUTO-CI, AUTO-CI UHF-CCSDT 
  Emily Kempfer          : AUTO-CI RHF CISDT and CCSDT, approximate NEVPT4
  Christian Kollmar      : KDIIS, OOCD, Brueckner-CCSD(T), CCSD density, CASPT2, CASPT2-K, improved NEVPT2 
  Axel Koslowski         : Symmetry handling                             
  Simone Kossmann        : meta-GGA functionals, TD-DFT gradient, OOMP2, (MP2 Hessian; deprecated post 5.0) 
  Lucas Lang             : DCDCAS, Hyperfine gauge corrections, ICE-SOC+SSC
  Marvin Lechner         : AUTO-CI (C++ implementation), FIC-MRCC        
  Spencer Leger          : CASSCF response                               
  Dagmar Lenk            : GEPOL surface, SMD, ORCA-2-JSON               
  Dimitrios Liakos       : Extrapolation schemes; Compound Job, Property file
  Dimitrios Manganas     : Further ROCIS development; embedding schemes. LFT, Crystal Embedding 
  Dimitrios Pantazis     : SARC Basis sets                               
  Anastasios Papadopoulos: AUTO-CI, single reference methods and gradients 
  Taras Petrenko         : pre 6.0 DFT Hessian and TD-DFT gradient,  ECA, NRVS 
  Petra Pikulova         : Analytic Raman intensities                    
  Peter Pinski           : DLPNO-MP2, DLPNO-MP2 Gradient                 
  Shashank Vittal Rao    : ES-AILFT, MagRelax                            
  Christoph Reimann      : Effective Core Potentials                     
  Marius Retegan         : Local ZFS, SOC                                
  Christoph Riplinger    : Optimizer, TS searches, QM/MM, DLPNO-CCSD(T), (RO)-DLPNO pert. Triples 
  Michael Roemelt        : Original ROCIS implementation, recursive CI coupling coefficients
  Masaaki Saitow         : Open-shell DLPNO-CCSD energy and density      
  Barbara Sandhoefer     : DKH picture change effects                    
  Yorick L. A. Schmerwitz: GMF and freeze-and-release deltaSCF, NEB S-IDPP initial path                    
  Kantharuban Sivalingam : CASSCF convergence/infrastructure, NEVPT2, NEVPT3, NEVPT4(SD), FIC-MRCI and CEPA variants
  Bernardo de Souza      : ESD, SOC TD-DFT                               
  Georgi L. Stoychev     : AutoAux, RI-MP2 NMR, DLPNO-MP2 response, X2C  
  Van Anh Tran           : RI-MP2 g-tensors                              
  Willem Van den Heuvel  : Paramagnetic NMR                              
  Zikuan Wang            : NOTCH, Electric field optimization            
  Frank Wennmohs         : Technical directorship and infrastructure     
  Hang Xu                : AUTO-CI-Response properties                   
                                                                         
[FACCTs GmbH]                                                            
  Markus Bursch, Nicolas Foglia, Miquel Garcia-Rates, Ingolf Harden, Hagen Neugebauer, Anastasios Papadopoulos, 
  Christoph Riplinger, Bernardo de Souza, Georgi L. Stoychev                                                    
                                                                 
  APM, various basis sets, CI-OPT, improved COSX, DLPNO-Multilevel,           
  DOCKER, DRACO, updates on ESD, Fragmentator, GOAT, IRC, LR-CPCM, L-BFGS, MBIS, meta-GGA TD-DFT gradient, ML-optimized integration grids, 
  MM, NACMEs, nearIR, NEB, NEB-TS, NL-DFT gradient (VV10), 2- and 3-layer-ONIOM, interface openCOSMO-RS, QMMM,   
  Crystal-QMMM, RESP, rigid body optimization, SF, symmetry and pop. for TD-DFT, various functionals, SOLVATOR                                   
                                                                         
[Other institutions]                                                     
  V. Asgeirsson          : NEB                                           
  Christoph Bannwarth    : sTDA-DFT, sTD-DFT, PBEh-3c, B97-3c, D3        
  Giovanni Bistoni       : ETS/NOCV, ADLD/ADEX, COVALED                  
  Martin Brehm           : Molecular dynamics                            
  Ronald Cardenas        : ETS/NOCV                                      
  Martina Colucci        : COVALED                                       
  Sebastian Ehlert       : rSCAN, r2SCAN, r2SCAN-3c, D4, dhf basis sets  
  Marvin Friede          : D4 for Fr, Ra, Ac-Lr                          
  Lars Goerigk           : TD-DFT with DH, B97 family of functionals     
  Stefan Grimme          : VdW corrections, initial TS optimization, DFT functionals, gCP, sTDA/sTD-DF 
  Waldemar Hujo          : DFT-NL                                        
  H. Jonsson             : NEB                                           
  Holger Kruse           : gCP                                           
  Marcel Mueller         : wB97X-3c, vDZP basis set                      
  Hagen Neugebauer       : wr2SCAN, Native XTB                           
  Gianluca Regni         : ADLD/ADEX                                     
  Tobias Risthaus        : pre 6.0 range-separated hybrid DFT and stability analysis
  Lukas Wittmann         : regularized MP2, r2SCAN double-hybrids, wr2SCAN        
                                                                         
We gratefully acknowledge several colleagues who have allowed us to      
interface, adapt or use parts of their codes:                            
  Ed Valeev, F. Pavosevic, A. Kumar             : LibInt (2-el integral package), F12 methods 
  Garnet Chan, S. Sharma, J. Yang, R. Olivares  : DMRG                   
  Ulf Ekstrom                                   : XCFun DFT Library      
  Mihaly Kallay                                 : mrcc  (arbitrary order and MRCC methods)
  Frank Weinhold                                : gennbo (NPA and NBO analysis)           
  Simon Mueller                                 : openCOSMO-RS                            
  Christopher J. Cramer and Donald G. Truhlar   : smd solvation model                     
  S Lehtola, MJT Oliveira, MAL Marques          : LibXC Library                           
  Liviu Ungur et al                             : ANISO software                          


 Your calculation uses the libint2 library for the computation of 2-el integrals
 For citations please refer to: http://libint.valeyev.net

 Your ORCA version has been built with support for libXC version: 7.0.0
 For citations please refer to: https://libxc.gitlab.io

 This ORCA versions uses:
   CBLAS   interface :  Fast vector & matrix operations
   LAPACKE interface :  Fast linear algebra routines
   SCALAPACK package :  Parallel linear algebra routines
   Shared memory     :  Shared parallel matrices
   BLAS/LAPACK       :  OpenBLAS 0.3.29  USE64BITINT DYNAMIC_ARCH NO_AFFINITY Zen SINGLE_THREADED
        Core in use  :  Zen
   Copyright (c) 2011-2014, The OpenBLAS Project


  ***********************************
  * Starting time: Wed Feb 18 13:00:35 2026
  * Host name:     ra2-19
  * Process ID:    1976919
  * Working dir.:  /tmp/lscratch/tns97255/orca_42811228
  ***********************************

NOTE: MaxCore=4000 MB was set to SCF,MP2,MDCI,CIPSI,MRCI,RASCI and CIS
      => If you want to overwrite this, your respective input block should be placed after the MaxCore statement


***************************************
The coordinates will be read from file: guess.xyz
***************************************


Your calculation utilizes the semiempirical GFN2-xTB method
Please cite in your paper:
Bannwarth, C.; Ehlert S.; Grimme, S. J. Chem. Theory Comput. 2019, 15, 1652.
   

================================================================================

================================================================================
                                        WARNINGS
                       Please study these warnings very carefully!
================================================================================


================================================================================
 STARTING AUTOMATIC FRAGMENTATION: 
================================================================================

WARNING: Geometry Optimization
  ===> : Switching off AutoStart
         For restart on a previous wavefunction, please use MOREAD

WARNING: Found dipole moment calculation with XTB calculation
  ===> : Switching off dipole moment calculation


================================================================================
                                       INPUT FILE
================================================================================
NAME = goat.inp
|  1> %PAL NPROCS 8 END
|  2> %MAXCORE 4000
|  3> %base "goat"
|  4> ! XTB GOAT
|  5> 
|  6> *xyzfile 0 2 guess.xyz
|  7> 
|  8>                          ****END OF INPUT****
================================================================================

                       *****************************
                       * Geometry Optimization Run *
                       *****************************


                       *********************************
                       *              GOAT             *
                       * Global Optimization Algorithm *
                       *********************************

Geometry optimization settings:
Update method            Update   .... BFGS
Choice of coordinates    CoordSys .... (2022) Redundant Internals
Initial Hessian          InHess   .... Almloef's Model
Max. no of cycles        MaxIter  .... 51

Convergence Tolerances:
Energy Change            TolE     ....  5.0000e-06 Eh
Max. Gradient            TolMAXG  ....  3.0000e-04 Eh/bohr
RMS Gradient             TolRMSG  ....  1.0000e-04 Eh/bohr
Max. Displacement        TolMAXD  ....  4.0000e-03 bohr
RMS Displacement         TolRMSD  ....  2.0000e-03 bohr
Strict Convergence                .... True

------------------------------------------------------------------------------
                        ORCA OPTIMIZATION COORDINATE SETUP
------------------------------------------------------------------------------

The optimization will be done in redundant internal coordinates (2022)
Making redundant internal coordinates   ...  (2022 redundants) done
Evaluating the initial hessian          ...  (Almloef) done
Evaluating the coordinates              ...  done
Calculating the B-matrix                .... done
Calculating the G-matrix                .... done
The number of degrees of freedom        ....   78

    -----------------------------------------------------------------
                    Redundant Internal Coordinates


    -----------------------------------------------------------------
         Definition                    Initial Value    Approx d2E/dq
    -----------------------------------------------------------------
      1. B(C   2,C   1)                  1.5211         0.385926   
      2. B(C   3,C   0)                  1.4563         0.489804   
      3. B(C   4,C   3)                  1.5200         0.387578   
      4. B(C   4,C   2)                  1.5011         0.415357   
      5. B(O   6,C   4)                  1.4304         0.482486   
      6. B(O   6,C   3)                  1.4362         0.472209   
      7. B(O   7,C   4)                  1.4455         0.456372   
      8. B(O   7,O   5)                  1.4561         0.393148   
      9. B(H   8,C   0)                  1.0825         0.370133   
     10. B(H   9,C   0)                  1.0838         0.368366   
     11. B(H  10,C   1)                  1.0949         0.353722   
     12. B(H  11,C   1)                  1.0947         0.353914   
     13. B(H  12,C   1)                  1.0942         0.354562   
     14. B(H  13,C   2)                  1.0963         0.351911   
     15. B(H  14,C   2)                  1.0965         0.351638   
     16. B(H  15,C   3)                  1.0845         0.367409   
     17. B(H  16,O   5)                  0.9720         0.497507   
     18. A(C   3,C   0,H   8)          120.4883         0.340759   
     19. A(C   3,C   0,H   9)          119.7031         0.340487   
     20. A(H   8,C   0,H   9)          119.6883         0.293145   
     21. A(H  11,C   1,H  12)          107.8298         0.289345   
     22. A(C   2,C   1,H  12)          111.5813         0.325228   
     23. A(H  10,C   1,H  12)          108.1090         0.289321   
     24. A(H  10,C   1,H  11)          107.9369         0.289238   
     25. A(C   2,C   1,H  11)          110.1298         0.325130   
     26. A(C   2,C   1,H  10)          111.1167         0.325101   
     27. A(C   1,C   2,H  14)          107.9195         0.324785   
     28. A(C   4,C   2,H  13)          108.5909         0.328782   
     29. A(C   4,C   2,H  14)          109.0493         0.328740   
     30. A(C   1,C   2,H  13)          109.1750         0.324827   
     31. A(C   1,C   2,C   4)          115.2871         0.372091   
     32. A(H  13,C   2,H  14)          106.4653         0.288714   
     33. A(C   4,C   3,H  15)          117.5948         0.327369   
     34. A(C   0,C   3,H  15)          113.1466         0.340339   
     35. A(O   6,C   3,H  15)          116.1208         0.336215   
     36. A(C   4,C   3,O   6)           57.7910         0.378313   
     37. A(C   0,C   3,C   4)          120.1019         0.383139   
     38. A(C   0,C   3,O   6)          121.4994         0.394055   
     39. A(C   3,C   4,O   6)           58.1656         0.379726   
     40. A(C   2,C   4,O   6)          117.1173         0.384317   
     41. A(C   2,C   4,C   3)          120.8070         0.372365   
     42. A(O   6,C   4,O   7)          121.0922         0.388196   
     43. A(C   3,C   4,O   7)          113.0658         0.376087   
     44. A(C   2,C   4,O   7)          114.9176         0.380621   
     45. A(O   7,O   5,H  16)           96.2431         0.337948   
     46. A(C   3,O   6,C   4)           64.0433         0.390515   
     47. A(C   4,O   7,O   5)          105.7178         0.372249   
     48. D(H  13,C   2,C   1,H  10)    177.8679         0.011852   
     49. D(H  13,C   2,C   1,H  11)     58.3185         0.011852   
     50. D(C   4,C   2,C   1,H  12)     61.1236         0.011852   
     51. D(C   4,C   2,C   1,H  10)    -59.6123         0.011852   
     52. D(C   4,C   2,C   1,H  11)   -179.1618         0.011852   
     53. D(H  13,C   2,C   1,H  12)    -61.3961         0.011852   
     54. D(C   4,C   3,C   0,H   8)     91.0520         0.017698   
     55. D(O   6,C   3,C   0,H   9)    -16.4993         0.017698   
     56. D(O   6,C   3,C   0,H   8)    159.5012         0.017698   
     57. D(H  15,C   3,C   0,H   8)    -55.0602         0.017698   
     58. D(C   4,C   3,C   0,H   9)    -84.9484         0.017698   
     59. D(C   3,C   4,C   2,H  14)    175.0000         0.013657   
     60. D(C   3,C   4,C   2,H  13)     59.3734         0.013657   
     61. D(O   6,C   4,C   2,C   1)      3.9232         0.013657   
     62. D(C   3,C   4,C   2,C   1)    -63.4579         0.013657   
     63. D(O   6,C   4,C   3,H  15)   -104.9437         0.011949   
     64. D(O   6,C   4,C   3,C   0)    110.4009         0.011949   
     65. D(C   2,C   4,C   3,H  15)     -0.2025         0.011949   
     66. D(C   2,C   4,C   3,O   6)    104.7412         0.011949   
     67. D(C   2,C   4,C   3,C   0)   -144.8580         0.011949   
     68. D(O   6,C   4,C   2,H  14)   -117.6190         0.013657   
     69. D(O   7,C   4,C   3,C   0)     -2.9455         0.011949   
     70. D(O   6,C   4,C   2,H  13)    126.7544         0.013657   
     71. D(C   3,O   6,C   4,O   7)     99.4457         0.018368   
     72. D(C   3,O   6,C   4,C   2)   -111.0592         0.018368   
     73. D(C   4,O   6,C   3,H  15)    107.5084         0.017579   
     74. D(C   4,O   6,C   3,C   0)   -108.0095         0.017579   
     75. D(C   4,O   7,O   5,H  16)    112.1686         0.011505   
     76. D(O   5,O   7,C   4,O   6)     66.5124         0.016405   
     77. D(O   5,O   7,C   4,C   3)    132.1393         0.016405   
     78. D(O   5,O   7,C   4,C   2)    -83.6075         0.016405   
    -----------------------------------------------------------------

Number of atoms                         .... 17
Number of degrees of freedom            .... 78


         *************************************************************
         *                GEOMETRY OPTIMIZATION CYCLE   1            *
         *************************************************************
---------------------------------
CARTESIAN COORDINATES (ANGSTROEM)
---------------------------------
  C    -2.435158   -1.092663    0.476356
  C     2.168394   -0.280656    0.103421
  C     1.010658    0.161462   -0.778658
  C    -0.985224   -0.960989    0.508771
  C    -0.317791    0.267462   -0.087710
  O    -0.914660    2.499280   -0.200966
  O    -0.339802    0.030769    1.322758
  O    -1.255352    1.177021   -0.706717
  H    -2.923160   -1.589192   -0.352596
  H    -3.033599   -0.634015    1.254932
  H     2.318959    0.415491    0.934948
  H     3.094398   -0.314941   -0.479456
  H     1.998283   -1.277629    0.521059
  H     0.912555   -0.534721   -1.619785
  H     1.268340    1.135939   -1.210222
  H    -0.468741   -1.909798    0.412790
  H    -0.594955    2.856699   -1.046455

----------------------------
CARTESIAN COORDINATES (A.U.)
----------------------------
  NO LB    ZA    FRAG    MASS        X           Y           Z
   0 C   6.0000    1    12.011   -4.601782   -2.064834    0.900182
   1 C   6.0000    1    12.011    4.097671   -0.530363    0.195437
   2 C   6.0000    1    12.011    1.909867    0.305119   -1.471450
   3 C   6.0000    1    12.011   -1.861804   -1.816006    0.961438
   4 C   6.0000    1    12.011   -0.600538    0.505430   -0.165748
   5 O   8.0000    1    15.999   -1.728457    4.722955   -0.379771
   6 O   8.0000    1    15.999   -0.642133    0.058145    2.499650
   7 O   8.0000    1    15.999   -2.372271    2.224247   -1.335502
   8 H   1.0000    1     1.008   -5.523972   -3.003138   -0.666310
   9 H   1.0000    1     1.008   -5.732671   -1.198115    2.371478
  10 H   1.0000    1     1.008    4.382197    0.785164    1.766796
  11 H   1.0000    1     1.008    5.847565   -0.595152   -0.906041
  12 H   1.0000    1     1.008    3.776208   -2.414369    0.984659
  13 H   1.0000    1     1.008    1.724479   -1.010476   -3.060950
  14 H   1.0000    1     1.008    2.396815    2.146614   -2.286988
  15 H   1.0000    1     1.008   -0.885792   -3.608995    0.780060
  16 H   1.0000    1     1.008   -1.124302    5.398379   -1.977513

      -----------------------------------------------------------      
     |                   =====================                   |     
     |                           x T B                           |     
     |                   =====================                   |     
     |                         S. Grimme                         |     
     |          Mulliken Center for Theoretical Chemistry        |     
     |                    University of Bonn                     |     
      -----------------------------------------------------------      

   * xtb version 6.7.1 (edcfbbe) compiled by 'albert@albert-system' on 2024-07-22

   xtb is free software: you can redistribute it and/or modify it under
   the terms of the GNU Lesser General Public License as published by
   the Free Software Foundation, either version 3 of the License, or
   (at your option) any later version.
   
   xtb is distributed in the hope that it will be useful,
   but WITHOUT ANY WARRANTY; without even the implied warranty of
   MERCHANTABILITY or FITNESS FOR A PARTICULAR PURPOSE.  See the
   GNU Lesser General Public License for more details.
   
   Cite this work as:
   * C. Bannwarth, E. Caldeweyher, S. Ehlert, A. Hansen, P. Pracht,
     J. Seibert, S. Spicher, S. Grimme, WIREs Comput. Mol. Sci., 2020, 11,
     e01493. DOI: 10.1002/wcms.1493
   
   for GFN2-xTB:
   * C. Bannwarth, S. Ehlert and S. Grimme., J. Chem. Theory Comput., 2019,
     15, 1652-1671. DOI: 10.1021/acs.jctc.8b01176
   for GFN1-xTB:
   * S. Grimme, C. Bannwarth, P. Shushkov, J. Chem. Theory Comput., 2017,
     13, 1989-2009. DOI: 10.1021/acs.jctc.7b00118
   for GFN0-xTB:
   * P. Pracht, E. Caldeweyher, S. Ehlert, S. Grimme, ChemRxiv, 2019, preprint.
     DOI: 10.26434/chemrxiv.8326202.v1
   for GFN-FF:
   * S. Spicher and S. Grimme, Angew. Chem. Int. Ed., 2020, 59, 15665-15673.
     DOI: 10.1002/anie.202004239
   
   for ALPB and GBSA implicit solvation:
   * S. Ehlert, M. Stahn, S. Spicher, S. Grimme, J. Chem. Theory Comput.,
     2021, 17, 4250-4261. DOI: 10.1021/acs.jctc.1c00471
   
   for ddCOSMO and CPCM-X implicit solvation:
   * M. Stahn, S. Ehlert, S. Grimme, J. Phys. Chem. A,
     2023, XX, XXXX-XXXX. DOI: 10.1021/acs.jpca.3c04382
   
   for DFT-D4:
   * E. Caldeweyher, C. Bannwarth and S. Grimme, J. Chem. Phys., 2017,
     147, 034112. DOI: 10.1063/1.4993215
   * E. Caldeweyher, S. Ehlert, A. Hansen, H. Neugebauer, S. Spicher,
     C. Bannwarth and S. Grimme, J. Chem. Phys., 2019, 150, 154122.
     DOI: 10.1063/1.5090222
   * E. Caldeweyher, J.-M. Mewes, S. Ehlert and S. Grimme, Phys. Chem. Chem. Phys.
     2020, 22, 8499-8512. DOI: 10.1039/D0CP00502A
   
   for sTDA-xTB:
   * S. Grimme and C. Bannwarth, J. Chem. Phys., 2016, 145, 054103.
     DOI: 10.1063/1.4959605
   
   in the mass-spec context:
   * V. Asgeirsson, C. Bauer and S. Grimme, Chem. Sci., 2017, 8, 4879.
     DOI: 10.1039/c7sc00601b
   * J. Koopman and S. Grimme, ACS Omega 2019, 4, 12, 15120-15133.
     DOI: 10.1021/acsomega.9b02011
   
   for metadynamics refer to:
   * S. Grimme, J. Chem. Theory Comput., 2019, 155, 2847-2862
     DOI: 10.1021/acs.jctc.9b00143
   
   for SPH calculations refer to:
   * S. Spicher and S. Grimme, J. Chem. Theory Comput., 2021, 17, 1701-1714
     DOI: 10.1021/acs.jctc.0c01306
   
   for ONIOM refer to:
   * C. Plett, A. Katbashev, S. Ehlert, S. Grimme, M. Bursch,
     Phys. Chem. Chem. Phys., 2023, 25, 17860-17868. DOI: 10.1039/D3CP02178E
   
   for DIPRO refer to:
   * J. Kohn, N. Gildemeister, S. Grimme, D. Fazzi, A. Hansen,
     J. Chem. Phys., 2023, just accepted.
   
   for PTB refer to:
   * S. Grimme, M. Mueller, A. Hansen, J. Chem. Phys., 2023, 158, 124111.
     DOI: 10.1063/5.0137838
   
   with help from (in alphabetical order)
   P. Atkinson, C. Bannwarth, F. Bohle, G. Brandenburg, E. Caldeweyher
   M. Checinski, S. Dohm, S. Ehlert, S. Ehrlich, I. Gerasimov, C. Hölzer
   A. Katbashev, J. Kohn, J. Koopman, C. Lavigne, S. Lehtola, F. März, M. Müller,
   F. Musil, H. Neugebauer, J. Pisarek, C. Plett, P. Pracht, F. Pultar,
   J. Seibert, P. Shushkov, S. Spicher, M. Stahn, M. Steiner, T. Strunk,
   J. Stückrath, T. Rose, and J. Unsleber
   
 * started run on 2026/02/18 at 13:00:38.116     
   ID    Z sym.   atoms
    1    6 C      1-5
    2    8 O      6-8
    3    1 H      9-17

           -------------------------------------------------
          |                Calculation Setup                |
           -------------------------------------------------

          program call               : /apps/eb/ORCA/6.1.1-gompi-2024a-avx2/bin/otool_xtb goat_XTB.xyz --grad -c 0 -u 1 -P 8 --namespace goat --input goat_XTB.input.tmp --acc 0.200000
          hostname                   : ra2-19
          calculation namespace      : goat
          coordinate file            : goat_XTB.xyz
          omp threads                :                     8


           -------------------------------------------------
          |                 G F N 2 - x T B                 |
           -------------------------------------------------

        Reference                      10.1021/acs.jctc.8b01176
      * Hamiltonian:
        H0-scaling (s, p, d)           1.850000    2.230000    2.230000
        zeta-weighting                 0.500000
      * Dispersion:
        s8                             2.700000
        a1                             0.520000
        a2                             5.000000
        s9                             5.000000
      * Repulsion:
        kExp                           1.500000    1.000000
        rExp                           1.000000
      * Coulomb:
        alpha                          2.000000
        third order                    shell-resolved
        anisotropic                    true
        a3                             3.000000
        a5                             4.000000
        cn-shift                       1.200000
        cn-exp                         4.000000
        max-rad                        5.000000


          ...................................................
          :                      SETUP                      :
          :.................................................:
          :  # basis functions                  41          :
          :  # atomic orbitals                  41          :
          :  # shells                           25          :
          :  # electrons                        47          :
          :  max. iterations                   250          :
          :  Hamiltonian                  GFN2-xTB          :
          :  restarted?                      false          :
          :  GBSA solvation                  false          :
          :  PC potential                    false          :
          :  electronic temp.          300.0000000     K    :
          :  accuracy                    0.2000000          :
          :  -> integral cutoff          0.3198970E+02      :
          :  -> integral neglect         0.2000000E-08      :
          :  -> SCF convergence          0.2000000E-06 Eh   :
          :  -> wf. convergence          0.2000000E-04 e    :
          :  Broyden damping             0.4000000          :
          :  net charge                          0          :
          :  unpaired electrons                  1          :
          ...................................................

 iter      E             dE          RMSdq      gap      omega  full diag
   1    -27.4948875 -0.274949E+02  0.402E+00    4.24       0.0  T
   2    -27.5245106 -0.296231E-01  0.226E+00    4.04       1.0  T
   3    -27.5237802  0.730479E-03  0.870E-01    3.97       1.0  T
   4    -27.5268477 -0.306756E-02  0.229E-01    3.61       1.0  T
   5    -27.5272899 -0.442237E-03  0.833E-02    3.68       1.0  T
   6    -27.5273019 -0.119046E-04  0.400E-02    3.71       1.0  T
   7    -27.5273064 -0.459099E-05  0.911E-03    3.72       2.7  T
   8    -27.5273066 -0.146517E-06  0.257E-03    3.71       9.4  T
   9    -27.5273066 -0.853419E-08  0.100E-03    3.71      24.2  T
  10    -27.5273066 -0.169529E-08  0.268E-04    3.71      90.4  T
  11    -27.5273066 -0.239410E-09  0.823E-05    3.71     294.5  T
  12    -27.5273066 -0.120686E-10  0.275E-05    3.71     883.0  T

   *** convergence criteria satisfied after 12 iterations ***

         #    Occupation            Energy/Eh            Energy/eV
      -------------------------------------------------------------
         1        2.0000           -0.7352301             -20.0066
       ...           ...                  ...                  ...
        18        2.0000           -0.4807233             -13.0811
        19        2.0000           -0.4682627             -12.7421
        20        2.0000           -0.4637635             -12.6196
        21        2.0000           -0.4484231             -12.2022
        22        2.0000           -0.4397654             -11.9666
        23        2.0000           -0.4319576             -11.7542
        24        1.0000           -0.3295169              -8.9666 (HOMO)
        25                         -0.1931247              -5.2552 (LUMO)
        26                         -0.1066221              -2.9013
        27                         -0.0248073              -0.6750
        28                          0.0347275               0.9450
        29                          0.0694850               1.8908
       ...                                ...                  ...
        41                          0.3325234               9.0484
      -------------------------------------------------------------
                  HL-Gap            0.1363922 Eh            3.7114 eV
             Fermi-level           -0.3210290 Eh           -8.7356 eV

 SCC (total)                   0 d,  0 h,  0 min,  0.024 sec
 SCC setup                      ...        0 min,  0.002 sec (  8.740%)
 Dispersion                     ...        0 min,  0.000 sec (  1.780%)
 classical contributions        ...        0 min,  0.000 sec (  0.165%)
 integral evaluation            ...        0 min,  0.002 sec (  7.674%)
 iterations                     ...        0 min,  0.016 sec ( 68.854%)
 molecular gradient             ...        0 min,  0.002 sec (  9.391%)
 printout                       ...        0 min,  0.001 sec (  3.240%)

         :::::::::::::::::::::::::::::::::::::::::::::::::::::
         ::                     SUMMARY                     ::
         :::::::::::::::::::::::::::::::::::::::::::::::::::::
         :: total energy             -27.293924350424 Eh    ::
         :: gradient norm              0.088409982488 Eh/a0 ::
         :: HOMO-LUMO gap              3.711421617119 eV    ::
         ::.................................................::
         :: SCC energy               -27.527268080384 Eh    ::
         :: -> isotropic ES            0.050696740361 Eh    ::
         :: -> anisotropic ES         -0.003061821685 Eh    ::
         :: -> anisotropic XC         -0.000402929753 Eh    ::
         :: -> dispersion             -0.010428025388 Eh    ::
         :: repulsion energy           0.233343729960 Eh    ::
         :: add. restraining           0.000000000000 Eh    ::
         :: total charge               0.000000000000 e     ::
         :::::::::::::::::::::::::::::::::::::::::::::::::::::


Property printout bound to 'properties.out'

           -------------------------------------------------
          | TOTAL ENERGY              -27.293924350424 Eh   |
          | GRADIENT NORM               0.088409982488 Eh/α |
          | HOMO-LUMO GAP               3.711421617119 eV   |
           -------------------------------------------------

------------------------------------------------------------------------
 * finished run on 2026/02/18 at 13:00:38.171     
------------------------------------------------------------------------
 total:
 * wall-time:     0 d,  0 h,  0 min,  0.053 sec
 *  cpu-time:     0 d,  0 h,  0 min,  0.325 sec
 * ratio c/w:     6.124 speedup
 SCF:
 * wall-time:     0 d,  0 h,  0 min,  0.024 sec
 *  cpu-time:     0 d,  0 h,  0 min,  0.168 sec
 * ratio c/w:     6.895 speedup


-------------------------   --------------------
FINAL SINGLE POINT ENERGY       -27.293924350420
-------------------------   --------------------


-------------
DIPOLE MOMENT
-------------
                                X             Y             Z
Total Dipole Moment    :      0.74100      -0.44200      -1.15700
                        -----------------------------------------
Magnitude (a.u.)       :      1.44329
Magnitude (Debye)      :      3.66856


------------------
CARTESIAN GRADIENT
------------------

   1   C   :    0.000702212   -0.003298436   -0.008760946
   2   C   :   -0.004909195    0.002570372   -0.006987120
   3   C   :   -0.009317090   -0.003754737    0.010951178
   4   C   :    0.003304876   -0.017067564   -0.002729623
   5   C   :    0.022871433    0.008974790   -0.013403893
   6   O   :    0.005174088    0.015357499    0.025395279
   7   O   :    0.020757056    0.004666958    0.040385588
   8   O   :   -0.032183402    0.006318166   -0.042278064
   9   H   :   -0.005817303   -0.001483951   -0.006734675
  10   H   :   -0.003458416    0.000545829    0.007887532
  11   H   :    0.002501372    0.003106637    0.003518804
  12   H   :    0.004745130   -0.000423842   -0.001012206
  13   H   :    0.000328240   -0.004236311    0.001379605
  14   H   :    0.001341832   -0.000490014   -0.000345867
  15   H   :    0.001948967   -0.000055681   -0.001311400
  16   H   :   -0.008216322   -0.000398203    0.002163077
  17   H   :    0.000226522   -0.010331512   -0.008117269

Difference to translation invariance:
           :   -0.0000000000    0.0000000000    0.0000000000

Difference to rotation invariance:
           :   -0.0000000706    0.0000000895   -0.0000002061

Norm of the Cartesian gradient     ...    0.0884099825
RMS gradient                       ...    0.0123798738
MAX gradient                       ...    0.0422780644
------------------------------------------------------------------------------
                         ORCA GEOMETRY RELAXATION STEP
------------------------------------------------------------------------------

Reading the OPT-File                    .... done
Getting information on internals        .... done
Copying old internal coords+grads       .... done
Making the new internal coordinates     .... (2022 redundants) done
Validating the new internal coordinates .... (2022 redundants) done
Calculating the B-matrix                .... done
Calculating the G,G- and P matrices     .... done
Transforming gradient to internals      .... done
Projecting the internal gradient        .... done
Number of atoms                         ....  17
Number of internal coordinates          ....  78
Current Energy                          ....   -27.293924350 Eh
Current gradient norm                   ....     0.088409982 Eh/bohr
Maximum allowed component of the step   ....  0.300
Current trust radius                    ....  0.300
Evaluating the initial hessian          ....  (Almloef) done
Projecting the Hessian                  .... done
Forming the augmented Hessian           .... done
Diagonalizing the augmented Hessian     .... done
Last element of RFO vector              ....  0.957175267
Lowest eigenvalues of augmented Hessian:
 -0.013794780  0.011821293  0.011865414  0.013705277  0.016534806
Length of the computed step             ....  0.302461935
Warning: the length of the step is outside the trust region - taking restricted step instead
The input lambda is                     ....     0.010505
   iter:   5  x=    0.001918  g=  140.646535 f(x)=     0.500018
   iter:  10  x=   -0.014175  g=    3.857359 f(x)=     0.000369
The output lambda is                    ....    -0.014176 (13 iterations)
The final length of the internal step   ....  0.300000000
Converting the step to Cartesian space:
 Initial RMS(Int)=    0.0339683110
Transforming coordinates:
 Iter   0:  RMS(Cart)=    0.0533405409 RMS(Int)=    0.0338654383
 Iter   5:  RMS(Cart)=    0.0000018607 RMS(Int)=    0.0000016116
done
Storing new coordinates                 .... done

                                .--------------------.
          ----------------------|Geometry convergence|-------------------------
          Item                value                   Tolerance       Converged
          ---------------------------------------------------------------------
          RMS gradient        0.0077731620            0.0001000000      NO
          MAX gradient        0.0352152716            0.0003000000      NO
          RMS step            0.0339683110            0.0020000000      NO
          MAX step            0.1262250885            0.0040000000      NO
          -------------------------------------------------------------------------
          ........................................................
          Max(Bonds)      0.0396      Max(Angles)    3.76
          Max(Dihed)        7.23      Max(Improp)    0.00
          ---------------------------------------------------------------------

    ---------------------------------------------------------------------------
                         Redundant Internal Coordinates
                            (Angstroem and degrees)

        Definition                    Value    dE/dq     Step     New-Value
    ----------------------------------------------------------------------------
     1. B(C   2,C   1)                1.5211 -0.000065  0.0001    1.5212   
     2. B(C   3,C   0)                1.4563  0.009089 -0.0095    1.4467   
     3. B(C   4,C   3)                1.5200  0.011276 -0.0122    1.5078   
     4. B(C   4,C   2)                1.5011 -0.005593  0.0069    1.5080   
     5. B(O   6,C   4)                1.4304  0.025400 -0.0305    1.3999   
     6. B(O   6,C   3)                1.4362  0.022778 -0.0237    1.4125   
     7. B(O   7,C   4)                1.4455  0.035215 -0.0396    1.4059   
     8. B(O   7,O   5)                1.4561  0.011829 -0.0154    1.4407   
     9. B(H   8,C   0)                1.0825  0.008460 -0.0116    1.0709   
    10. B(H   9,C   0)                1.0838  0.007807 -0.0108    1.0730   
    11. B(H  10,C   1)                1.0949  0.004992 -0.0072    1.0877   
    12. B(H  11,C   1)                1.0947  0.004566 -0.0066    1.0882   
    13. B(H  12,C   1)                1.0942  0.004335 -0.0062    1.0880   
    14. B(H  13,C   2)                1.0963  0.000456 -0.0007    1.0956   
    15. B(H  14,C   2)                1.0965  0.000925 -0.0013    1.0951   
    16. B(H  15,C   3)                1.0845 -0.003756  0.0052    1.0897   
    17. B(H  16,O   5)                0.9720  0.003336 -0.0035    0.9686   
    18. A(C   3,C   0,H   8)          120.49  0.003366   -0.60    119.88   
    19. A(C   3,C   0,H   9)          119.70 -0.002400    0.33    120.03   
    20. A(H   8,C   0,H   9)          119.69 -0.000870    0.09    119.78   
    21. A(H  11,C   1,H  12)          107.83 -0.001445    0.31    108.14   
    22. A(C   2,C   1,H  12)          111.58  0.000564   -0.14    111.44   
    23. A(H  10,C   1,H  12)          108.11 -0.000404   -0.05    108.06   
    24. A(H  10,C   1,H  11)          107.94 -0.002048    0.44    108.38   
    25. A(C   2,C   1,H  11)          110.13  0.001639   -0.23    109.90   
    26. A(C   2,C   1,H  10)          111.12  0.001488   -0.29    110.83   
    27. A(C   1,C   2,H  14)          107.92 -0.003968    0.58    108.50   
    28. A(C   4,C   2,H  13)          108.59 -0.001281    0.09    108.68   
    29. A(C   4,C   2,H  14)          109.05  0.001633   -0.24    108.81   
    30. A(C   1,C   2,H  13)          109.18 -0.003363    0.51    109.68   
    31. A(C   1,C   2,C   4)          115.29  0.007457   -1.23    114.06   
    32. A(H  13,C   2,H  14)          106.47 -0.001080    0.42    106.88   
    33. A(C   4,C   3,H  15)          117.59  0.004236   -1.15    116.45   
    34. A(C   0,C   3,H  15)          113.15 -0.004751    1.19    114.33   
    35. A(O   6,C   3,H  15)          116.12  0.000771   -0.23    115.89   
    36. A(C   4,C   3,O   6)           57.79  0.003886   -0.61     57.18   
    37. A(C   0,C   3,C   4)          120.10 -0.002404    0.90    121.00   
    38. A(C   0,C   3,O   6)          121.50  0.003054   -1.15    120.35   
    39. A(C   3,C   4,O   6)           58.17  0.002325   -0.17     57.99   
    40. A(C   2,C   4,O   6)          117.12 -0.004734    0.88    117.99   
    41. A(C   2,C   4,C   3)          120.81 -0.003202    0.80    121.61   
    42. A(O   6,C   4,O   7)          121.09  0.009293   -2.85    118.24   
    43. A(C   3,C   4,O   7)          113.07 -0.001070    1.38    114.45   
    44. A(C   2,C   4,O   7)          114.92 -0.001314    0.13    115.04   
    45. A(O   7,O   5,H  16)           96.24 -0.023118    3.76    100.00   
    46. A(C   3,O   6,C   4)           64.04 -0.006211    0.78     64.82   
    47. A(C   4,O   7,O   5)          105.72 -0.022888    3.39    109.11   
    48. D(H  13,C   2,C   1,H  10)    177.87 -0.001060    0.55    178.42   
    49. D(H  13,C   2,C   1,H  11)     58.32 -0.000524    0.33     58.65   
    50. D(C   4,C   2,C   1,H  12)     61.12  0.000841   -0.17     60.95   
    51. D(C   4,C   2,C   1,H  10)    -59.61 -0.000056    0.19    -59.43   
    52. D(C   4,C   2,C   1,H  11)   -179.16  0.000481   -0.03   -179.19   
    53. D(H  13,C   2,C   1,H  12)    -61.40 -0.000164    0.19    -61.20   
    54. D(C   4,C   3,C   0,H   8)     91.05 -0.004146    3.12     94.17   
    55. D(O   6,C   3,C   0,H   9)    -16.50 -0.000768    5.38    -11.12   
    56. D(O   6,C   3,C   0,H   8)    159.50  0.000778    2.32    161.82   
    57. D(H  15,C   3,C   0,H   8)    -55.06 -0.000728    1.97    -53.09   
    58. D(C   4,C   3,C   0,H   9)    -84.95 -0.005691    6.19    -78.76   
    59. D(C   3,C   4,C   2,H  14)    175.00 -0.001172    1.06    176.06   
    60. D(C   3,C   4,C   2,H  13)     59.37 -0.000072    0.65     60.02   
    61. D(O   6,C   4,C   2,C   1)      3.92 -0.000150    1.19      5.12   
    62. D(C   3,C   4,C   2,C   1)    -63.46  0.000080    0.78    -62.68   
    63. D(O   6,C   4,C   3,H  15)   -104.94 -0.000233   -0.07   -105.02   
    64. D(O   6,C   4,C   3,C   0)    110.40  0.006386   -2.08    108.33   
    65. D(C   2,C   4,C   3,H  15)     -0.20 -0.003596    0.57      0.36   
    66. D(C   2,C   4,C   3,O   6)    104.74 -0.003364    0.64    105.38   
    67. D(C   2,C   4,C   3,C   0)   -144.86  0.003023   -1.44   -146.29   
    68. D(O   6,C   4,C   2,H  14)   -117.62 -0.001402    1.47   -116.15   
    69. D(O   7,C   4,C   3,C   0)     -2.95 -0.005685    2.04     -0.90   
    70. D(O   6,C   4,C   2,H  13)    126.75 -0.000302    1.06    127.82   
    71. D(C   3,O   6,C   4,O   7)     99.45 -0.005107    3.19    102.64   
    72. D(C   3,O   6,C   4,C   2)   -111.06  0.000962   -0.51   -111.57   
    73. D(C   4,O   6,C   3,H  15)    107.51  0.006018   -1.48    106.03   
    74. D(C   4,O   6,C   3,C   0)   -108.01  0.002738   -1.40   -109.41   
    75. D(C   4,O   7,O   5,H  16)    112.17 -0.003242    7.23    119.40   
    76. D(O   5,O   7,C   4,O   6)     66.51 -0.001189    1.65     68.16   
    77. D(O   5,O   7,C   4,C   3)    132.14  0.002867    1.54    133.68   
    78. D(O   5,O   7,C   4,C   2)    -83.61 -0.006065    5.03    -78.58   
    ----------------------------------------------------------------------------

Geometry step timings:
Preparation and reading OPT file:      0.000 s ( 0.790 %)
Internal coordinates            :      0.000 s ( 0.966 %)
B/P matrices and projection     :      0.001 s (19.245 %)
Hessian update/contruction      :      0.001 s (19.048 %)
Making the step                 :      0.002 s (39.522 %)
Converting the step to Cartesian:      0.000 s ( 2.655 %)
Storing new data                :      0.000 s ( 1.053 %)
Checking convergence            :      0.000 s ( 1.163 %)
Final printing                  :      0.001 s (15.558 %)
Total time                      :      0.005 s

Time for energy+gradient        :      0.077 s
Time for complete geometry iter :      0.083 s

         *************************************************************
         *                GEOMETRY OPTIMIZATION CYCLE   2            *
         *************************************************************
---------------------------------
CARTESIAN COORDINATES (ANGSTROEM)
---------------------------------
  C    -2.424983   -1.108339    0.495051
  C     2.152505   -0.288748    0.111028
  C     1.014453    0.158035   -0.794162
  C    -0.984938   -0.969553    0.493847
  C    -0.322656    0.246445   -0.102441
  O    -0.845942    2.503396   -0.207114
  O    -0.362784    0.026274    1.279462
  O    -1.214473    1.183760   -0.652592
  H    -2.909613   -1.644577   -0.295105
  H    -3.014262   -0.581447    1.220663
  H     2.275002    0.397693    0.945803
  H     3.083982   -0.315375   -0.450860
  H     1.972323   -1.282623    0.515359
  H     0.925891   -0.529694   -1.642413
  H     1.264201    1.141274   -1.206700
  H    -0.443318   -1.910769    0.402787
  H    -0.662242    2.923766   -1.060144

----------------------------
CARTESIAN COORDINATES (A.U.)
----------------------------
  NO LB    ZA    FRAG    MASS        X           Y           Z
   0 C   6.0000    1    12.011   -4.582555   -2.094458    0.935511
   1 C   6.0000    1    12.011    4.067645   -0.545655    0.209812
   2 C   6.0000    1    12.011    1.917039    0.298643   -1.500750
   3 C   6.0000    1    12.011   -1.861263   -1.832190    0.933236
   4 C   6.0000    1    12.011   -0.609731    0.465714   -0.193585
   5 O   8.0000    1    15.999   -1.598599    4.730734   -0.391388
   6 O   8.0000    1    15.999   -0.685562    0.049651    2.417833
   7 O   8.0000    1    15.999   -2.295022    2.236982   -1.233220
   8 H   1.0000    1     1.008   -5.498371   -3.107800   -0.557667
   9 H   1.0000    1     1.008   -5.696130   -1.098775    2.306719
  10 H   1.0000    1     1.008    4.299132    0.751530    1.787309
  11 H   1.0000    1     1.008    5.827881   -0.595972   -0.852001
  12 H   1.0000    1     1.008    3.727150   -2.423807    0.973887
  13 H   1.0000    1     1.008    1.749680   -1.000976   -3.103712
  14 H   1.0000    1     1.008    2.388994    2.156696   -2.280333
  15 H   1.0000    1     1.008   -0.837750   -3.610830    0.761158
  16 H   1.0000    1     1.008   -1.251457    5.525117   -2.003381

      -----------------------------------------------------------      
     |                   =====================                   |     
     |                           x T B                           |     
     |                   =====================                   |     
     |                         S. Grimme                         |     
     |          Mulliken Center for Theoretical Chemistry        |     
     |                    University of Bonn                     |     
      -----------------------------------------------------------      

   * xtb version 6.7.1 (edcfbbe) compiled by 'albert@albert-system' on 2024-07-22

   xtb is free software: you can redistribute it and/or modify it under
   the terms of the GNU Lesser General Public License as published by
   the Free Software Foundation, either version 3 of the License, or
   (at your option) any later version.
   
   xtb is distributed in the hope that it will be useful,
   but WITHOUT ANY WARRANTY; without even the implied warranty of
   MERCHANTABILITY or FITNESS FOR A PARTICULAR PURPOSE.  See the
   GNU Lesser General Public License for more details.
   
   Cite this work as:
   * C. Bannwarth, E. Caldeweyher, S. Ehlert, A. Hansen, P. Pracht,
     J. Seibert, S. Spicher, S. Grimme, WIREs Comput. Mol. Sci., 2020, 11,
     e01493. DOI: 10.1002/wcms.1493
   
   for GFN2-xTB:
   * C. Bannwarth, S. Ehlert and S. Grimme., J. Chem. Theory Comput., 2019,
     15, 1652-1671. DOI: 10.1021/acs.jctc.8b01176
   for GFN1-xTB:
   * S. Grimme, C. Bannwarth, P. Shushkov, J. Chem. Theory Comput., 2017,
     13, 1989-2009. DOI: 10.1021/acs.jctc.7b00118
   for GFN0-xTB:
   * P. Pracht, E. Caldeweyher, S. Ehlert, S. Grimme, ChemRxiv, 2019, preprint.
     DOI: 10.26434/chemrxiv.8326202.v1
   for GFN-FF:
   * S. Spicher and S. Grimme, Angew. Chem. Int. Ed., 2020, 59, 15665-15673.
     DOI: 10.1002/anie.202004239
   
   for ALPB and GBSA implicit solvation:
   * S. Ehlert, M. Stahn, S. Spicher, S. Grimme, J. Chem. Theory Comput.,
     2021, 17, 4250-4261. DOI: 10.1021/acs.jctc.1c00471
   
   for ddCOSMO and CPCM-X implicit solvation:
   * M. Stahn, S. Ehlert, S. Grimme, J. Phys. Chem. A,
     2023, XX, XXXX-XXXX. DOI: 10.1021/acs.jpca.3c04382
   
   for DFT-D4:
   * E. Caldeweyher, C. Bannwarth and S. Grimme, J. Chem. Phys., 2017,
     147, 034112. DOI: 10.1063/1.4993215
   * E. Caldeweyher, S. Ehlert, A. Hansen, H. Neugebauer, S. Spicher,
     C. Bannwarth and S. Grimme, J. Chem. Phys., 2019, 150, 154122.
     DOI: 10.1063/1.5090222
   * E. Caldeweyher, J.-M. Mewes, S. Ehlert and S. Grimme, Phys. Chem. Chem. Phys.
     2020, 22, 8499-8512. DOI: 10.1039/D0CP00502A
   
   for sTDA-xTB:
   * S. Grimme and C. Bannwarth, J. Chem. Phys., 2016, 145, 054103.
     DOI: 10.1063/1.4959605
   
   in the mass-spec context:
   * V. Asgeirsson, C. Bauer and S. Grimme, Chem. Sci., 2017, 8, 4879.
     DOI: 10.1039/c7sc00601b
   * J. Koopman and S. Grimme, ACS Omega 2019, 4, 12, 15120-15133.
     DOI: 10.1021/acsomega.9b02011
   
   for metadynamics refer to:
   * S. Grimme, J. Chem. Theory Comput., 2019, 155, 2847-2862
     DOI: 10.1021/acs.jctc.9b00143
   
   for SPH calculations refer to:
   * S. Spicher and S. Grimme, J. Chem. Theory Comput., 2021, 17, 1701-1714
     DOI: 10.1021/acs.jctc.0c01306
   
   for ONIOM refer to:
   * C. Plett, A. Katbashev, S. Ehlert, S. Grimme, M. Bursch,
     Phys. Chem. Chem. Phys., 2023, 25, 17860-17868. DOI: 10.1039/D3CP02178E
   
   for DIPRO refer to:
   * J. Kohn, N. Gildemeister, S. Grimme, D. Fazzi, A. Hansen,
     J. Chem. Phys., 2023, just accepted.
   
   for PTB refer to:
   * S. Grimme, M. Mueller, A. Hansen, J. Chem. Phys., 2023, 158, 124111.
     DOI: 10.1063/5.0137838
   
   with help from (in alphabetical order)
   P. Atkinson, C. Bannwarth, F. Bohle, G. Brandenburg, E. Caldeweyher
   M. Checinski, S. Dohm, S. Ehlert, S. Ehrlich, I. Gerasimov, C. Hölzer
   A. Katbashev, J. Kohn, J. Koopman, C. Lavigne, S. Lehtola, F. März, M. Müller,
   F. Musil, H. Neugebauer, J. Pisarek, C. Plett, P. Pracht, F. Pultar,
   J. Seibert, P. Shushkov, S. Spicher, M. Stahn, M. Steiner, T. Strunk,
   J. Stückrath, T. Rose, and J. Unsleber
   
 * started run on 2026/02/18 at 13:00:38.199     
   ID    Z sym.   atoms
    1    6 C      1-5
    2    8 O      6-8
    3    1 H      9-17

           -------------------------------------------------
          |                Calculation Setup                |
           -------------------------------------------------

          program call               : /apps/eb/ORCA/6.1.1-gompi-2024a-avx2/bin/otool_xtb goat_XTB.xyz --grad -c 0 -u 1 -P 8 --namespace goat --input goat_XTB.input.tmp --acc 0.200000
          hostname                   : ra2-19
          calculation namespace      : goat
          coordinate file            : goat_XTB.xyz
          omp threads                :                     8


           -------------------------------------------------
          |                 G F N 2 - x T B                 |
           -------------------------------------------------

        Reference                      10.1021/acs.jctc.8b01176
      * Hamiltonian:
        H0-scaling (s, p, d)           1.850000    2.230000    2.230000
        zeta-weighting                 0.500000
      * Dispersion:
        s8                             2.700000
        a1                             0.520000
        a2                             5.000000
        s9                             5.000000
      * Repulsion:
        kExp                           1.500000    1.000000
        rExp                           1.000000
      * Coulomb:
        alpha                          2.000000
        third order                    shell-resolved
        anisotropic                    true
        a3                             3.000000
        a5                             4.000000
        cn-shift                       1.200000
        cn-exp                         4.000000
        max-rad                        5.000000

q/qsh data taken from xtbrestart
CAMM data taken from xtbrestart

          ...................................................
          :                      SETUP                      :
          :.................................................:
          :  # basis functions                  41          :
          :  # atomic orbitals                  41          :
          :  # shells                           25          :
          :  # electrons                        47          :
          :  max. iterations                   250          :
          :  Hamiltonian                  GFN2-xTB          :
          :  restarted?                       true          :
          :  GBSA solvation                  false          :
          :  PC potential                    false          :
          :  electronic temp.          300.0000000     K    :
          :  accuracy                    0.2000000          :
          :  -> integral cutoff          0.3198970E+02      :
          :  -> integral neglect         0.2000000E-08      :
          :  -> SCF convergence          0.2000000E-06 Eh   :
          :  -> wf. convergence          0.2000000E-04 e    :
          :  Broyden damping             0.4000000          :
          :  net charge                          0          :
          :  unpaired electrons                  1          :
          ...................................................

 iter      E             dE          RMSdq      gap      omega  full diag
   1    -27.5500022 -0.275500E+02  0.374E-01    4.01       0.0  T
   2    -27.5501334 -0.131252E-03  0.227E-01    3.96       1.0  T
   3    -27.5500936  0.398244E-04  0.849E-02    3.99       1.0  T
   4    -27.5501669 -0.733331E-04  0.157E-02    3.96       1.5  T
   5    -27.5501676 -0.629527E-06  0.906E-03    3.97       2.7  T
   6    -27.5501678 -0.191492E-06  0.403E-03    3.96       6.0  T
   7    -27.5501678 -0.513927E-07  0.121E-03    3.96      20.0  T
   8    -27.5501678 -0.735159E-08  0.687E-04    3.96      35.3  T
   9    -27.5501678 -0.261693E-08  0.291E-04    3.96      83.3  T
  10    -27.5501678 -0.539782E-09  0.823E-05    3.96     294.5  T
  11    -27.5501678 -0.329088E-10  0.259E-05    3.96     935.9  T

   *** convergence criteria satisfied after 11 iterations ***

         #    Occupation            Energy/Eh            Energy/eV
      -------------------------------------------------------------
         1        2.0000           -0.7385565             -20.0971
       ...           ...                  ...                  ...
        18        2.0000           -0.4789075             -13.0317
        19        2.0000           -0.4677140             -12.7271
        20        2.0000           -0.4623523             -12.5812
        21        2.0000           -0.4441089             -12.0848
        22        2.0000           -0.4403601             -11.9828
        23        2.0000           -0.4294919             -11.6871
        24        1.0000           -0.3293828              -8.9630 (HOMO)
        25                         -0.1836949              -4.9986 (LUMO)
        26                         -0.0821957              -2.2367
        27                          0.0232619               0.6330
        28                          0.0601954               1.6380
        29                          0.0828464               2.2544
       ...                                ...                  ...
        41                          0.3563580               9.6970
      -------------------------------------------------------------
                  HL-Gap            0.1456879 Eh            3.9644 eV
             Fermi-level           -0.3179881 Eh           -8.6529 eV

 SCC (total)                   0 d,  0 h,  0 min,  0.020 sec
 SCC setup                      ...        0 min,  0.000 sec (  1.203%)
 Dispersion                     ...        0 min,  0.000 sec (  1.188%)
 classical contributions        ...        0 min,  0.000 sec (  0.596%)
 integral evaluation            ...        0 min,  0.001 sec (  4.246%)
 iterations                     ...        0 min,  0.016 sec ( 78.801%)
 molecular gradient             ...        0 min,  0.002 sec ( 10.808%)
 printout                       ...        0 min,  0.001 sec (  2.998%)

         :::::::::::::::::::::::::::::::::::::::::::::::::::::
         ::                     SUMMARY                     ::
         :::::::::::::::::::::::::::::::::::::::::::::::::::::
         :: total energy             -27.303873876853 Eh    ::
         :: gradient norm              0.036475705334 Eh/a0 ::
         :: HOMO-LUMO gap              3.964368411639 eV    ::
         ::.................................................::
         :: SCC energy               -27.550129828417 Eh    ::
         :: -> isotropic ES            0.050060932532 Eh    ::
         :: -> anisotropic ES         -0.003423237969 Eh    ::
         :: -> anisotropic XC         -0.002526381308 Eh    ::
         :: -> dispersion             -0.010473551520 Eh    ::
         :: repulsion energy           0.246255951564 Eh    ::
         :: add. restraining           0.000000000000 Eh    ::
         :: total charge               0.000000000000 e     ::
         :::::::::::::::::::::::::::::::::::::::::::::::::::::


Property printout bound to 'properties.out'

           -------------------------------------------------
          | TOTAL ENERGY              -27.303873876853 Eh   |
          | GRADIENT NORM               0.036475705334 Eh/α |
          | HOMO-LUMO GAP               3.964368411639 eV   |
           -------------------------------------------------

------------------------------------------------------------------------
 * finished run on 2026/02/18 at 13:00:38.238     
------------------------------------------------------------------------
 total:
 * wall-time:     0 d,  0 h,  0 min,  0.038 sec
 *  cpu-time:     0 d,  0 h,  0 min,  0.211 sec
 * ratio c/w:     5.584 speedup
 SCF:
 * wall-time:     0 d,  0 h,  0 min,  0.020 sec
 *  cpu-time:     0 d,  0 h,  0 min,  0.120 sec
 * ratio c/w:     5.932 speedup


-------------------------   --------------------
FINAL SINGLE POINT ENERGY       -27.303873876850
-------------------------   --------------------


-------------
DIPOLE MOMENT
-------------
                                X             Y             Z
Total Dipole Moment    :      0.63800      -0.37900      -1.17700
                        -----------------------------------------
Magnitude (a.u.)       :      1.39141
Magnitude (Debye)      :      3.53668


------------------
CARTESIAN GRADIENT
------------------

   1   C   :   -0.001621662   -0.002196678   -0.005045141
   2   C   :   -0.002234940    0.001549286   -0.002981841
   3   C   :   -0.006726027   -0.000791567    0.007049769
   4   C   :    0.006001218   -0.005514391   -0.001194306
   5   C   :    0.007767280   -0.002222077   -0.005459581
   6   O   :    0.002245556    0.007741289    0.011318407
   7   O   :    0.007983161    0.003991624    0.013041122
   8   O   :   -0.012422985    0.004939805   -0.017245692
   9   H   :   -0.001162438    0.002591165   -0.001142916
  10   H   :   -0.000293178   -0.001997319    0.002617966
  11   H   :    0.001400526    0.000116907    0.000382465
  12   H   :    0.000793903   -0.000141108    0.000531749
  13   H   :    0.000619332   -0.000440192    0.000209496
  14   H   :    0.000900325   -0.000418859   -0.000269482
  15   H   :    0.001667524   -0.000046685   -0.001257458
  16   H   :   -0.004989500   -0.001758056    0.002646485
  17   H   :    0.000071906   -0.005403145   -0.003201042

Difference to translation invariance:
           :   -0.0000000000    0.0000000000   -0.0000000000

Difference to rotation invariance:
           :   -0.0000001560    0.0000000843   -0.0000000941

Norm of the Cartesian gradient     ...    0.0364757053
RMS gradient                       ...    0.0051076204
MAX gradient                       ...    0.0172456915
------------------------------------------------------------------------------
                         ORCA GEOMETRY RELAXATION STEP
------------------------------------------------------------------------------

Reading the OPT-File                    .... done
Getting information on internals        .... done
Copying old internal coords+grads       .... done
Making the new internal coordinates     .... (2022 redundants) done
Validating the new internal coordinates .... (2022 redundants) done
Calculating the B-matrix                .... done
Calculating the G,G- and P matrices     .... done
Transforming gradient to internals      .... done
Projecting the internal gradient        .... done
Number of atoms                         ....  17
Number of internal coordinates          ....  78
Current Energy                          ....   -27.303873877 Eh
Current gradient norm                   ....     0.036475705 Eh/bohr
Maximum allowed component of the step   ....  0.300
Current trust radius                    ....  0.300
Updating the Hessian (BFGS)             .... done
Forming the augmented Hessian           .... done
Diagonalizing the augmented Hessian     .... done
Last element of RFO vector              ....  0.925128268
Lowest eigenvalues of augmented Hessian:
 -0.006115875  0.011810800  0.011872761  0.013716043  0.016508262
Length of the computed step             ....  0.410380601
Warning: the length of the step is outside the trust region - taking restricted step instead
The input lambda is                     ....     0.010228
   iter:   5  x=    0.001684  g=  235.150839 f(x)=     0.814155
   iter:  10  x=   -0.014388  g=    5.668210 f(x)=     0.000874
The output lambda is                    ....    -0.014389 (13 iterations)
The final length of the internal step   ....  0.300000000
Converting the step to Cartesian space:
 Initial RMS(Int)=    0.0339683110
Transforming coordinates:
 Iter   0:  RMS(Cart)=    0.0581525775 RMS(Int)=    0.0339615308
 Iter   5:  RMS(Cart)=    0.0000013953 RMS(Int)=    0.0000012293
done
Storing new coordinates                 .... done
The predicted energy change is          ....    -0.003198716
Previously predicted energy change      ....    -0.007518015
Actually observed energy change         ....    -0.009949526
Ratio of predicted to observed change   ....     1.323424698
New trust radius                        ....     0.300000000

                                .--------------------.
          ----------------------|Geometry convergence|-------------------------
          Item                value                   Tolerance       Converged
          ---------------------------------------------------------------------
          Energy change      -0.0099495264            0.0000050000      NO
          RMS gradient        0.0031924103            0.0001000000      NO
          MAX gradient        0.0148345712            0.0003000000      NO
          RMS step            0.0339683110            0.0020000000      NO
          MAX step            0.1222130117            0.0040000000      NO
          -------------------------------------------------------------------------
          ........................................................
          Max(Bonds)      0.0295      Max(Angles)    3.15
          Max(Dihed)        7.00      Max(Improp)    0.00
          ---------------------------------------------------------------------

    ---------------------------------------------------------------------------
                         Redundant Internal Coordinates
                            (Angstroem and degrees)

        Definition                    Value    dE/dq     Step     New-Value
    ----------------------------------------------------------------------------
     1. B(C   2,C   1)                1.5212 -0.000991  0.0021    1.5233   
     2. B(C   3,C   0)                1.4467  0.003214 -0.0061    1.4406   
     3. B(C   4,C   3)                1.5076  0.003089 -0.0053    1.5022   
     4. B(C   4,C   2)                1.5080 -0.004845  0.0100    1.5181   
     5. B(O   6,C   4)                1.3999  0.008167 -0.0174    1.3825   
     6. B(O   6,C   3)                1.4128  0.008232 -0.0164    1.3964   
     7. B(O   7,C   4)                1.4059  0.014835 -0.0295    1.3764   
     8. B(O   7,O   5)                1.4407  0.005244 -0.0119    1.4288   
     9. B(H   8,C   0)                1.0709  0.000072 -0.0009    1.0700   
    10. B(H   9,C   0)                1.0730  0.000951 -0.0028    1.0702   
    11. B(H  10,C   1)                1.0877  0.000525 -0.0017    1.0860   
    12. B(H  11,C   1)                1.0882  0.000408 -0.0014    1.0868   
    13. B(H  12,C   1)                1.0880  0.000377 -0.0013    1.0867   
    14. B(H  13,C   2)                1.0956  0.000399 -0.0010    1.0946   
    15. B(H  14,C   2)                1.0951  0.000812 -0.0020    1.0932   
    16. B(H  15,C   3)                1.0897 -0.001183  0.0030    1.0927   
    17. B(H  16,O   5)                0.9686  0.000488 -0.0011    0.9675   
    18. A(C   3,C   0,H   8)          119.86  0.001398   -0.46    119.40   
    19. A(C   3,C   0,H   9)          120.01 -0.000612    0.12    120.13   
    20. A(H   8,C   0,H   9)          119.76 -0.000641    0.13    119.89   
    21. A(H  11,C   1,H  12)          108.14 -0.000828    0.30    108.44   
    22. A(C   2,C   1,H  12)          111.44  0.000562   -0.21    111.23   
    23. A(H  10,C   1,H  12)          108.06 -0.000553    0.04    108.09   
    24. A(H  10,C   1,H  11)          108.38 -0.001315    0.48    108.86   
    25. A(C   2,C   1,H  11)          109.90  0.000658   -0.15    109.75   
    26. A(C   2,C   1,H  10)          110.83  0.001352   -0.42    110.41   
    27. A(C   1,C   2,H  14)          108.50 -0.002486    0.62    109.12   
    28. A(C   4,C   2,H  13)          108.68 -0.000551    0.08    108.76   
    29. A(C   4,C   2,H  14)          108.81  0.002042   -0.56    108.24   
    30. A(C   1,C   2,H  13)          109.68 -0.001756    0.50    110.18   
    31. A(C   1,C   2,C   4)          114.05  0.003540   -1.00    113.05   
    32. A(H  13,C   2,H  14)          106.88 -0.001036    0.46    107.34   
    33. A(C   4,C   3,H  15)          116.44  0.003561   -1.77    114.67   
    34. A(C   0,C   3,H  15)          114.33 -0.002983    1.13    115.46   
    35. A(O   6,C   3,H  15)          115.87  0.001264   -0.20    115.68   
    36. A(C   4,C   3,O   6)           57.18  0.001254   -0.33     56.84   
    37. A(C   0,C   3,C   4)          121.00 -0.001310    0.76    121.75   
    38. A(C   0,C   3,O   6)          120.36  0.000789   -0.53    119.84   
    39. A(C   3,C   4,O   6)           58.00  0.001288   -0.27     57.73   
    40. A(C   2,C   4,O   6)          117.97 -0.001974    0.91    118.87   
    41. A(C   2,C   4,C   3)          121.58 -0.001058    0.16    121.73   
    42. A(O   6,C   4,O   7)          118.23  0.003179   -1.32    116.91   
    43. A(C   3,C   4,O   7)          114.45  0.000927   -0.13    114.31   
    44. A(C   2,C   4,O   7)          114.96 -0.001040    0.24    115.20   
    45. A(O   7,O   5,H  16)          100.00 -0.011161    3.15    103.15   
    46. A(C   3,O   6,C   4)           64.82 -0.002541    0.60     65.43   
    47. A(C   4,O   7,O   5)          109.11 -0.008759    2.30    111.42   
    48. D(H  13,C   2,C   1,H  10)    178.42 -0.000643    0.62    179.04   
    49. D(H  13,C   2,C   1,H  11)     58.65 -0.000290    0.39     59.04   
    50. D(C   4,C   2,C   1,H  12)     60.95  0.000402    0.02     60.97   
    51. D(C   4,C   2,C   1,H  10)    -59.43 -0.000191    0.40    -59.03   
    52. D(C   4,C   2,C   1,H  11)   -179.20  0.000161    0.17   -179.03   
    53. D(H  13,C   2,C   1,H  12)    -61.20 -0.000049    0.24    -60.96   
    54. D(C   4,C   3,C   0,H   8)     94.20 -0.002182    4.24     98.44   
    55. D(O   6,C   3,C   0,H   9)    -11.14 -0.002135    6.64     -4.50   
    56. D(O   6,C   3,C   0,H   8)    161.81 -0.000825    3.93    165.74   
    57. D(H  15,C   3,C   0,H   8)    -53.11 -0.001998    4.59    -48.52   
    58. D(C   4,C   3,C   0,H   9)    -78.74 -0.003492    6.95    -71.80   
    59. D(C   3,C   4,C   2,H  14)    176.05 -0.001020    1.45    177.51   
    60. D(C   3,C   4,C   2,H  13)     60.02 -0.000598    1.17     61.19   
    61. D(O   6,C   4,C   2,C   1)      5.12 -0.000008    1.27      6.39   
    62. D(C   3,C   4,C   2,C   1)    -62.68 -0.000352    1.15    -61.53   
    63. D(O   6,C   4,C   3,H  15)   -105.02 -0.000090   -0.55   -105.58   
    64. D(O   6,C   4,C   3,C   0)    108.31  0.002151   -1.15    107.16   
    65. D(C   2,C   4,C   3,H  15)      0.35 -0.001486    0.39      0.74   
    66. D(C   2,C   4,C   3,O   6)    105.37 -0.001396    0.95    106.32   
    67. D(C   2,C   4,C   3,C   0)   -146.31  0.000755   -0.20   -146.52   
    68. D(O   6,C   4,C   2,H  14)   -116.15 -0.000676    1.57   -114.57   
    69. D(O   7,C   4,C   3,C   0)     -0.87 -0.001564    0.43     -0.43   
    70. D(O   6,C   4,C   2,H  13)    127.82 -0.000254    1.29    129.11   
    71. D(C   3,O   6,C   4,O   7)    102.62  0.000032    0.37    102.99   
    72. D(C   3,O   6,C   4,C   2)   -111.55 -0.000036    0.32   -111.24   
    73. D(C   4,O   6,C   3,H  15)    106.02  0.004116   -2.17    103.85   
    74. D(C   4,O   6,C   3,C   0)   -109.41  0.001525   -1.07   -110.48   
    75. D(C   4,O   7,O   5,H  16)    119.40 -0.002564    7.00    126.40   
    76. D(O   5,O   7,C   4,O   6)     68.24 -0.002324    3.54     71.77   
    77. D(O   5,O   7,C   4,C   3)    133.62  0.000336    2.80    136.41   
    78. D(O   5,O   7,C   4,C   2)    -78.59 -0.001890    3.35    -75.24   
    ----------------------------------------------------------------------------

Geometry step timings:
Preparation and reading OPT file:      0.000 s ( 0.678 %)
Internal coordinates            :      0.000 s ( 1.029 %)
B/P matrices and projection     :      0.001 s (22.585 %)
Hessian update/contruction      :      0.001 s (17.240 %)
Making the step                 :      0.001 s (35.006 %)
Converting the step to Cartesian:      0.000 s ( 2.735 %)
Storing new data                :      0.000 s ( 1.079 %)
Checking convergence            :      0.000 s ( 1.556 %)
Final printing                  :      0.001 s (17.992 %)
Total time                      :      0.004 s

Time for energy+gradient        :      0.058 s
Time for complete geometry iter :      0.063 s

         *************************************************************
         *                GEOMETRY OPTIMIZATION CYCLE   3            *
         *************************************************************
---------------------------------
CARTESIAN COORDINATES (ANGSTROEM)
---------------------------------
  C    -2.410847   -1.112286    0.510742
  C     2.147280   -0.317794    0.115119
  C     1.027023    0.166558   -0.796469
  C    -0.978034   -0.963451    0.493395
  C    -0.316270    0.250301   -0.094270
  O    -0.820213    2.507844   -0.240840
  O    -0.372459    0.027138    1.269088
  O    -1.191536    1.178619   -0.610578
  H    -2.885848   -1.704472   -0.243243
  H    -3.004334   -0.514106    1.170524
  H     2.256745    0.347209    0.966715
  H     3.084208   -0.341178   -0.435095
  H     1.944410   -1.316992    0.491193
  H     0.931113   -0.496618   -1.662047
  H     1.278026    1.161155   -1.174341
  H    -0.410625   -1.890756    0.383127
  H    -0.775495    2.968348   -1.090551

----------------------------
CARTESIAN COORDINATES (A.U.)
----------------------------
  NO LB    ZA    FRAG    MASS        X           Y           Z
   0 C   6.0000    1    12.011   -4.555841   -2.101916    0.965162
   1 C   6.0000    1    12.011    4.057771   -0.600543    0.217543
   2 C   6.0000    1    12.011    1.940792    0.314749   -1.505107
   3 C   6.0000    1    12.011   -1.848216   -1.820658    0.932381
   4 C   6.0000    1    12.011   -0.597664    0.473000   -0.178144
   5 O   8.0000    1    15.999   -1.549977    4.739137   -0.455121
   6 O   8.0000    1    15.999   -0.703846    0.051283    2.398229
   7 O   8.0000    1    15.999   -2.251677    2.227268   -1.153825
   8 H   1.0000    1     1.008   -5.453462   -3.220985   -0.459662
   9 H   1.0000    1     1.008   -5.677368   -0.971519    2.211969
  10 H   1.0000    1     1.008    4.264631    0.656130    1.826827
  11 H   1.0000    1     1.008    5.828308   -0.644733   -0.822211
  12 H   1.0000    1     1.008    3.674403   -2.488753    0.928220
  13 H   1.0000    1     1.008    1.759549   -0.938471   -3.140814
  14 H   1.0000    1     1.008    2.415118    2.194264   -2.219183
  15 H   1.0000    1     1.008   -0.775968   -3.573011    0.724006
  16 H   1.0000    1     1.008   -1.465474    5.609364   -2.060842

      -----------------------------------------------------------      
     |                   =====================                   |     
     |                           x T B                           |     
     |                   =====================                   |     
     |                         S. Grimme                         |     
     |          Mulliken Center for Theoretical Chemistry        |     
     |                    University of Bonn                     |     
      -----------------------------------------------------------      

   * xtb version 6.7.1 (edcfbbe) compiled by 'albert@albert-system' on 2024-07-22

   xtb is free software: you can redistribute it and/or modify it under
   the terms of the GNU Lesser General Public License as published by
   the Free Software Foundation, either version 3 of the License, or
   (at your option) any later version.
   
   xtb is distributed in the hope that it will be useful,
   but WITHOUT ANY WARRANTY; without even the implied warranty of
   MERCHANTABILITY or FITNESS FOR A PARTICULAR PURPOSE.  See the
   GNU Lesser General Public License for more details.
   
   Cite this work as:
   * C. Bannwarth, E. Caldeweyher, S. Ehlert, A. Hansen, P. Pracht,
     J. Seibert, S. Spicher, S. Grimme, WIREs Comput. Mol. Sci., 2020, 11,
     e01493. DOI: 10.1002/wcms.1493
   
   for GFN2-xTB:
   * C. Bannwarth, S. Ehlert and S. Grimme., J. Chem. Theory Comput., 2019,
     15, 1652-1671. DOI: 10.1021/acs.jctc.8b01176
   for GFN1-xTB:
   * S. Grimme, C. Bannwarth, P. Shushkov, J. Chem. Theory Comput., 2017,
     13, 1989-2009. DOI: 10.1021/acs.jctc.7b00118
   for GFN0-xTB:
   * P. Pracht, E. Caldeweyher, S. Ehlert, S. Grimme, ChemRxiv, 2019, preprint.
     DOI: 10.26434/chemrxiv.8326202.v1
   for GFN-FF:
   * S. Spicher and S. Grimme, Angew. Chem. Int. Ed., 2020, 59, 15665-15673.
     DOI: 10.1002/anie.202004239
   
   for ALPB and GBSA implicit solvation:
   * S. Ehlert, M. Stahn, S. Spicher, S. Grimme, J. Chem. Theory Comput.,
     2021, 17, 4250-4261. DOI: 10.1021/acs.jctc.1c00471
   
   for ddCOSMO and CPCM-X implicit solvation:
   * M. Stahn, S. Ehlert, S. Grimme, J. Phys. Chem. A,
     2023, XX, XXXX-XXXX. DOI: 10.1021/acs.jpca.3c04382
   
   for DFT-D4:
   * E. Caldeweyher, C. Bannwarth and S. Grimme, J. Chem. Phys., 2017,
     147, 034112. DOI: 10.1063/1.4993215
   * E. Caldeweyher, S. Ehlert, A. Hansen, H. Neugebauer, S. Spicher,
     C. Bannwarth and S. Grimme, J. Chem. Phys., 2019, 150, 154122.
     DOI: 10.1063/1.5090222
   * E. Caldeweyher, J.-M. Mewes, S. Ehlert and S. Grimme, Phys. Chem. Chem. Phys.
     2020, 22, 8499-8512. DOI: 10.1039/D0CP00502A
   
   for sTDA-xTB:
   * S. Grimme and C. Bannwarth, J. Chem. Phys., 2016, 145, 054103.
     DOI: 10.1063/1.4959605
   
   in the mass-spec context:
   * V. Asgeirsson, C. Bauer and S. Grimme, Chem. Sci., 2017, 8, 4879.
     DOI: 10.1039/c7sc00601b
   * J. Koopman and S. Grimme, ACS Omega 2019, 4, 12, 15120-15133.
     DOI: 10.1021/acsomega.9b02011
   
   for metadynamics refer to:
   * S. Grimme, J. Chem. Theory Comput., 2019, 155, 2847-2862
     DOI: 10.1021/acs.jctc.9b00143
   
   for SPH calculations refer to:
   * S. Spicher and S. Grimme, J. Chem. Theory Comput., 2021, 17, 1701-1714
     DOI: 10.1021/acs.jctc.0c01306
   
   for ONIOM refer to:
   * C. Plett, A. Katbashev, S. Ehlert, S. Grimme, M. Bursch,
     Phys. Chem. Chem. Phys., 2023, 25, 17860-17868. DOI: 10.1039/D3CP02178E
   
   for DIPRO refer to:
   * J. Kohn, N. Gildemeister, S. Grimme, D. Fazzi, A. Hansen,
     J. Chem. Phys., 2023, just accepted.
   
   for PTB refer to:
   * S. Grimme, M. Mueller, A. Hansen, J. Chem. Phys., 2023, 158, 124111.
     DOI: 10.1063/5.0137838
   
   with help from (in alphabetical order)
   P. Atkinson, C. Bannwarth, F. Bohle, G. Brandenburg, E. Caldeweyher
   M. Checinski, S. Dohm, S. Ehlert, S. Ehrlich, I. Gerasimov, C. Hölzer
   A. Katbashev, J. Kohn, J. Koopman, C. Lavigne, S. Lehtola, F. März, M. Müller,
   F. Musil, H. Neugebauer, J. Pisarek, C. Plett, P. Pracht, F. Pultar,
   J. Seibert, P. Shushkov, S. Spicher, M. Stahn, M. Steiner, T. Strunk,
   J. Stückrath, T. Rose, and J. Unsleber
   
 * started run on 2026/02/18 at 13:00:38.262     
   ID    Z sym.   atoms
    1    6 C      1-5
    2    8 O      6-8
    3    1 H      9-17

           -------------------------------------------------
          |                Calculation Setup                |
           -------------------------------------------------

          program call               : /apps/eb/ORCA/6.1.1-gompi-2024a-avx2/bin/otool_xtb goat_XTB.xyz --grad -c 0 -u 1 -P 8 --namespace goat --input goat_XTB.input.tmp --acc 0.200000
          hostname                   : ra2-19
          calculation namespace      : goat
          coordinate file            : goat_XTB.xyz
          omp threads                :                     8


           -------------------------------------------------
          |                 G F N 2 - x T B                 |
           -------------------------------------------------

        Reference                      10.1021/acs.jctc.8b01176
      * Hamiltonian:
        H0-scaling (s, p, d)           1.850000    2.230000    2.230000
        zeta-weighting                 0.500000
      * Dispersion:
        s8                             2.700000
        a1                             0.520000
        a2                             5.000000
        s9                             5.000000
      * Repulsion:
        kExp                           1.500000    1.000000
        rExp                           1.000000
      * Coulomb:
        alpha                          2.000000
        third order                    shell-resolved
        anisotropic                    true
        a3                             3.000000
        a5                             4.000000
        cn-shift                       1.200000
        cn-exp                         4.000000
        max-rad                        5.000000

q/qsh data taken from xtbrestart
CAMM data taken from xtbrestart

          ...................................................
          :                      SETUP                      :
          :.................................................:
          :  # basis functions                  41          :
          :  # atomic orbitals                  41          :
          :  # shells                           25          :
          :  # electrons                        47          :
          :  max. iterations                   250          :
          :  Hamiltonian                  GFN2-xTB          :
          :  restarted?                       true          :
          :  GBSA solvation                  false          :
          :  PC potential                    false          :
          :  electronic temp.          300.0000000     K    :
          :  accuracy                    0.2000000          :
          :  -> integral cutoff          0.3198970E+02      :
          :  -> integral neglect         0.2000000E-08      :
          :  -> SCF convergence          0.2000000E-06 Eh   :
          :  -> wf. convergence          0.2000000E-04 e    :
          :  Broyden damping             0.4000000          :
          :  net charge                          0          :
          :  unpaired electrons                  1          :
          ...................................................

 iter      E             dE          RMSdq      gap      omega  full diag
   1    -27.5592531 -0.275593E+02  0.385E-01    4.20       0.0  T
   2    -27.5593352 -0.820805E-04  0.230E-01    4.15       1.0  T
   3    -27.5592978  0.374520E-04  0.662E-02    4.18       1.0  T
   4    -27.5593549 -0.571769E-04  0.125E-02    4.15       1.9  T
   5    -27.5593554 -0.477076E-06  0.681E-03    4.15       3.6  T
   6    -27.5593555 -0.124367E-06  0.339E-03    4.15       7.1  T
   7    -27.5593556 -0.426948E-07  0.110E-03    4.15      22.1  T
   8    -27.5593556 -0.594415E-08  0.590E-04    4.15      41.1  T
   9    -27.5593556 -0.185188E-08  0.255E-04    4.15      95.3  T
  10    -27.5593556 -0.372506E-09  0.662E-05    4.15     366.5  T
  11    -27.5593556 -0.217106E-10  0.215E-05    4.15    1125.8  T

   *** convergence criteria satisfied after 11 iterations ***

         #    Occupation            Energy/Eh            Energy/eV
      -------------------------------------------------------------
         1        2.0000           -0.7418507             -20.1868
       ...           ...                  ...                  ...
        18        2.0000           -0.4761429             -12.9565
        19        2.0000           -0.4676278             -12.7248
        20        2.0000           -0.4612209             -12.5505
        21        2.0000           -0.4423906             -12.0381
        22        2.0000           -0.4397114             -11.9652
        23        2.0000           -0.4269520             -11.6180
        24        1.0000           -0.3286083              -8.9419 (HOMO)
        25                         -0.1760456              -4.7904 (LUMO)
        26                         -0.0671185              -1.8264
        27                          0.0475763               1.2946
        28                          0.0768754               2.0919
        29                          0.0886695               2.4128
       ...                                ...                  ...
        41                          0.3697062              10.0602
      -------------------------------------------------------------
                  HL-Gap            0.1525627 Eh            4.1514 eV
             Fermi-level           -0.3150535 Eh           -8.5730 eV

 SCC (total)                   0 d,  0 h,  0 min,  0.036 sec
 SCC setup                      ...        0 min,  0.001 sec (  2.025%)
 Dispersion                     ...        0 min,  0.000 sec (  1.138%)
 classical contributions        ...        0 min,  0.000 sec (  0.713%)
 integral evaluation            ...        0 min,  0.002 sec (  4.679%)
 iterations                     ...        0 min,  0.029 sec ( 79.228%)
 molecular gradient             ...        0 min,  0.004 sec (  9.856%)
 printout                       ...        0 min,  0.001 sec (  2.280%)

         :::::::::::::::::::::::::::::::::::::::::::::::::::::
         ::                     SUMMARY                     ::
         :::::::::::::::::::::::::::::::::::::::::::::::::::::
         :: total energy             -27.307095639695 Eh    ::
         :: gradient norm              0.015728049117 Eh/a0 ::
         :: HOMO-LUMO gap              4.151442043037 eV    ::
         ::.................................................::
         :: SCC energy               -27.559318016720 Eh    ::
         :: -> isotropic ES            0.049513692824 Eh    ::
         :: -> anisotropic ES         -0.003740712468 Eh    ::
         :: -> anisotropic XC         -0.003984116368 Eh    ::
         :: -> dispersion             -0.010498372770 Eh    ::
         :: repulsion energy           0.252222377025 Eh    ::
         :: add. restraining           0.000000000000 Eh    ::
         :: total charge              -0.000000000000 e     ::
         :::::::::::::::::::::::::::::::::::::::::::::::::::::


Property printout bound to 'properties.out'

           -------------------------------------------------
          | TOTAL ENERGY              -27.307095639695 Eh   |
          | GRADIENT NORM               0.015728049117 Eh/α |
          | HOMO-LUMO GAP               4.151442043037 eV   |
           -------------------------------------------------

------------------------------------------------------------------------
 * finished run on 2026/02/18 at 13:00:38.332     
------------------------------------------------------------------------
 total:
 * wall-time:     0 d,  0 h,  0 min,  0.069 sec
 *  cpu-time:     0 d,  0 h,  0 min,  0.275 sec
 * ratio c/w:     4.003 speedup
 SCF:
 * wall-time:     0 d,  0 h,  0 min,  0.037 sec
 *  cpu-time:     0 d,  0 h,  0 min,  0.149 sec
 * ratio c/w:     4.061 speedup


-------------------------   --------------------
FINAL SINGLE POINT ENERGY       -27.307095639700
-------------------------   --------------------


-------------
DIPOLE MOMENT
-------------
                                X             Y             Z
Total Dipole Moment    :      0.54300      -0.31100      -1.20300
                        -----------------------------------------
Magnitude (a.u.)       :      1.35602
Magnitude (Debye)      :      3.44672


------------------
CARTESIAN GRADIENT
------------------

   1   C   :   -0.001694917   -0.000513565   -0.001213416
   2   C   :   -0.000466933    0.000538257   -0.000283064
   3   C   :   -0.002886980    0.000941635    0.001090090
   4   C   :    0.008439780    0.004393463    0.001161762
   5   C   :   -0.004929056   -0.004166928    0.001883685
   6   O   :   -0.002271315   -0.001374048    0.000914616
   7   O   :   -0.001570679    0.001533673   -0.005501673
   8   O   :    0.003942954    0.001343048    0.001206979
   9   H   :    0.000051086    0.003120982   -0.001093621
  10   H   :    0.000332500   -0.002354073    0.001217942
  11   H   :    0.000534994   -0.000422011   -0.000266628
  12   H   :   -0.000196498   -0.000040400    0.000258566
  13   H   :    0.000220006    0.000365676    0.000119188
  14   H   :    0.000757403   -0.000296649   -0.000305160
  15   H   :    0.000832110   -0.000485017   -0.000922711
  16   H   :   -0.001932520   -0.001677654    0.001834860
  17   H   :    0.000838064   -0.000906388   -0.000101414

Difference to translation invariance:
           :   -0.0000000000   -0.0000000000    0.0000000000

Difference to rotation invariance:
           :   -0.0000000893   -0.0000000426   -0.0000000229

Norm of the Cartesian gradient     ...    0.0157280491
RMS gradient                       ...    0.0022023674
MAX gradient                       ...    0.0084397802
------------------------------------------------------------------------------
                         ORCA GEOMETRY RELAXATION STEP
------------------------------------------------------------------------------

Reading the OPT-File                    .... done
Getting information on internals        .... done
Copying old internal coords+grads       .... done
Making the new internal coordinates     .... (2022 redundants) done
Validating the new internal coordinates .... (2022 redundants) done
Calculating the B-matrix                .... done
Calculating the G,G- and P matrices     .... done
Transforming gradient to internals      .... done
Projecting the internal gradient        .... done
Number of atoms                         ....  17
Number of internal coordinates          ....  78
Current Energy                          ....   -27.307095640 Eh
Current gradient norm                   ....     0.015728049 Eh/bohr
Maximum allowed component of the step   ....  0.300
Current trust radius                    ....  0.300
Updating the Hessian (BFGS)             .... done
Forming the augmented Hessian           .... done
Diagonalizing the augmented Hessian     .... done
Last element of RFO vector              ....  0.933194465
Lowest eigenvalues of augmented Hessian:
 -0.002274616  0.011552842  0.011849986  0.013536071  0.014930186
Length of the computed step             ....  0.385098512
Warning: the length of the step is outside the trust region - taking restricted step instead
The input lambda is                     ....     0.009683
   iter:   5  x=    0.002741  g=  256.566461 f(x)=     0.663654
   iter:  10  x=   -0.006244  g=   10.006117 f(x)=     0.000204
The output lambda is                    ....    -0.006244 (13 iterations)
The final length of the internal step   ....  0.300000000
Converting the step to Cartesian space:
 Initial RMS(Int)=    0.0339683110
Transforming coordinates:
 Iter   0:  RMS(Cart)=    0.0604470514 RMS(Int)=    0.0339315504
 Iter   5:  RMS(Cart)=    0.0000016417 RMS(Int)=    0.0000014012
done
Storing new coordinates                 .... done
The predicted energy change is          ....    -0.001189098
Previously predicted energy change      ....    -0.003198716
Actually observed energy change         ....    -0.003221763
Ratio of predicted to observed change   ....     1.007205059
New trust radius                        ....     0.450000000

                                .--------------------.
          ----------------------|Geometry convergence|-------------------------
          Item                value                   Tolerance       Converged
          ---------------------------------------------------------------------
          Energy change      -0.0032217629            0.0000050000      NO
          RMS gradient        0.0011592272            0.0001000000      NO
          MAX gradient        0.0038668663            0.0003000000      NO
          RMS step            0.0339683110            0.0020000000      NO
          MAX step            0.1244674133            0.0040000000      NO
          -------------------------------------------------------------------------
          ........................................................
          Max(Bonds)      0.0045      Max(Angles)    1.07
          Max(Dihed)        7.13      Max(Improp)    0.00
          ---------------------------------------------------------------------

    ---------------------------------------------------------------------------
                         Redundant Internal Coordinates
                            (Angstroem and degrees)

        Definition                    Value    dE/dq     Step     New-Value
    ----------------------------------------------------------------------------
     1. B(C   2,C   1)                1.5233 -0.000176  0.0006    1.5239   
     2. B(C   3,C   0)                1.4406  0.001265 -0.0033    1.4373   
     3. B(C   4,C   3)                1.5022 -0.003867  0.0045    1.5067   
     4. B(C   4,C   2)                1.5181 -0.000957  0.0034    1.5215   
     5. B(O   6,C   4)                1.3826 -0.003156 -0.0003    1.3823   
     6. B(O   6,C   3)                1.3963 -0.002510 -0.0018    1.3945   
     7. B(O   7,C   4)                1.3764 -0.002986 -0.0035    1.3729   
     8. B(O   7,O   5)                1.4288 -0.002284  0.0006    1.4294   
     9. B(H   8,C   0)                1.0700 -0.000979  0.0006    1.0705   
    10. B(H   9,C   0)                1.0702 -0.000749 -0.0000    1.0702   
    11. B(H  10,C   1)                1.0860 -0.000414 -0.0001    1.0859   
    12. B(H  11,C   1)                1.0868 -0.000299 -0.0002    1.0866   
    13. B(H  12,C   1)                1.0867 -0.000336 -0.0001    1.0866   
    14. B(H  13,C   2)                1.0946  0.000355 -0.0008    1.0938   
    15. B(H  14,C   2)                1.0932  0.000069 -0.0005    1.0927   
    16. B(H  15,C   3)                1.0927  0.000235  0.0005    1.0932   
    17. B(H  16,O   5)                0.9675 -0.000304 -0.0001    0.9674   
    18. A(C   3,C   0,H   8)          119.36 -0.000057   -0.13    119.22   
    19. A(C   3,C   0,H   9)          120.08  0.000433   -0.07    120.01   
    20. A(H   8,C   0,H   9)          119.84 -0.000279    0.06    119.90   
    21. A(H  11,C   1,H  12)          108.44 -0.000162    0.11    108.55   
    22. A(C   2,C   1,H  12)          111.23  0.000251   -0.10    111.13   
    23. A(H  10,C   1,H  12)          108.09 -0.000368    0.06    108.14   
    24. A(H  10,C   1,H  11)          108.86 -0.000429    0.22    109.08   
    25. A(C   2,C   1,H  11)          109.75 -0.000035   -0.02    109.72   
    26. A(C   2,C   1,H  10)          110.41  0.000709   -0.24    110.17   
    27. A(C   1,C   2,H  14)          109.10 -0.000866    0.29    109.39   
    28. A(C   4,C   2,H  13)          108.76  0.000290   -0.05    108.71   
    29. A(C   4,C   2,H  14)          108.23  0.001676   -0.46    107.78   
    30. A(C   1,C   2,H  13)          110.18 -0.000597    0.27    110.45   
    31. A(C   1,C   2,C   4)          113.05  0.000323   -0.31    112.74   
    32. A(H  13,C   2,H  14)          107.34 -0.000849    0.30    107.64   
    33. A(C   4,C   3,H  15)          114.67  0.001981   -1.07    113.61   
    34. A(C   0,C   3,H  15)          115.47 -0.000986    0.50    115.96   
    35. A(O   6,C   3,H  15)          115.65  0.001237   -0.22    115.43   
    36. A(C   4,C   3,O   6)           56.84 -0.000020   -0.09     56.75   
    37. A(C   0,C   3,C   4)          121.76 -0.000811    0.46    122.21   
    38. A(C   0,C   3,O   6)          119.86 -0.000707    0.04    119.91   
    39. A(C   3,C   4,O   6)           57.72  0.000386   -0.19     57.53   
    40. A(C   2,C   4,O   6)          118.89  0.000197    0.21    119.10   
    41. A(C   2,C   4,C   3)          121.75  0.000169   -0.08    121.67   
    42. A(O   6,C   4,O   7)          116.93 -0.000826    0.05    116.98   
    43. A(C   3,C   4,O   7)          114.30  0.000623   -0.39    113.92   
    44. A(C   2,C   4,O   7)          115.24 -0.000252    0.15    115.39   
    45. A(O   7,O   5,H  16)          103.15 -0.001094    0.97    104.13   
    46. A(C   3,O   6,C   4)           65.44 -0.000366    0.27     65.71   
    47. A(C   4,O   7,O   5)          111.42  0.000017    0.61    112.02   
    48. D(H  13,C   2,C   1,H  10)    179.05 -0.000301    0.60    179.64   
    49. D(H  13,C   2,C   1,H  11)     59.04 -0.000194    0.49     59.54   
    50. D(C   4,C   2,C   1,H  12)     60.96  0.000035    0.35     61.32   
    51. D(C   4,C   2,C   1,H  10)    -59.03 -0.000138    0.51    -58.52   
    52. D(C   4,C   2,C   1,H  11)   -179.03 -0.000030    0.41   -178.62   
    53. D(H  13,C   2,C   1,H  12)    -60.96 -0.000129    0.44    -60.52   
    54. D(C   4,C   3,C   0,H   8)     98.46 -0.001307    5.18    103.65   
    55. D(O   6,C   3,C   0,H   9)     -4.51 -0.002555    6.77      2.26   
    56. D(O   6,C   3,C   0,H   8)    165.74 -0.001930    5.26    171.00   
    57. D(H  15,C   3,C   0,H   8)    -48.53 -0.002287    5.72    -42.81   
    58. D(C   4,C   3,C   0,H   9)    -71.79 -0.001931    6.69    -65.10   
    59. D(C   3,C   4,C   2,H  14)    177.50 -0.000796    1.59    179.09   
    60. D(C   3,C   4,C   2,H  13)     61.19 -0.000854    1.52     62.70   
    61. D(O   6,C   4,C   2,C   1)      6.39  0.000101    1.26      7.66   
    62. D(C   3,C   4,C   2,C   1)    -61.53 -0.000518    1.42    -60.11   
    63. D(O   6,C   4,C   3,H  15)   -105.60 -0.000427   -0.26   -105.86   
    64. D(O   6,C   4,C   3,C   0)    107.16 -0.000510   -0.20    106.96   
    65. D(C   2,C   4,C   3,H  15)      0.73 -0.000080   -0.04      0.69   
    66. D(C   2,C   4,C   3,O   6)    106.33  0.000347    0.22    106.55   
    67. D(C   2,C   4,C   3,C   0)   -146.51 -0.000164    0.02   -146.49   
    68. D(O   6,C   4,C   2,H  14)   -114.58 -0.000177    1.44   -113.14   
    69. D(O   7,C   4,C   3,C   0)     -0.44  0.000710   -0.40     -0.85   
    70. D(O   6,C   4,C   2,H  13)    129.11 -0.000235    1.36    130.47   
    71. D(C   3,O   6,C   4,O   7)    103.01  0.001356   -0.60    102.41   
    72. D(C   3,O   6,C   4,C   2)   -111.24 -0.000251    0.26   -110.98   
    73. D(C   4,O   6,C   3,H  15)    103.85  0.001764   -1.23    102.63   
    74. D(C   4,O   6,C   3,C   0)   -110.48  0.000680   -0.52   -111.00   
    75. D(C   4,O   7,O   5,H  16)    126.40 -0.001854    7.13    133.53   
    76. D(O   5,O   7,C   4,O   6)     71.76 -0.001858    4.31     76.07   
    77. D(O   5,O   7,C   4,C   3)    136.42 -0.001411    3.91    140.34   
    78. D(O   5,O   7,C   4,C   2)    -75.23 -0.000472    3.44    -71.79   
    ----------------------------------------------------------------------------

Geometry step timings:
Preparation and reading OPT file:      0.000 s ( 0.750 %)
Internal coordinates            :      0.000 s ( 1.056 %)
B/P matrices and projection     :      0.001 s (22.972 %)
Hessian update/contruction      :      0.000 s (11.472 %)
Making the step                 :      0.001 s (37.861 %)
Converting the step to Cartesian:      0.000 s ( 3.000 %)
Storing new data                :      0.000 s ( 1.639 %)
Checking convergence            :      0.000 s ( 1.833 %)
Final printing                  :      0.001 s (19.333 %)
Total time                      :      0.004 s

Time for energy+gradient        :      0.087 s
Time for complete geometry iter :      0.092 s

         *************************************************************
         *                GEOMETRY OPTIMIZATION CYCLE   4            *
         *************************************************************
---------------------------------
CARTESIAN COORDINATES (ANGSTROEM)
---------------------------------
  C    -2.401006   -1.116799    0.522090
  C     2.145515   -0.348115    0.115386
  C     1.036971    0.182576   -0.785650
  C    -0.972423   -0.960067    0.498804
  C    -0.307773    0.262735   -0.078366
  O    -0.788274    2.526294   -0.290902
  O    -0.367787    0.022810    1.281697
  O    -1.187126    1.186059   -0.587370
  H    -2.866063   -1.771141   -0.186104
  H    -3.001878   -0.456220    1.111904
  H     2.251912    0.285482    0.990849
  H     3.085630   -0.362065   -0.429268
  H     1.926412   -1.357498    0.452871
  H     0.930018   -0.448829   -1.672402
  H     1.295809    1.188480   -1.124846
  H    -0.392373   -1.877172    0.366646
  H    -0.884419    2.992990   -1.132870

----------------------------
CARTESIAN COORDINATES (A.U.)
----------------------------
  NO LB    ZA    FRAG    MASS        X           Y           Z
   0 C   6.0000    1    12.011   -4.537243   -2.110445    0.986608
   1 C   6.0000    1    12.011    4.054436   -0.657843    0.218049
   2 C   6.0000    1    12.011    1.959592    0.345018   -1.484664
   3 C   6.0000    1    12.011   -1.837614   -1.814264    0.942602
   4 C   6.0000    1    12.011   -0.581607    0.496498   -0.148091
   5 O   8.0000    1    15.999   -1.489622    4.774003   -0.549725
   6 O   8.0000    1    15.999   -0.695017    0.043104    2.422057
   7 O   8.0000    1    15.999   -2.243342    2.241327   -1.109969
   8 H   1.0000    1     1.008   -5.416075   -3.346972   -0.351685
   9 H   1.0000    1     1.008   -5.672727   -0.862130    2.101195
  10 H   1.0000    1     1.008    4.255497    0.539483    1.872433
  11 H   1.0000    1     1.008    5.830995   -0.684204   -0.811200
  12 H   1.0000    1     1.008    3.640391   -2.565299    0.855803
  13 H   1.0000    1     1.008    1.757479   -0.848164   -3.160381
  14 H   1.0000    1     1.008    2.448725    2.245901   -2.125650
  15 H   1.0000    1     1.008   -0.741478   -3.547341    0.692860
  16 H   1.0000    1     1.008   -1.671310    5.655931   -2.140814

      -----------------------------------------------------------      
     |                   =====================                   |     
     |                           x T B                           |     
     |                   =====================                   |     
     |                         S. Grimme                         |     
     |          Mulliken Center for Theoretical Chemistry        |     
     |                    University of Bonn                     |     
      -----------------------------------------------------------      

   * xtb version 6.7.1 (edcfbbe) compiled by 'albert@albert-system' on 2024-07-22

   xtb is free software: you can redistribute it and/or modify it under
   the terms of the GNU Lesser General Public License as published by
   the Free Software Foundation, either version 3 of the License, or
   (at your option) any later version.
   
   xtb is distributed in the hope that it will be useful,
   but WITHOUT ANY WARRANTY; without even the implied warranty of
   MERCHANTABILITY or FITNESS FOR A PARTICULAR PURPOSE.  See the
   GNU Lesser General Public License for more details.
   
   Cite this work as:
   * C. Bannwarth, E. Caldeweyher, S. Ehlert, A. Hansen, P. Pracht,
     J. Seibert, S. Spicher, S. Grimme, WIREs Comput. Mol. Sci., 2020, 11,
     e01493. DOI: 10.1002/wcms.1493
   
   for GFN2-xTB:
   * C. Bannwarth, S. Ehlert and S. Grimme., J. Chem. Theory Comput., 2019,
     15, 1652-1671. DOI: 10.1021/acs.jctc.8b01176
   for GFN1-xTB:
   * S. Grimme, C. Bannwarth, P. Shushkov, J. Chem. Theory Comput., 2017,
     13, 1989-2009. DOI: 10.1021/acs.jctc.7b00118
   for GFN0-xTB:
   * P. Pracht, E. Caldeweyher, S. Ehlert, S. Grimme, ChemRxiv, 2019, preprint.
     DOI: 10.26434/chemrxiv.8326202.v1
   for GFN-FF:
   * S. Spicher and S. Grimme, Angew. Chem. Int. Ed., 2020, 59, 15665-15673.
     DOI: 10.1002/anie.202004239
   
   for ALPB and GBSA implicit solvation:
   * S. Ehlert, M. Stahn, S. Spicher, S. Grimme, J. Chem. Theory Comput.,
     2021, 17, 4250-4261. DOI: 10.1021/acs.jctc.1c00471
   
   for ddCOSMO and CPCM-X implicit solvation:
   * M. Stahn, S. Ehlert, S. Grimme, J. Phys. Chem. A,
     2023, XX, XXXX-XXXX. DOI: 10.1021/acs.jpca.3c04382
   
   for DFT-D4:
   * E. Caldeweyher, C. Bannwarth and S. Grimme, J. Chem. Phys., 2017,
     147, 034112. DOI: 10.1063/1.4993215
   * E. Caldeweyher, S. Ehlert, A. Hansen, H. Neugebauer, S. Spicher,
     C. Bannwarth and S. Grimme, J. Chem. Phys., 2019, 150, 154122.
     DOI: 10.1063/1.5090222
   * E. Caldeweyher, J.-M. Mewes, S. Ehlert and S. Grimme, Phys. Chem. Chem. Phys.
     2020, 22, 8499-8512. DOI: 10.1039/D0CP00502A
   
   for sTDA-xTB:
   * S. Grimme and C. Bannwarth, J. Chem. Phys., 2016, 145, 054103.
     DOI: 10.1063/1.4959605
   
   in the mass-spec context:
   * V. Asgeirsson, C. Bauer and S. Grimme, Chem. Sci., 2017, 8, 4879.
     DOI: 10.1039/c7sc00601b
   * J. Koopman and S. Grimme, ACS Omega 2019, 4, 12, 15120-15133.
     DOI: 10.1021/acsomega.9b02011
   
   for metadynamics refer to:
   * S. Grimme, J. Chem. Theory Comput., 2019, 155, 2847-2862
     DOI: 10.1021/acs.jctc.9b00143
   
   for SPH calculations refer to:
   * S. Spicher and S. Grimme, J. Chem. Theory Comput., 2021, 17, 1701-1714
     DOI: 10.1021/acs.jctc.0c01306
   
   for ONIOM refer to:
   * C. Plett, A. Katbashev, S. Ehlert, S. Grimme, M. Bursch,
     Phys. Chem. Chem. Phys., 2023, 25, 17860-17868. DOI: 10.1039/D3CP02178E
   
   for DIPRO refer to:
   * J. Kohn, N. Gildemeister, S. Grimme, D. Fazzi, A. Hansen,
     J. Chem. Phys., 2023, just accepted.
   
   for PTB refer to:
   * S. Grimme, M. Mueller, A. Hansen, J. Chem. Phys., 2023, 158, 124111.
     DOI: 10.1063/5.0137838
   
   with help from (in alphabetical order)
   P. Atkinson, C. Bannwarth, F. Bohle, G. Brandenburg, E. Caldeweyher
   M. Checinski, S. Dohm, S. Ehlert, S. Ehrlich, I. Gerasimov, C. Hölzer
   A. Katbashev, J. Kohn, J. Koopman, C. Lavigne, S. Lehtola, F. März, M. Müller,
   F. Musil, H. Neugebauer, J. Pisarek, C. Plett, P. Pracht, F. Pultar,
   J. Seibert, P. Shushkov, S. Spicher, M. Stahn, M. Steiner, T. Strunk,
   J. Stückrath, T. Rose, and J. Unsleber
   
 * started run on 2026/02/18 at 13:00:38.354     
   ID    Z sym.   atoms
    1    6 C      1-5
    2    8 O      6-8
    3    1 H      9-17

           -------------------------------------------------
          |                Calculation Setup                |
           -------------------------------------------------

          program call               : /apps/eb/ORCA/6.1.1-gompi-2024a-avx2/bin/otool_xtb goat_XTB.xyz --grad -c 0 -u 1 -P 8 --namespace goat --input goat_XTB.input.tmp --acc 0.200000
          hostname                   : ra2-19
          calculation namespace      : goat
          coordinate file            : goat_XTB.xyz
          omp threads                :                     8


           -------------------------------------------------
          |                 G F N 2 - x T B                 |
           -------------------------------------------------

        Reference                      10.1021/acs.jctc.8b01176
      * Hamiltonian:
        H0-scaling (s, p, d)           1.850000    2.230000    2.230000
        zeta-weighting                 0.500000
      * Dispersion:
        s8                             2.700000
        a1                             0.520000
        a2                             5.000000
        s9                             5.000000
      * Repulsion:
        kExp                           1.500000    1.000000
        rExp                           1.000000
      * Coulomb:
        alpha                          2.000000
        third order                    shell-resolved
        anisotropic                    true
        a3                             3.000000
        a5                             4.000000
        cn-shift                       1.200000
        cn-exp                         4.000000
        max-rad                        5.000000

q/qsh data taken from xtbrestart
CAMM data taken from xtbrestart

          ...................................................
          :                      SETUP                      :
          :.................................................:
          :  # basis functions                  41          :
          :  # atomic orbitals                  41          :
          :  # shells                           25          :
          :  # electrons                        47          :
          :  max. iterations                   250          :
          :  Hamiltonian                  GFN2-xTB          :
          :  restarted?                       true          :
          :  GBSA solvation                  false          :
          :  PC potential                    false          :
          :  electronic temp.          300.0000000     K    :
          :  accuracy                    0.2000000          :
          :  -> integral cutoff          0.3198970E+02      :
          :  -> integral neglect         0.2000000E-08      :
          :  -> SCF convergence          0.2000000E-06 Eh   :
          :  -> wf. convergence          0.2000000E-04 e    :
          :  Broyden damping             0.4000000          :
          :  net charge                          0          :
          :  unpaired electrons                  1          :
          ...................................................

 iter      E             dE          RMSdq      gap      omega  full diag
   1    -27.5611060 -0.275611E+02  0.379E-01    4.15       0.0  T
   2    -27.5611209 -0.148999E-04  0.225E-01    4.14       1.0  T
   3    -27.5611204  0.531882E-06  0.219E-02    4.15       1.1  T
   4    -27.5611261 -0.568032E-05  0.969E-03    4.14       2.5  T
   5    -27.5611264 -0.269391E-06  0.477E-03    4.14       5.1  T
   6    -27.5611264 -0.310520E-07  0.143E-03    4.14      16.9  T
   7    -27.5611264 -0.116493E-07  0.496E-04    4.14      48.9  T
   8    -27.5611264 -0.981025E-09  0.270E-04    4.14      89.8  T
   9    -27.5611264 -0.431001E-09  0.109E-04    4.14     222.3  T
  10    -27.5611264 -0.732712E-10  0.357E-05    4.14     680.2  T

   *** convergence criteria satisfied after 10 iterations ***

         #    Occupation            Energy/Eh            Energy/eV
      -------------------------------------------------------------
         1        2.0000           -0.7417916             -20.1852
       ...           ...                  ...                  ...
        18        2.0000           -0.4745570             -12.9134
        19        2.0000           -0.4674532             -12.7201
        20        2.0000           -0.4608784             -12.5411
        21        2.0000           -0.4434390             -12.0666
        22        2.0000           -0.4377021             -11.9105
        23        2.0000           -0.4263492             -11.6016
        24        1.0000           -0.3283246              -8.9342 (HOMO)
        25                         -0.1762194              -4.7952 (LUMO)
        26                         -0.0654423              -1.7808
        27                          0.0473514               1.2885
        28                          0.0792552               2.1566
        29                          0.0891573               2.4261
       ...                                ...                  ...
        41                          0.3749235              10.2022
      -------------------------------------------------------------
                  HL-Gap            0.1521052 Eh            4.1390 eV
             Fermi-level           -0.3148045 Eh           -8.5663 eV

 SCC (total)                   0 d,  0 h,  0 min,  0.036 sec
 SCC setup                      ...        0 min,  0.001 sec (  1.969%)
 Dispersion                     ...        0 min,  0.000 sec (  1.147%)
 classical contributions        ...        0 min,  0.000 sec (  0.611%)
 integral evaluation            ...        0 min,  0.002 sec (  4.711%)
 iterations                     ...        0 min,  0.027 sec ( 74.225%)
 molecular gradient             ...        0 min,  0.005 sec ( 14.391%)
 printout                       ...        0 min,  0.001 sec (  2.864%)

         :::::::::::::::::::::::::::::::::::::::::::::::::::::
         ::                     SUMMARY                     ::
         :::::::::::::::::::::::::::::::::::::::::::::::::::::
         :: total energy             -27.308699450664 Eh    ::
         :: gradient norm              0.018040430048 Eh/a0 ::
         :: HOMO-LUMO gap              4.138992836237 eV    ::
         ::.................................................::
         :: SCC energy               -27.561088951287 Eh    ::
         :: -> isotropic ES            0.049460403126 Eh    ::
         :: -> anisotropic ES         -0.004084470980 Eh    ::
         :: -> anisotropic XC         -0.004135564209 Eh    ::
         :: -> dispersion             -0.010484754940 Eh    ::
         :: repulsion energy           0.252389500622 Eh    ::
         :: add. restraining           0.000000000000 Eh    ::
         :: total charge               0.000000000000 e     ::
         :::::::::::::::::::::::::::::::::::::::::::::::::::::


Property printout bound to 'properties.out'

           -------------------------------------------------
          | TOTAL ENERGY              -27.308699450664 Eh   |
          | GRADIENT NORM               0.018040430048 Eh/α |
          | HOMO-LUMO GAP               4.138992836237 eV   |
           -------------------------------------------------

------------------------------------------------------------------------
 * finished run on 2026/02/18 at 13:00:38.421     
------------------------------------------------------------------------
 total:
 * wall-time:     0 d,  0 h,  0 min,  0.066 sec
 *  cpu-time:     0 d,  0 h,  0 min,  0.254 sec
 * ratio c/w:     3.867 speedup
 SCF:
 * wall-time:     0 d,  0 h,  0 min,  0.036 sec
 *  cpu-time:     0 d,  0 h,  0 min,  0.143 sec
 * ratio c/w:     3.966 speedup


-------------------------   --------------------
FINAL SINGLE POINT ENERGY       -27.308699450660
-------------------------   --------------------


-------------
DIPOLE MOMENT
-------------
                                X             Y             Z
Total Dipole Moment    :      0.44700      -0.28300      -1.22700
                        -----------------------------------------
Magnitude (a.u.)       :      1.33620
Magnitude (Debye)      :      3.39635


------------------
CARTESIAN GRADIENT
------------------

   1   C   :   -0.002509803   -0.000538829    0.000324156
   2   C   :    0.000271315    0.000015304    0.000484950
   3   C   :   -0.000589139    0.000829822   -0.001343502
   4   C   :    0.008070523    0.005842790    0.002326207
   5   C   :   -0.005851587   -0.004410795    0.002551347
   6   O   :   -0.003928208   -0.003131630   -0.001811483
   7   O   :   -0.003165401   -0.000216061   -0.006390426
   8   O   :    0.005646607    0.001362938    0.003799197
   9   H   :    0.000148891    0.002696110   -0.001616423
  10   H   :    0.000291875   -0.001795384    0.000953547
  11   H   :    0.000117427   -0.000324357   -0.000283273
  12   H   :   -0.000316551   -0.000037514    0.000053234
  13   H   :   -0.000089864    0.000452699    0.000119385
  14   H   :    0.000633382   -0.000141514   -0.000066913
  15   H   :    0.000363702   -0.000505397   -0.000715199
  16   H   :   -0.000482831   -0.001378808    0.001070252
  17   H   :    0.001389663    0.001280627    0.000544943

Difference to translation invariance:
           :   -0.0000000000    0.0000000000   -0.0000000000

Difference to rotation invariance:
           :   -0.0000001452    0.0000000208   -0.0000004112

Norm of the Cartesian gradient     ...    0.0180404300
RMS gradient                       ...    0.0025261655
MAX gradient                       ...    0.0080705227
------------------------------------------------------------------------------
                         ORCA GEOMETRY RELAXATION STEP
------------------------------------------------------------------------------

Reading the OPT-File                    .... done
Getting information on internals        .... done
Copying old internal coords+grads       .... done
Making the new internal coordinates     .... (2022 redundants) done
Validating the new internal coordinates .... (2022 redundants) done
Calculating the B-matrix                .... done
Calculating the G,G- and P matrices     .... done
Transforming gradient to internals      .... done
Projecting the internal gradient        .... done
Number of atoms                         ....  17
Number of internal coordinates          ....  78
Current Energy                          ....   -27.308699451 Eh
Current gradient norm                   ....     0.018040430 Eh/bohr
Maximum allowed component of the step   ....  0.300
Current trust radius                    ....  0.450
Updating the Hessian (BFGS)             .... done
Forming the augmented Hessian           .... done
Diagonalizing the augmented Hessian     .... done
Last element of RFO vector              ....  0.821657418
Lowest eigenvalues of augmented Hessian:
 -0.003620716  0.006703945  0.011846170  0.012355883  0.013875529
Length of the computed step             ....  0.693697449
Warning: the length of the step is outside the trust region - taking restricted step instead
The input lambda is                     ....     0.002370
   iter:   5  x=   -0.003347  g=  425.723945 f(x)=     0.819573
   iter:  10  x=   -0.007426  g=   37.309729 f(x)=     0.000008
The output lambda is                    ....    -0.007426 (12 iterations)
The final length of the internal step   ....  0.450000000
Converting the step to Cartesian space:
 Initial RMS(Int)=    0.0509524665
Transforming coordinates:
 Iter   0:  RMS(Cart)=    0.0848622133 RMS(Int)=    1.0031285921
 Iter   5:  RMS(Cart)=    0.0000179938 RMS(Int)=    0.0000134553
done
Storing new coordinates                 .... done
The predicted energy change is          ....    -0.001968468
Previously predicted energy change      ....    -0.001189098
Actually observed energy change         ....    -0.001603811
Ratio of predicted to observed change   ....     1.348762621
New trust radius                        ....     0.450000000

                                .--------------------.
          ----------------------|Geometry convergence|-------------------------
          Item                value                   Tolerance       Converged
          ---------------------------------------------------------------------
          Energy change      -0.0016038110            0.0000050000      NO
          RMS gradient        0.0012511680            0.0001000000      NO
          MAX gradient        0.0040634318            0.0003000000      NO
          RMS step            0.0509524665            0.0020000000      NO
          MAX step            0.1809960926            0.0040000000      NO
          -------------------------------------------------------------------------
          ........................................................
          Max(Bonds)      0.0111      Max(Angles)    1.21
          Max(Dihed)       10.37      Max(Improp)    0.00
          ---------------------------------------------------------------------

    ---------------------------------------------------------------------------
                         Redundant Internal Coordinates
                            (Angstroem and degrees)

        Definition                    Value    dE/dq     Step     New-Value
    ----------------------------------------------------------------------------
     1. B(C   2,C   1)                1.5239  0.000171  0.0000    1.5240   
     2. B(C   3,C   0)                1.4373  0.002011 -0.0069    1.4304   
     3. B(C   4,C   3)                1.5067 -0.004063  0.0111    1.5178   
     4. B(C   4,C   2)                1.5215  0.001144  0.0003    1.5219   
     5. B(O   6,C   4)                1.3824 -0.003282  0.0036    1.3860   
     6. B(O   6,C   3)                1.3945 -0.004012  0.0043    1.3988   
     7. B(O   7,C   4)                1.3729 -0.003258  0.0003    1.3732   
     8. B(O   7,O   5)                1.4294 -0.002707  0.0052    1.4346   
     9. B(H   8,C   0)                1.0705 -0.000643  0.0010    1.0715   
    10. B(H   9,C   0)                1.0702 -0.000747  0.0009    1.0711   
    11. B(H  10,C   1)                1.0859 -0.000406  0.0004    1.0863   
    12. B(H  11,C   1)                1.0866 -0.000300  0.0001    1.0867   
    13. B(H  12,C   1)                1.0866 -0.000365  0.0004    1.0870   
    14. B(H  13,C   2)                1.0938  0.000074 -0.0008    1.0931   
    15. B(H  14,C   2)                1.0927 -0.000157 -0.0001    1.0926   
    16. B(H  15,C   3)                1.0932  0.000771 -0.0012    1.0920   
    17. B(H  16,O   5)                0.9674  0.000005 -0.0004    0.9671   
    18. A(C   3,C   0,H   8)          119.19 -0.000468   -0.04    119.15   
    19. A(C   3,C   0,H   9)          119.98  0.000576   -0.22    119.76   
    20. A(H   8,C   0,H   9)          119.87 -0.000113    0.05    119.92   
    21. A(H  11,C   1,H  12)          108.55  0.000129    0.05    108.60   
    22. A(C   2,C   1,H  12)          111.13 -0.000068   -0.05    111.07   
    23. A(H  10,C   1,H  12)          108.14 -0.000172    0.11    108.25   
    24. A(H  10,C   1,H  11)          109.08 -0.000029    0.17    109.25   
    25. A(C   2,C   1,H  11)          109.72 -0.000131   -0.01    109.71   
    26. A(C   2,C   1,H  10)          110.17  0.000269   -0.26    109.91   
    27. A(C   1,C   2,H  14)          109.38 -0.000120    0.23    109.61   
    28. A(C   4,C   2,H  13)          108.71  0.000554   -0.17    108.55   
    29. A(C   4,C   2,H  14)          107.77  0.001235   -0.74    107.03   
    30. A(C   1,C   2,H  13)          110.45 -0.000128    0.34    110.79   
    31. A(C   1,C   2,C   4)          112.73 -0.000890   -0.05    112.68   
    32. A(H  13,C   2,H  14)          107.63 -0.000614    0.38    108.01   
    33. A(C   4,C   3,H  15)          113.61  0.000896   -1.21    112.40   
    34. A(C   0,C   3,H  15)          115.97 -0.000114    0.51    116.47   
    35. A(O   6,C   3,H  15)          115.41  0.000786   -0.47    114.94   
    36. A(C   4,C   3,O   6)           56.75  0.000229   -0.19     56.57   
    37. A(C   0,C   3,C   4)          122.22 -0.000680    0.64    122.86   
    38. A(C   0,C   3,O   6)          119.91 -0.000904    0.29    120.20   
    39. A(C   3,C   4,O   6)           57.53 -0.000183   -0.15     57.38   
    40. A(C   2,C   4,O   6)          119.12  0.000577    0.04    119.15   
    41. A(C   2,C   4,C   3)          121.68  0.000189   -0.00    121.68   
    42. A(O   6,C   4,O   7)          116.98 -0.000924    0.36    117.34   
    43. A(C   3,C   4,O   7)          113.91  0.000508   -0.65    113.26   
    44. A(C   2,C   4,O   7)          115.42 -0.000159    0.22    115.64   
    45. A(O   7,O   5,H  16)          104.13  0.003205    0.02    104.14   
    46. A(C   3,O   6,C   4)           65.72 -0.000046    0.34     66.05   
    47. A(C   4,O   7,O   5)          112.02  0.002940   -0.10    111.92   
    48. D(H  13,C   2,C   1,H  10)    179.64 -0.000090    0.83    180.47   
    49. D(H  13,C   2,C   1,H  11)     59.54 -0.000140    0.79     60.33   
    50. D(C   4,C   2,C   1,H  12)     61.32 -0.000172    0.77     62.08   
    51. D(C   4,C   2,C   1,H  10)    -58.52 -0.000090    0.83    -57.69   
    52. D(C   4,C   2,C   1,H  11)   -178.62 -0.000140    0.78   -177.84   
    53. D(H  13,C   2,C   1,H  12)    -60.52 -0.000172    0.77    -59.75   
    54. D(C   4,C   3,C   0,H   8)    103.65 -0.001518    8.79    112.44   
    55. D(O   6,C   3,C   0,H   9)      2.25 -0.001840    9.21     11.46   
    56. D(O   6,C   3,C   0,H   8)    171.00 -0.001881    8.92    179.92   
    57. D(H  15,C   3,C   0,H   8)    -42.81 -0.002013    9.33    -33.48   
    58. D(C   4,C   3,C   0,H   9)    -65.10 -0.001477    9.08    -56.02   
    59. D(C   3,C   4,C   2,H  14)    179.09 -0.000365    2.23    181.32   
    60. D(C   3,C   4,C   2,H  13)     62.71 -0.000595    2.27     64.97   
    61. D(O   6,C   4,C   2,C   1)      7.66 -0.000135    1.81      9.46   
    62. D(C   3,C   4,C   2,C   1)    -60.11 -0.000230    1.98    -58.12   
    63. D(O   6,C   4,C   3,H  15)   -105.87 -0.000525   -0.03   -105.90   
    64. D(O   6,C   4,C   3,C   0)    106.96 -0.000717   -0.02    106.94   
    65. D(C   2,C   4,C   3,H  15)      0.69  0.000035   -0.05      0.63   
    66. D(C   2,C   4,C   3,O   6)    106.56  0.000559   -0.02    106.54   
    67. D(C   2,C   4,C   3,C   0)   -146.48 -0.000158   -0.04   -146.52   
    68. D(O   6,C   4,C   2,H  14)   -113.14 -0.000269    2.05   -111.09   
    69. D(O   7,C   4,C   3,C   0)     -0.86  0.000719   -0.75     -1.62   
    70. D(O   6,C   4,C   2,H  13)    130.47 -0.000500    2.09    132.56   
    71. D(C   3,O   6,C   4,O   7)    102.42  0.001061   -1.04    101.38   
    72. D(C   3,O   6,C   4,C   2)   -110.98  0.000101    0.08   -110.91   
    73. D(C   4,O   6,C   3,H  15)    102.63  0.000748   -1.31    101.33   
    74. D(C   4,O   6,C   3,C   0)   -111.00  0.000332   -0.59   -111.58   
    75. D(C   4,O   7,O   5,H  16)    133.53 -0.001580   10.37    143.90   
    76. D(O   5,O   7,C   4,O   6)     76.04 -0.001230    6.36     82.40   
    77. D(O   5,O   7,C   4,C   3)    140.36 -0.001489    6.06    146.42   
    78. D(O   5,O   7,C   4,C   2)    -71.79 -0.000564    5.35    -66.44   
    ----------------------------------------------------------------------------

Geometry step timings:
Preparation and reading OPT file:      0.000 s ( 0.635 %)
Internal coordinates            :      0.000 s ( 0.864 %)
B/P matrices and projection     :      0.001 s (37.922 %)
Hessian update/contruction      :      0.000 s ( 9.398 %)
Making the step                 :      0.001 s (30.302 %)
Converting the step to Cartesian:      0.000 s ( 3.099 %)
Storing new data                :      0.000 s ( 0.940 %)
Checking convergence            :      0.000 s ( 1.372 %)
Final printing                  :      0.001 s (15.443 %)
Total time                      :      0.004 s

Time for energy+gradient        :      0.084 s
Time for complete geometry iter :      0.089 s

         *************************************************************
         *                GEOMETRY OPTIMIZATION CYCLE   5            *
         *************************************************************
---------------------------------
CARTESIAN COORDINATES (ANGSTROEM)
---------------------------------
  C    -2.391524   -1.120476    0.532712
  C     2.142912   -0.385417    0.112734
  C     1.048369    0.207391   -0.766464
  C    -0.970908   -0.955423    0.504658
  C    -0.296695    0.282336   -0.058478
  O    -0.727812    2.547173   -0.373896
  O    -0.359741    0.018924    1.300741
  O    -1.183736    1.200397   -0.564511
  H    -2.842930   -1.870972   -0.084664
  H    -3.003423   -0.386267    1.016267
  H     2.245361    0.200758    1.021558
  H     3.087359   -0.381083   -0.424761
  H     1.907914   -1.409159    0.392560
  H     0.927206   -0.376941   -1.682243
  H     1.317971    1.227565   -1.049860
  H    -0.378824   -1.859423    0.347823
  H    -1.018354    3.010135   -1.171706

----------------------------
CARTESIAN COORDINATES (A.U.)
----------------------------
  NO LB    ZA    FRAG    MASS        X           Y           Z
   0 C   6.0000    1    12.011   -4.519325   -2.117393    1.006680
   1 C   6.0000    1    12.011    4.049516   -0.728332    0.213036
   2 C   6.0000    1    12.011    1.981131    0.391911   -1.448407
   3 C   6.0000    1    12.011   -1.834750   -1.805487    0.953666
   4 C   6.0000    1    12.011   -0.560672    0.533537   -0.110507
   5 O   8.0000    1    15.999   -1.375365    4.813459   -0.706561
   6 O   8.0000    1    15.999   -0.679813    0.035761    2.458043
   7 O   8.0000    1    15.999   -2.236937    2.268422   -1.066771
   8 H   1.0000    1     1.008   -5.372358   -3.535624   -0.159992
   9 H   1.0000    1     1.008   -5.675647   -0.729939    1.920466
  10 H   1.0000    1     1.008    4.243118    0.379377    1.930464
  11 H   1.0000    1     1.008    5.834263   -0.720142   -0.802682
  12 H   1.0000    1     1.008    3.605435   -2.662924    0.741831
  13 H   1.0000    1     1.008    1.752165   -0.712315   -3.178978
  14 H   1.0000    1     1.008    2.490605    2.319762   -1.983948
  15 H   1.0000    1     1.008   -0.715874   -3.513800    0.657291
  16 H   1.0000    1     1.008   -1.924411    5.688330   -2.214203

      -----------------------------------------------------------      
     |                   =====================                   |     
     |                           x T B                           |     
     |                   =====================                   |     
     |                         S. Grimme                         |     
     |          Mulliken Center for Theoretical Chemistry        |     
     |                    University of Bonn                     |     
      -----------------------------------------------------------      

   * xtb version 6.7.1 (edcfbbe) compiled by 'albert@albert-system' on 2024-07-22

   xtb is free software: you can redistribute it and/or modify it under
   the terms of the GNU Lesser General Public License as published by
   the Free Software Foundation, either version 3 of the License, or
   (at your option) any later version.
   
   xtb is distributed in the hope that it will be useful,
   but WITHOUT ANY WARRANTY; without even the implied warranty of
   MERCHANTABILITY or FITNESS FOR A PARTICULAR PURPOSE.  See the
   GNU Lesser General Public License for more details.
   
   Cite this work as:
   * C. Bannwarth, E. Caldeweyher, S. Ehlert, A. Hansen, P. Pracht,
     J. Seibert, S. Spicher, S. Grimme, WIREs Comput. Mol. Sci., 2020, 11,
     e01493. DOI: 10.1002/wcms.1493
   
   for GFN2-xTB:
   * C. Bannwarth, S. Ehlert and S. Grimme., J. Chem. Theory Comput., 2019,
     15, 1652-1671. DOI: 10.1021/acs.jctc.8b01176
   for GFN1-xTB:
   * S. Grimme, C. Bannwarth, P. Shushkov, J. Chem. Theory Comput., 2017,
     13, 1989-2009. DOI: 10.1021/acs.jctc.7b00118
   for GFN0-xTB:
   * P. Pracht, E. Caldeweyher, S. Ehlert, S. Grimme, ChemRxiv, 2019, preprint.
     DOI: 10.26434/chemrxiv.8326202.v1
   for GFN-FF:
   * S. Spicher and S. Grimme, Angew. Chem. Int. Ed., 2020, 59, 15665-15673.
     DOI: 10.1002/anie.202004239
   
   for ALPB and GBSA implicit solvation:
   * S. Ehlert, M. Stahn, S. Spicher, S. Grimme, J. Chem. Theory Comput.,
     2021, 17, 4250-4261. DOI: 10.1021/acs.jctc.1c00471
   
   for ddCOSMO and CPCM-X implicit solvation:
   * M. Stahn, S. Ehlert, S. Grimme, J. Phys. Chem. A,
     2023, XX, XXXX-XXXX. DOI: 10.1021/acs.jpca.3c04382
   
   for DFT-D4:
   * E. Caldeweyher, C. Bannwarth and S. Grimme, J. Chem. Phys., 2017,
     147, 034112. DOI: 10.1063/1.4993215
   * E. Caldeweyher, S. Ehlert, A. Hansen, H. Neugebauer, S. Spicher,
     C. Bannwarth and S. Grimme, J. Chem. Phys., 2019, 150, 154122.
     DOI: 10.1063/1.5090222
   * E. Caldeweyher, J.-M. Mewes, S. Ehlert and S. Grimme, Phys. Chem. Chem. Phys.
     2020, 22, 8499-8512. DOI: 10.1039/D0CP00502A
   
   for sTDA-xTB:
   * S. Grimme and C. Bannwarth, J. Chem. Phys., 2016, 145, 054103.
     DOI: 10.1063/1.4959605
   
   in the mass-spec context:
   * V. Asgeirsson, C. Bauer and S. Grimme, Chem. Sci., 2017, 8, 4879.
     DOI: 10.1039/c7sc00601b
   * J. Koopman and S. Grimme, ACS Omega 2019, 4, 12, 15120-15133.
     DOI: 10.1021/acsomega.9b02011
   
   for metadynamics refer to:
   * S. Grimme, J. Chem. Theory Comput., 2019, 155, 2847-2862
     DOI: 10.1021/acs.jctc.9b00143
   
   for SPH calculations refer to:
   * S. Spicher and S. Grimme, J. Chem. Theory Comput., 2021, 17, 1701-1714
     DOI: 10.1021/acs.jctc.0c01306
   
   for ONIOM refer to:
   * C. Plett, A. Katbashev, S. Ehlert, S. Grimme, M. Bursch,
     Phys. Chem. Chem. Phys., 2023, 25, 17860-17868. DOI: 10.1039/D3CP02178E
   
   for DIPRO refer to:
   * J. Kohn, N. Gildemeister, S. Grimme, D. Fazzi, A. Hansen,
     J. Chem. Phys., 2023, just accepted.
   
   for PTB refer to:
   * S. Grimme, M. Mueller, A. Hansen, J. Chem. Phys., 2023, 158, 124111.
     DOI: 10.1063/5.0137838
   
   with help from (in alphabetical order)
   P. Atkinson, C. Bannwarth, F. Bohle, G. Brandenburg, E. Caldeweyher
   M. Checinski, S. Dohm, S. Ehlert, S. Ehrlich, I. Gerasimov, C. Hölzer
   A. Katbashev, J. Kohn, J. Koopman, C. Lavigne, S. Lehtola, F. März, M. Müller,
   F. Musil, H. Neugebauer, J. Pisarek, C. Plett, P. Pracht, F. Pultar,
   J. Seibert, P. Shushkov, S. Spicher, M. Stahn, M. Steiner, T. Strunk,
   J. Stückrath, T. Rose, and J. Unsleber
   
 * started run on 2026/02/18 at 13:00:38.442     
   ID    Z sym.   atoms
    1    6 C      1-5
    2    8 O      6-8
    3    1 H      9-17

           -------------------------------------------------
          |                Calculation Setup                |
           -------------------------------------------------

          program call               : /apps/eb/ORCA/6.1.1-gompi-2024a-avx2/bin/otool_xtb goat_XTB.xyz --grad -c 0 -u 1 -P 8 --namespace goat --input goat_XTB.input.tmp --acc 0.200000
          hostname                   : ra2-19
          calculation namespace      : goat
          coordinate file            : goat_XTB.xyz
          omp threads                :                     8


           -------------------------------------------------
          |                 G F N 2 - x T B                 |
           -------------------------------------------------

        Reference                      10.1021/acs.jctc.8b01176
      * Hamiltonian:
        H0-scaling (s, p, d)           1.850000    2.230000    2.230000
        zeta-weighting                 0.500000
      * Dispersion:
        s8                             2.700000
        a1                             0.520000
        a2                             5.000000
        s9                             5.000000
      * Repulsion:
        kExp                           1.500000    1.000000
        rExp                           1.000000
      * Coulomb:
        alpha                          2.000000
        third order                    shell-resolved
        anisotropic                    true
        a3                             3.000000
        a5                             4.000000
        cn-shift                       1.200000
        cn-exp                         4.000000
        max-rad                        5.000000

q/qsh data taken from xtbrestart
CAMM data taken from xtbrestart

          ...................................................
          :                      SETUP                      :
          :.................................................:
          :  # basis functions                  41          :
          :  # atomic orbitals                  41          :
          :  # shells                           25          :
          :  # electrons                        47          :
          :  max. iterations                   250          :
          :  Hamiltonian                  GFN2-xTB          :
          :  restarted?                       true          :
          :  GBSA solvation                  false          :
          :  PC potential                    false          :
          :  electronic temp.          300.0000000     K    :
          :  accuracy                    0.2000000          :
          :  -> integral cutoff          0.3198970E+02      :
          :  -> integral neglect         0.2000000E-08      :
          :  -> SCF convergence          0.2000000E-06 Eh   :
          :  -> wf. convergence          0.2000000E-04 e    :
          :  Broyden damping             0.4000000          :
          :  net charge                          0          :
          :  unpaired electrons                  1          :
          ...................................................

 iter      E             dE          RMSdq      gap      omega  full diag
   1    -27.5623810 -0.275624E+02  0.572E-01    4.07       0.0  T
   2    -27.5624087 -0.277755E-04  0.342E-01    4.06       1.0  T
   3    -27.5624166 -0.784125E-05  0.252E-02    4.06       1.0  T
   4    -27.5624199 -0.335107E-05  0.146E-02    4.05       1.7  T
   5    -27.5624206 -0.668342E-06  0.699E-03    4.06       3.5  T
   6    -27.5624207 -0.114712E-06  0.147E-03    4.06      16.5  T
   7    -27.5624207 -0.119163E-07  0.583E-04    4.06      41.6  T
   8    -27.5624207 -0.124100E-08  0.292E-04    4.06      83.1  T
   9    -27.5624207 -0.481215E-09  0.122E-04    4.06     198.7  T
  10    -27.5624207 -0.918234E-10  0.393E-05    4.06     617.9  T

   *** convergence criteria satisfied after 10 iterations ***

         #    Occupation            Energy/Eh            Energy/eV
      -------------------------------------------------------------
         1        2.0000           -0.7412120             -20.1694
       ...           ...                  ...                  ...
        18        2.0000           -0.4730374             -12.8720
        19        2.0000           -0.4670437             -12.7089
        20        2.0000           -0.4610965             -12.5471
        21        2.0000           -0.4443684             -12.0919
        22        2.0000           -0.4352705             -11.8443
        23        2.0000           -0.4263956             -11.6028
        24        1.0000           -0.3280259              -8.9260 (HOMO)
        25                         -0.1790062              -4.8710 (LUMO)
        26                         -0.0674559              -1.8356
        27                          0.0448427               1.2202
        28                          0.0773611               2.1051
        29                          0.0889049               2.4192
       ...                                ...                  ...
        41                          0.3794817              10.3262
      -------------------------------------------------------------
                  HL-Gap            0.1490197 Eh            4.0550 eV
             Fermi-level           -0.3153634 Eh           -8.5815 eV

 SCC (total)                   0 d,  0 h,  0 min,  0.036 sec
 SCC setup                      ...        0 min,  0.001 sec (  3.426%)
 Dispersion                     ...        0 min,  0.000 sec (  1.376%)
 classical contributions        ...        0 min,  0.000 sec (  1.053%)
 integral evaluation            ...        0 min,  0.002 sec (  4.880%)
 iterations                     ...        0 min,  0.027 sec ( 74.509%)
 molecular gradient             ...        0 min,  0.004 sec ( 12.616%)
 printout                       ...        0 min,  0.001 sec (  2.053%)

         :::::::::::::::::::::::::::::::::::::::::::::::::::::
         ::                     SUMMARY                     ::
         :::::::::::::::::::::::::::::::::::::::::::::::::::::
         :: total energy             -27.310734481338 Eh    ::
         :: gradient norm              0.012545895777 Eh/a0 ::
         :: HOMO-LUMO gap              4.055031167764 eV    ::
         ::.................................................::
         :: SCC energy               -27.562383665592 Eh    ::
         :: -> isotropic ES            0.049537182308 Eh    ::
         :: -> anisotropic ES         -0.004594340188 Eh    ::
         :: -> anisotropic XC         -0.003892094497 Eh    ::
         :: -> dispersion             -0.010461068783 Eh    ::
         :: repulsion energy           0.251649184254 Eh    ::
         :: add. restraining           0.000000000000 Eh    ::
         :: total charge               0.000000000000 e     ::
         :::::::::::::::::::::::::::::::::::::::::::::::::::::


Property printout bound to 'properties.out'

           -------------------------------------------------
          | TOTAL ENERGY              -27.310734481338 Eh   |
          | GRADIENT NORM               0.012545895777 Eh/α |
          | HOMO-LUMO GAP               4.055031167764 eV   |
           -------------------------------------------------

------------------------------------------------------------------------
 * finished run on 2026/02/18 at 13:00:38.519     
------------------------------------------------------------------------
 total:
 * wall-time:     0 d,  0 h,  0 min,  0.076 sec
 *  cpu-time:     0 d,  0 h,  0 min,  0.301 sec
 * ratio c/w:     3.971 speedup
 SCF:
 * wall-time:     0 d,  0 h,  0 min,  0.036 sec
 *  cpu-time:     0 d,  0 h,  0 min,  0.144 sec
 * ratio c/w:     4.022 speedup


-------------------------   --------------------
FINAL SINGLE POINT ENERGY       -27.310734481340
-------------------------   --------------------


-------------
DIPOLE MOMENT
-------------
                                X             Y             Z
Total Dipole Moment    :      0.31000      -0.26100      -1.23000
                        -----------------------------------------
Magnitude (a.u.)       :      1.29504
Magnitude (Debye)      :      3.29172


------------------
CARTESIAN GRADIENT
------------------

   1   C   :   -0.001928462   -0.000973800    0.001474548
   2   C   :    0.000810925   -0.000366213    0.000793599
   3   C   :    0.001326957    0.000346138   -0.002591000
   4   C   :    0.004100169    0.003906379    0.003240606
   5   C   :   -0.002856545   -0.002258328    0.000456616
   6   O   :   -0.004274345   -0.002786626   -0.002232679
   7   O   :   -0.002331242   -0.001845748   -0.002629066
   8   O   :    0.003548559    0.001302484    0.002491439
   9   H   :    0.000023815    0.001461721   -0.002100367
  10   H   :    0.000156083   -0.000570228    0.000699686
  11   H   :   -0.000248734    0.000047658   -0.000095809
  12   H   :   -0.000193481   -0.000070209   -0.000179859
  13   H   :   -0.000407475    0.000233834    0.000122599
  14   H   :    0.000243485   -0.000033800    0.000293666
  15   H   :   -0.000272945   -0.000249534   -0.000245859
  16   H   :    0.000497759   -0.000429377    0.000058174
  17   H   :    0.001805477    0.002285648    0.000443707

Difference to translation invariance:
           :   -0.0000000000   -0.0000000000   -0.0000000000

Difference to rotation invariance:
           :   -0.0000001420    0.0000000109   -0.0000003872

Norm of the Cartesian gradient     ...    0.0125458958
RMS gradient                       ...    0.0017567768
MAX gradient                       ...    0.0042743449
------------------------------------------------------------------------------
                         ORCA GEOMETRY RELAXATION STEP
------------------------------------------------------------------------------

Reading the OPT-File                    .... done
Getting information on internals        .... done
Copying old internal coords+grads       .... done
Making the new internal coordinates     .... (2022 redundants) done
Validating the new internal coordinates .... (2022 redundants) done
Calculating the B-matrix                .... done
Calculating the G,G- and P matrices     .... done
Transforming gradient to internals      .... done
Projecting the internal gradient        .... done
Number of atoms                         ....  17
Number of internal coordinates          ....  78
Current Energy                          ....   -27.310734481 Eh
Current gradient norm                   ....     0.012545896 Eh/bohr
Maximum allowed component of the step   ....  0.300
Current trust radius                    ....  0.450
Updating the Hessian (BFGS)             .... done
Forming the augmented Hessian           .... done
Diagonalizing the augmented Hessian     .... done
Last element of RFO vector              ....  0.848765650
Lowest eigenvalues of augmented Hessian:
 -0.002424905  0.005557578  0.011845797  0.012557990  0.013902448
Length of the computed step             ....  0.622986103
Warning: the length of the step is outside the trust region - taking restricted step instead
The input lambda is                     ....     0.002333
   iter:   5  x=   -0.002788  g=  266.269797 f(x)=     0.409023
   iter:  10  x=   -0.004647  g=   50.530224 f(x)=     0.000000
The output lambda is                    ....    -0.004647 (11 iterations)
The final length of the internal step   ....  0.450000000
Converting the step to Cartesian space:
 Initial RMS(Int)=    0.0509524665
Transforming coordinates:
 Iter   0:  RMS(Cart)=    0.0806034648 RMS(Int)=    0.6938025747
 Iter   5:  RMS(Cart)=    0.0000293551 RMS(Int)=    0.0000205914
 Iter  10:  RMS(Cart)=    0.0000000314 RMS(Int)=    0.0000000260
done
Storing new coordinates                 .... done
The predicted energy change is          ....    -0.001371526
Previously predicted energy change      ....    -0.001968468
Actually observed energy change         ....    -0.002035031
Ratio of predicted to observed change   ....     1.033814712
New trust radius                        ....     0.675000000

                                .--------------------.
          ----------------------|Geometry convergence|-------------------------
          Item                value                   Tolerance       Converged
          ---------------------------------------------------------------------
          Energy change      -0.0020350307            0.0000050000      NO
          RMS gradient        0.0009835313            0.0001000000      NO
          MAX gradient        0.0051509845            0.0003000000      NO
          RMS step            0.0509524665            0.0020000000      NO
          MAX step            0.2111903566            0.0040000000      NO
          -------------------------------------------------------------------------
          ........................................................
          Max(Bonds)      0.0102      Max(Angles)    1.00
          Max(Dihed)       12.10      Max(Improp)    0.00
          ---------------------------------------------------------------------

    ---------------------------------------------------------------------------
                         Redundant Internal Coordinates
                            (Angstroem and degrees)

        Definition                    Value    dE/dq     Step     New-Value
    ----------------------------------------------------------------------------
     1. B(C   2,C   1)                1.5240  0.000402 -0.0007    1.5233   
     2. B(C   3,C   0)                1.4304  0.001747 -0.0075    1.4229   
     3. B(C   4,C   3)                1.5178 -0.001707  0.0102    1.5280   
     4. B(C   4,C   2)                1.5219  0.002002 -0.0025    1.5193   
     5. B(O   6,C   4)                1.3859 -0.000508  0.0014    1.3874   
     6. B(O   6,C   3)                1.3988 -0.002766  0.0072    1.4060   
     7. B(O   7,C   4)                1.3732 -0.000420 -0.0006    1.3726   
     8. B(O   7,O   5)                1.4346 -0.001493  0.0058    1.4404   
     9. B(H   8,C   0)                1.0715  0.000176  0.0001    1.0716   
    10. B(H   9,C   0)                1.0711 -0.000164  0.0007    1.0718   
    11. B(H  10,C   1)                1.0863 -0.000078  0.0002    1.0865   
    12. B(H  11,C   1)                1.0867 -0.000079  0.0001    1.0868   
    13. B(H  12,C   1)                1.0870 -0.000101  0.0003    1.0873   
    14. B(H  13,C   2)                1.0931 -0.000255 -0.0000    1.0930   
    15. B(H  14,C   2)                1.0926 -0.000237  0.0003    1.0929   
    16. B(H  15,C   3)                1.0920  0.000617 -0.0017    1.0902   
    17. B(H  16,O   5)                0.9671  0.000186 -0.0005    0.9666   
    18. A(C   3,C   0,H   8)          119.20 -0.000551    0.16    119.36   
    19. A(C   3,C   0,H   9)          119.81  0.000204   -0.09    119.72   
    20. A(H   8,C   0,H   9)          119.97  0.000194    0.08    120.05   
    21. A(H  11,C   1,H  12)          108.60  0.000325   -0.06    108.54   
    22. A(C   2,C   1,H  12)          111.08 -0.000385    0.07    111.14   
    23. A(H  10,C   1,H  12)          108.25  0.000114    0.10    108.36   
    24. A(H  10,C   1,H  11)          109.25  0.000319    0.02    109.27   
    25. A(C   2,C   1,H  11)          109.71 -0.000079   -0.02    109.69   
    26. A(C   2,C   1,H  10)          109.91 -0.000272   -0.12    109.79   
    27. A(C   1,C   2,H  14)          109.61  0.000553    0.05    109.66   
    28. A(C   4,C   2,H  13)          108.55  0.000447   -0.16    108.39   
    29. A(C   4,C   2,H  14)          107.02  0.000186   -0.61    106.41   
    30. A(C   1,C   2,H  13)          110.79  0.000384    0.21    111.01   
    31. A(C   1,C   2,C   4)          112.68 -0.001498    0.26    112.94   
    32. A(H  13,C   2,H  14)          108.01 -0.000029    0.20    108.21   
    33. A(C   4,C   3,H  15)          112.39 -0.000338   -0.65    111.75   
    34. A(C   0,C   3,H  15)          116.47  0.000435    0.37    116.84   
    35. A(O   6,C   3,H  15)          114.93  0.000107   -0.60    114.32   
    36. A(C   4,C   3,O   6)           56.57  0.000635   -0.32     56.25   
    37. A(C   0,C   3,C   4)          122.86 -0.000333    0.54    123.39   
    38. A(C   0,C   3,O   6)          120.21 -0.000512    0.26    120.47   
    39. A(C   3,C   4,O   6)           57.38 -0.000677    0.05     57.43   
    40. A(C   2,C   4,O   6)          119.15  0.000455   -0.00    119.15   
    41. A(C   2,C   4,C   3)          121.67  0.000097    0.10    121.77   
    42. A(O   6,C   4,O   7)          117.33  0.000073    0.10    117.42   
    43. A(C   3,C   4,O   7)          113.26  0.000429   -0.55    112.71   
    44. A(C   2,C   4,O   7)          115.62 -0.000400    0.21    115.83   
    45. A(O   7,O   5,H  16)          104.14  0.005151   -1.00    103.15   
    46. A(C   3,O   6,C   4)           66.05  0.000041    0.27     66.32   
    47. A(C   4,O   7,O   5)          111.92  0.002854   -0.47    111.45   
    48. D(H  13,C   2,C   1,H  10)   -179.53  0.000111    0.89   -178.63   
    49. D(H  13,C   2,C   1,H  11)     60.33 -0.000063    0.95     61.28   
    50. D(C   4,C   2,C   1,H  12)     62.08 -0.000371    1.13     63.22   
    51. D(C   4,C   2,C   1,H  10)    -57.69 -0.000090    1.03    -56.66   
    52. D(C   4,C   2,C   1,H  11)   -177.84 -0.000264    1.09   -176.75   
    53. D(H  13,C   2,C   1,H  12)    -59.75 -0.000170    1.00    -58.75   
    54. D(C   4,C   3,C   0,H   8)    112.43 -0.001823    9.87    122.30   
    55. D(O   6,C   3,C   0,H   9)     11.47 -0.000557    7.34     18.80   
    56. D(O   6,C   3,C   0,H   8)    179.92 -0.001388    9.79    189.71   
    57. D(H  15,C   3,C   0,H   8)    -33.49 -0.001289    9.66    -23.83   
    58. D(C   4,C   3,C   0,H   9)    -56.02 -0.000992    7.42    -48.60   
    59. D(C   3,C   4,C   2,H  14)   -178.68  0.000166    2.03   -176.65   
    60. D(C   3,C   4,C   2,H  13)     64.97 -0.000124    2.21     67.18   
    61. D(O   6,C   4,C   2,C   1)      9.47 -0.000524    1.95     11.42   
    62. D(C   3,C   4,C   2,C   1)    -58.13  0.000073    1.87    -56.26   
    63. D(O   6,C   4,C   3,H  15)   -105.92 -0.000475    0.45   -105.46   
    64. D(O   6,C   4,C   3,C   0)    106.94 -0.000195   -0.07    106.87   
    65. D(C   2,C   4,C   3,H  15)      0.62 -0.000251    0.42      1.05   
    66. D(C   2,C   4,C   3,O   6)    106.54  0.000224   -0.03    106.51   
    67. D(C   2,C   4,C   3,C   0)   -146.52  0.000030   -0.10   -146.62   
    68. D(O   6,C   4,C   2,H  14)   -111.09 -0.000431    2.12   -108.97   
    69. D(O   7,C   4,C   3,C   0)     -1.61  0.000106   -0.49     -2.10   
    70. D(O   6,C   4,C   2,H  13)    132.56 -0.000721    2.29    134.86   
    71. D(C   3,O   6,C   4,O   7)    101.37  0.000228   -0.71    100.66   
    72. D(C   3,O   6,C   4,C   2)   -110.90  0.000333   -0.13   -111.03   
    73. D(C   4,O   6,C   3,H  15)    101.34 -0.000266   -0.58    100.76   
    74. D(C   4,O   6,C   3,C   0)   -111.58 -0.000060   -0.42   -112.01   
    75. D(C   4,O   7,O   5,H  16)    143.90 -0.001485   12.10    156.01   
    76. D(O   5,O   7,C   4,O   6)     82.41 -0.000337    5.43     87.84   
    77. D(O   5,O   7,C   4,C   3)    146.42 -0.000941    5.33    151.75   
    78. D(O   5,O   7,C   4,C   2)    -66.44 -0.000708    4.95    -61.50   
    ----------------------------------------------------------------------------

Geometry step timings:
Preparation and reading OPT file:      0.000 s ( 0.810 %)
Internal coordinates            :      0.000 s ( 1.001 %)
B/P matrices and projection     :      0.001 s (25.137 %)
Hessian update/contruction      :      0.000 s (11.651 %)
Making the step                 :      0.002 s (36.312 %)
Converting the step to Cartesian:      0.000 s ( 3.360 %)
Storing new data                :      0.000 s ( 1.096 %)
Checking convergence            :      0.000 s ( 2.192 %)
Final printing                  :      0.001 s (18.418 %)
Total time                      :      0.004 s

Time for energy+gradient        :      0.094 s
Time for complete geometry iter :      0.100 s

         *************************************************************
         *                GEOMETRY OPTIMIZATION CYCLE   6            *
         *************************************************************
---------------------------------
CARTESIAN COORDINATES (ANGSTROEM)
---------------------------------
  C    -2.386399   -1.116911    0.530562
  C     2.141253   -0.416592    0.108736
  C     1.059669    0.226710   -0.749592
  C    -0.973855   -0.947578    0.504420
  C    -0.286736    0.299728   -0.049450
  O    -0.663413    2.556079   -0.463881
  O    -0.357492    0.027059    1.308947
  O    -1.176056    1.213281   -0.557880
  H    -2.825108   -1.960188    0.035747
  H    -3.009760   -0.333412    0.913050
  H     2.236234    0.123513    1.046736
  H     3.091239   -0.389802   -0.418420
  H     1.899430   -1.452647    0.333062
  H     0.930572   -0.316288   -1.689357
  H     1.341193    1.256006   -0.985803
  H    -0.373466   -1.843576    0.345221
  H    -1.144158    3.024137   -1.159629

----------------------------
CARTESIAN COORDINATES (A.U.)
----------------------------
  NO LB    ZA    FRAG    MASS        X           Y           Z
   0 C   6.0000    1    12.011   -4.509641   -2.110656    1.002616
   1 C   6.0000    1    12.011    4.046382   -0.787245    0.205482
   2 C   6.0000    1    12.011    2.002485    0.428420   -1.416524
   3 C   6.0000    1    12.011   -1.840319   -1.790663    0.953216
   4 C   6.0000    1    12.011   -0.541853    0.566404   -0.093446
   5 O   8.0000    1    15.999   -1.253670    4.830289   -0.876609
   6 O   8.0000    1    15.999   -0.675561    0.051134    2.473551
   7 O   8.0000    1    15.999   -2.222424    2.292768   -1.054240
   8 H   1.0000    1     1.008   -5.338681   -3.704219    0.067553
   9 H   1.0000    1     1.008   -5.687623   -0.630058    1.725415
  10 H   1.0000    1     1.008    4.225870    0.233407    1.978045
  11 H   1.0000    1     1.008    5.841594   -0.736619   -0.790699
  12 H   1.0000    1     1.008    3.589402   -2.745105    0.629396
  13 H   1.0000    1     1.008    1.758526   -0.597699   -3.192423
  14 H   1.0000    1     1.008    2.534487    2.373507   -1.862898
  15 H   1.0000    1     1.008   -0.705748   -3.483853    0.652374
  16 H   1.0000    1     1.008   -2.162146    5.714791   -2.191381

      -----------------------------------------------------------      
     |                   =====================                   |     
     |                           x T B                           |     
     |                   =====================                   |     
     |                         S. Grimme                         |     
     |          Mulliken Center for Theoretical Chemistry        |     
     |                    University of Bonn                     |     
      -----------------------------------------------------------      

   * xtb version 6.7.1 (edcfbbe) compiled by 'albert@albert-system' on 2024-07-22

   xtb is free software: you can redistribute it and/or modify it under
   the terms of the GNU Lesser General Public License as published by
   the Free Software Foundation, either version 3 of the License, or
   (at your option) any later version.
   
   xtb is distributed in the hope that it will be useful,
   but WITHOUT ANY WARRANTY; without even the implied warranty of
   MERCHANTABILITY or FITNESS FOR A PARTICULAR PURPOSE.  See the
   GNU Lesser General Public License for more details.
   
   Cite this work as:
   * C. Bannwarth, E. Caldeweyher, S. Ehlert, A. Hansen, P. Pracht,
     J. Seibert, S. Spicher, S. Grimme, WIREs Comput. Mol. Sci., 2020, 11,
     e01493. DOI: 10.1002/wcms.1493
   
   for GFN2-xTB:
   * C. Bannwarth, S. Ehlert and S. Grimme., J. Chem. Theory Comput., 2019,
     15, 1652-1671. DOI: 10.1021/acs.jctc.8b01176
   for GFN1-xTB:
   * S. Grimme, C. Bannwarth, P. Shushkov, J. Chem. Theory Comput., 2017,
     13, 1989-2009. DOI: 10.1021/acs.jctc.7b00118
   for GFN0-xTB:
   * P. Pracht, E. Caldeweyher, S. Ehlert, S. Grimme, ChemRxiv, 2019, preprint.
     DOI: 10.26434/chemrxiv.8326202.v1
   for GFN-FF:
   * S. Spicher and S. Grimme, Angew. Chem. Int. Ed., 2020, 59, 15665-15673.
     DOI: 10.1002/anie.202004239
   
   for ALPB and GBSA implicit solvation:
   * S. Ehlert, M. Stahn, S. Spicher, S. Grimme, J. Chem. Theory Comput.,
     2021, 17, 4250-4261. DOI: 10.1021/acs.jctc.1c00471
   
   for ddCOSMO and CPCM-X implicit solvation:
   * M. Stahn, S. Ehlert, S. Grimme, J. Phys. Chem. A,
     2023, XX, XXXX-XXXX. DOI: 10.1021/acs.jpca.3c04382
   
   for DFT-D4:
   * E. Caldeweyher, C. Bannwarth and S. Grimme, J. Chem. Phys., 2017,
     147, 034112. DOI: 10.1063/1.4993215
   * E. Caldeweyher, S. Ehlert, A. Hansen, H. Neugebauer, S. Spicher,
     C. Bannwarth and S. Grimme, J. Chem. Phys., 2019, 150, 154122.
     DOI: 10.1063/1.5090222
   * E. Caldeweyher, J.-M. Mewes, S. Ehlert and S. Grimme, Phys. Chem. Chem. Phys.
     2020, 22, 8499-8512. DOI: 10.1039/D0CP00502A
   
   for sTDA-xTB:
   * S. Grimme and C. Bannwarth, J. Chem. Phys., 2016, 145, 054103.
     DOI: 10.1063/1.4959605
   
   in the mass-spec context:
   * V. Asgeirsson, C. Bauer and S. Grimme, Chem. Sci., 2017, 8, 4879.
     DOI: 10.1039/c7sc00601b
   * J. Koopman and S. Grimme, ACS Omega 2019, 4, 12, 15120-15133.
     DOI: 10.1021/acsomega.9b02011
   
   for metadynamics refer to:
   * S. Grimme, J. Chem. Theory Comput., 2019, 155, 2847-2862
     DOI: 10.1021/acs.jctc.9b00143
   
   for SPH calculations refer to:
   * S. Spicher and S. Grimme, J. Chem. Theory Comput., 2021, 17, 1701-1714
     DOI: 10.1021/acs.jctc.0c01306
   
   for ONIOM refer to:
   * C. Plett, A. Katbashev, S. Ehlert, S. Grimme, M. Bursch,
     Phys. Chem. Chem. Phys., 2023, 25, 17860-17868. DOI: 10.1039/D3CP02178E
   
   for DIPRO refer to:
   * J. Kohn, N. Gildemeister, S. Grimme, D. Fazzi, A. Hansen,
     J. Chem. Phys., 2023, just accepted.
   
   for PTB refer to:
   * S. Grimme, M. Mueller, A. Hansen, J. Chem. Phys., 2023, 158, 124111.
     DOI: 10.1063/5.0137838
   
   with help from (in alphabetical order)
   P. Atkinson, C. Bannwarth, F. Bohle, G. Brandenburg, E. Caldeweyher
   M. Checinski, S. Dohm, S. Ehlert, S. Ehrlich, I. Gerasimov, C. Hölzer
   A. Katbashev, J. Kohn, J. Koopman, C. Lavigne, S. Lehtola, F. März, M. Müller,
   F. Musil, H. Neugebauer, J. Pisarek, C. Plett, P. Pracht, F. Pultar,
   J. Seibert, P. Shushkov, S. Spicher, M. Stahn, M. Steiner, T. Strunk,
   J. Stückrath, T. Rose, and J. Unsleber
   
 * started run on 2026/02/18 at 13:00:38.544     
   ID    Z sym.   atoms
    1    6 C      1-5
    2    8 O      6-8
    3    1 H      9-17

           -------------------------------------------------
          |                Calculation Setup                |
           -------------------------------------------------

          program call               : /apps/eb/ORCA/6.1.1-gompi-2024a-avx2/bin/otool_xtb goat_XTB.xyz --grad -c 0 -u 1 -P 8 --namespace goat --input goat_XTB.input.tmp --acc 0.200000
          hostname                   : ra2-19
          calculation namespace      : goat
          coordinate file            : goat_XTB.xyz
          omp threads                :                     8


           -------------------------------------------------
          |                 G F N 2 - x T B                 |
           -------------------------------------------------

        Reference                      10.1021/acs.jctc.8b01176
      * Hamiltonian:
        H0-scaling (s, p, d)           1.850000    2.230000    2.230000
        zeta-weighting                 0.500000
      * Dispersion:
        s8                             2.700000
        a1                             0.520000
        a2                             5.000000
        s9                             5.000000
      * Repulsion:
        kExp                           1.500000    1.000000
        rExp                           1.000000
      * Coulomb:
        alpha                          2.000000
        third order                    shell-resolved
        anisotropic                    true
        a3                             3.000000
        a5                             4.000000
        cn-shift                       1.200000
        cn-exp                         4.000000
        max-rad                        5.000000

q/qsh data taken from xtbrestart
CAMM data taken from xtbrestart

          ...................................................
          :                      SETUP                      :
          :.................................................:
          :  # basis functions                  41          :
          :  # atomic orbitals                  41          :
          :  # shells                           25          :
          :  # electrons                        47          :
          :  max. iterations                   250          :
          :  Hamiltonian                  GFN2-xTB          :
          :  restarted?                       true          :
          :  GBSA solvation                  false          :
          :  PC potential                    false          :
          :  electronic temp.          300.0000000     K    :
          :  accuracy                    0.2000000          :
          :  -> integral cutoff          0.3198970E+02      :
          :  -> integral neglect         0.2000000E-08      :
          :  -> SCF convergence          0.2000000E-06 Eh   :
          :  -> wf. convergence          0.2000000E-04 e    :
          :  Broyden damping             0.4000000          :
          :  net charge                          0          :
          :  unpaired electrons                  1          :
          ...................................................

 iter      E             dE          RMSdq      gap      omega  full diag
   1    -27.5639216 -0.275639E+02  0.560E-01    3.96       0.0  T
   2    -27.5639496 -0.280268E-04  0.336E-01    3.96       1.0  T
   3    -27.5639522 -0.259451E-05  0.312E-02    3.96       1.0  T
   4    -27.5639621 -0.986961E-05  0.156E-02    3.95       1.6  T
   5    -27.5639626 -0.469467E-06  0.698E-03    3.96       3.5  T
   6    -27.5639627 -0.117384E-06  0.138E-03    3.96      17.5  T
   7    -27.5639627 -0.114981E-07  0.502E-04    3.96      48.3  T
   8    -27.5639627 -0.831275E-09  0.266E-04    3.96      91.1  T
   9    -27.5639627 -0.308631E-09  0.118E-04    3.96     205.7  T
  10    -27.5639627 -0.791474E-10  0.571E-05    3.96     425.1  T

   *** convergence criteria satisfied after 10 iterations ***

         #    Occupation            Energy/Eh            Energy/eV
      -------------------------------------------------------------
         1        2.0000           -0.7409626             -20.1626
       ...           ...                  ...                  ...
        18        2.0000           -0.4720989             -12.8465
        19        2.0000           -0.4668724             -12.7042
        20        2.0000           -0.4613501             -12.5540
        21        2.0000           -0.4440808             -12.0841
        22        2.0000           -0.4330095             -11.7828
        23        2.0000           -0.4265837             -11.6079
        24        1.0000           -0.3276230              -8.9151 (HOMO)
        25                         -0.1822476              -4.9592 (LUMO)
        26                         -0.0695189              -1.8917
        27                          0.0451752               1.2293
        28                          0.0728234               1.9816
        29                          0.0893878               2.4324
       ...                                ...                  ...
        41                          0.3837658              10.4428
      -------------------------------------------------------------
                  HL-Gap            0.1453754 Eh            3.9559 eV
             Fermi-level           -0.3160193 Eh           -8.5993 eV

 SCC (total)                   0 d,  0 h,  0 min,  0.012 sec
 SCC setup                      ...        0 min,  0.000 sec (  2.285%)
 Dispersion                     ...        0 min,  0.000 sec (  1.176%)
 classical contributions        ...        0 min,  0.000 sec (  0.266%)
 integral evaluation            ...        0 min,  0.001 sec (  5.692%)
 iterations                     ...        0 min,  0.009 sec ( 77.908%)
 molecular gradient             ...        0 min,  0.001 sec (  9.823%)
 printout                       ...        0 min,  0.000 sec (  2.539%)

         :::::::::::::::::::::::::::::::::::::::::::::::::::::
         ::                     SUMMARY                     ::
         :::::::::::::::::::::::::::::::::::::::::::::::::::::
         :: total energy             -27.312124789231 Eh    ::
         :: gradient norm              0.007992703208 Eh/a0 ::
         :: HOMO-LUMO gap              3.955865586197 eV    ::
         ::.................................................::
         :: SCC energy               -27.563926298713 Eh    ::
         :: -> isotropic ES            0.049653936187 Eh    ::
         :: -> anisotropic ES         -0.005134693299 Eh    ::
         :: -> anisotropic XC         -0.003575596894 Eh    ::
         :: -> dispersion             -0.010441564575 Eh    ::
         :: repulsion energy           0.251801509482 Eh    ::
         :: add. restraining           0.000000000000 Eh    ::
         :: total charge              -0.000000000000 e     ::
         :::::::::::::::::::::::::::::::::::::::::::::::::::::


Property printout bound to 'properties.out'

           -------------------------------------------------
          | TOTAL ENERGY              -27.312124789231 Eh   |
          | GRADIENT NORM               0.007992703208 Eh/α |
          | HOMO-LUMO GAP               3.955865586197 eV   |
           -------------------------------------------------

------------------------------------------------------------------------
 * finished run on 2026/02/18 at 13:00:38.575     
------------------------------------------------------------------------
 total:
 * wall-time:     0 d,  0 h,  0 min,  0.030 sec
 *  cpu-time:     0 d,  0 h,  0 min,  0.202 sec
 * ratio c/w:     6.852 speedup
 SCF:
 * wall-time:     0 d,  0 h,  0 min,  0.012 sec
 *  cpu-time:     0 d,  0 h,  0 min,  0.096 sec
 * ratio c/w:     7.875 speedup


-------------------------   --------------------
FINAL SINGLE POINT ENERGY       -27.312124789230
-------------------------   --------------------


-------------
DIPOLE MOMENT
-------------
                                X             Y             Z
Total Dipole Moment    :      0.17200      -0.24400      -1.16700
                        -----------------------------------------
Magnitude (a.u.)       :      1.20458
Magnitude (Debye)      :      3.06179


------------------
CARTESIAN GRADIENT
------------------

   1   C   :   -0.000050912   -0.001143502    0.001526402
   2   C   :    0.000925722   -0.000362959    0.000655923
   3   C   :    0.001752072   -0.000078594   -0.001893253
   4   C   :   -0.001306053    0.001046845    0.003417157
   5   C   :    0.000441209    0.001366170   -0.001992299
   6   O   :   -0.002830942   -0.001527726   -0.001066976
   7   O   :   -0.000953979   -0.002449725   -0.000167782
   8   O   :    0.001127050    0.000160220    0.001145328
   9   H   :    0.000001565    0.000319404   -0.001615710
  10   H   :    0.000147968    0.000319138    0.000279904
  11   H   :   -0.000370736    0.000268712   -0.000028646
  12   H   :   -0.000079100   -0.000106877   -0.000241271
  13   H   :   -0.000462399    0.000074274    0.000066096
  14   H   :   -0.000134881   -0.000082239    0.000394210
  15   H   :   -0.000643191    0.000097251    0.000191596
  16   H   :    0.000835390    0.000423627   -0.000536983
  17   H   :    0.001601218    0.001675982   -0.000133697

Difference to translation invariance:
           :   -0.0000000000    0.0000000000    0.0000000000

Difference to rotation invariance:
           :   -0.0000002487    0.0000001180   -0.0000005099

Norm of the Cartesian gradient     ...    0.0079927032
RMS gradient                       ...    0.0011192023
MAX gradient                       ...    0.0034171570
------------------------------------------------------------------------------
                         ORCA GEOMETRY RELAXATION STEP
------------------------------------------------------------------------------

Reading the OPT-File                    .... done
Getting information on internals        .... done
Copying old internal coords+grads       .... done
Making the new internal coordinates     .... (2022 redundants) done
Validating the new internal coordinates .... (2022 redundants) done
Calculating the B-matrix                .... done
Calculating the G,G- and P matrices     .... done
Transforming gradient to internals      .... done
Projecting the internal gradient        .... done
Number of atoms                         ....  17
Number of internal coordinates          ....  78
Current Energy                          ....   -27.312124789 Eh
Current gradient norm                   ....     0.007992703 Eh/bohr
Maximum allowed component of the step   ....  0.300
Current trust radius                    ....  0.675
Updating the Hessian (BFGS)             .... done
Forming the augmented Hessian           .... done
Diagonalizing the augmented Hessian     .... done
Last element of RFO vector              ....  0.900057265
Lowest eigenvalues of augmented Hessian:
 -0.001227346  0.004484367  0.011848606  0.013119884  0.014318797
Length of the computed step             ....  0.484159902
The final length of the internal step   ....  0.481644327
Converting the step to Cartesian space:
 Initial RMS(Int)=    0.0545354810
Transforming coordinates:
 Iter   0:  RMS(Cart)=    0.0889291691 RMS(Int)=    0.0544193320
 Iter   5:  RMS(Cart)=    0.0001052958 RMS(Int)=    0.0000653342
 Iter  10:  RMS(Cart)=    0.0000003282 RMS(Int)=    0.0000002697
done
Storing new coordinates                 .... done
The predicted energy change is          ....    -0.000755936
Previously predicted energy change      ....    -0.001371526
Actually observed energy change         ....    -0.001390308
Ratio of predicted to observed change   ....     1.013694305
New trust radius                        ....     0.700000000

                                .--------------------.
          ----------------------|Geometry convergence|-------------------------
          Item                value                   Tolerance       Converged
          ---------------------------------------------------------------------
          Energy change      -0.0013903079            0.0000050000      NO
          RMS gradient        0.0007021406            0.0001000000      NO
          MAX gradient        0.0039356779            0.0003000000      NO
          RMS step            0.0545354810            0.0020000000      NO
          MAX step            0.3000000000            0.0040000000      NO
          -------------------------------------------------------------------------
          ........................................................
          Max(Bonds)      0.0083      Max(Angles)    1.43
          Max(Dihed)       17.19      Max(Improp)    0.00
          ---------------------------------------------------------------------

    ---------------------------------------------------------------------------
                         Redundant Internal Coordinates
                            (Angstroem and degrees)

        Definition                    Value    dE/dq     Step     New-Value
    ----------------------------------------------------------------------------
     1. B(C   2,C   1)                1.5233  0.000318 -0.0009    1.5224   
     2. B(C   3,C   0)                1.4229 -0.000034 -0.0053    1.4176   
     3. B(C   4,C   3)                1.5280  0.000908  0.0058    1.5337   
     4. B(C   4,C   2)                1.5193  0.001278 -0.0031    1.5162   
     5. B(O   6,C   4)                1.3873  0.001077 -0.0012    1.3861   
     6. B(O   6,C   3)                1.4061 -0.001153  0.0083    1.4144   
     7. B(O   7,C   4)                1.3726  0.000292 -0.0004    1.3722   
     8. B(O   7,O   5)                1.4404 -0.000378  0.0053    1.4457   
     9. B(H   8,C   0)                1.0716  0.000494 -0.0006    1.0711   
    10. B(H   9,C   0)                1.0718  0.000247  0.0001    1.0719   
    11. B(H  10,C   1)                1.0865  0.000076  0.0001    1.0867   
    12. B(H  11,C   1)                1.0868  0.000045  0.0000    1.0868   
    13. B(H  12,C   1)                1.0873  0.000046  0.0002    1.0875   
    14. B(H  13,C   2)                1.0930 -0.000282  0.0003    1.0934   
    15. B(H  14,C   2)                1.0929 -0.000115  0.0003    1.0933   
    16. B(H  15,C   3)                1.0902  0.000190 -0.0015    1.0888   
    17. B(H  16,O   5)                0.9666  0.000111 -0.0004    0.9662   
    18. A(C   3,C   0,H   8)          119.44 -0.000300    0.31    119.75   
    19. A(C   3,C   0,H   9)          119.80 -0.000280    0.15    119.95   
    20. A(H   8,C   0,H   9)          120.13  0.000431    0.10    120.22   
    21. A(H  11,C   1,H  12)          108.54  0.000310   -0.13    108.41   
    22. A(C   2,C   1,H  12)          111.15 -0.000445    0.16    111.31   
    23. A(H  10,C   1,H  12)          108.36  0.000281    0.07    108.43   
    24. A(H  10,C   1,H  11)          109.27  0.000417   -0.09    109.18   
    25. A(C   2,C   1,H  11)          109.69  0.000020   -0.05    109.64   
    26. A(C   2,C   1,H  10)          109.79 -0.000556    0.03    109.82   
    27. A(C   1,C   2,H  14)          109.67  0.000706   -0.06    109.61   
    28. A(C   4,C   2,H  13)          108.39  0.000061   -0.08    108.30   
    29. A(C   4,C   2,H  14)          106.42 -0.000762   -0.33    106.09   
    30. A(C   1,C   2,H  13)          111.01  0.000578    0.06    111.07   
    31. A(C   1,C   2,C   4)          112.95 -0.001069    0.39    113.33   
    32. A(H  13,C   2,H  14)          108.21  0.000487   -0.03    108.17   
    33. A(C   4,C   3,H  15)          111.73 -0.001025   -0.05    111.69   
    34. A(C   0,C   3,H  15)          116.84  0.000466    0.28    117.12   
    35. A(O   6,C   3,H  15)          114.32 -0.000386   -0.64    113.67   
    36. A(C   4,C   3,O   6)           56.25  0.000432   -0.34     55.91   
    37. A(C   0,C   3,C   4)          123.38  0.000245    0.29    123.67   
    38. A(C   0,C   3,O   6)          120.47  0.000121    0.11    120.58   
    39. A(C   3,C   4,O   6)           57.43 -0.000870    0.25     57.68   
    40. A(C   2,C   4,O   6)          119.14  0.000230    0.11    119.25   
    41. A(C   2,C   4,C   3)          121.76  0.000183    0.03    121.79   
    42. A(O   6,C   4,O   7)          117.42  0.000680   -0.19    117.23   
    43. A(C   3,C   4,O   7)          112.72  0.000333   -0.45    112.27   
    44. A(C   2,C   4,O   7)          115.82 -0.000556    0.19    116.01   
    45. A(O   7,O   5,H  16)          103.15  0.003936   -1.43    101.72   
    46. A(C   3,O   6,C   4)           66.32  0.000438    0.09     66.41   
    47. A(C   4,O   7,O   5)          111.45  0.000583   -0.29    111.16   
    48. D(H  13,C   2,C   1,H  10)   -178.63  0.000151    1.23   -177.40   
    49. D(H  13,C   2,C   1,H  11)     61.28 -0.000028    1.36     62.64   
    50. D(C   4,C   2,C   1,H  12)     63.22 -0.000405    1.66     64.87   
    51. D(C   4,C   2,C   1,H  10)    -56.66 -0.000108    1.44    -55.22   
    52. D(C   4,C   2,C   1,H  11)   -176.75 -0.000288    1.57   -175.18   
    53. D(H  13,C   2,C   1,H  12)    -58.76 -0.000145    1.45    -57.31   
    54. D(C   4,C   3,C   0,H   8)    122.30 -0.001457   10.48    132.79   
    55. D(O   6,C   3,C   0,H   9)     18.81  0.000250    5.45     24.27   
    56. D(O   6,C   3,C   0,H   8)   -170.29 -0.000771   10.21   -160.08   
    57. D(H  15,C   3,C   0,H   8)    -23.85 -0.000529    9.57    -14.28   
    58. D(C   4,C   3,C   0,H   9)    -48.59 -0.000436    5.73    -42.86   
    59. D(C   3,C   4,C   2,H  14)   -176.65  0.000407    2.19   -174.45   
    60. D(C   3,C   4,C   2,H  13)     67.17  0.000204    2.44     69.61   
    61. D(O   6,C   4,C   2,C   1)     11.42 -0.000759    2.52     13.94   
    62. D(C   3,C   4,C   2,C   1)    -56.26  0.000144    2.16    -54.11   
    63. D(O   6,C   4,C   3,H  15)   -105.48 -0.000224    0.82   -104.66   
    64. D(O   6,C   4,C   3,C   0)    106.87  0.000244   -0.17    106.70   
    65. D(C   2,C   4,C   3,H  15)      1.04 -0.000417    1.05      2.08   
    66. D(C   2,C   4,C   3,O   6)    106.51 -0.000193    0.23    106.74   
    67. D(C   2,C   4,C   3,C   0)   -146.62  0.000051    0.07   -146.56   
    68. D(O   6,C   4,C   2,H  14)   -108.96 -0.000495    2.56   -106.41   
    69. D(O   7,C   4,C   3,C   0)     -2.09 -0.000206   -0.23     -2.33   
    70. D(O   6,C   4,C   2,H  13)    134.86 -0.000699    2.80    137.66   
    71. D(C   3,O   6,C   4,O   7)    100.66 -0.000313   -0.34    100.32   
    72. D(C   3,O   6,C   4,C   2)   -111.03  0.000188   -0.07   -111.11   
    73. D(C   4,O   6,C   3,H  15)    100.76 -0.000906    0.19    100.95   
    74. D(C   4,O   6,C   3,C   0)   -112.00 -0.000407   -0.18   -112.18   
    75. D(C   4,O   7,O   5,H  16)    156.01 -0.001525   17.19    173.19   
    76. D(O   5,O   7,C   4,O   6)     87.86  0.000370    3.75     91.61   
    77. D(O   5,O   7,C   4,C   3)    151.74 -0.000359    3.85    155.58   
    78. D(O   5,O   7,C   4,C   2)    -61.50 -0.000345    3.52    -57.98   
    ----------------------------------------------------------------------------

Geometry step timings:
Preparation and reading OPT file:      0.001 s (23.317 %)
Internal coordinates            :      0.000 s ( 1.117 %)
B/P matrices and projection     :      0.001 s (21.258 %)
Hessian update/contruction      :      0.000 s (11.408 %)
Making the step                 :      0.001 s (19.053 %)
Converting the step to Cartesian:      0.000 s ( 3.528 %)
Storing new data                :      0.000 s ( 1.059 %)
Checking convergence            :      0.000 s ( 1.588 %)
Final printing                  :      0.001 s (17.671 %)
Total time                      :      0.003 s

Time for energy+gradient        :      0.050 s
Time for complete geometry iter :      0.054 s

         *************************************************************
         *                GEOMETRY OPTIMIZATION CYCLE   7            *
         *************************************************************
---------------------------------
CARTESIAN COORDINATES (ANGSTROEM)
---------------------------------
  C    -2.380640   -1.104768    0.513179
  C     2.140324   -0.449106    0.105773
  C     1.075760    0.236280   -0.739528
  C    -0.973609   -0.932251    0.499770
  C    -0.275249    0.315142   -0.055834
  O    -0.616977    2.556051   -0.572413
  O    -0.362346    0.058258    1.303431
  O    -1.164298    1.218017   -0.582452
  H    -2.805957   -2.026924    0.172762
  H    -3.016605   -0.289952    0.797019
  H     2.220056    0.045497    1.070050
  H     3.099564   -0.397333   -0.402461
  H     1.897334   -1.495480    0.275071
  H     0.946240   -0.273743   -1.697927
  H     1.374628    1.268592   -0.940193
  H    -0.365314   -1.825656    0.368418
  H    -1.289765    3.046895   -1.062196

----------------------------
CARTESIAN COORDINATES (A.U.)
----------------------------
  NO LB    ZA    FRAG    MASS        X           Y           Z
   0 C   6.0000    1    12.011   -4.498757   -2.087709    0.969767
   1 C   6.0000    1    12.011    4.044626   -0.848687    0.199881
   2 C   6.0000    1    12.011    2.032892    0.446505   -1.397506
   3 C   6.0000    1    12.011   -1.839855   -1.761699    0.944429
   4 C   6.0000    1    12.011   -0.520145    0.595533   -0.105511
   5 O   8.0000    1    15.999   -1.165918    4.830236   -1.081703
   6 O   8.0000    1    15.999   -0.684735    0.110091    2.463127
   7 O   8.0000    1    15.999   -2.200204    2.301720   -1.100675
   8 H   1.0000    1     1.008   -5.302491   -3.830332    0.326474
   9 H   1.0000    1     1.008   -5.700557   -0.547930    1.506148
  10 H   1.0000    1     1.008    4.195298    0.085977    2.022102
  11 H   1.0000    1     1.008    5.857326   -0.750850   -0.760541
  12 H   1.0000    1     1.008    3.585441   -2.826047    0.519809
  13 H   1.0000    1     1.008    1.788135   -0.517299   -3.208617
  14 H   1.0000    1     1.008    2.597671    2.397291   -1.776707
  15 H   1.0000    1     1.008   -0.690344   -3.449991    0.696210
  16 H   1.0000    1     1.008   -2.437303    5.757796   -2.007259

      -----------------------------------------------------------      
     |                   =====================                   |     
     |                           x T B                           |     
     |                   =====================                   |     
     |                         S. Grimme                         |     
     |          Mulliken Center for Theoretical Chemistry        |     
     |                    University of Bonn                     |     
      -----------------------------------------------------------      

   * xtb version 6.7.1 (edcfbbe) compiled by 'albert@albert-system' on 2024-07-22

   xtb is free software: you can redistribute it and/or modify it under
   the terms of the GNU Lesser General Public License as published by
   the Free Software Foundation, either version 3 of the License, or
   (at your option) any later version.
   
   xtb is distributed in the hope that it will be useful,
   but WITHOUT ANY WARRANTY; without even the implied warranty of
   MERCHANTABILITY or FITNESS FOR A PARTICULAR PURPOSE.  See the
   GNU Lesser General Public License for more details.
   
   Cite this work as:
   * C. Bannwarth, E. Caldeweyher, S. Ehlert, A. Hansen, P. Pracht,
     J. Seibert, S. Spicher, S. Grimme, WIREs Comput. Mol. Sci., 2020, 11,
     e01493. DOI: 10.1002/wcms.1493
   
   for GFN2-xTB:
   * C. Bannwarth, S. Ehlert and S. Grimme., J. Chem. Theory Comput., 2019,
     15, 1652-1671. DOI: 10.1021/acs.jctc.8b01176
   for GFN1-xTB:
   * S. Grimme, C. Bannwarth, P. Shushkov, J. Chem. Theory Comput., 2017,
     13, 1989-2009. DOI: 10.1021/acs.jctc.7b00118
   for GFN0-xTB:
   * P. Pracht, E. Caldeweyher, S. Ehlert, S. Grimme, ChemRxiv, 2019, preprint.
     DOI: 10.26434/chemrxiv.8326202.v1
   for GFN-FF:
   * S. Spicher and S. Grimme, Angew. Chem. Int. Ed., 2020, 59, 15665-15673.
     DOI: 10.1002/anie.202004239
   
   for ALPB and GBSA implicit solvation:
   * S. Ehlert, M. Stahn, S. Spicher, S. Grimme, J. Chem. Theory Comput.,
     2021, 17, 4250-4261. DOI: 10.1021/acs.jctc.1c00471
   
   for ddCOSMO and CPCM-X implicit solvation:
   * M. Stahn, S. Ehlert, S. Grimme, J. Phys. Chem. A,
     2023, XX, XXXX-XXXX. DOI: 10.1021/acs.jpca.3c04382
   
   for DFT-D4:
   * E. Caldeweyher, C. Bannwarth and S. Grimme, J. Chem. Phys., 2017,
     147, 034112. DOI: 10.1063/1.4993215
   * E. Caldeweyher, S. Ehlert, A. Hansen, H. Neugebauer, S. Spicher,
     C. Bannwarth and S. Grimme, J. Chem. Phys., 2019, 150, 154122.
     DOI: 10.1063/1.5090222
   * E. Caldeweyher, J.-M. Mewes, S. Ehlert and S. Grimme, Phys. Chem. Chem. Phys.
     2020, 22, 8499-8512. DOI: 10.1039/D0CP00502A
   
   for sTDA-xTB:
   * S. Grimme and C. Bannwarth, J. Chem. Phys., 2016, 145, 054103.
     DOI: 10.1063/1.4959605
   
   in the mass-spec context:
   * V. Asgeirsson, C. Bauer and S. Grimme, Chem. Sci., 2017, 8, 4879.
     DOI: 10.1039/c7sc00601b
   * J. Koopman and S. Grimme, ACS Omega 2019, 4, 12, 15120-15133.
     DOI: 10.1021/acsomega.9b02011
   
   for metadynamics refer to:
   * S. Grimme, J. Chem. Theory Comput., 2019, 155, 2847-2862
     DOI: 10.1021/acs.jctc.9b00143
   
   for SPH calculations refer to:
   * S. Spicher and S. Grimme, J. Chem. Theory Comput., 2021, 17, 1701-1714
     DOI: 10.1021/acs.jctc.0c01306
   
   for ONIOM refer to:
   * C. Plett, A. Katbashev, S. Ehlert, S. Grimme, M. Bursch,
     Phys. Chem. Chem. Phys., 2023, 25, 17860-17868. DOI: 10.1039/D3CP02178E
   
   for DIPRO refer to:
   * J. Kohn, N. Gildemeister, S. Grimme, D. Fazzi, A. Hansen,
     J. Chem. Phys., 2023, just accepted.
   
   for PTB refer to:
   * S. Grimme, M. Mueller, A. Hansen, J. Chem. Phys., 2023, 158, 124111.
     DOI: 10.1063/5.0137838
   
   with help from (in alphabetical order)
   P. Atkinson, C. Bannwarth, F. Bohle, G. Brandenburg, E. Caldeweyher
   M. Checinski, S. Dohm, S. Ehlert, S. Ehrlich, I. Gerasimov, C. Hölzer
   A. Katbashev, J. Kohn, J. Koopman, C. Lavigne, S. Lehtola, F. März, M. Müller,
   F. Musil, H. Neugebauer, J. Pisarek, C. Plett, P. Pracht, F. Pultar,
   J. Seibert, P. Shushkov, S. Spicher, M. Stahn, M. Steiner, T. Strunk,
   J. Stückrath, T. Rose, and J. Unsleber
   
 * started run on 2026/02/18 at 13:00:38.597     
   ID    Z sym.   atoms
    1    6 C      1-5
    2    8 O      6-8
    3    1 H      9-17

           -------------------------------------------------
          |                Calculation Setup                |
           -------------------------------------------------

          program call               : /apps/eb/ORCA/6.1.1-gompi-2024a-avx2/bin/otool_xtb goat_XTB.xyz --grad -c 0 -u 1 -P 8 --namespace goat --input goat_XTB.input.tmp --acc 0.200000
          hostname                   : ra2-19
          calculation namespace      : goat
          coordinate file            : goat_XTB.xyz
          omp threads                :                     8


           -------------------------------------------------
          |                 G F N 2 - x T B                 |
           -------------------------------------------------

        Reference                      10.1021/acs.jctc.8b01176
      * Hamiltonian:
        H0-scaling (s, p, d)           1.850000    2.230000    2.230000
        zeta-weighting                 0.500000
      * Dispersion:
        s8                             2.700000
        a1                             0.520000
        a2                             5.000000
        s9                             5.000000
      * Repulsion:
        kExp                           1.500000    1.000000
        rExp                           1.000000
      * Coulomb:
        alpha                          2.000000
        third order                    shell-resolved
        anisotropic                    true
        a3                             3.000000
        a5                             4.000000
        cn-shift                       1.200000
        cn-exp                         4.000000
        max-rad                        5.000000

q/qsh data taken from xtbrestart
CAMM data taken from xtbrestart

          ...................................................
          :                      SETUP                      :
          :.................................................:
          :  # basis functions                  41          :
          :  # atomic orbitals                  41          :
          :  # shells                           25          :
          :  # electrons                        47          :
          :  max. iterations                   250          :
          :  Hamiltonian                  GFN2-xTB          :
          :  restarted?                       true          :
          :  GBSA solvation                  false          :
          :  PC potential                    false          :
          :  electronic temp.          300.0000000     K    :
          :  accuracy                    0.2000000          :
          :  -> integral cutoff          0.3198970E+02      :
          :  -> integral neglect         0.2000000E-08      :
          :  -> SCF convergence          0.2000000E-06 Eh   :
          :  -> wf. convergence          0.2000000E-04 e    :
          :  Broyden damping             0.4000000          :
          :  net charge                          0          :
          :  unpaired electrons                  1          :
          ...................................................

 iter      E             dE          RMSdq      gap      omega  full diag
   1    -27.5653734 -0.275654E+02  0.552E-01    3.87       0.0  T
   2    -27.5654021 -0.286699E-04  0.332E-01    3.87       1.0  T
   3    -27.5654023 -0.219951E-06  0.333E-02    3.88       1.0  T
   4    -27.5654152 -0.128301E-04  0.152E-02    3.87       1.6  T
   5    -27.5654154 -0.218843E-06  0.671E-03    3.87       3.6  T
   6    -27.5654156 -0.204435E-06  0.113E-03    3.87      21.5  T
   7    -27.5654156 -0.572829E-08  0.459E-04    3.87      52.8  T
   8    -27.5654156 -0.622709E-09  0.142E-04    3.87     171.0  T
   9    -27.5654156 -0.353602E-10  0.606E-05    3.87     400.4  T

   *** convergence criteria satisfied after 9 iterations ***

         #    Occupation            Energy/Eh            Energy/eV
      -------------------------------------------------------------
         1        2.0000           -0.7406684             -20.1546
       ...           ...                  ...                  ...
        18        2.0000           -0.4714131             -12.8278
        19        2.0000           -0.4676629             -12.7258
        20        2.0000           -0.4609194             -12.5423
        21        2.0000           -0.4431981             -12.0600
        22        2.0000           -0.4311985             -11.7335
        23        2.0000           -0.4270166             -11.6197
        24        1.0000           -0.3275663              -8.9135 (HOMO)
        25                         -0.1853060              -5.0424 (LUMO)
        26                         -0.0709080              -1.9295
        27                          0.0466080               1.2683
        28                          0.0674187               1.8346
        29                          0.0903945               2.4598
       ...                                ...                  ...
        41                          0.3877271              10.5506
      -------------------------------------------------------------
                  HL-Gap            0.1422603 Eh            3.8711 eV
             Fermi-level           -0.3168638 Eh           -8.6223 eV

 SCC (total)                   0 d,  0 h,  0 min,  0.018 sec
 SCC setup                      ...        0 min,  0.000 sec (  1.492%)
 Dispersion                     ...        0 min,  0.000 sec (  1.494%)
 classical contributions        ...        0 min,  0.000 sec (  0.641%)
 integral evaluation            ...        0 min,  0.001 sec (  4.346%)
 iterations                     ...        0 min,  0.014 sec ( 78.182%)
 molecular gradient             ...        0 min,  0.002 sec ( 10.202%)
 printout                       ...        0 min,  0.001 sec (  3.450%)

         :::::::::::::::::::::::::::::::::::::::::::::::::::::
         ::                     SUMMARY                     ::
         :::::::::::::::::::::::::::::::::::::::::::::::::::::
         :: total energy             -27.312980962521 Eh    ::
         :: gradient norm              0.010416791020 Eh/a0 ::
         :: HOMO-LUMO gap              3.871098629916 eV    ::
         ::.................................................::
         :: SCC energy               -27.565380007631 Eh    ::
         :: -> isotropic ES            0.049807408953 Eh    ::
         :: -> anisotropic ES         -0.005668270271 Eh    ::
         :: -> anisotropic XC         -0.003287815801 Eh    ::
         :: -> dispersion             -0.010425166291 Eh    ::
         :: repulsion energy           0.252399045111 Eh    ::
         :: add. restraining           0.000000000000 Eh    ::
         :: total charge               0.000000000000 e     ::
         :::::::::::::::::::::::::::::::::::::::::::::::::::::


Property printout bound to 'properties.out'

           -------------------------------------------------
          | TOTAL ENERGY              -27.312980962521 Eh   |
          | GRADIENT NORM               0.010416791020 Eh/α |
          | HOMO-LUMO GAP               3.871098629916 eV   |
           -------------------------------------------------

------------------------------------------------------------------------
 * finished run on 2026/02/18 at 13:00:38.635     
------------------------------------------------------------------------
 total:
 * wall-time:     0 d,  0 h,  0 min,  0.037 sec
 *  cpu-time:     0 d,  0 h,  0 min,  0.239 sec
 * ratio c/w:     6.452 speedup
 SCF:
 * wall-time:     0 d,  0 h,  0 min,  0.018 sec
 *  cpu-time:     0 d,  0 h,  0 min,  0.126 sec
 * ratio c/w:     6.916 speedup


-------------------------   --------------------
FINAL SINGLE POINT ENERGY       -27.312980962520
-------------------------   --------------------


-------------
DIPOLE MOMENT
-------------
                                X             Y             Z
Total Dipole Moment    :      0.03700      -0.22900      -0.99000
                        -----------------------------------------
Magnitude (a.u.)       :      1.01681
Magnitude (Debye)      :      2.58453


------------------
CARTESIAN GRADIENT
------------------

   1   C   :    0.001611996   -0.001014608    0.000702740
   2   C   :    0.000684762   -0.000132371    0.000274935
   3   C   :    0.001356943   -0.000593830   -0.000492735
   4   C   :   -0.005833512   -0.001436892    0.003028831
   5   C   :    0.003252430    0.004582760   -0.003157732
   6   O   :   -0.000459577    0.000375764    0.000146576
   7   O   :   -0.000008657   -0.002365304    0.000441187
   8   O   :   -0.001192131   -0.001183060    0.000568430
   9   H   :    0.000088495   -0.000249607   -0.000397320
  10   H   :    0.000218155    0.000594966   -0.000119016
  11   H   :   -0.000307118    0.000294438   -0.000059819
  12   H   :   -0.000019811   -0.000117725   -0.000190355
  13   H   :   -0.000331774   -0.000007234    0.000034415
  14   H   :   -0.000239382   -0.000226037    0.000211754
  15   H   :   -0.000627582    0.000246369    0.000412239
  16   H   :    0.001024515    0.000809782   -0.000781686
  17   H   :    0.000782248    0.000422589   -0.000622444

Difference to translation invariance:
           :   -0.0000000000   -0.0000000000    0.0000000000

Difference to rotation invariance:
           :   -0.0000001402    0.0000004933    0.0000000101

Norm of the Cartesian gradient     ...    0.0104167910
RMS gradient                       ...    0.0014586425
MAX gradient                       ...    0.0058335125
------------------------------------------------------------------------------
                         ORCA GEOMETRY RELAXATION STEP
------------------------------------------------------------------------------

Reading the OPT-File                    .... done
Getting information on internals        .... done
Copying old internal coords+grads       .... done
Making the new internal coordinates     .... (2022 redundants) done
Validating the new internal coordinates .... (2022 redundants) done
Calculating the B-matrix                .... done
Calculating the G,G- and P matrices     .... done
Transforming gradient to internals      .... done
Projecting the internal gradient        .... done
Number of atoms                         ....  17
Number of internal coordinates          ....  78
Current Energy                          ....   -27.312980963 Eh
Current gradient norm                   ....     0.010416791 Eh/bohr
Maximum allowed component of the step   ....  0.300
Current trust radius                    ....  0.700
Updating the Hessian (BFGS)             .... done
Forming the augmented Hessian           .... done
Diagonalizing the augmented Hessian     .... done
Last element of RFO vector              ....  0.936037342
Lowest eigenvalues of augmented Hessian:
 -0.000648624  0.003080844  0.011849926  0.013374565  0.015451720
Length of the computed step             ....  0.375947274
The final length of the internal step   ....  0.372165503
Converting the step to Cartesian space:
 Initial RMS(Int)=    0.0421394452
Transforming coordinates:
 Iter   0:  RMS(Cart)=    0.0726278805 RMS(Int)=    0.6790334234
 Iter   5:  RMS(Cart)=    0.0000604000 RMS(Int)=    0.0000388763
 Iter  10:  RMS(Cart)=    0.0000001223 RMS(Int)=    0.0000001009
done
Storing new coordinates                 .... done
The predicted energy change is          ....    -0.000369117
Previously predicted energy change      ....    -0.000755936
Actually observed energy change         ....    -0.000856173
Ratio of predicted to observed change   ....     1.132600768
New trust radius                        ....     0.700000000

                                .--------------------.
          ----------------------|Geometry convergence|-------------------------
          Item                value                   Tolerance       Converged
          ---------------------------------------------------------------------
          Energy change      -0.0008561733            0.0000050000      NO
          RMS gradient        0.0006569484            0.0001000000      NO
          MAX gradient        0.0028927040            0.0003000000      NO
          RMS step            0.0421394452            0.0020000000      NO
          MAX step            0.3000000000            0.0040000000      NO
          -------------------------------------------------------------------------
          ........................................................
          Max(Bonds)      0.0063      Max(Angles)    1.04
          Max(Dihed)       17.19      Max(Improp)    0.00
          ---------------------------------------------------------------------

    ---------------------------------------------------------------------------
                         Redundant Internal Coordinates
                            (Angstroem and degrees)

        Definition                    Value    dE/dq     Step     New-Value
    ----------------------------------------------------------------------------
     1. B(C   2,C   1)                1.5224  0.000034 -0.0005    1.5219   
     2. B(C   3,C   0)                1.4176 -0.001821 -0.0000    1.4176   
     3. B(C   4,C   3)                1.5338  0.002893 -0.0020    1.5318   
     4. B(C   4,C   2)                1.5162  0.000402 -0.0023    1.5139   
     5. B(O   6,C   4)                1.3861  0.001218 -0.0020    1.3840   
     6. B(O   6,C   3)                1.4144  0.000050  0.0063    1.4208   
     7. B(O   7,C   4)                1.3722  0.000275  0.0007    1.3729   
     8. B(O   7,O   5)                1.4457  0.000858  0.0018    1.4475   
     9. B(H   8,C   0)                1.0711  0.000306 -0.0005    1.0706   
    10. B(H   9,C   0)                1.0719  0.000291 -0.0002    1.0717   
    11. B(H  10,C   1)                1.0867  0.000058  0.0002    1.0868   
    12. B(H  11,C   1)                1.0868  0.000066  0.0000    1.0868   
    13. B(H  12,C   1)                1.0875  0.000086  0.0001    1.0876   
    14. B(H  13,C   2)                1.0934 -0.000052  0.0002    1.0935   
    15. B(H  14,C   2)                1.0933 -0.000015  0.0002    1.0935   
    16. B(H  15,C   3)                1.0888  0.000002 -0.0009    1.0879   
    17. B(H  16,O   5)                0.9662 -0.000014 -0.0001    0.9661   
    18. A(C   3,C   0,H   8)          119.73 -0.000006    0.19    119.92   
    19. A(C   3,C   0,H   9)          119.93 -0.000527    0.20    120.13   
    20. A(H   8,C   0,H   9)          120.20  0.000492   -0.04    120.16   
    21. A(H  11,C   1,H  12)          108.41  0.000187   -0.13    108.28   
    22. A(C   2,C   1,H  12)          111.31 -0.000293    0.16    111.47   
    23. A(H  10,C   1,H  12)          108.43  0.000280    0.02    108.45   
    24. A(H  10,C   1,H  11)          109.18  0.000334   -0.15    109.03   
    25. A(C   2,C   1,H  11)          109.64  0.000074   -0.05    109.59   
    26. A(C   2,C   1,H  10)          109.82 -0.000558    0.15    109.97   
    27. A(C   1,C   2,H  14)          109.62  0.000476   -0.09    109.54   
    28. A(C   4,C   2,H  13)          108.30 -0.000192   -0.00    108.30   
    29. A(C   4,C   2,H  14)          106.10 -0.001070    0.04    106.14   
    30. A(C   1,C   2,H  13)          111.07  0.000404   -0.06    111.01   
    31. A(C   1,C   2,C   4)          113.34 -0.000308    0.30    113.63   
    32. A(H  13,C   2,H  14)          108.18  0.000670   -0.22    107.95   
    33. A(C   4,C   3,H  15)          111.67 -0.001265    0.53    112.20   
    34. A(C   0,C   3,H  15)          117.12  0.000316    0.06    117.18   
    35. A(O   6,C   3,H  15)          113.69 -0.000676   -0.35    113.34   
    36. A(C   4,C   3,O   6)           55.91 -0.000142   -0.16     55.75   
    37. A(C   0,C   3,C   4)          123.66  0.000798   -0.13    123.53   
    38. A(C   0,C   3,O   6)          120.58  0.000651   -0.08    120.50   
    39. A(C   3,C   4,O   6)           57.68 -0.000858    0.37     58.05   
    40. A(C   2,C   4,O   6)          119.25  0.000002    0.15    119.39   
    41. A(C   2,C   4,C   3)          121.79  0.000065    0.05    121.84   
    42. A(O   6,C   4,O   7)          117.23  0.000614   -0.31    116.93   
    43. A(C   3,C   4,O   7)          112.28 -0.000059   -0.08    112.20   
    44. A(C   2,C   4,O   7)          116.01 -0.000087   -0.02    115.99   
    45. A(O   7,O   5,H  16)          101.72  0.001279   -1.04    100.68   
    46. A(C   3,O   6,C   4)           66.41  0.001000   -0.21     66.20   
    47. A(C   4,O   7,O   5)          111.16 -0.000752   -0.07    111.09   
    48. D(H  13,C   2,C   1,H  10)   -177.40  0.000071    1.23   -176.18   
    49. D(H  13,C   2,C   1,H  11)     62.63 -0.000040    1.35     63.98   
    50. D(C   4,C   2,C   1,H  12)     64.88 -0.000306    1.61     66.49   
    51. D(C   4,C   2,C   1,H  10)    -55.22 -0.000101    1.39    -53.82   
    52. D(C   4,C   2,C   1,H  11)   -175.18 -0.000211    1.52   -173.66   
    53. D(H  13,C   2,C   1,H  12)    -57.31 -0.000135    1.45    -55.87   
    54. D(C   4,C   3,C   0,H   8)    132.79 -0.000546    6.25    139.05   
    55. D(O   6,C   3,C   0,H   9)     24.27  0.000471    2.09     26.36   
    56. D(O   6,C   3,C   0,H   8)   -160.07 -0.000129    5.96   -154.11   
    57. D(H  15,C   3,C   0,H   8)    -14.29  0.000164    5.20     -9.09   
    58. D(C   4,C   3,C   0,H   9)    -42.87  0.000054    2.38    -40.48   
    59. D(C   3,C   4,C   2,H  14)   -174.45  0.000510    1.70   -172.75   
    60. D(C   3,C   4,C   2,H  13)     69.61  0.000370    1.93     71.54   
    61. D(O   6,C   4,C   2,C   1)     13.94 -0.000827    2.34     16.28   
    62. D(C   3,C   4,C   2,C   1)    -54.11  0.000203    1.81    -52.30   
    63. D(O   6,C   4,C   3,H  15)   -104.66  0.000111    0.74   -103.92   
    64. D(O   6,C   4,C   3,C   0)    106.70  0.000375   -0.13    106.58   
    65. D(C   2,C   4,C   3,H  15)      2.09 -0.000309    1.07      3.15   
    66. D(C   2,C   4,C   3,O   6)    106.74 -0.000420    0.33    107.07   
    67. D(C   2,C   4,C   3,C   0)   -146.56 -0.000045    0.21   -146.35   
    68. D(O   6,C   4,C   2,H  14)   -106.40 -0.000519    2.23   -104.17   
    69. D(O   7,C   4,C   3,C   0)     -2.32 -0.000211    0.12     -2.20   
    70. D(O   6,C   4,C   2,H  13)    137.66 -0.000660    2.46    140.12   
    71. D(C   3,O   6,C   4,O   7)    100.31 -0.000762    0.24    100.55   
    72. D(C   3,O   6,C   4,C   2)   -111.11  0.000226   -0.12   -111.23   
    73. D(C   4,O   6,C   3,H  15)    100.95 -0.001215    0.81    101.76   
    74. D(C   4,O   6,C   3,C   0)   -112.18 -0.000635    0.18   -112.00   
    75. D(C   4,O   7,O   5,H  16)    173.19 -0.001482   17.19    190.38   
    76. D(O   5,O   7,C   4,O   6)     91.61  0.000858    0.83     92.44   
    77. D(O   5,O   7,C   4,C   3)    155.58 -0.000019    1.18    156.76   
    78. D(O   5,O   7,C   4,C   2)    -57.98 -0.000117    1.13    -56.85   
    ----------------------------------------------------------------------------

Geometry step timings:
Preparation and reading OPT file:      0.000 s ( 0.769 %)
Internal coordinates            :      0.000 s ( 1.089 %)
B/P matrices and projection     :      0.001 s (22.870 %)
Hessian update/contruction      :      0.001 s (27.578 %)
Making the step                 :      0.001 s (21.204 %)
Converting the step to Cartesian:      0.000 s ( 3.780 %)
Storing new data                :      0.000 s ( 1.185 %)
Checking convergence            :      0.000 s ( 1.922 %)
Final printing                  :      0.001 s (19.603 %)
Total time                      :      0.003 s

Time for energy+gradient        :      0.057 s
Time for complete geometry iter :      0.061 s

         *************************************************************
         *                GEOMETRY OPTIMIZATION CYCLE   8            *
         *************************************************************
---------------------------------
CARTESIAN COORDINATES (ANGSTROEM)
---------------------------------
  C    -2.375832   -1.091444    0.492601
  C     2.139163   -0.468708    0.105139
  C     1.087519    0.234252   -0.741029
  C    -0.969133   -0.916139    0.496513
  C    -0.269096    0.320881   -0.074621
  O    -0.602093    2.546128   -0.664310
  O    -0.371645    0.101213    1.288016
  O    -1.156371    1.209416   -0.629609
  H    -2.792741   -2.050239    0.262277
  H    -3.020491   -0.263968    0.712399
  H     2.199818   -0.002187    1.084852
  H     3.107641   -0.395853   -0.382679
  H     1.903135   -1.521830    0.239404
  H     0.964432   -0.263644   -1.706824
  H     1.399567    1.265026   -0.930467
  H    -0.356779   -1.811153    0.410483
  H    -1.383950    3.057768   -0.909675

----------------------------
CARTESIAN COORDINATES (A.U.)
----------------------------
  NO LB    ZA    FRAG    MASS        X           Y           Z
   0 C   6.0000    1    12.011   -4.489672   -2.062530    0.930881
   1 C   6.0000    1    12.011    4.042432   -0.885730    0.198683
   2 C   6.0000    1    12.011    2.055114    0.442672   -1.400342
   3 C   6.0000    1    12.011   -1.831396   -1.731252    0.938274
   4 C   6.0000    1    12.011   -0.508518    0.606376   -0.141014
   5 O   8.0000    1    15.999   -1.137791    4.811485   -1.255365
   6 O   8.0000    1    15.999   -0.702307    0.191266    2.433997
   7 O   8.0000    1    15.999   -2.185225    2.285465   -1.189789
   8 H   1.0000    1     1.008   -5.277516   -3.874390    0.495632
   9 H   1.0000    1     1.008   -5.707900   -0.498827    1.346240
  10 H   1.0000    1     1.008    4.157054   -0.004132    2.050073
  11 H   1.0000    1     1.008    5.872590   -0.748054   -0.723158
  12 H   1.0000    1     1.008    3.596405   -2.875842    0.452408
  13 H   1.0000    1     1.008    1.822513   -0.498215   -3.225429
  14 H   1.0000    1     1.008    2.644799    2.390553   -1.758328
  15 H   1.0000    1     1.008   -0.674215   -3.422583    0.775700
  16 H   1.0000    1     1.008   -2.615287    5.778344   -1.719036

      -----------------------------------------------------------      
     |                   =====================                   |     
     |                           x T B                           |     
     |                   =====================                   |     
     |                         S. Grimme                         |     
     |          Mulliken Center for Theoretical Chemistry        |     
     |                    University of Bonn                     |     
      -----------------------------------------------------------      

   * xtb version 6.7.1 (edcfbbe) compiled by 'albert@albert-system' on 2024-07-22

   xtb is free software: you can redistribute it and/or modify it under
   the terms of the GNU Lesser General Public License as published by
   the Free Software Foundation, either version 3 of the License, or
   (at your option) any later version.
   
   xtb is distributed in the hope that it will be useful,
   but WITHOUT ANY WARRANTY; without even the implied warranty of
   MERCHANTABILITY or FITNESS FOR A PARTICULAR PURPOSE.  See the
   GNU Lesser General Public License for more details.
   
   Cite this work as:
   * C. Bannwarth, E. Caldeweyher, S. Ehlert, A. Hansen, P. Pracht,
     J. Seibert, S. Spicher, S. Grimme, WIREs Comput. Mol. Sci., 2020, 11,
     e01493. DOI: 10.1002/wcms.1493
   
   for GFN2-xTB:
   * C. Bannwarth, S. Ehlert and S. Grimme., J. Chem. Theory Comput., 2019,
     15, 1652-1671. DOI: 10.1021/acs.jctc.8b01176
   for GFN1-xTB:
   * S. Grimme, C. Bannwarth, P. Shushkov, J. Chem. Theory Comput., 2017,
     13, 1989-2009. DOI: 10.1021/acs.jctc.7b00118
   for GFN0-xTB:
   * P. Pracht, E. Caldeweyher, S. Ehlert, S. Grimme, ChemRxiv, 2019, preprint.
     DOI: 10.26434/chemrxiv.8326202.v1
   for GFN-FF:
   * S. Spicher and S. Grimme, Angew. Chem. Int. Ed., 2020, 59, 15665-15673.
     DOI: 10.1002/anie.202004239
   
   for ALPB and GBSA implicit solvation:
   * S. Ehlert, M. Stahn, S. Spicher, S. Grimme, J. Chem. Theory Comput.,
     2021, 17, 4250-4261. DOI: 10.1021/acs.jctc.1c00471
   
   for ddCOSMO and CPCM-X implicit solvation:
   * M. Stahn, S. Ehlert, S. Grimme, J. Phys. Chem. A,
     2023, XX, XXXX-XXXX. DOI: 10.1021/acs.jpca.3c04382
   
   for DFT-D4:
   * E. Caldeweyher, C. Bannwarth and S. Grimme, J. Chem. Phys., 2017,
     147, 034112. DOI: 10.1063/1.4993215
   * E. Caldeweyher, S. Ehlert, A. Hansen, H. Neugebauer, S. Spicher,
     C. Bannwarth and S. Grimme, J. Chem. Phys., 2019, 150, 154122.
     DOI: 10.1063/1.5090222
   * E. Caldeweyher, J.-M. Mewes, S. Ehlert and S. Grimme, Phys. Chem. Chem. Phys.
     2020, 22, 8499-8512. DOI: 10.1039/D0CP00502A
   
   for sTDA-xTB:
   * S. Grimme and C. Bannwarth, J. Chem. Phys., 2016, 145, 054103.
     DOI: 10.1063/1.4959605
   
   in the mass-spec context:
   * V. Asgeirsson, C. Bauer and S. Grimme, Chem. Sci., 2017, 8, 4879.
     DOI: 10.1039/c7sc00601b
   * J. Koopman and S. Grimme, ACS Omega 2019, 4, 12, 15120-15133.
     DOI: 10.1021/acsomega.9b02011
   
   for metadynamics refer to:
   * S. Grimme, J. Chem. Theory Comput., 2019, 155, 2847-2862
     DOI: 10.1021/acs.jctc.9b00143
   
   for SPH calculations refer to:
   * S. Spicher and S. Grimme, J. Chem. Theory Comput., 2021, 17, 1701-1714
     DOI: 10.1021/acs.jctc.0c01306
   
   for ONIOM refer to:
   * C. Plett, A. Katbashev, S. Ehlert, S. Grimme, M. Bursch,
     Phys. Chem. Chem. Phys., 2023, 25, 17860-17868. DOI: 10.1039/D3CP02178E
   
   for DIPRO refer to:
   * J. Kohn, N. Gildemeister, S. Grimme, D. Fazzi, A. Hansen,
     J. Chem. Phys., 2023, just accepted.
   
   for PTB refer to:
   * S. Grimme, M. Mueller, A. Hansen, J. Chem. Phys., 2023, 158, 124111.
     DOI: 10.1063/5.0137838
   
   with help from (in alphabetical order)
   P. Atkinson, C. Bannwarth, F. Bohle, G. Brandenburg, E. Caldeweyher
   M. Checinski, S. Dohm, S. Ehlert, S. Ehrlich, I. Gerasimov, C. Hölzer
   A. Katbashev, J. Kohn, J. Koopman, C. Lavigne, S. Lehtola, F. März, M. Müller,
   F. Musil, H. Neugebauer, J. Pisarek, C. Plett, P. Pracht, F. Pultar,
   J. Seibert, P. Shushkov, S. Spicher, M. Stahn, M. Steiner, T. Strunk,
   J. Stückrath, T. Rose, and J. Unsleber
   
 * started run on 2026/02/18 at 13:00:38.658     
   ID    Z sym.   atoms
    1    6 C      1-5
    2    8 O      6-8
    3    1 H      9-17

           -------------------------------------------------
          |                Calculation Setup                |
           -------------------------------------------------

          program call               : /apps/eb/ORCA/6.1.1-gompi-2024a-avx2/bin/otool_xtb goat_XTB.xyz --grad -c 0 -u 1 -P 8 --namespace goat --input goat_XTB.input.tmp --acc 0.200000
          hostname                   : ra2-19
          calculation namespace      : goat
          coordinate file            : goat_XTB.xyz
          omp threads                :                     8


           -------------------------------------------------
          |                 G F N 2 - x T B                 |
           -------------------------------------------------

        Reference                      10.1021/acs.jctc.8b01176
      * Hamiltonian:
        H0-scaling (s, p, d)           1.850000    2.230000    2.230000
        zeta-weighting                 0.500000
      * Dispersion:
        s8                             2.700000
        a1                             0.520000
        a2                             5.000000
        s9                             5.000000
      * Repulsion:
        kExp                           1.500000    1.000000
        rExp                           1.000000
      * Coulomb:
        alpha                          2.000000
        third order                    shell-resolved
        anisotropic                    true
        a3                             3.000000
        a5                             4.000000
        cn-shift                       1.200000
        cn-exp                         4.000000
        max-rad                        5.000000

q/qsh data taken from xtbrestart
CAMM data taken from xtbrestart

          ...................................................
          :                      SETUP                      :
          :.................................................:
          :  # basis functions                  41          :
          :  # atomic orbitals                  41          :
          :  # shells                           25          :
          :  # electrons                        47          :
          :  max. iterations                   250          :
          :  Hamiltonian                  GFN2-xTB          :
          :  restarted?                       true          :
          :  GBSA solvation                  false          :
          :  PC potential                    false          :
          :  electronic temp.          300.0000000     K    :
          :  accuracy                    0.2000000          :
          :  -> integral cutoff          0.3198970E+02      :
          :  -> integral neglect         0.2000000E-08      :
          :  -> SCF convergence          0.2000000E-06 Eh   :
          :  -> wf. convergence          0.2000000E-04 e    :
          :  Broyden damping             0.4000000          :
          :  net charge                          0          :
          :  unpaired electrons                  1          :
          ...................................................

 iter      E             dE          RMSdq      gap      omega  full diag
   1    -27.5661996 -0.275662E+02  0.365E-01    3.86       0.0  T
   2    -27.5662158 -0.161900E-04  0.219E-01    3.86       1.0  T
   3    -27.5662179 -0.210422E-05  0.218E-02    3.86       1.1  T
   4    -27.5662226 -0.462588E-05  0.992E-03    3.86       2.4  T
   5    -27.5662227 -0.998166E-07  0.448E-03    3.86       5.4  T
   6    -27.5662228 -0.937579E-07  0.120E-03    3.86      20.2  T
   7    -27.5662228 -0.768226E-08  0.443E-04    3.86      54.8  T
   8    -27.5662228 -0.720522E-09  0.228E-04    3.86     106.2  T
   9    -27.5662228 -0.227864E-09  0.108E-04    3.86     224.0  T
  10    -27.5662228 -0.698037E-10  0.411E-05    3.86     589.5  T

   *** convergence criteria satisfied after 10 iterations ***

         #    Occupation            Energy/Eh            Energy/eV
      -------------------------------------------------------------
         1        2.0000           -0.7406041             -20.1529
       ...           ...                  ...                  ...
        18        2.0000           -0.4713488             -12.8261
        19        2.0000           -0.4682440             -12.7416
        20        2.0000           -0.4604409             -12.5292
        21        2.0000           -0.4428363             -12.0502
        22        2.0000           -0.4310196             -11.7286
        23        2.0000           -0.4282424             -11.6531
        24        1.0000           -0.3281744              -8.9301 (HOMO)
        25                         -0.1862894              -5.0692 (LUMO)
        26                         -0.0710823              -1.9342
        27                          0.0476760               1.2973
        28                          0.0640341               1.7425
        29                          0.0910092               2.4765
       ...                                ...                  ...
        41                          0.3889158              10.5829
      -------------------------------------------------------------
                  HL-Gap            0.1418851 Eh            3.8609 eV
             Fermi-level           -0.3177202 Eh           -8.6456 eV

 SCC (total)                   0 d,  0 h,  0 min,  0.016 sec
 SCC setup                      ...        0 min,  0.000 sec (  1.606%)
 Dispersion                     ...        0 min,  0.000 sec (  1.300%)
 classical contributions        ...        0 min,  0.000 sec (  0.505%)
 integral evaluation            ...        0 min,  0.001 sec (  4.408%)
 iterations                     ...        0 min,  0.013 sec ( 78.423%)
 molecular gradient             ...        0 min,  0.002 sec ( 10.438%)
 printout                       ...        0 min,  0.000 sec (  3.100%)

         :::::::::::::::::::::::::::::::::::::::::::::::::::::
         ::                     SUMMARY                     ::
         :::::::::::::::::::::::::::::::::::::::::::::::::::::
         :: total energy             -27.313472177875 Eh    ::
         :: gradient norm              0.011621544355 Eh/a0 ::
         :: HOMO-LUMO gap              3.860889240926 eV    ::
         ::.................................................::
         :: SCC energy               -27.566187635539 Eh    ::
         :: -> isotropic ES            0.049949621877 Eh    ::
         :: -> anisotropic ES         -0.005900810585 Eh    ::
         :: -> anisotropic XC         -0.003151753254 Eh    ::
         :: -> dispersion             -0.010422114960 Eh    ::
         :: repulsion energy           0.252715457663 Eh    ::
         :: add. restraining           0.000000000000 Eh    ::
         :: total charge               0.000000000000 e     ::
         :::::::::::::::::::::::::::::::::::::::::::::::::::::


Property printout bound to 'properties.out'

           -------------------------------------------------
          | TOTAL ENERGY              -27.313472177875 Eh   |
          | GRADIENT NORM               0.011621544355 Eh/α |
          | HOMO-LUMO GAP               3.860889240926 eV   |
           -------------------------------------------------

------------------------------------------------------------------------
 * finished run on 2026/02/18 at 13:00:38.684     
------------------------------------------------------------------------
 total:
 * wall-time:     0 d,  0 h,  0 min,  0.025 sec
 *  cpu-time:     0 d,  0 h,  0 min,  0.157 sec
 * ratio c/w:     6.326 speedup
 SCF:
 * wall-time:     0 d,  0 h,  0 min,  0.016 sec
 *  cpu-time:     0 d,  0 h,  0 min,  0.112 sec
 * ratio c/w:     6.913 speedup


-------------------------   --------------------
FINAL SINGLE POINT ENERGY       -27.313472177880
-------------------------   --------------------


-------------
DIPOLE MOMENT
-------------
                                X             Y             Z
Total Dipole Moment    :     -0.03400      -0.22900      -0.76400
                        -----------------------------------------
Magnitude (a.u.)       :      0.79831
Magnitude (Debye)      :      2.02913


------------------
CARTESIAN GRADIENT
------------------

   1   C   :    0.001626890   -0.000840921   -0.000304505
   2   C   :    0.000250981    0.000107697   -0.000090566
   3   C   :    0.000404173   -0.000859190    0.000610728
   4   C   :   -0.006483895   -0.002593755    0.002052214
   5   C   :    0.003966382    0.005431793   -0.002733651
   6   O   :    0.001739147    0.002068469    0.000515623
   7   O   :    0.000629200   -0.001370771    0.000020770
   8   O   :   -0.002621857   -0.001899102    0.000670943
   9   H   :    0.000083796   -0.000198576    0.000426879
  10   H   :    0.000194116    0.000431066   -0.000126650
  11   H   :   -0.000114243    0.000185682   -0.000038146
  12   H   :    0.000018876   -0.000099547   -0.000109814
  13   H   :   -0.000110936   -0.000045882    0.000065991
  14   H   :   -0.000057846   -0.000242544    0.000025609
  15   H   :   -0.000295572    0.000131114    0.000274016
  16   H   :    0.000959346    0.000678262   -0.000611511
  17   H   :   -0.000188557   -0.000883795   -0.000647932

Difference to translation invariance:
           :   -0.0000000000   -0.0000000000   -0.0000000000

Difference to rotation invariance:
           :   -0.0000000426   -0.0000001146    0.0000002029

Norm of the Cartesian gradient     ...    0.0116215444
RMS gradient                       ...    0.0016273417
MAX gradient                       ...    0.0064838955
------------------------------------------------------------------------------
                         ORCA GEOMETRY RELAXATION STEP
------------------------------------------------------------------------------

Reading the OPT-File                    .... done
Getting information on internals        .... done
Copying old internal coords+grads       .... done
Making the new internal coordinates     .... (2022 redundants) done
Validating the new internal coordinates .... (2022 redundants) done
Calculating the B-matrix                .... done
Calculating the G,G- and P matrices     .... done
Transforming gradient to internals      .... done
Projecting the internal gradient        .... done
Number of atoms                         ....  17
Number of internal coordinates          ....  78
Current Energy                          ....   -27.313472178 Eh
Current gradient norm                   ....     0.011621544 Eh/bohr
Maximum allowed component of the step   ....  0.300
Current trust radius                    ....  0.700
Updating the Hessian (BFGS)             .... done
Forming the augmented Hessian           .... done
Diagonalizing the augmented Hessian     .... done
Last element of RFO vector              ....  0.925731895
Lowest eigenvalues of augmented Hessian:
 -0.000643318  0.002239240  0.011849960  0.013071784  0.014054247
Length of the computed step             ....  0.408520500
The final length of the internal step   ....  0.346647950
Converting the step to Cartesian space:
 Initial RMS(Int)=    0.0392501513
Transforming coordinates:
 Iter   0:  RMS(Cart)=    0.0693163440 RMS(Int)=    0.0393048258
 Iter   5:  RMS(Cart)=    0.0000468649 RMS(Int)=    0.0000299312
 Iter  10:  RMS(Cart)=    0.0000000743 RMS(Int)=    0.0000000612
done
Storing new coordinates                 .... done
The predicted energy change is          ....    -0.000336894
Previously predicted energy change      ....    -0.000369117
Actually observed energy change         ....    -0.000491215
Ratio of predicted to observed change   ....     1.330786278
New trust radius                        ....     0.700000000

                                .--------------------.
          ----------------------|Geometry convergence|-------------------------
          Item                value                   Tolerance       Converged
          ---------------------------------------------------------------------
          Energy change      -0.0004912154            0.0000050000      NO
          RMS gradient        0.0006600523            0.0001000000      NO
          MAX gradient        0.0032247450            0.0003000000      NO
          RMS step            0.0392501513            0.0020000000      NO
          MAX step            0.3000000000            0.0040000000      NO
          -------------------------------------------------------------------------
          ........................................................
          Max(Bonds)      0.0089      Max(Angles)    1.00
          Max(Dihed)       17.19      Max(Improp)    0.00
          ---------------------------------------------------------------------

    ---------------------------------------------------------------------------
                         Redundant Internal Coordinates
                            (Angstroem and degrees)

        Definition                    Value    dE/dq     Step     New-Value
    ----------------------------------------------------------------------------
     1. B(C   2,C   1)                1.5219 -0.000133 -0.0002    1.5217   
     2. B(C   3,C   0)                1.4176 -0.001815  0.0031    1.4207   
     3. B(C   4,C   3)                1.5318  0.003225 -0.0089    1.5229   
     4. B(C   4,C   2)                1.5139 -0.000192 -0.0018    1.5122   
     5. B(O   6,C   4)                1.3840  0.000480 -0.0021    1.3819   
     6. B(O   6,C   3)                1.4207  0.000801  0.0052    1.4260   
     7. B(O   7,C   4)                1.3729  0.000012  0.0015    1.3744   
     8. B(O   7,O   5)                1.4475  0.001691 -0.0019    1.4456   
     9. B(H   8,C   0)                1.0706  0.000053 -0.0003    1.0703   
    10. B(H   9,C   0)                1.0717  0.000190 -0.0003    1.0714   
    11. B(H  10,C   1)                1.0868  0.000039  0.0002    1.0870   
    12. B(H  11,C   1)                1.0868  0.000059  0.0000    1.0869   
    13. B(H  12,C   1)                1.0876  0.000077  0.0000    1.0876   
    14. B(H  13,C   2)                1.0935  0.000094 -0.0000    1.0935   
    15. B(H  14,C   2)                1.0935 -0.000008  0.0003    1.0938   
    16. B(H  15,C   3)                1.0879  0.000030 -0.0010    1.0869   
    17. B(H  16,O   5)                0.9661 -0.000151  0.0003    0.9663   
    18. A(C   3,C   0,H   8)          119.85  0.000131    0.02    119.88   
    19. A(C   3,C   0,H   9)          120.06 -0.000465    0.15    120.21   
    20. A(H   8,C   0,H   9)          120.09  0.000333   -0.25    119.84   
    21. A(H  11,C   1,H  12)          108.28  0.000030   -0.13    108.15   
    22. A(C   2,C   1,H  12)          111.47 -0.000027    0.14    111.61   
    23. A(H  10,C   1,H  12)          108.45  0.000117   -0.00    108.45   
    24. A(H  10,C   1,H  11)          109.03  0.000147   -0.18    108.85   
    25. A(C   2,C   1,H  11)          109.59  0.000042   -0.05    109.54   
    26. A(C   2,C   1,H  10)          109.97 -0.000299    0.22    110.19   
    27. A(C   1,C   2,H  14)          109.54  0.000073   -0.07    109.48   
    28. A(C   4,C   2,H  13)          108.30 -0.000173    0.02    108.32   
    29. A(C   4,C   2,H  14)          106.14 -0.000616    0.23    106.38   
    30. A(C   1,C   2,H  13)          111.01  0.000068   -0.11    110.90   
    31. A(C   1,C   2,C   4)          113.63  0.000214    0.24    113.87   
    32. A(H  13,C   2,H  14)          107.96  0.000423   -0.34    107.62   
    33. A(C   4,C   3,H  15)          112.19 -0.001019    1.00    113.19   
    34. A(C   0,C   3,H  15)          117.17  0.000142   -0.11    117.06   
    35. A(O   6,C   3,H  15)          113.36 -0.000657   -0.11    113.24   
    36. A(C   4,C   3,O   6)           55.75 -0.000631    0.02     55.78   
    37. A(C   0,C   3,C   4)          123.53  0.000915   -0.46    123.06   
    38. A(C   0,C   3,O   6)          120.49  0.000834   -0.29    120.20   
    39. A(C   3,C   4,O   6)           58.05 -0.000505    0.50     58.55   
    40. A(C   2,C   4,O   6)          119.39 -0.000251    0.21    119.59   
    41. A(C   2,C   4,C   3)          121.83 -0.000239    0.20    122.03   
    42. A(O   6,C   4,O   7)          116.93  0.000178   -0.41    116.52   
    43. A(C   3,C   4,O   7)          112.21 -0.000483    0.29    112.50   
    44. A(C   2,C   4,O   7)          115.99  0.000636   -0.32    115.67   
    45. A(O   7,O   5,H  16)          100.68 -0.001570   -0.51    100.16   
    46. A(C   3,O   6,C   4)           66.19  0.001136   -0.52     65.67   
    47. A(C   4,O   7,O   5)          111.09 -0.000732   -0.01    111.08   
    48. D(H  13,C   2,C   1,H  10)   -176.18 -0.000052    1.54   -174.64   
    49. D(H  13,C   2,C   1,H  11)     63.98 -0.000074    1.66     65.64   
    50. D(C   4,C   2,C   1,H  12)     66.49 -0.000142    1.89     68.38   
    51. D(C   4,C   2,C   1,H  10)    -53.82 -0.000071    1.66    -52.16   
    52. D(C   4,C   2,C   1,H  11)   -173.66 -0.000093    1.78   -171.88   
    53. D(H  13,C   2,C   1,H  12)    -55.87 -0.000122    1.77    -54.10   
    54. D(C   4,C   3,C   0,H   8)    139.05  0.000211    3.81    142.86   
    55. D(O   6,C   3,C   0,H   9)     26.36  0.000158    0.76     27.12   
    56. D(O   6,C   3,C   0,H   8)   -154.11  0.000139    3.54   -150.57   
    57. D(H  15,C   3,C   0,H   8)     -9.09  0.000463    2.61     -6.48   
    58. D(C   4,C   3,C   0,H   9)    -40.49  0.000230    1.04    -39.45   
    59. D(C   3,C   4,C   2,H  14)   -172.75  0.000375    1.86   -170.89   
    60. D(C   3,C   4,C   2,H  13)     71.54  0.000280    2.13     73.67   
    61. D(O   6,C   4,C   2,C   1)     16.28 -0.000645    2.84     19.13   
    62. D(C   3,C   4,C   2,C   1)    -52.30  0.000175    2.08    -50.22   
    63. D(O   6,C   4,C   3,H  15)   -103.91  0.000359    0.71   -103.20   
    64. D(O   6,C   4,C   3,C   0)    106.58  0.000310   -0.14    106.44   
    65. D(C   2,C   4,C   3,H  15)      3.16 -0.000079    1.10      4.27   
    66. D(C   2,C   4,C   3,O   6)    107.07 -0.000438    0.40    107.47   
    67. D(C   2,C   4,C   3,C   0)   -146.35 -0.000128    0.26   -146.10   
    68. D(O   6,C   4,C   2,H  14)   -104.17 -0.000445    2.63   -101.54   
    69. D(O   7,C   4,C   3,C   0)     -2.20 -0.000044    0.40     -1.80   
    70. D(O   6,C   4,C   2,H  13)    140.12 -0.000539    2.89    143.01   
    71. D(C   3,O   6,C   4,O   7)    100.54 -0.000900    0.81    101.35   
    72. D(C   3,O   6,C   4,C   2)   -111.23  0.000364   -0.32   -111.55   
    73. D(C   4,O   6,C   3,H  15)    101.75 -0.001061    1.33    103.08   
    74. D(C   4,O   6,C   3,C   0)   -112.00 -0.000514    0.43   -111.57   
    75. D(C   4,O   7,O   5,H  16)   -169.62 -0.001236   17.19   -152.43   
    76. D(O   5,O   7,C   4,O   6)     92.45  0.000812   -0.81     91.64   
    77. D(O   5,O   7,C   4,C   3)    156.75  0.000096   -0.20    156.55   
    78. D(O   5,O   7,C   4,C   2)    -56.85 -0.000131    0.12    -56.73   
    ----------------------------------------------------------------------------

Geometry step timings:
Preparation and reading OPT file:      0.000 s ( 0.934 %)
Internal coordinates            :      0.000 s ( 5.263 %)
B/P matrices and projection     :      0.001 s (26.222 %)
Hessian update/contruction      :      0.000 s (14.170 %)
Making the step                 :      0.001 s (23.887 %)
Converting the step to Cartesian:      0.000 s ( 4.017 %)
Storing new data                :      0.000 s ( 1.308 %)
Checking convergence            :      0.000 s ( 1.931 %)
Final printing                  :      0.001 s (22.236 %)
Total time                      :      0.003 s

Time for energy+gradient        :      0.044 s
Time for complete geometry iter :      0.049 s

         *************************************************************
         *                GEOMETRY OPTIMIZATION CYCLE   9            *
         *************************************************************
---------------------------------
CARTESIAN COORDINATES (ANGSTROEM)
---------------------------------
  C    -2.370595   -1.078951    0.474110
  C     2.135331   -0.480481    0.103219
  C     1.093062    0.230455   -0.747595
  C    -0.961531   -0.898800    0.497839
  C    -0.269604    0.319916   -0.098157
  O    -0.605012    2.527409   -0.748228
  O    -0.386045    0.153633    1.268789
  O    -1.153872    1.191393   -0.687633
  H    -2.780905   -2.056396    0.326533
  H    -3.023647   -0.245950    0.640141
  H     2.171125   -0.041519    1.096978
  H     3.113153   -0.379918   -0.360522
  H     1.915174   -1.540860    0.203123
  H     0.979905   -0.261348   -1.717713
  H     1.414189    1.259375   -0.933515
  H    -0.348011   -1.795552    0.470275
  H    -1.419571    3.047114   -0.735175

----------------------------
CARTESIAN COORDINATES (A.U.)
----------------------------
  NO LB    ZA    FRAG    MASS        X           Y           Z
   0 C   6.0000    1    12.011   -4.479775   -2.038922    0.895938
   1 C   6.0000    1    12.011    4.035190   -0.907977    0.195055
   2 C   6.0000    1    12.011    2.065587    0.435496   -1.412749
   3 C   6.0000    1    12.011   -1.817030   -1.698486    0.940780
   4 C   6.0000    1    12.011   -0.509478    0.604554   -0.185490
   5 O   8.0000    1    15.999   -1.143307    4.776111   -1.413946
   6 O   8.0000    1    15.999   -0.729519    0.290323    2.397663
   7 O   8.0000    1    15.999   -2.180502    2.251407   -1.299438
   8 H   1.0000    1     1.008   -5.255149   -3.886025    0.617059
   9 H   1.0000    1     1.008   -5.713865   -0.464778    1.209692
  10 H   1.0000    1     1.008    4.102831   -0.078460    2.072989
  11 H   1.0000    1     1.008    5.883006   -0.717941   -0.681288
  12 H   1.0000    1     1.008    3.619154   -2.911803    0.383847
  13 H   1.0000    1     1.008    1.851752   -0.493876   -3.246008
  14 H   1.0000    1     1.008    2.672431    2.379874   -1.764088
  15 H   1.0000    1     1.008   -0.657646   -3.393101    0.888692
  16 H   1.0000    1     1.008   -2.682600    5.758210   -1.389279

      -----------------------------------------------------------      
     |                   =====================                   |     
     |                           x T B                           |     
     |                   =====================                   |     
     |                         S. Grimme                         |     
     |          Mulliken Center for Theoretical Chemistry        |     
     |                    University of Bonn                     |     
      -----------------------------------------------------------      

   * xtb version 6.7.1 (edcfbbe) compiled by 'albert@albert-system' on 2024-07-22

   xtb is free software: you can redistribute it and/or modify it under
   the terms of the GNU Lesser General Public License as published by
   the Free Software Foundation, either version 3 of the License, or
   (at your option) any later version.
   
   xtb is distributed in the hope that it will be useful,
   but WITHOUT ANY WARRANTY; without even the implied warranty of
   MERCHANTABILITY or FITNESS FOR A PARTICULAR PURPOSE.  See the
   GNU Lesser General Public License for more details.
   
   Cite this work as:
   * C. Bannwarth, E. Caldeweyher, S. Ehlert, A. Hansen, P. Pracht,
     J. Seibert, S. Spicher, S. Grimme, WIREs Comput. Mol. Sci., 2020, 11,
     e01493. DOI: 10.1002/wcms.1493
   
   for GFN2-xTB:
   * C. Bannwarth, S. Ehlert and S. Grimme., J. Chem. Theory Comput., 2019,
     15, 1652-1671. DOI: 10.1021/acs.jctc.8b01176
   for GFN1-xTB:
   * S. Grimme, C. Bannwarth, P. Shushkov, J. Chem. Theory Comput., 2017,
     13, 1989-2009. DOI: 10.1021/acs.jctc.7b00118
   for GFN0-xTB:
   * P. Pracht, E. Caldeweyher, S. Ehlert, S. Grimme, ChemRxiv, 2019, preprint.
     DOI: 10.26434/chemrxiv.8326202.v1
   for GFN-FF:
   * S. Spicher and S. Grimme, Angew. Chem. Int. Ed., 2020, 59, 15665-15673.
     DOI: 10.1002/anie.202004239
   
   for ALPB and GBSA implicit solvation:
   * S. Ehlert, M. Stahn, S. Spicher, S. Grimme, J. Chem. Theory Comput.,
     2021, 17, 4250-4261. DOI: 10.1021/acs.jctc.1c00471
   
   for ddCOSMO and CPCM-X implicit solvation:
   * M. Stahn, S. Ehlert, S. Grimme, J. Phys. Chem. A,
     2023, XX, XXXX-XXXX. DOI: 10.1021/acs.jpca.3c04382
   
   for DFT-D4:
   * E. Caldeweyher, C. Bannwarth and S. Grimme, J. Chem. Phys., 2017,
     147, 034112. DOI: 10.1063/1.4993215
   * E. Caldeweyher, S. Ehlert, A. Hansen, H. Neugebauer, S. Spicher,
     C. Bannwarth and S. Grimme, J. Chem. Phys., 2019, 150, 154122.
     DOI: 10.1063/1.5090222
   * E. Caldeweyher, J.-M. Mewes, S. Ehlert and S. Grimme, Phys. Chem. Chem. Phys.
     2020, 22, 8499-8512. DOI: 10.1039/D0CP00502A
   
   for sTDA-xTB:
   * S. Grimme and C. Bannwarth, J. Chem. Phys., 2016, 145, 054103.
     DOI: 10.1063/1.4959605
   
   in the mass-spec context:
   * V. Asgeirsson, C. Bauer and S. Grimme, Chem. Sci., 2017, 8, 4879.
     DOI: 10.1039/c7sc00601b
   * J. Koopman and S. Grimme, ACS Omega 2019, 4, 12, 15120-15133.
     DOI: 10.1021/acsomega.9b02011
   
   for metadynamics refer to:
   * S. Grimme, J. Chem. Theory Comput., 2019, 155, 2847-2862
     DOI: 10.1021/acs.jctc.9b00143
   
   for SPH calculations refer to:
   * S. Spicher and S. Grimme, J. Chem. Theory Comput., 2021, 17, 1701-1714
     DOI: 10.1021/acs.jctc.0c01306
   
   for ONIOM refer to:
   * C. Plett, A. Katbashev, S. Ehlert, S. Grimme, M. Bursch,
     Phys. Chem. Chem. Phys., 2023, 25, 17860-17868. DOI: 10.1039/D3CP02178E
   
   for DIPRO refer to:
   * J. Kohn, N. Gildemeister, S. Grimme, D. Fazzi, A. Hansen,
     J. Chem. Phys., 2023, just accepted.
   
   for PTB refer to:
   * S. Grimme, M. Mueller, A. Hansen, J. Chem. Phys., 2023, 158, 124111.
     DOI: 10.1063/5.0137838
   
   with help from (in alphabetical order)
   P. Atkinson, C. Bannwarth, F. Bohle, G. Brandenburg, E. Caldeweyher
   M. Checinski, S. Dohm, S. Ehlert, S. Ehrlich, I. Gerasimov, C. Hölzer
   A. Katbashev, J. Kohn, J. Koopman, C. Lavigne, S. Lehtola, F. März, M. Müller,
   F. Musil, H. Neugebauer, J. Pisarek, C. Plett, P. Pracht, F. Pultar,
   J. Seibert, P. Shushkov, S. Spicher, M. Stahn, M. Steiner, T. Strunk,
   J. Stückrath, T. Rose, and J. Unsleber
   
 * started run on 2026/02/18 at 13:00:38.708     
   ID    Z sym.   atoms
    1    6 C      1-5
    2    8 O      6-8
    3    1 H      9-17

           -------------------------------------------------
          |                Calculation Setup                |
           -------------------------------------------------

          program call               : /apps/eb/ORCA/6.1.1-gompi-2024a-avx2/bin/otool_xtb goat_XTB.xyz --grad -c 0 -u 1 -P 8 --namespace goat --input goat_XTB.input.tmp --acc 0.200000
          hostname                   : ra2-19
          calculation namespace      : goat
          coordinate file            : goat_XTB.xyz
          omp threads                :                     8


           -------------------------------------------------
          |                 G F N 2 - x T B                 |
           -------------------------------------------------

        Reference                      10.1021/acs.jctc.8b01176
      * Hamiltonian:
        H0-scaling (s, p, d)           1.850000    2.230000    2.230000
        zeta-weighting                 0.500000
      * Dispersion:
        s8                             2.700000
        a1                             0.520000
        a2                             5.000000
        s9                             5.000000
      * Repulsion:
        kExp                           1.500000    1.000000
        rExp                           1.000000
      * Coulomb:
        alpha                          2.000000
        third order                    shell-resolved
        anisotropic                    true
        a3                             3.000000
        a5                             4.000000
        cn-shift                       1.200000
        cn-exp                         4.000000
        max-rad                        5.000000

q/qsh data taken from xtbrestart
CAMM data taken from xtbrestart

          ...................................................
          :                      SETUP                      :
          :.................................................:
          :  # basis functions                  41          :
          :  # atomic orbitals                  41          :
          :  # shells                           25          :
          :  # electrons                        47          :
          :  max. iterations                   250          :
          :  Hamiltonian                  GFN2-xTB          :
          :  restarted?                       true          :
          :  GBSA solvation                  false          :
          :  PC potential                    false          :
          :  electronic temp.          300.0000000     K    :
          :  accuracy                    0.2000000          :
          :  -> integral cutoff          0.3198970E+02      :
          :  -> integral neglect         0.2000000E-08      :
          :  -> SCF convergence          0.2000000E-06 Eh   :
          :  -> wf. convergence          0.2000000E-04 e    :
          :  Broyden damping             0.4000000          :
          :  net charge                          0          :
          :  unpaired electrons                  1          :
          ...................................................

 iter      E             dE          RMSdq      gap      omega  full diag
   1    -27.5669487 -0.275669E+02  0.293E-01    3.93       0.0  T
   2    -27.5669620 -0.133044E-04  0.175E-01    3.93       1.0  T
   3    -27.5669648 -0.282267E-05  0.172E-02    3.92       1.4  T
   4    -27.5669668 -0.203423E-05  0.759E-03    3.93       3.2  T
   5    -27.5669669 -0.822023E-07  0.320E-03    3.93       7.6  T
   6    -27.5669669 -0.111922E-07  0.713E-04    3.93      34.0  T
   7    -27.5669669 -0.238253E-08  0.386E-04    3.93      62.8  T
   8    -27.5669669 -0.555328E-09  0.209E-04    3.93     116.1  T
   9    -27.5669669 -0.289972E-09  0.103E-04    3.93     235.5  T
  10    -27.5669669 -0.759321E-10  0.375E-05    3.93     646.0  T

   *** convergence criteria satisfied after 10 iterations ***

         #    Occupation            Energy/Eh            Energy/eV
      -------------------------------------------------------------
         1        2.0000           -0.7409671             -20.1627
       ...           ...                  ...                  ...
        18        2.0000           -0.4720653             -12.8456
        19        2.0000           -0.4682453             -12.7416
        20        2.0000           -0.4602241             -12.5233
        21        2.0000           -0.4431805             -12.0596
        22        2.0000           -0.4323260             -11.7642
        23        2.0000           -0.4301357             -11.7046
        24        1.0000           -0.3292366              -8.9590 (HOMO)
        25                         -0.1849147              -5.0318 (LUMO)
        26                         -0.0698699              -1.9013
        27                          0.0485531               1.3212
        28                          0.0625997               1.7034
        29                          0.0912201               2.4822
       ...                                ...                  ...
        41                          0.3893717              10.5953
      -------------------------------------------------------------
                  HL-Gap            0.1443219 Eh            3.9272 eV
             Fermi-level           -0.3183809 Eh           -8.6636 eV

 SCC (total)                   0 d,  0 h,  0 min,  0.021 sec
 SCC setup                      ...        0 min,  0.000 sec (  1.104%)
 Dispersion                     ...        0 min,  0.000 sec (  1.396%)
 classical contributions        ...        0 min,  0.000 sec (  0.652%)
 integral evaluation            ...        0 min,  0.001 sec (  4.574%)
 iterations                     ...        0 min,  0.016 sec ( 77.232%)
 molecular gradient             ...        0 min,  0.002 sec ( 11.605%)
 printout                       ...        0 min,  0.001 sec (  3.268%)

         :::::::::::::::::::::::::::::::::::::::::::::::::::::
         ::                     SUMMARY                     ::
         :::::::::::::::::::::::::::::::::::::::::::::::::::::
         :: total energy             -27.313888453775 Eh    ::
         :: gradient norm              0.009929382929 Eh/a0 ::
         :: HOMO-LUMO gap              3.927197600544 eV    ::
         ::.................................................::
         :: SCC energy               -27.566931889082 Eh    ::
         :: -> isotropic ES            0.050090922387 Eh    ::
         :: -> anisotropic ES         -0.005883178705 Eh    ::
         :: -> anisotropic XC         -0.003164520055 Eh    ::
         :: -> dispersion             -0.010432531928 Eh    ::
         :: repulsion energy           0.253043435308 Eh    ::
         :: add. restraining           0.000000000000 Eh    ::
         :: total charge              -0.000000000000 e     ::
         :::::::::::::::::::::::::::::::::::::::::::::::::::::


Property printout bound to 'properties.out'

           -------------------------------------------------
          | TOTAL ENERGY              -27.313888453775 Eh   |
          | GRADIENT NORM               0.009929382929 Eh/α |
          | HOMO-LUMO GAP               3.927197600544 eV   |
           -------------------------------------------------

------------------------------------------------------------------------
 * finished run on 2026/02/18 at 13:00:38.747     
------------------------------------------------------------------------
 total:
 * wall-time:     0 d,  0 h,  0 min,  0.038 sec
 *  cpu-time:     0 d,  0 h,  0 min,  0.250 sec
 * ratio c/w:     6.530 speedup
 SCF:
 * wall-time:     0 d,  0 h,  0 min,  0.021 sec
 *  cpu-time:     0 d,  0 h,  0 min,  0.144 sec
 * ratio c/w:     6.881 speedup


-------------------------   --------------------
FINAL SINGLE POINT ENERGY       -27.313888453770
-------------------------   --------------------


-------------
DIPOLE MOMENT
-------------
                                X             Y             Z
Total Dipole Moment    :     -0.04800      -0.24300      -0.52200
                        -----------------------------------------
Magnitude (a.u.)       :      0.57779
Magnitude (Debye)      :      1.46862


------------------
CARTESIAN GRADIENT
------------------

   1   C   :    0.000733787   -0.000439742   -0.001237804
   2   C   :   -0.000283249    0.000333807   -0.000370375
   3   C   :   -0.001059029   -0.000764738    0.001393699
   4   C   :   -0.003856301   -0.002453644    0.000385545
   5   C   :    0.002511524    0.003944604   -0.001235269
   6   O   :    0.003650644    0.003169844    0.000115917
   7   O   :    0.000968359    0.000211711   -0.000817746
   8   O   :   -0.002946795   -0.002106681    0.001559495
   9   H   :   -0.000010075    0.000074085    0.000831514
  10   H   :    0.000060858    0.000061898    0.000066328
  11   H   :    0.000159566   -0.000028510    0.000016425
  12   H   :    0.000024321   -0.000053412   -0.000012953
  13   H   :    0.000166850   -0.000040523    0.000130321
  14   H   :    0.000284547   -0.000096184   -0.000133312
  15   H   :    0.000151451   -0.000033929   -0.000119430
  16   H   :    0.000553920    0.000350535   -0.000158822
  17   H   :   -0.001110377   -0.002129121   -0.000413533

Difference to translation invariance:
           :   -0.0000000000   -0.0000000000   -0.0000000000

Difference to rotation invariance:
           :   -0.0000000622   -0.0000001696    0.0000000988

Norm of the Cartesian gradient     ...    0.0099293829
RMS gradient                       ...    0.0013903917
MAX gradient                       ...    0.0039446040
------------------------------------------------------------------------------
                         ORCA GEOMETRY RELAXATION STEP
------------------------------------------------------------------------------

Reading the OPT-File                    .... done
Getting information on internals        .... done
Copying old internal coords+grads       .... done
Making the new internal coordinates     .... (2022 redundants) done
Validating the new internal coordinates .... (2022 redundants) done
Calculating the B-matrix                .... done
Calculating the G,G- and P matrices     .... done
Transforming gradient to internals      .... done
Projecting the internal gradient        .... done
Number of atoms                         ....  17
Number of internal coordinates          ....  78
Current Energy                          ....   -27.313888454 Eh
Current gradient norm                   ....     0.009929383 Eh/bohr
Maximum allowed component of the step   ....  0.300
Current trust radius                    ....  0.700
Updating the Hessian (BFGS)             .... done
Forming the augmented Hessian           .... done
Diagonalizing the augmented Hessian     .... done
Last element of RFO vector              ....  0.942503994
Lowest eigenvalues of augmented Hessian:
 -0.000503992  0.001943715  0.011134396  0.012003950  0.013337799
Length of the computed step             ....  0.354581930
The final length of the internal step   ....  0.338579260
Converting the step to Cartesian space:
 Initial RMS(Int)=    0.0383365520
Transforming coordinates:
 Iter   0:  RMS(Cart)=    0.0672775497 RMS(Int)=    0.0384386781
 Iter   5:  RMS(Cart)=    0.0000391075 RMS(Int)=    0.0000247754
 Iter  10:  RMS(Cart)=    0.0000000503 RMS(Int)=    0.0000000420
done
Storing new coordinates                 .... done
The predicted energy change is          ....    -0.000279361
Previously predicted energy change      ....    -0.000336894
Actually observed energy change         ....    -0.000416276
Ratio of predicted to observed change   ....     1.235630068
New trust radius                        ....     0.700000000

                                .--------------------.
          ----------------------|Geometry convergence|-------------------------
          Item                value                   Tolerance       Converged
          ---------------------------------------------------------------------
          Energy change      -0.0004162759            0.0000050000      NO
          RMS gradient        0.0006998529            0.0001000000      NO
          MAX gradient        0.0043300563            0.0003000000      NO
          RMS step            0.0383365520            0.0020000000      NO
          MAX step            0.3000000000            0.0040000000      NO
          -------------------------------------------------------------------------
          ........................................................
          Max(Bonds)      0.0117      Max(Angles)    1.10
          Max(Dihed)       17.19      Max(Improp)    0.00
          ---------------------------------------------------------------------

    ---------------------------------------------------------------------------
                         Redundant Internal Coordinates
                            (Angstroem and degrees)

        Definition                    Value    dE/dq     Step     New-Value
    ----------------------------------------------------------------------------
     1. B(C   2,C   1)                1.5217 -0.000185  0.0001    1.5218   
     2. B(C   3,C   0)                1.4207 -0.000734  0.0038    1.4246   
     3. B(C   4,C   3)                1.5229  0.001827 -0.0117    1.5112   
     4. B(C   4,C   2)                1.5122 -0.000849 -0.0003    1.5119   
     5. B(O   6,C   4)                1.3819 -0.000670 -0.0006    1.3813   
     6. B(O   6,C   3)                1.4259  0.001042  0.0027    1.4286   
     7. B(O   7,C   4)                1.3744 -0.000956  0.0029    1.3773   
     8. B(O   7,O   5)                1.4456  0.001939 -0.0054    1.4402   
     9. B(H   8,C   0)                1.0703 -0.000178 -0.0000    1.0703   
    10. B(H   9,C   0)                1.0714  0.000021 -0.0004    1.0711   
    11. B(H  10,C   1)                1.0870  0.000009  0.0001    1.0871   
    12. B(H  11,C   1)                1.0869  0.000022 -0.0000    1.0869   
    13. B(H  12,C   1)                1.0876  0.000018 -0.0000    1.0876   
    14. B(H  13,C   2)                1.0935  0.000132 -0.0001    1.0934   
    15. B(H  14,C   2)                1.0938  0.000033  0.0002    1.0940   
    16. B(H  15,C   3)                1.0869  0.000027 -0.0009    1.0860   
    17. B(H  16,O   5)                0.9663 -0.000215  0.0005    0.9668   
    18. A(C   3,C   0,H   8)          119.89  0.000174   -0.08    119.81   
    19. A(C   3,C   0,H   9)          120.22 -0.000190    0.11    120.33   
    20. A(H   8,C   0,H   9)          119.85 -0.000002   -0.29    119.56   
    21. A(H  11,C   1,H  12)          108.15 -0.000137   -0.08    108.07   
    22. A(C   2,C   1,H  12)          111.61  0.000291    0.05    111.65   
    23. A(H  10,C   1,H  12)          108.45 -0.000153    0.01    108.46   
    24. A(H  10,C   1,H  11)          108.85 -0.000100   -0.14    108.71   
    25. A(C   2,C   1,H  11)          109.54 -0.000065   -0.01    109.52   
    26. A(C   2,C   1,H  10)          110.18  0.000150    0.16    110.35   
    27. A(C   1,C   2,H  14)          109.48 -0.000347    0.02    109.49   
    28. A(C   4,C   2,H  13)          108.32  0.000013   -0.03    108.29   
    29. A(C   4,C   2,H  14)          106.37  0.000157    0.23    106.61   
    30. A(C   1,C   2,H  13)          110.90 -0.000303   -0.07    110.84   
    31. A(C   1,C   2,C   4)          113.87  0.000561    0.10    113.97   
    32. A(H  13,C   2,H  14)          107.62 -0.000093   -0.25    107.37   
    33. A(C   4,C   3,H  15)          113.20 -0.000409    1.10    114.29   
    34. A(C   0,C   3,H  15)          117.05  0.000008   -0.23    116.82   
    35. A(O   6,C   3,H  15)          113.26 -0.000380    0.12    113.38   
    36. A(C   4,C   3,O   6)           55.78 -0.000836    0.19     55.97   
    37. A(C   0,C   3,C   4)          123.06  0.000575   -0.54    122.53   
    38. A(C   0,C   3,O   6)          120.19  0.000638   -0.44    119.75   
    39. A(C   3,C   4,O   6)           58.55  0.000122    0.43     58.99   
    40. A(C   2,C   4,O   6)          119.58 -0.000398    0.21    119.79   
    41. A(C   2,C   4,C   3)          122.02 -0.000421    0.30    122.32   
    42. A(O   6,C   4,O   7)          116.51 -0.000347   -0.32    116.19   
    43. A(C   3,C   4,O   7)          112.52 -0.000586    0.48    113.00   
    44. A(C   2,C   4,O   7)          115.66  0.001003   -0.53    115.13   
    45. A(O   7,O   5,H  16)          100.16 -0.004330    0.50    100.67   
    46. A(C   3,O   6,C   4)           65.67  0.000714   -0.63     65.04   
    47. A(C   4,O   7,O   5)          111.08 -0.000606    0.08    111.16   
    48. D(H  13,C   2,C   1,H  10)   -174.64 -0.000202    1.63   -173.01   
    49. D(H  13,C   2,C   1,H  11)     65.64 -0.000130    1.71     67.35   
    50. D(C   4,C   2,C   1,H  12)     68.38  0.000095    1.77     70.15   
    51. D(C   4,C   2,C   1,H  10)    -52.16 -0.000006    1.61    -50.55   
    52. D(C   4,C   2,C   1,H  11)   -171.88  0.000066    1.69   -170.19   
    53. D(H  13,C   2,C   1,H  12)    -54.10 -0.000101    1.79    -52.31   
    54. D(C   4,C   3,C   0,H   8)    142.86  0.000735    1.25    144.10   
    55. D(O   6,C   3,C   0,H   9)     27.12 -0.000320    0.48     27.60   
    56. D(O   6,C   3,C   0,H   8)   -150.58  0.000189    1.10   -149.48   
    57. D(H  15,C   3,C   0,H   8)     -6.47  0.000497    0.21     -6.27   
    58. D(C   4,C   3,C   0,H   9)    -39.45  0.000226    0.63    -38.82   
    59. D(C   3,C   4,C   2,H  14)   -170.89 -0.000049    2.17   -168.73   
    60. D(C   3,C   4,C   2,H  13)     73.66 -0.000027    2.36     76.02   
    61. D(O   6,C   4,C   2,C   1)     19.13 -0.000220    3.14     22.27   
    62. D(C   3,C   4,C   2,C   1)    -50.22 -0.000034    2.40    -47.82   
    63. D(O   6,C   4,C   3,H  15)   -103.18  0.000462    0.45   -102.73   
    64. D(O   6,C   4,C   3,C   0)    106.44  0.000132   -0.21    106.23   
    65. D(C   2,C   4,C   3,H  15)      4.28  0.000203    0.78      5.05   
    66. D(C   2,C   4,C   3,O   6)    107.46 -0.000259    0.32    107.79   
    67. D(C   2,C   4,C   3,C   0)   -146.10 -0.000126    0.12   -145.98   
    68. D(O   6,C   4,C   2,H  14)   -101.54 -0.000235    2.90    -98.64   
    69. D(O   7,C   4,C   3,C   0)     -1.79  0.000221    0.32     -1.47   
    70. D(O   6,C   4,C   2,H  13)    143.02 -0.000213    3.10    146.12   
    71. D(C   3,O   6,C   4,O   7)    101.34 -0.000495    0.93    102.27   
    72. D(C   3,O   6,C   4,C   2)   -111.56  0.000299   -0.44   -112.00   
    73. D(C   4,O   6,C   3,H  15)    103.07 -0.000517    1.36    104.43   
    74. D(C   4,O   6,C   3,C   0)   -111.57 -0.000107    0.38   -111.18   
    75. D(C   4,O   7,O   5,H  16)   -152.43 -0.000931   17.19   -135.24   
    76. D(O   5,O   7,C   4,O   6)     91.65  0.000369   -1.91     89.75   
    77. D(O   5,O   7,C   4,C   3)    156.55  0.000221   -1.30    155.24   
    78. D(O   5,O   7,C   4,C   2)    -56.74  0.000049   -0.82    -57.56   
    ----------------------------------------------------------------------------

Geometry step timings:
Preparation and reading OPT file:      0.000 s ( 0.895 %)
Internal coordinates            :      0.000 s ( 1.247 %)
B/P matrices and projection     :      0.001 s (26.415 %)
Hessian update/contruction      :      0.001 s (17.429 %)
Making the step                 :      0.001 s (23.985 %)
Converting the step to Cartesian:      0.000 s ( 4.477 %)
Storing new data                :      0.000 s ( 1.311 %)
Checking convergence            :      0.000 s ( 2.143 %)
Final printing                  :      0.001 s (22.034 %)
Total time                      :      0.003 s

Time for energy+gradient        :      0.058 s
Time for complete geometry iter :      0.063 s

         *************************************************************
         *                GEOMETRY OPTIMIZATION CYCLE  10            *
         *************************************************************
---------------------------------
CARTESIAN COORDINATES (ANGSTROEM)
---------------------------------
  C    -2.363795   -1.068455    0.464927
  C     2.129037   -0.487576    0.100405
  C     1.095249    0.228155   -0.756938
  C    -0.952312   -0.879901    0.504746
  C    -0.274265    0.316118   -0.122569
  O    -0.627585    2.504041   -0.823479
  O    -0.403325    0.209253    1.248569
  O    -1.156501    1.166416   -0.751536
  H    -2.767551   -2.054683    0.365819
  H    -3.025635   -0.234306    0.580386
  H     2.137538   -0.074496    1.105914
  H     3.115518   -0.359611   -0.337517
  H     1.925622   -1.553834    0.167874
  H     0.991986   -0.259701   -1.730012
  H     1.421514    1.256154   -0.940094
  H    -0.339065   -1.775647    0.536269
  H    -1.403285    3.017593   -0.560291

----------------------------
CARTESIAN COORDINATES (A.U.)
----------------------------
  NO LB    ZA    FRAG    MASS        X           Y           Z
   0 C   6.0000    1    12.011   -4.466925   -2.019088    0.878584
   1 C   6.0000    1    12.011    4.023297   -0.921385    0.189738
   2 C   6.0000    1    12.011    2.069721    0.431151   -1.430406
   3 C   6.0000    1    12.011   -1.799610   -1.662772    0.953831
   4 C   6.0000    1    12.011   -0.518286    0.597377   -0.231623
   5 O   8.0000    1    15.999   -1.185963    4.731951   -1.556150
   6 O   8.0000    1    15.999   -0.762174    0.395430    2.359453
   7 O   8.0000    1    15.999   -2.185470    2.204208   -1.420196
   8 H   1.0000    1     1.008   -5.229914   -3.882787    0.691297
   9 H   1.0000    1     1.008   -5.717622   -0.442774    1.096771
  10 H   1.0000    1     1.008    4.039362   -0.140778    2.089875
  11 H   1.0000    1     1.008    5.887475   -0.679567   -0.637816
  12 H   1.0000    1     1.008    3.638898   -2.936320    0.317235
  13 H   1.0000    1     1.008    1.874582   -0.490764   -3.269250
  14 H   1.0000    1     1.008    2.686273    2.373787   -1.776520
  15 H   1.0000    1     1.008   -0.640740   -3.355487    1.013401
  16 H   1.0000    1     1.008   -2.651824    5.702424   -1.058797

      -----------------------------------------------------------      
     |                   =====================                   |     
     |                           x T B                           |     
     |                   =====================                   |     
     |                         S. Grimme                         |     
     |          Mulliken Center for Theoretical Chemistry        |     
     |                    University of Bonn                     |     
      -----------------------------------------------------------      

   * xtb version 6.7.1 (edcfbbe) compiled by 'albert@albert-system' on 2024-07-22

   xtb is free software: you can redistribute it and/or modify it under
   the terms of the GNU Lesser General Public License as published by
   the Free Software Foundation, either version 3 of the License, or
   (at your option) any later version.
   
   xtb is distributed in the hope that it will be useful,
   but WITHOUT ANY WARRANTY; without even the implied warranty of
   MERCHANTABILITY or FITNESS FOR A PARTICULAR PURPOSE.  See the
   GNU Lesser General Public License for more details.
   
   Cite this work as:
   * C. Bannwarth, E. Caldeweyher, S. Ehlert, A. Hansen, P. Pracht,
     J. Seibert, S. Spicher, S. Grimme, WIREs Comput. Mol. Sci., 2020, 11,
     e01493. DOI: 10.1002/wcms.1493
   
   for GFN2-xTB:
   * C. Bannwarth, S. Ehlert and S. Grimme., J. Chem. Theory Comput., 2019,
     15, 1652-1671. DOI: 10.1021/acs.jctc.8b01176
   for GFN1-xTB:
   * S. Grimme, C. Bannwarth, P. Shushkov, J. Chem. Theory Comput., 2017,
     13, 1989-2009. DOI: 10.1021/acs.jctc.7b00118
   for GFN0-xTB:
   * P. Pracht, E. Caldeweyher, S. Ehlert, S. Grimme, ChemRxiv, 2019, preprint.
     DOI: 10.26434/chemrxiv.8326202.v1
   for GFN-FF:
   * S. Spicher and S. Grimme, Angew. Chem. Int. Ed., 2020, 59, 15665-15673.
     DOI: 10.1002/anie.202004239
   
   for ALPB and GBSA implicit solvation:
   * S. Ehlert, M. Stahn, S. Spicher, S. Grimme, J. Chem. Theory Comput.,
     2021, 17, 4250-4261. DOI: 10.1021/acs.jctc.1c00471
   
   for ddCOSMO and CPCM-X implicit solvation:
   * M. Stahn, S. Ehlert, S. Grimme, J. Phys. Chem. A,
     2023, XX, XXXX-XXXX. DOI: 10.1021/acs.jpca.3c04382
   
   for DFT-D4:
   * E. Caldeweyher, C. Bannwarth and S. Grimme, J. Chem. Phys., 2017,
     147, 034112. DOI: 10.1063/1.4993215
   * E. Caldeweyher, S. Ehlert, A. Hansen, H. Neugebauer, S. Spicher,
     C. Bannwarth and S. Grimme, J. Chem. Phys., 2019, 150, 154122.
     DOI: 10.1063/1.5090222
   * E. Caldeweyher, J.-M. Mewes, S. Ehlert and S. Grimme, Phys. Chem. Chem. Phys.
     2020, 22, 8499-8512. DOI: 10.1039/D0CP00502A
   
   for sTDA-xTB:
   * S. Grimme and C. Bannwarth, J. Chem. Phys., 2016, 145, 054103.
     DOI: 10.1063/1.4959605
   
   in the mass-spec context:
   * V. Asgeirsson, C. Bauer and S. Grimme, Chem. Sci., 2017, 8, 4879.
     DOI: 10.1039/c7sc00601b
   * J. Koopman and S. Grimme, ACS Omega 2019, 4, 12, 15120-15133.
     DOI: 10.1021/acsomega.9b02011
   
   for metadynamics refer to:
   * S. Grimme, J. Chem. Theory Comput., 2019, 155, 2847-2862
     DOI: 10.1021/acs.jctc.9b00143
   
   for SPH calculations refer to:
   * S. Spicher and S. Grimme, J. Chem. Theory Comput., 2021, 17, 1701-1714
     DOI: 10.1021/acs.jctc.0c01306
   
   for ONIOM refer to:
   * C. Plett, A. Katbashev, S. Ehlert, S. Grimme, M. Bursch,
     Phys. Chem. Chem. Phys., 2023, 25, 17860-17868. DOI: 10.1039/D3CP02178E
   
   for DIPRO refer to:
   * J. Kohn, N. Gildemeister, S. Grimme, D. Fazzi, A. Hansen,
     J. Chem. Phys., 2023, just accepted.
   
   for PTB refer to:
   * S. Grimme, M. Mueller, A. Hansen, J. Chem. Phys., 2023, 158, 124111.
     DOI: 10.1063/5.0137838
   
   with help from (in alphabetical order)
   P. Atkinson, C. Bannwarth, F. Bohle, G. Brandenburg, E. Caldeweyher
   M. Checinski, S. Dohm, S. Ehlert, S. Ehrlich, I. Gerasimov, C. Hölzer
   A. Katbashev, J. Kohn, J. Koopman, C. Lavigne, S. Lehtola, F. März, M. Müller,
   F. Musil, H. Neugebauer, J. Pisarek, C. Plett, P. Pracht, F. Pultar,
   J. Seibert, P. Shushkov, S. Spicher, M. Stahn, M. Steiner, T. Strunk,
   J. Stückrath, T. Rose, and J. Unsleber
   
 * started run on 2026/02/18 at 13:00:38.771     
   ID    Z sym.   atoms
    1    6 C      1-5
    2    8 O      6-8
    3    1 H      9-17

           -------------------------------------------------
          |                Calculation Setup                |
           -------------------------------------------------

          program call               : /apps/eb/ORCA/6.1.1-gompi-2024a-avx2/bin/otool_xtb goat_XTB.xyz --grad -c 0 -u 1 -P 8 --namespace goat --input goat_XTB.input.tmp --acc 0.200000
          hostname                   : ra2-19
          calculation namespace      : goat
          coordinate file            : goat_XTB.xyz
          omp threads                :                     8


           -------------------------------------------------
          |                 G F N 2 - x T B                 |
           -------------------------------------------------

        Reference                      10.1021/acs.jctc.8b01176
      * Hamiltonian:
        H0-scaling (s, p, d)           1.850000    2.230000    2.230000
        zeta-weighting                 0.500000
      * Dispersion:
        s8                             2.700000
        a1                             0.520000
        a2                             5.000000
        s9                             5.000000
      * Repulsion:
        kExp                           1.500000    1.000000
        rExp                           1.000000
      * Coulomb:
        alpha                          2.000000
        third order                    shell-resolved
        anisotropic                    true
        a3                             3.000000
        a5                             4.000000
        cn-shift                       1.200000
        cn-exp                         4.000000
        max-rad                        5.000000

q/qsh data taken from xtbrestart
CAMM data taken from xtbrestart

          ...................................................
          :                      SETUP                      :
          :.................................................:
          :  # basis functions                  41          :
          :  # atomic orbitals                  41          :
          :  # shells                           25          :
          :  # electrons                        47          :
          :  max. iterations                   250          :
          :  Hamiltonian                  GFN2-xTB          :
          :  restarted?                       true          :
          :  GBSA solvation                  false          :
          :  PC potential                    false          :
          :  electronic temp.          300.0000000     K    :
          :  accuracy                    0.2000000          :
          :  -> integral cutoff          0.3198970E+02      :
          :  -> integral neglect         0.2000000E-08      :
          :  -> SCF convergence          0.2000000E-06 Eh   :
          :  -> wf. convergence          0.2000000E-04 e    :
          :  Broyden damping             0.4000000          :
          :  net charge                          0          :
          :  unpaired electrons                  1          :
          ...................................................

 iter      E             dE          RMSdq      gap      omega  full diag
   1    -27.5676060 -0.275676E+02  0.253E-01    4.07       0.0  T
   2    -27.5676192 -0.131829E-04  0.152E-01    4.07       1.0  T
   3    -27.5676178  0.138449E-05  0.225E-02    4.05       1.1  T
   4    -27.5676240 -0.614147E-05  0.765E-03    4.06       3.2  T
   5    -27.5676241 -0.175158E-06  0.363E-03    4.06       6.7  T
   6    -27.5676242 -0.177830E-07  0.127E-03    4.06      19.1  T
   7    -27.5676242 -0.818977E-08  0.412E-04    4.06      58.9  T
   8    -27.5676242 -0.661252E-09  0.243E-04    4.06     100.0  T
   9    -27.5676242 -0.328608E-09  0.881E-05    4.06     275.4  T
  10    -27.5676242 -0.486224E-10  0.381E-05    4.06     636.9  T

   *** convergence criteria satisfied after 10 iterations ***

         #    Occupation            Energy/Eh            Energy/eV
      -------------------------------------------------------------
         1        2.0000           -0.7415989             -20.1799
       ...           ...                  ...                  ...
        18        2.0000           -0.4732849             -12.8787
        19        2.0000           -0.4678501             -12.7309
        20        2.0000           -0.4604002             -12.5281
        21        2.0000           -0.4443490             -12.0914
        22        2.0000           -0.4355425             -11.8517
        23        2.0000           -0.4317245             -11.7478
        24        1.0000           -0.3304658              -8.9924 (HOMO)
        25                         -0.1810985              -4.9279 (LUMO)
        26                         -0.0681899              -1.8555
        27                          0.0480541               1.3076
        28                          0.0628220               1.7095
        29                          0.0905980               2.4653
       ...                                ...                  ...
        41                          0.3906043              10.6289
      -------------------------------------------------------------
                  HL-Gap            0.1493674 Eh            4.0645 eV
             Fermi-level           -0.3184387 Eh           -8.6652 eV

 SCC (total)                   0 d,  0 h,  0 min,  0.016 sec
 SCC setup                      ...        0 min,  0.000 sec (  1.654%)
 Dispersion                     ...        0 min,  0.000 sec (  2.668%)
 classical contributions        ...        0 min,  0.000 sec (  0.510%)
 integral evaluation            ...        0 min,  0.001 sec (  4.212%)
 iterations                     ...        0 min,  0.013 sec ( 77.291%)
 molecular gradient             ...        0 min,  0.002 sec ( 10.547%)
 printout                       ...        0 min,  0.000 sec (  2.916%)

         :::::::::::::::::::::::::::::::::::::::::::::::::::::
         ::                     SUMMARY                     ::
         :::::::::::::::::::::::::::::::::::::::::::::::::::::
         :: total energy             -27.314270355302 Eh    ::
         :: gradient norm              0.008270645443 Eh/a0 ::
         :: HOMO-LUMO gap              4.064492902930 eV    ::
         ::.................................................::
         :: SCC energy               -27.567588814429 Eh    ::
         :: -> isotropic ES            0.050168022013 Eh    ::
         :: -> anisotropic ES         -0.005635590796 Eh    ::
         :: -> anisotropic XC         -0.003309320924 Eh    ::
         :: -> dispersion             -0.010450952026 Eh    ::
         :: repulsion energy           0.253318459126 Eh    ::
         :: add. restraining           0.000000000000 Eh    ::
         :: total charge              -0.000000000000 e     ::
         :::::::::::::::::::::::::::::::::::::::::::::::::::::


Property printout bound to 'properties.out'

           -------------------------------------------------
          | TOTAL ENERGY              -27.314270355302 Eh   |
          | GRADIENT NORM               0.008270645443 Eh/α |
          | HOMO-LUMO GAP               4.064492902930 eV   |
           -------------------------------------------------

------------------------------------------------------------------------
 * finished run on 2026/02/18 at 13:00:38.805     
------------------------------------------------------------------------
 total:
 * wall-time:     0 d,  0 h,  0 min,  0.033 sec
 *  cpu-time:     0 d,  0 h,  0 min,  0.214 sec
 * ratio c/w:     6.493 speedup
 SCF:
 * wall-time:     0 d,  0 h,  0 min,  0.016 sec
 *  cpu-time:     0 d,  0 h,  0 min,  0.114 sec
 * ratio c/w:     6.914 speedup


-------------------------   --------------------
FINAL SINGLE POINT ENERGY       -27.314270355300
-------------------------   --------------------


-------------
DIPOLE MOMENT
-------------
                                X             Y             Z
Total Dipole Moment    :     -0.01000      -0.27100      -0.28900
                        -----------------------------------------
Magnitude (a.u.)       :      0.39631
Magnitude (Debye)      :      1.00734


------------------
CARTESIAN GRADIENT
------------------

   1   C   :   -0.000051578    0.000189740   -0.001581115
   2   C   :   -0.000635507    0.000447250   -0.000441012
   3   C   :   -0.002034187   -0.000404347    0.001350086
   4   C   :    0.000341168   -0.000950276   -0.001512995
   5   C   :   -0.000134827    0.000634567    0.000983266
   6   O   :    0.003977677    0.003314873   -0.000599463
   7   O   :    0.000774135    0.001264458   -0.001104552
   8   O   :   -0.002246281   -0.001627667    0.002311869
   9   H   :   -0.000137501    0.000248169    0.000808766
  10   H   :   -0.000090497   -0.000275297    0.000197921
  11   H   :    0.000334131   -0.000227957    0.000033859
  12   H   :    0.000010532    0.000000994    0.000050261
  13   H   :    0.000329282   -0.000014352    0.000178873
  14   H   :    0.000577091    0.000029034   -0.000265667
  15   H   :    0.000475338   -0.000136700   -0.000451647
  16   H   :   -0.000067305    0.000047019    0.000267624
  17   H   :   -0.001421671   -0.002539508   -0.000226072

Difference to translation invariance:
           :    0.0000000000    0.0000000000    0.0000000000

Difference to rotation invariance:
           :   -0.0000001169   -0.0000001325    0.0000000253

Norm of the Cartesian gradient     ...    0.0082706454
RMS gradient                       ...    0.0011581220
MAX gradient                       ...    0.0039776774
------------------------------------------------------------------------------
                         ORCA GEOMETRY RELAXATION STEP
------------------------------------------------------------------------------

Reading the OPT-File                    .... done
Getting information on internals        .... done
Copying old internal coords+grads       .... done
Making the new internal coordinates     .... (2022 redundants) done
Validating the new internal coordinates .... (2022 redundants) done
Calculating the B-matrix                .... done
Calculating the G,G- and P matrices     .... done
Transforming gradient to internals      .... done
Projecting the internal gradient        .... done
Number of atoms                         ....  17
Number of internal coordinates          ....  78
Current Energy                          ....   -27.314270355 Eh
Current gradient norm                   ....     0.008270645 Eh/bohr
Maximum allowed component of the step   ....  0.300
Current trust radius                    ....  0.700
Updating the Hessian (BFGS)             .... done
Forming the augmented Hessian           .... done
Diagonalizing the augmented Hessian     .... done
Last element of RFO vector              ....  0.904097756
Lowest eigenvalues of augmented Hessian:
 -0.000597766  0.001413321  0.008854138  0.011845250  0.013338029
Length of the computed step             ....  0.472654300
The final length of the internal step   ....  0.362773063
Converting the step to Cartesian space:
 Initial RMS(Int)=    0.0410759608
Transforming coordinates:
 Iter   0:  RMS(Cart)=    0.0701010068 RMS(Int)=    0.0412220405
 Iter   5:  RMS(Cart)=    0.0000327558 RMS(Int)=    0.0000208757
 Iter  10:  RMS(Cart)=    0.0000000343 RMS(Int)=    0.0000000295
done
Storing new coordinates                 .... done
The predicted energy change is          ....    -0.000274033
Previously predicted energy change      ....    -0.000279361
Actually observed energy change         ....    -0.000381902
Ratio of predicted to observed change   ....     1.367055240
New trust radius                        ....     0.700000000

                                .--------------------.
          ----------------------|Geometry convergence|-------------------------
          Item                value                   Tolerance       Converged
          ---------------------------------------------------------------------
          Energy change      -0.0003819015            0.0000050000      NO
          RMS gradient        0.0007553458            0.0001000000      NO
          MAX gradient        0.0052418249            0.0003000000      NO
          RMS step            0.0410759608            0.0020000000      NO
          MAX step            0.3000000000            0.0040000000      NO
          -------------------------------------------------------------------------
          ........................................................
          Max(Bonds)      0.0112      Max(Angles)    1.65
          Max(Dihed)       17.19      Max(Improp)    0.00
          ---------------------------------------------------------------------

    ---------------------------------------------------------------------------
                         Redundant Internal Coordinates
                            (Angstroem and degrees)

        Definition                    Value    dE/dq     Step     New-Value
    ----------------------------------------------------------------------------
     1. B(C   2,C   1)                1.5218 -0.000171  0.0004    1.5222   
     2. B(C   3,C   0)                1.4246  0.000272  0.0036    1.4282   
     3. B(C   4,C   3)                1.5112 -0.000753 -0.0112    1.5000   
     4. B(C   4,C   2)                1.5119 -0.001028  0.0010    1.5129   
     5. B(O   6,C   4)                1.3813 -0.001295  0.0012    1.3825   
     6. B(O   6,C   3)                1.4286  0.000648  0.0015    1.4301   
     7. B(O   7,C   4)                1.3773 -0.001403  0.0047    1.3820   
     8. B(O   7,O   5)                1.4402  0.001700 -0.0095    1.4307   
     9. B(H   8,C   0)                1.0703 -0.000252  0.0002    1.0704   
    10. B(H   9,C   0)                1.0711 -0.000137 -0.0003    1.0708   
    11. B(H  10,C   1)                1.0871 -0.000053  0.0002    1.0873   
    12. B(H  11,C   1)                1.0869 -0.000011 -0.0001    1.0868   
    13. B(H  12,C   1)                1.0876 -0.000036  0.0000    1.0876   
    14. B(H  13,C   2)                1.0934  0.000169 -0.0004    1.0930   
    15. B(H  14,C   2)                1.0940  0.000089  0.0000    1.0940   
    16. B(H  15,C   3)                1.0860 -0.000069 -0.0008    1.0852   
    17. B(H  16,O   5)                0.9668 -0.000270  0.0009    0.9677   
    18. A(C   3,C   0,H   8)          119.89  0.000162   -0.06    119.83   
    19. A(C   3,C   0,H   9)          120.41  0.000127    0.15    120.56   
    20. A(H   8,C   0,H   9)          119.64 -0.000319   -0.20    119.44   
    21. A(H  11,C   1,H  12)          108.07 -0.000217   -0.03    108.04   
    22. A(C   2,C   1,H  12)          111.65  0.000465   -0.05    111.60   
    23. A(H  10,C   1,H  12)          108.46 -0.000355    0.07    108.53   
    24. A(H  10,C   1,H  11)          108.71 -0.000258   -0.08    108.63   
    25. A(C   2,C   1,H  11)          109.52 -0.000162    0.03    109.56   
    26. A(C   2,C   1,H  10)          110.35  0.000494    0.06    110.41   
    27. A(C   1,C   2,H  14)          109.49 -0.000554    0.14    109.63   
    28. A(C   4,C   2,H  13)          108.29  0.000270   -0.19    108.10   
    29. A(C   4,C   2,H  14)          106.60  0.000765    0.12    106.72   
    30. A(C   1,C   2,H  13)          110.83 -0.000530    0.03    110.86   
    31. A(C   1,C   2,C   4)          113.97  0.000558    0.00    113.98   
    32. A(H  13,C   2,H  14)          107.36 -0.000521   -0.09    107.27   
    33. A(C   4,C   3,H  15)          114.30  0.000275    1.09    115.39   
    34. A(C   0,C   3,H  15)          116.82 -0.000011   -0.32    116.50   
    35. A(O   6,C   3,H  15)          113.37  0.000002    0.24    113.62   
    36. A(C   4,C   3,O   6)           55.97 -0.000483    0.28     56.24   
    37. A(C   0,C   3,C   4)          122.53 -0.000104   -0.45    122.08   
    38. A(C   0,C   3,O   6)          119.75  0.000106   -0.57    119.18   
    39. A(C   3,C   4,O   6)           58.99  0.000683    0.34     59.33   
    40. A(C   2,C   4,O   6)          119.78 -0.000364    0.17    119.95   
    41. A(C   2,C   4,C   3)          122.31 -0.000433    0.47    122.78   
    42. A(O   6,C   4,O   7)          116.18 -0.000540   -0.25    115.93   
    43. A(C   3,C   4,O   7)          113.00 -0.000358    0.56    113.56   
    44. A(C   2,C   4,O   7)          115.12  0.000772   -0.68    114.44   
    45. A(O   7,O   5,H  16)          100.67 -0.005242    1.65    102.32   
    46. A(C   3,O   6,C   4)           65.04 -0.000201   -0.62     64.43   
    47. A(C   4,O   7,O   5)          111.16 -0.000239    0.12    111.28   
    48. D(H  13,C   2,C   1,H  10)   -173.01 -0.000282    1.99   -171.02   
    49. D(H  13,C   2,C   1,H  11)     67.35 -0.000168    2.03     69.38   
    50. D(C   4,C   2,C   1,H  12)     70.15  0.000272    1.86     72.01   
    51. D(C   4,C   2,C   1,H  10)    -50.55  0.000075    1.76    -48.79   
    52. D(C   4,C   2,C   1,H  11)   -170.19  0.000189    1.80   -168.39   
    53. D(H  13,C   2,C   1,H  12)    -52.31 -0.000085    2.08    -50.22   
    54. D(C   4,C   3,C   0,H   8)    144.10  0.000791    0.10    144.21   
    55. D(O   6,C   3,C   0,H   9)     27.60 -0.000492    1.18     28.78   
    56. D(O   6,C   3,C   0,H   8)   -149.48  0.000206    0.05   -149.43   
    57. D(H  15,C   3,C   0,H   8)     -6.26  0.000363   -0.91     -7.17   
    58. D(C   4,C   3,C   0,H   9)    -38.82  0.000093    1.24    -37.58   
    59. D(C   3,C   4,C   2,H  14)   -168.73 -0.000464    3.19   -165.54   
    60. D(C   3,C   4,C   2,H  13)     76.02 -0.000379    3.34     79.36   
    61. D(O   6,C   4,C   2,C   1)     22.27  0.000231    4.13     26.40   
    62. D(C   3,C   4,C   2,C   1)    -47.82 -0.000284    3.45    -44.37   
    63. D(O   6,C   4,C   3,H  15)   -102.73  0.000309    0.27   -102.46   
    64. D(O   6,C   4,C   3,C   0)    106.23 -0.000035   -0.36    105.87   
    65. D(C   2,C   4,C   3,H  15)      5.05  0.000358    0.45      5.50   
    66. D(C   2,C   4,C   3,O   6)    107.78  0.000049    0.17    107.96   
    67. D(C   2,C   4,C   3,C   0)   -145.99  0.000014   -0.19   -146.17   
    68. D(O   6,C   4,C   2,H  14)    -98.63  0.000051    3.87    -94.76   
    69. D(O   7,C   4,C   3,C   0)     -1.47  0.000260    0.13     -1.35   
    70. D(O   6,C   4,C   2,H  13)    146.12  0.000136    4.02    150.14   
    71. D(C   3,O   6,C   4,O   7)    102.27  0.000091    0.92    103.19   
    72. D(C   3,O   6,C   4,C   2)   -112.00  0.000123   -0.64   -112.64   
    73. D(C   4,O   6,C   3,H  15)    104.42  0.000207    1.29    105.71   
    74. D(C   4,O   6,C   3,C   0)   -111.18  0.000353    0.19   -111.00   
    75. D(C   4,O   7,O   5,H  16)   -135.24 -0.000836   17.19   -118.05   
    76. D(O   5,O   7,C   4,O   6)     89.76 -0.000113   -2.85     86.91   
    77. D(O   5,O   7,C   4,C   3)    155.24  0.000411   -2.34    152.90   
    78. D(O   5,O   7,C   4,C   2)    -57.57  0.000223   -1.65    -59.22   
    ----------------------------------------------------------------------------

Geometry step timings:
Preparation and reading OPT file:      0.000 s ( 0.889 %)
Internal coordinates            :      0.000 s ( 1.271 %)
B/P matrices and projection     :      0.001 s (27.128 %)
Hessian update/contruction      :      0.000 s (15.597 %)
Making the step                 :      0.001 s (24.619 %)
Converting the step to Cartesian:      0.000 s ( 4.670 %)
Storing new data                :      0.000 s ( 1.302 %)
Checking convergence            :      0.000 s ( 2.001 %)
Final printing                  :      0.001 s (22.522 %)
Total time                      :      0.003 s

Time for energy+gradient        :      0.054 s
Time for complete geometry iter :      0.058 s

         *************************************************************
         *                GEOMETRY OPTIMIZATION CYCLE  11            *
         *************************************************************
---------------------------------
CARTESIAN COORDINATES (ANGSTROEM)
---------------------------------
  C    -2.354832   -1.060409    0.467265
  C     2.119680   -0.497470    0.094322
  C     1.097622    0.233368   -0.764991
  C    -0.941980   -0.857794    0.517956
  C    -0.280820    0.313151   -0.146698
  O    -0.670898    2.477560   -0.891738
  O    -0.424251    0.270703    1.227717
  O    -1.162921    1.135952   -0.821073
  H    -2.749161   -2.053562    0.404160
  H    -3.027154   -0.228719    0.520502
  H     2.094842   -0.122380    1.114522
  H     3.115728   -0.337861   -0.310130
  H     1.932391   -1.568608    0.115251
  H     1.003114   -0.240701   -1.745275
  H     1.427384    1.262922   -0.932598
  H    -0.328277   -1.747983    0.610259
  H    -1.347323    2.971350   -0.406981

----------------------------
CARTESIAN COORDINATES (A.U.)
----------------------------
  NO LB    ZA    FRAG    MASS        X           Y           Z
   0 C   6.0000    1    12.011   -4.449987   -2.003883    0.883003
   1 C   6.0000    1    12.011    4.005615   -0.940082    0.178243
   2 C   6.0000    1    12.011    2.074205    0.441001   -1.445624
   3 C   6.0000    1    12.011   -1.780085   -1.620996    0.978796
   4 C   6.0000    1    12.011   -0.530673    0.591770   -0.277220
   5 O   8.0000    1    15.999   -1.267814    4.681909   -1.685141
   6 O   8.0000    1    15.999   -0.801719    0.511554    2.320050
   7 O   8.0000    1    15.999   -2.197602    2.146638   -1.551604
   8 H   1.0000    1     1.008   -5.195161   -3.880671    0.763752
   9 H   1.0000    1     1.008   -5.720491   -0.432216    0.983606
  10 H   1.0000    1     1.008    3.958677   -0.231264    2.106142
  11 H   1.0000    1     1.008    5.887873   -0.638464   -0.586061
  12 H   1.0000    1     1.008    3.651689   -2.964239    0.217792
  13 H   1.0000    1     1.008    1.895611   -0.454858   -3.298091
  14 H   1.0000    1     1.008    2.697365    2.386577   -1.762355
  15 H   1.0000    1     1.008   -0.620353   -3.303208    1.153222
  16 H   1.0000    1     1.008   -2.546071    5.615037   -0.769083

      -----------------------------------------------------------      
     |                   =====================                   |     
     |                           x T B                           |     
     |                   =====================                   |     
     |                         S. Grimme                         |     
     |          Mulliken Center for Theoretical Chemistry        |     
     |                    University of Bonn                     |     
      -----------------------------------------------------------      

   * xtb version 6.7.1 (edcfbbe) compiled by 'albert@albert-system' on 2024-07-22

   xtb is free software: you can redistribute it and/or modify it under
   the terms of the GNU Lesser General Public License as published by
   the Free Software Foundation, either version 3 of the License, or
   (at your option) any later version.
   
   xtb is distributed in the hope that it will be useful,
   but WITHOUT ANY WARRANTY; without even the implied warranty of
   MERCHANTABILITY or FITNESS FOR A PARTICULAR PURPOSE.  See the
   GNU Lesser General Public License for more details.
   
   Cite this work as:
   * C. Bannwarth, E. Caldeweyher, S. Ehlert, A. Hansen, P. Pracht,
     J. Seibert, S. Spicher, S. Grimme, WIREs Comput. Mol. Sci., 2020, 11,
     e01493. DOI: 10.1002/wcms.1493
   
   for GFN2-xTB:
   * C. Bannwarth, S. Ehlert and S. Grimme., J. Chem. Theory Comput., 2019,
     15, 1652-1671. DOI: 10.1021/acs.jctc.8b01176
   for GFN1-xTB:
   * S. Grimme, C. Bannwarth, P. Shushkov, J. Chem. Theory Comput., 2017,
     13, 1989-2009. DOI: 10.1021/acs.jctc.7b00118
   for GFN0-xTB:
   * P. Pracht, E. Caldeweyher, S. Ehlert, S. Grimme, ChemRxiv, 2019, preprint.
     DOI: 10.26434/chemrxiv.8326202.v1
   for GFN-FF:
   * S. Spicher and S. Grimme, Angew. Chem. Int. Ed., 2020, 59, 15665-15673.
     DOI: 10.1002/anie.202004239
   
   for ALPB and GBSA implicit solvation:
   * S. Ehlert, M. Stahn, S. Spicher, S. Grimme, J. Chem. Theory Comput.,
     2021, 17, 4250-4261. DOI: 10.1021/acs.jctc.1c00471
   
   for ddCOSMO and CPCM-X implicit solvation:
   * M. Stahn, S. Ehlert, S. Grimme, J. Phys. Chem. A,
     2023, XX, XXXX-XXXX. DOI: 10.1021/acs.jpca.3c04382
   
   for DFT-D4:
   * E. Caldeweyher, C. Bannwarth and S. Grimme, J. Chem. Phys., 2017,
     147, 034112. DOI: 10.1063/1.4993215
   * E. Caldeweyher, S. Ehlert, A. Hansen, H. Neugebauer, S. Spicher,
     C. Bannwarth and S. Grimme, J. Chem. Phys., 2019, 150, 154122.
     DOI: 10.1063/1.5090222
   * E. Caldeweyher, J.-M. Mewes, S. Ehlert and S. Grimme, Phys. Chem. Chem. Phys.
     2020, 22, 8499-8512. DOI: 10.1039/D0CP00502A
   
   for sTDA-xTB:
   * S. Grimme and C. Bannwarth, J. Chem. Phys., 2016, 145, 054103.
     DOI: 10.1063/1.4959605
   
   in the mass-spec context:
   * V. Asgeirsson, C. Bauer and S. Grimme, Chem. Sci., 2017, 8, 4879.
     DOI: 10.1039/c7sc00601b
   * J. Koopman and S. Grimme, ACS Omega 2019, 4, 12, 15120-15133.
     DOI: 10.1021/acsomega.9b02011
   
   for metadynamics refer to:
   * S. Grimme, J. Chem. Theory Comput., 2019, 155, 2847-2862
     DOI: 10.1021/acs.jctc.9b00143
   
   for SPH calculations refer to:
   * S. Spicher and S. Grimme, J. Chem. Theory Comput., 2021, 17, 1701-1714
     DOI: 10.1021/acs.jctc.0c01306
   
   for ONIOM refer to:
   * C. Plett, A. Katbashev, S. Ehlert, S. Grimme, M. Bursch,
     Phys. Chem. Chem. Phys., 2023, 25, 17860-17868. DOI: 10.1039/D3CP02178E
   
   for DIPRO refer to:
   * J. Kohn, N. Gildemeister, S. Grimme, D. Fazzi, A. Hansen,
     J. Chem. Phys., 2023, just accepted.
   
   for PTB refer to:
   * S. Grimme, M. Mueller, A. Hansen, J. Chem. Phys., 2023, 158, 124111.
     DOI: 10.1063/5.0137838
   
   with help from (in alphabetical order)
   P. Atkinson, C. Bannwarth, F. Bohle, G. Brandenburg, E. Caldeweyher
   M. Checinski, S. Dohm, S. Ehlert, S. Ehrlich, I. Gerasimov, C. Hölzer
   A. Katbashev, J. Kohn, J. Koopman, C. Lavigne, S. Lehtola, F. März, M. Müller,
   F. Musil, H. Neugebauer, J. Pisarek, C. Plett, P. Pracht, F. Pultar,
   J. Seibert, P. Shushkov, S. Spicher, M. Stahn, M. Steiner, T. Strunk,
   J. Stückrath, T. Rose, and J. Unsleber
   
 * started run on 2026/02/18 at 13:00:38.829     
   ID    Z sym.   atoms
    1    6 C      1-5
    2    8 O      6-8
    3    1 H      9-17

           -------------------------------------------------
          |                Calculation Setup                |
           -------------------------------------------------

          program call               : /apps/eb/ORCA/6.1.1-gompi-2024a-avx2/bin/otool_xtb goat_XTB.xyz --grad -c 0 -u 1 -P 8 --namespace goat --input goat_XTB.input.tmp --acc 0.200000
          hostname                   : ra2-19
          calculation namespace      : goat
          coordinate file            : goat_XTB.xyz
          omp threads                :                     8


           -------------------------------------------------
          |                 G F N 2 - x T B                 |
           -------------------------------------------------

        Reference                      10.1021/acs.jctc.8b01176
      * Hamiltonian:
        H0-scaling (s, p, d)           1.850000    2.230000    2.230000
        zeta-weighting                 0.500000
      * Dispersion:
        s8                             2.700000
        a1                             0.520000
        a2                             5.000000
        s9                             5.000000
      * Repulsion:
        kExp                           1.500000    1.000000
        rExp                           1.000000
      * Coulomb:
        alpha                          2.000000
        third order                    shell-resolved
        anisotropic                    true
        a3                             3.000000
        a5                             4.000000
        cn-shift                       1.200000
        cn-exp                         4.000000
        max-rad                        5.000000

q/qsh data taken from xtbrestart
CAMM data taken from xtbrestart

          ...................................................
          :                      SETUP                      :
          :.................................................:
          :  # basis functions                  41          :
          :  # atomic orbitals                  41          :
          :  # shells                           25          :
          :  # electrons                        47          :
          :  max. iterations                   250          :
          :  Hamiltonian                  GFN2-xTB          :
          :  restarted?                       true          :
          :  GBSA solvation                  false          :
          :  PC potential                    false          :
          :  electronic temp.          300.0000000     K    :
          :  accuracy                    0.2000000          :
          :  -> integral cutoff          0.3198970E+02      :
          :  -> integral neglect         0.2000000E-08      :
          :  -> SCF convergence          0.2000000E-06 Eh   :
          :  -> wf. convergence          0.2000000E-04 e    :
          :  Broyden damping             0.4000000          :
          :  net charge                          0          :
          :  unpaired electrons                  1          :
          ...................................................

 iter      E             dE          RMSdq      gap      omega  full diag
   1    -27.5679757 -0.275680E+02  0.270E-01    4.30       0.0  T
   2    -27.5679976 -0.218211E-04  0.164E-01    4.30       1.0  T
   3    -27.5679852  0.123643E-04  0.375E-02    4.26       1.0  T
   4    -27.5680054 -0.201911E-04  0.837E-03    4.28       2.9  T
   5    -27.5680055 -0.102560E-06  0.374E-03    4.28       6.5  T
   6    -27.5680055 -0.134147E-07  0.119E-03    4.28      20.4  T
   7    -27.5680055 -0.645821E-08  0.406E-04    4.28      59.7  T
   8    -27.5680055 -0.624155E-09  0.248E-04    4.28      97.7  T
   9    -27.5680055 -0.336147E-09  0.814E-05    4.28     298.0  T
  10    -27.5680055 -0.403091E-10  0.401E-05    4.28     605.2  T

   *** convergence criteria satisfied after 10 iterations ***

         #    Occupation            Energy/Eh            Energy/eV
      -------------------------------------------------------------
         1        2.0000           -0.7423730             -20.2010
       ...           ...                  ...                  ...
        18        2.0000           -0.4749359             -12.9237
        19        2.0000           -0.4669777             -12.7071
        20        2.0000           -0.4611592             -12.5488
        21        2.0000           -0.4463308             -12.1453
        22        2.0000           -0.4397067             -11.9650
        23        2.0000           -0.4329586             -11.7814
        24        1.0000           -0.3318610              -9.0304 (HOMO)
        25                         -0.1744618              -4.7473 (LUMO)
        26                         -0.0666392              -1.8133
        27                          0.0459528               1.2504
        28                          0.0630321               1.7152
        29                          0.0888361               2.4174
       ...                                ...                  ...
        41                          0.3927677              10.6878
      -------------------------------------------------------------
                  HL-Gap            0.1573992 Eh            4.2830 eV
             Fermi-level           -0.3177856 Eh           -8.6474 eV

 SCC (total)                   0 d,  0 h,  0 min,  0.016 sec
 SCC setup                      ...        0 min,  0.000 sec (  1.725%)
 Dispersion                     ...        0 min,  0.000 sec (  1.360%)
 classical contributions        ...        0 min,  0.000 sec (  0.532%)
 integral evaluation            ...        0 min,  0.001 sec (  4.332%)
 iterations                     ...        0 min,  0.012 sec ( 78.069%)
 molecular gradient             ...        0 min,  0.002 sec ( 10.733%)
 printout                       ...        0 min,  0.000 sec (  3.028%)

         :::::::::::::::::::::::::::::::::::::::::::::::::::::
         ::                     SUMMARY                     ::
         :::::::::::::::::::::::::::::::::::::::::::::::::::::
         :: total energy             -27.314647208013 Eh    ::
         :: gradient norm              0.009787573733 Eh/a0 ::
         :: HOMO-LUMO gap              4.283049937771 eV    ::
         ::.................................................::
         :: SCC energy               -27.567969665888 Eh    ::
         :: -> isotropic ES            0.050186133433 Eh    ::
         :: -> anisotropic ES         -0.005229539028 Eh    ::
         :: -> anisotropic XC         -0.003575898393 Eh    ::
         :: -> dispersion             -0.010471794274 Eh    ::
         :: repulsion energy           0.253322457875 Eh    ::
         :: add. restraining           0.000000000000 Eh    ::
         :: total charge               0.000000000000 e     ::
         :::::::::::::::::::::::::::::::::::::::::::::::::::::


Property printout bound to 'properties.out'

           -------------------------------------------------
          | TOTAL ENERGY              -27.314647208013 Eh   |
          | GRADIENT NORM               0.009787573733 Eh/α |
          | HOMO-LUMO GAP               4.283049937771 eV   |
           -------------------------------------------------

------------------------------------------------------------------------
 * finished run on 2026/02/18 at 13:00:38.864     
------------------------------------------------------------------------
 total:
 * wall-time:     0 d,  0 h,  0 min,  0.034 sec
 *  cpu-time:     0 d,  0 h,  0 min,  0.222 sec
 * ratio c/w:     6.507 speedup
 SCF:
 * wall-time:     0 d,  0 h,  0 min,  0.016 sec
 *  cpu-time:     0 d,  0 h,  0 min,  0.111 sec
 * ratio c/w:     6.910 speedup


-------------------------   --------------------
FINAL SINGLE POINT ENERGY       -27.314647208010
-------------------------   --------------------


-------------
DIPOLE MOMENT
-------------
                                X             Y             Z
Total Dipole Moment    :      0.07300      -0.31400      -0.08000
                        -----------------------------------------
Magnitude (a.u.)       :      0.33215
Magnitude (Debye)      :      0.84426


------------------
CARTESIAN GRADIENT
------------------

   1   C   :   -0.000580097    0.000864867   -0.001249139
   2   C   :   -0.000703203    0.000400250   -0.000331609
   3   C   :   -0.002138635    0.000138826    0.000478326
   4   C   :    0.004756115    0.000983990   -0.003479694
   5   C   :   -0.002685167   -0.003410445    0.003235804
   6   O   :    0.002133571    0.001814379   -0.000549021
   7   O   :    0.000120483    0.001805779   -0.000377181
   8   O   :   -0.000530974   -0.000167746    0.001903074
   9   H   :   -0.000260385    0.000278219    0.000572419
  10   H   :   -0.000250256   -0.000517757    0.000151149
  11   H   :    0.000359072   -0.000346758    0.000055715
  12   H   :   -0.000010544    0.000044030    0.000081248
  13   H   :    0.000371452   -0.000017029    0.000174138
  14   H   :    0.000639047    0.000129290   -0.000243509
  15   H   :    0.000529710   -0.000162747   -0.000625444
  16   H   :   -0.000842923   -0.000232791    0.000571112
  17   H   :   -0.000907265   -0.001604357   -0.000367389

Difference to translation invariance:
           :   -0.0000000000   -0.0000000000   -0.0000000000

Difference to rotation invariance:
           :   -0.0000003302    0.0000000063   -0.0000000018

Norm of the Cartesian gradient     ...    0.0097875737
RMS gradient                       ...    0.0013705345
MAX gradient                       ...    0.0047561145
------------------------------------------------------------------------------
                         ORCA GEOMETRY RELAXATION STEP
------------------------------------------------------------------------------

Reading the OPT-File                    .... done
Getting information on internals        .... done
Copying old internal coords+grads       .... done
Making the new internal coordinates     .... (2022 redundants) done
Validating the new internal coordinates .... (2022 redundants) done
Calculating the B-matrix                .... done
Calculating the G,G- and P matrices     .... done
Transforming gradient to internals      .... done
Projecting the internal gradient        .... done
Number of atoms                         ....  17
Number of internal coordinates          ....  78
Current Energy                          ....   -27.314647208 Eh
Current gradient norm                   ....     0.009787574 Eh/bohr
Maximum allowed component of the step   ....  0.300
Current trust radius                    ....  0.700
Updating the Hessian (BFGS)             .... done
Forming the augmented Hessian           .... done
Diagonalizing the augmented Hessian     .... done
Last element of RFO vector              ....  0.891301521
Lowest eigenvalues of augmented Hessian:
 -0.000523945  0.001138046  0.008224411  0.011794241  0.012750255
Length of the computed step             ....  0.508706716
The final length of the internal step   ....  0.379586580
Converting the step to Cartesian space:
 Initial RMS(Int)=    0.0429797167
Transforming coordinates:
 Iter   0:  RMS(Cart)=    0.0742308196 RMS(Int)=    0.0431097144
 Iter   5:  RMS(Cart)=    0.0000337901 RMS(Int)=    0.0000212147
 Iter  10:  RMS(Cart)=    0.0000000354 RMS(Int)=    0.0000000308
done
Storing new coordinates                 .... done
The predicted energy change is          ....    -0.000206872
Previously predicted energy change      ....    -0.000274033
Actually observed energy change         ....    -0.000376853
Ratio of predicted to observed change   ....     1.375207797
New trust radius                        ....     0.700000000

                                .--------------------.
          ----------------------|Geometry convergence|-------------------------
          Item                value                   Tolerance       Converged
          ---------------------------------------------------------------------
          Energy change      -0.0003768527            0.0000050000      NO
          RMS gradient        0.0007286855            0.0001000000      NO
          MAX gradient        0.0033381452            0.0003000000      NO
          RMS step            0.0429797167            0.0020000000      NO
          MAX step            0.3000000000            0.0040000000      NO
          -------------------------------------------------------------------------
          ........................................................
          Max(Bonds)      0.0097      Max(Angles)    1.87
          Max(Dihed)       17.19      Max(Improp)    0.00
          ---------------------------------------------------------------------

    ---------------------------------------------------------------------------
                         Redundant Internal Coordinates
                            (Angstroem and degrees)

        Definition                    Value    dE/dq     Step     New-Value
    ----------------------------------------------------------------------------
     1. B(C   2,C   1)                1.5222 -0.000039  0.0002    1.5224   
     2. B(C   3,C   0)                1.4282  0.001009  0.0017    1.4299   
     3. B(C   4,C   3)                1.5000 -0.003338 -0.0052    1.4948   
     4. B(C   4,C   2)                1.5129 -0.000710  0.0012    1.5141   
     5. B(O   6,C   4)                1.3825 -0.001044  0.0021    1.3847   
     6. B(O   6,C   3)                1.4301  0.000054  0.0018    1.4320   
     7. B(O   7,C   4)                1.3820 -0.000900  0.0050    1.3869   
     8. B(O   7,O   5)                1.4307  0.000664 -0.0097    1.4210   
     9. B(H   8,C   0)                1.0704 -0.000196  0.0002    1.0707   
    10. B(H   9,C   0)                1.0708 -0.000238 -0.0000    1.0708   
    11. B(H  10,C   1)                1.0873 -0.000076  0.0003    1.0875   
    12. B(H  11,C   1)                1.0868 -0.000033 -0.0001    1.0868   
    13. B(H  12,C   1)                1.0876 -0.000044  0.0000    1.0876   
    14. B(H  13,C   2)                1.0930  0.000107 -0.0005    1.0925   
    15. B(H  14,C   2)                1.0940  0.000102 -0.0001    1.0939   
    16. B(H  15,C   3)                1.0852 -0.000237 -0.0007    1.0844   
    17. B(H  16,O   5)                0.9677 -0.000369  0.0012    0.9689   
    18. A(C   3,C   0,H   8)          119.88  0.000112   -0.02    119.86   
    19. A(C   3,C   0,H   9)          120.61  0.000449    0.12    120.73   
    20. A(H   8,C   0,H   9)          119.49 -0.000577   -0.06    119.43   
    21. A(H  11,C   1,H  12)          108.04 -0.000224    0.00    108.04   
    22. A(C   2,C   1,H  12)          111.60  0.000480   -0.12    111.48   
    23. A(H  10,C   1,H  12)          108.53 -0.000434    0.14    108.67   
    24. A(H  10,C   1,H  11)          108.63 -0.000295   -0.04    108.59   
    25. A(C   2,C   1,H  11)          109.56 -0.000205    0.07    109.63   
    26. A(C   2,C   1,H  10)          110.41  0.000638   -0.05    110.36   
    27. A(C   1,C   2,H  14)          109.63 -0.000480    0.21    109.84   
    28. A(C   4,C   2,H  13)          108.10  0.000413   -0.34    107.76   
    29. A(C   4,C   2,H  14)          106.72  0.000971   -0.08    106.63   
    30. A(C   1,C   2,H  13)          110.86 -0.000551    0.14    111.00   
    31. A(C   1,C   2,C   4)          113.98  0.000357   -0.01    113.96   
    32. A(H  13,C   2,H  14)          107.27 -0.000717    0.09    107.36   
    33. A(C   4,C   3,H  15)          115.39  0.000940    0.72    116.11   
    34. A(C   0,C   3,H  15)          116.49 -0.000038   -0.26    116.24   
    35. A(O   6,C   3,H  15)          113.60  0.000415    0.15    113.75   
    36. A(C   4,C   3,O   6)           56.25  0.000261    0.17     56.42   
    37. A(C   0,C   3,C   4)          122.08 -0.000842   -0.18    121.89   
    38. A(C   0,C   3,O   6)          119.19 -0.000598   -0.45    118.74   
    39. A(C   3,C   4,O   6)           59.32  0.001001    0.18     59.51   
    40. A(C   2,C   4,O   6)          119.95 -0.000122    0.06    120.00   
    41. A(C   2,C   4,C   3)          122.79 -0.000218    0.53    123.31   
    42. A(O   6,C   4,O   7)          115.92 -0.000405   -0.18    115.74   
    43. A(C   3,C   4,O   7)          113.56  0.000107    0.37    113.93   
    44. A(C   2,C   4,O   7)          114.43  0.000009   -0.54    113.88   
    45. A(O   7,O   5,H  16)          102.32 -0.003219    1.87    104.19   
    46. A(C   3,O   6,C   4)           64.43 -0.001262   -0.36     64.07   
    47. A(C   4,O   7,O   5)          111.28  0.000392    0.00    111.28   
    48. D(H  13,C   2,C   1,H  10)   -171.02 -0.000240    2.04   -168.98   
    49. D(H  13,C   2,C   1,H  11)     69.38 -0.000143    2.07     71.46   
    50. D(C   4,C   2,C   1,H  12)     72.01  0.000351    1.75     73.76   
    51. D(C   4,C   2,C   1,H  10)    -48.79  0.000143    1.69    -47.10   
    52. D(C   4,C   2,C   1,H  11)   -168.39  0.000240    1.72   -166.66   
    53. D(H  13,C   2,C   1,H  12)    -50.22 -0.000032    2.10    -48.12   
    54. D(C   4,C   3,C   0,H   8)    144.21  0.000536    0.69    144.90   
    55. D(O   6,C   3,C   0,H   9)     28.78 -0.000279    2.26     31.04   
    56. D(O   6,C   3,C   0,H   8)   -149.43  0.000311    0.66   -148.78   
    57. D(H  15,C   3,C   0,H   8)     -7.17  0.000127   -0.15     -7.32   
    58. D(C   4,C   3,C   0,H   9)    -37.58 -0.000053    2.30    -35.28   
    59. D(C   3,C   4,C   2,H  14)   -165.54 -0.000788    4.12   -161.42   
    60. D(C   3,C   4,C   2,H  13)     79.36 -0.000645    4.22     83.59   
    61. D(O   6,C   4,C   2,C   1)     26.40  0.000619    4.78     31.18   
    62. D(C   3,C   4,C   2,C   1)    -44.37 -0.000490    4.31    -40.06   
    63. D(O   6,C   4,C   3,H  15)   -102.46 -0.000062    0.19   -102.27   
    64. D(O   6,C   4,C   3,C   0)    105.87 -0.000215   -0.40    105.47   
    65. D(C   2,C   4,C   3,H  15)      5.49  0.000361    0.14      5.63   
    66. D(C   2,C   4,C   3,O   6)    107.96  0.000422   -0.06    107.90   
    67. D(C   2,C   4,C   3,C   0)   -146.18  0.000207   -0.46   -146.63   
    68. D(O   6,C   4,C   2,H  14)    -94.76  0.000321    4.59    -90.17   
    69. D(O   7,C   4,C   3,C   0)     -1.34  0.000048   -0.07     -1.41   
    70. D(O   6,C   4,C   2,H  13)    150.14  0.000464    4.69    154.83   
    71. D(C   3,O   6,C   4,O   7)    103.20  0.000692    0.58    103.77   
    72. D(C   3,O   6,C   4,C   2)   -112.64 -0.000159   -0.71   -113.35   
    73. D(C   4,O   6,C   3,H  15)    105.71  0.000991    0.85    106.56   
    74. D(C   4,O   6,C   3,C   0)   -111.00  0.000664   -0.06   -111.06   
    75. D(C   4,O   7,O   5,H  16)   -118.05 -0.000975   17.19   -100.86   
    76. D(O   5,O   7,C   4,O   6)     86.92 -0.000508   -2.67     84.25   
    77. D(O   5,O   7,C   4,C   3)    152.91  0.000565   -2.40    150.50   
    78. D(O   5,O   7,C   4,C   2)    -59.22  0.000332   -1.69    -60.91   
    ----------------------------------------------------------------------------

Geometry step timings:
Preparation and reading OPT file:      0.000 s ( 0.934 %)
Internal coordinates            :      0.000 s ( 1.246 %)
B/P matrices and projection     :      0.001 s (26.783 %)
Hessian update/contruction      :      0.000 s (14.357 %)
Making the step                 :      0.001 s (26.191 %)
Converting the step to Cartesian:      0.000 s ( 4.173 %)
Storing new data                :      0.000 s ( 1.308 %)
Checking convergence            :      0.000 s ( 2.211 %)
Final printing                  :      0.001 s (22.797 %)
Total time                      :      0.003 s

Time for energy+gradient        :      0.055 s
Time for complete geometry iter :      0.059 s

         *************************************************************
         *                GEOMETRY OPTIMIZATION CYCLE  12            *
         *************************************************************
---------------------------------
CARTESIAN COORDINATES (ANGSTROEM)
---------------------------------
  C    -2.346091   -1.058117    0.477724
  C     2.106916   -0.510401    0.084916
  C     1.100372    0.249015   -0.768319
  C    -0.934817   -0.834943    0.534175
  C    -0.288279    0.315055   -0.168594
  O    -0.725282    2.450453   -0.957648
  O    -0.448547    0.332145    1.206652
  O    -1.173605    1.103786   -0.888119
  H    -2.727195   -2.058515    0.461020
  H    -3.029700   -0.234292    0.454752
  H     2.045847   -0.185725    1.121023
  H     3.112633   -0.318759   -0.279558
  H     1.933183   -1.583334    0.045487
  H     1.013466   -0.197365   -1.761626
  H     1.432751    1.282494   -0.902890
  H    -0.316005   -1.713235    0.681446
  H    -1.252502    2.911257   -0.287971

----------------------------
CARTESIAN COORDINATES (A.U.)
----------------------------
  NO LB    ZA    FRAG    MASS        X           Y           Z
   0 C   6.0000    1    12.011   -4.433469   -1.999551    0.902767
   1 C   6.0000    1    12.011    3.981494   -0.964518    0.160467
   2 C   6.0000    1    12.011    2.079402    0.470570   -1.451912
   3 C   6.0000    1    12.011   -1.766548   -1.577814    1.009444
   4 C   6.0000    1    12.011   -0.544769    0.595368   -0.318597
   5 O   8.0000    1    15.999   -1.370584    4.630685   -1.809692
   6 O   8.0000    1    15.999   -0.847631    0.627663    2.280242
   7 O   8.0000    1    15.999   -2.217792    2.085853   -1.678301
   8 H   1.0000    1     1.008   -5.153652   -3.890030    0.871201
   9 H   1.0000    1     1.008   -5.725303   -0.442747    0.859356
  10 H   1.0000    1     1.008    3.866090   -0.350969    2.118427
  11 H   1.0000    1     1.008    5.882024   -0.602366   -0.528288
  12 H   1.0000    1     1.008    3.653186   -2.992068    0.085958
  13 H   1.0000    1     1.008    1.915173   -0.372966   -3.328991
  14 H   1.0000    1     1.008    2.707508    2.423562   -1.706215
  15 H   1.0000    1     1.008   -0.597163   -3.237545    1.287747
  16 H   1.0000    1     1.008   -2.366885    5.501478   -0.544186

      -----------------------------------------------------------      
     |                   =====================                   |     
     |                           x T B                           |     
     |                   =====================                   |     
     |                         S. Grimme                         |     
     |          Mulliken Center for Theoretical Chemistry        |     
     |                    University of Bonn                     |     
      -----------------------------------------------------------      

   * xtb version 6.7.1 (edcfbbe) compiled by 'albert@albert-system' on 2024-07-22

   xtb is free software: you can redistribute it and/or modify it under
   the terms of the GNU Lesser General Public License as published by
   the Free Software Foundation, either version 3 of the License, or
   (at your option) any later version.
   
   xtb is distributed in the hope that it will be useful,
   but WITHOUT ANY WARRANTY; without even the implied warranty of
   MERCHANTABILITY or FITNESS FOR A PARTICULAR PURPOSE.  See the
   GNU Lesser General Public License for more details.
   
   Cite this work as:
   * C. Bannwarth, E. Caldeweyher, S. Ehlert, A. Hansen, P. Pracht,
     J. Seibert, S. Spicher, S. Grimme, WIREs Comput. Mol. Sci., 2020, 11,
     e01493. DOI: 10.1002/wcms.1493
   
   for GFN2-xTB:
   * C. Bannwarth, S. Ehlert and S. Grimme., J. Chem. Theory Comput., 2019,
     15, 1652-1671. DOI: 10.1021/acs.jctc.8b01176
   for GFN1-xTB:
   * S. Grimme, C. Bannwarth, P. Shushkov, J. Chem. Theory Comput., 2017,
     13, 1989-2009. DOI: 10.1021/acs.jctc.7b00118
   for GFN0-xTB:
   * P. Pracht, E. Caldeweyher, S. Ehlert, S. Grimme, ChemRxiv, 2019, preprint.
     DOI: 10.26434/chemrxiv.8326202.v1
   for GFN-FF:
   * S. Spicher and S. Grimme, Angew. Chem. Int. Ed., 2020, 59, 15665-15673.
     DOI: 10.1002/anie.202004239
   
   for ALPB and GBSA implicit solvation:
   * S. Ehlert, M. Stahn, S. Spicher, S. Grimme, J. Chem. Theory Comput.,
     2021, 17, 4250-4261. DOI: 10.1021/acs.jctc.1c00471
   
   for ddCOSMO and CPCM-X implicit solvation:
   * M. Stahn, S. Ehlert, S. Grimme, J. Phys. Chem. A,
     2023, XX, XXXX-XXXX. DOI: 10.1021/acs.jpca.3c04382
   
   for DFT-D4:
   * E. Caldeweyher, C. Bannwarth and S. Grimme, J. Chem. Phys., 2017,
     147, 034112. DOI: 10.1063/1.4993215
   * E. Caldeweyher, S. Ehlert, A. Hansen, H. Neugebauer, S. Spicher,
     C. Bannwarth and S. Grimme, J. Chem. Phys., 2019, 150, 154122.
     DOI: 10.1063/1.5090222
   * E. Caldeweyher, J.-M. Mewes, S. Ehlert and S. Grimme, Phys. Chem. Chem. Phys.
     2020, 22, 8499-8512. DOI: 10.1039/D0CP00502A
   
   for sTDA-xTB:
   * S. Grimme and C. Bannwarth, J. Chem. Phys., 2016, 145, 054103.
     DOI: 10.1063/1.4959605
   
   in the mass-spec context:
   * V. Asgeirsson, C. Bauer and S. Grimme, Chem. Sci., 2017, 8, 4879.
     DOI: 10.1039/c7sc00601b
   * J. Koopman and S. Grimme, ACS Omega 2019, 4, 12, 15120-15133.
     DOI: 10.1021/acsomega.9b02011
   
   for metadynamics refer to:
   * S. Grimme, J. Chem. Theory Comput., 2019, 155, 2847-2862
     DOI: 10.1021/acs.jctc.9b00143
   
   for SPH calculations refer to:
   * S. Spicher and S. Grimme, J. Chem. Theory Comput., 2021, 17, 1701-1714
     DOI: 10.1021/acs.jctc.0c01306
   
   for ONIOM refer to:
   * C. Plett, A. Katbashev, S. Ehlert, S. Grimme, M. Bursch,
     Phys. Chem. Chem. Phys., 2023, 25, 17860-17868. DOI: 10.1039/D3CP02178E
   
   for DIPRO refer to:
   * J. Kohn, N. Gildemeister, S. Grimme, D. Fazzi, A. Hansen,
     J. Chem. Phys., 2023, just accepted.
   
   for PTB refer to:
   * S. Grimme, M. Mueller, A. Hansen, J. Chem. Phys., 2023, 158, 124111.
     DOI: 10.1063/5.0137838
   
   with help from (in alphabetical order)
   P. Atkinson, C. Bannwarth, F. Bohle, G. Brandenburg, E. Caldeweyher
   M. Checinski, S. Dohm, S. Ehlert, S. Ehrlich, I. Gerasimov, C. Hölzer
   A. Katbashev, J. Kohn, J. Koopman, C. Lavigne, S. Lehtola, F. März, M. Müller,
   F. Musil, H. Neugebauer, J. Pisarek, C. Plett, P. Pracht, F. Pultar,
   J. Seibert, P. Shushkov, S. Spicher, M. Stahn, M. Steiner, T. Strunk,
   J. Stückrath, T. Rose, and J. Unsleber
   
 * started run on 2026/02/18 at 13:00:38.888     
   ID    Z sym.   atoms
    1    6 C      1-5
    2    8 O      6-8
    3    1 H      9-17

           -------------------------------------------------
          |                Calculation Setup                |
           -------------------------------------------------

          program call               : /apps/eb/ORCA/6.1.1-gompi-2024a-avx2/bin/otool_xtb goat_XTB.xyz --grad -c 0 -u 1 -P 8 --namespace goat --input goat_XTB.input.tmp --acc 0.200000
          hostname                   : ra2-19
          calculation namespace      : goat
          coordinate file            : goat_XTB.xyz
          omp threads                :                     8


           -------------------------------------------------
          |                 G F N 2 - x T B                 |
           -------------------------------------------------

        Reference                      10.1021/acs.jctc.8b01176
      * Hamiltonian:
        H0-scaling (s, p, d)           1.850000    2.230000    2.230000
        zeta-weighting                 0.500000
      * Dispersion:
        s8                             2.700000
        a1                             0.520000
        a2                             5.000000
        s9                             5.000000
      * Repulsion:
        kExp                           1.500000    1.000000
        rExp                           1.000000
      * Coulomb:
        alpha                          2.000000
        third order                    shell-resolved
        anisotropic                    true
        a3                             3.000000
        a5                             4.000000
        cn-shift                       1.200000
        cn-exp                         4.000000
        max-rad                        5.000000

q/qsh data taken from xtbrestart
CAMM data taken from xtbrestart

          ...................................................
          :                      SETUP                      :
          :.................................................:
          :  # basis functions                  41          :
          :  # atomic orbitals                  41          :
          :  # shells                           25          :
          :  # electrons                        47          :
          :  max. iterations                   250          :
          :  Hamiltonian                  GFN2-xTB          :
          :  restarted?                       true          :
          :  GBSA solvation                  false          :
          :  PC potential                    false          :
          :  electronic temp.          300.0000000     K    :
          :  accuracy                    0.2000000          :
          :  -> integral cutoff          0.3198970E+02      :
          :  -> integral neglect         0.2000000E-08      :
          :  -> SCF convergence          0.2000000E-06 Eh   :
          :  -> wf. convergence          0.2000000E-04 e    :
          :  Broyden damping             0.4000000          :
          :  net charge                          0          :
          :  unpaired electrons                  1          :
          ...................................................

 iter      E             dE          RMSdq      gap      omega  full diag
   1    -27.5677246 -0.275677E+02  0.302E-01    4.52       0.0  T
   2    -27.5677562 -0.315844E-04  0.184E-01    4.52       1.0  T
   3    -27.5677353  0.209088E-04  0.476E-02    4.49       1.0  T
   4    -27.5677677 -0.324356E-04  0.960E-03    4.50       2.5  T
   5    -27.5677678 -0.984721E-07  0.408E-03    4.51       5.9  T
   6    -27.5677678 -0.189040E-07  0.131E-03    4.51      18.6  T
   7    -27.5677678 -0.820532E-08  0.454E-04    4.51      53.4  T
   8    -27.5677678 -0.764626E-09  0.274E-04    4.51      88.5  T
   9    -27.5677678 -0.421117E-09  0.868E-05    4.51     279.5  T
  10    -27.5677678 -0.408598E-10  0.428E-05    4.51     566.5  T

   *** convergence criteria satisfied after 10 iterations ***

         #    Occupation            Energy/Eh            Energy/eV
      -------------------------------------------------------------
         1        2.0000           -0.7433665             -20.2280
       ...           ...                  ...                  ...
        18        2.0000           -0.4766298             -12.9698
        19        2.0000           -0.4659120             -12.6781
        20        2.0000           -0.4635515             -12.6139
        21        2.0000           -0.4489614             -12.2169
        22        2.0000           -0.4432097             -12.0604
        23        2.0000           -0.4338478             -11.8056
        24        1.0000           -0.3334532              -9.0737 (HOMO)
        25                         -0.1677839              -4.5656 (LUMO)
        26                         -0.0664649              -1.8086
        27                          0.0422938               1.1509
        28                          0.0615884               1.6759
        29                          0.0863073               2.3485
       ...                                ...                  ...
        41                          0.3940150              10.7217
      -------------------------------------------------------------
                  HL-Gap            0.1656693 Eh            4.5081 eV
             Fermi-level           -0.3171345 Eh           -8.6297 eV

 SCC (total)                   0 d,  0 h,  0 min,  0.014 sec
 SCC setup                      ...        0 min,  0.000 sec (  2.196%)
 Dispersion                     ...        0 min,  0.000 sec (  1.451%)
 classical contributions        ...        0 min,  0.000 sec (  0.284%)
 integral evaluation            ...        0 min,  0.001 sec (  4.852%)
 iterations                     ...        0 min,  0.011 sec ( 78.719%)
 molecular gradient             ...        0 min,  0.001 sec (  9.798%)
 printout                       ...        0 min,  0.000 sec (  2.402%)

         :::::::::::::::::::::::::::::::::::::::::::::::::::::
         ::                     SUMMARY                     ::
         :::::::::::::::::::::::::::::::::::::::::::::::::::::
         :: total energy             -27.314869005460 Eh    ::
         :: gradient norm              0.012088966010 Eh/a0 ::
         :: HOMO-LUMO gap              4.508091101269 eV    ::
         ::.................................................::
         :: SCC energy               -27.567731444840 Eh    ::
         :: -> isotropic ES            0.050158876413 Eh    ::
         :: -> anisotropic ES         -0.004780803838 Eh    ::
         :: -> anisotropic XC         -0.003791020612 Eh    ::
         :: -> dispersion             -0.010489940849 Eh    ::
         :: repulsion energy           0.252862439379 Eh    ::
         :: add. restraining           0.000000000000 Eh    ::
         :: total charge               0.000000000000 e     ::
         :::::::::::::::::::::::::::::::::::::::::::::::::::::


Property printout bound to 'properties.out'

           -------------------------------------------------
          | TOTAL ENERGY              -27.314869005460 Eh   |
          | GRADIENT NORM               0.012088966010 Eh/α |
          | HOMO-LUMO GAP               4.508091101269 eV   |
           -------------------------------------------------

------------------------------------------------------------------------
 * finished run on 2026/02/18 at 13:00:38.925     
------------------------------------------------------------------------
 total:
 * wall-time:     0 d,  0 h,  0 min,  0.036 sec
 *  cpu-time:     0 d,  0 h,  0 min,  0.248 sec
 * ratio c/w:     6.967 speedup
 SCF:
 * wall-time:     0 d,  0 h,  0 min,  0.014 sec
 *  cpu-time:     0 d,  0 h,  0 min,  0.110 sec
 * ratio c/w:     7.829 speedup


-------------------------   --------------------
FINAL SINGLE POINT ENERGY       -27.314869005460
-------------------------   --------------------


-------------
DIPOLE MOMENT
-------------
                                X             Y             Z
Total Dipole Moment    :      0.19600      -0.36700       0.09700
                        -----------------------------------------
Magnitude (a.u.)       :      0.42722
Magnitude (Debye)      :      1.08590


------------------
CARTESIAN GRADIENT
------------------

   1   C   :   -0.000681626    0.001170717   -0.000543672
   2   C   :   -0.000563195    0.000253572   -0.000187593
   3   C   :   -0.001402085    0.000576499   -0.000521958
   4   C   :    0.006831511    0.001631588   -0.004512515
   5   C   :   -0.003198141   -0.005275588    0.004559823
   6   O   :   -0.000199912   -0.000462637    0.000292126
   7   O   :   -0.000482568    0.001896394    0.000967816
   8   O   :    0.000669299    0.001482906   -0.000029991
   9   H   :   -0.000330798    0.000206704    0.000410106
  10   H   :   -0.000342631   -0.000589772   -0.000059871
  11   H   :    0.000204898   -0.000342308    0.000073785
  12   H   :   -0.000013220    0.000063350    0.000082355
  13   H   :    0.000347401   -0.000066634    0.000081341
  14   H   :    0.000369282    0.000132170   -0.000114107
  15   H   :    0.000237376   -0.000087081   -0.000499420
  16   H   :   -0.001482549   -0.000435939    0.000607473
  17   H   :    0.000036959   -0.000153941   -0.000605700

Difference to translation invariance:
           :   -0.0000000000   -0.0000000000    0.0000000000

Difference to rotation invariance:
           :   -0.0000006527    0.0000001091    0.0000000588

Norm of the Cartesian gradient     ...    0.0120889660
RMS gradient                       ...    0.0016927938
MAX gradient                       ...    0.0068315105
------------------------------------------------------------------------------
                         ORCA GEOMETRY RELAXATION STEP
------------------------------------------------------------------------------

Reading the OPT-File                    .... done
Getting information on internals        .... done
Copying old internal coords+grads       .... done
Making the new internal coordinates     .... (2022 redundants) done
Validating the new internal coordinates .... (2022 redundants) done
Calculating the B-matrix                .... done
Calculating the G,G- and P matrices     .... done
Transforming gradient to internals      .... done
Projecting the internal gradient        .... done
Number of atoms                         ....  17
Number of internal coordinates          ....  78
Current Energy                          ....   -27.314869005 Eh
Current gradient norm                   ....     0.012088966 Eh/bohr
Maximum allowed component of the step   ....  0.300
Current trust radius                    ....  0.700
Updating the Hessian (BFGS)             .... done
Forming the augmented Hessian           .... done
Diagonalizing the augmented Hessian     .... done
Last element of RFO vector              ....  0.997064559
Lowest eigenvalues of augmented Hessian:
 -0.000189169  0.001644334  0.006806052  0.011123360  0.012138676
Length of the computed step             ....  0.076790849
The final length of the internal step   ....  0.076790849
Converting the step to Cartesian space:
 Initial RMS(Int)=    0.0086948514
Transforming coordinates:
 Iter   0:  RMS(Cart)=    0.0131831277 RMS(Int)=    0.0086897647
done
Storing new coordinates                 .... done
The predicted energy change is          ....    -0.000095142
Previously predicted energy change      ....    -0.000206872
Actually observed energy change         ....    -0.000221797
Ratio of predicted to observed change   ....     1.072148317
New trust radius                        ....     0.700000000

                                .--------------------.
          ----------------------|Geometry convergence|-------------------------
          Item                value                   Tolerance       Converged
          ---------------------------------------------------------------------
          Energy change      -0.0002217974            0.0000050000      NO
          RMS gradient        0.0007255638            0.0001000000      NO
          MAX gradient        0.0040104033            0.0003000000      NO
          RMS step            0.0086948514            0.0020000000      NO
          MAX step            0.0573489250            0.0040000000      NO
          -------------------------------------------------------------------------
          ........................................................
          Max(Bonds)      0.0052      Max(Angles)    0.41
          Max(Dihed)        3.29      Max(Improp)    0.00
          ---------------------------------------------------------------------

    ---------------------------------------------------------------------------
                         Redundant Internal Coordinates
                            (Angstroem and degrees)

        Definition                    Value    dE/dq     Step     New-Value
    ----------------------------------------------------------------------------
     1. B(C   2,C   1)                1.5224  0.000058 -0.0000    1.5224   
     2. B(C   3,C   0)                1.4299  0.001222 -0.0013    1.4286   
     3. B(C   4,C   3)                1.4948 -0.004010  0.0052    1.5000   
     4. B(C   4,C   2)                1.5141 -0.000345  0.0006    1.5147   
     5. B(O   6,C   4)                1.3847 -0.000109  0.0008    1.3855   
     6. B(O   6,C   3)                1.4321 -0.000110 -0.0010    1.4310   
     7. B(O   7,C   4)                1.3869  0.000348 -0.0001    1.3868   
     8. B(O   7,O   5)                1.4210 -0.000620 -0.0004    1.4206   
     9. B(H   8,C   0)                1.0707 -0.000082  0.0001    1.0708   
    10. B(H   9,C   0)                1.0708 -0.000234  0.0003    1.0710   
    11. B(H  10,C   1)                1.0875 -0.000043  0.0000    1.0875   
    12. B(H  11,C   1)                1.0868 -0.000029 -0.0000    1.0867   
    13. B(H  12,C   1)                1.0876  0.000007 -0.0000    1.0876   
    14. B(H  13,C   2)                1.0925  0.000020 -0.0001    1.0923   
    15. B(H  14,C   2)                1.0939  0.000051 -0.0001    1.0938   
    16. B(H  15,C   3)                1.0844 -0.000410  0.0004    1.0849   
    17. B(H  16,O   5)                0.9689 -0.000512  0.0006    0.9695   
    18. A(C   3,C   0,H   8)          119.85  0.000062   -0.03    119.82   
    19. A(C   3,C   0,H   9)          120.72  0.000618   -0.10    120.62   
    20. A(H   8,C   0,H   9)          119.43 -0.000681    0.11    119.53   
    21. A(H  11,C   1,H  12)          108.04 -0.000198    0.06    108.09   
    22. A(C   2,C   1,H  12)          111.48  0.000389   -0.09    111.39   
    23. A(H  10,C   1,H  12)          108.67 -0.000353    0.06    108.73   
    24. A(H  10,C   1,H  11)          108.59 -0.000200    0.05    108.64   
    25. A(C   2,C   1,H  11)          109.63 -0.000172    0.04    109.67   
    26. A(C   2,C   1,H  10)          110.36  0.000504   -0.11    110.25   
    27. A(C   1,C   2,H  14)          109.84 -0.000163    0.05    109.88   
    28. A(C   4,C   2,H  13)          107.76  0.000305   -0.12    107.64   
    29. A(C   4,C   2,H  14)          106.63  0.000551   -0.11    106.52   
    30. A(C   1,C   2,H  13)          111.00 -0.000392    0.09    111.09   
    31. A(C   1,C   2,C   4)          113.96  0.000234   -0.08    113.88   
    32. A(H  13,C   2,H  14)          107.36 -0.000542    0.18    107.54   
    33. A(C   4,C   3,H  15)          116.11  0.001340   -0.41    115.70   
    34. A(C   0,C   3,H  15)          116.24 -0.000227    0.06    116.30   
    35. A(O   6,C   3,H  15)          113.74  0.000711   -0.03    113.71   
    36. A(C   4,C   3,O   6)           56.42  0.000811   -0.07     56.35   
    37. A(C   0,C   3,C   4)          121.90 -0.001149    0.22    122.12   
    38. A(C   0,C   3,O   6)          118.74 -0.000993    0.14    118.89   
    39. A(C   3,C   4,O   6)           59.50  0.000916   -0.19     59.31   
    40. A(C   2,C   4,O   6)          120.01  0.000213   -0.17    119.84   
    41. A(C   2,C   4,C   3)          123.32  0.000155    0.03    123.35   
    42. A(O   6,C   4,O   7)          115.74  0.000077    0.04    115.78   
    43. A(C   3,C   4,O   7)          113.91  0.000512   -0.12    113.79   
    44. A(C   2,C   4,O   7)          113.88 -0.000932    0.20    114.08   
    45. A(O   7,O   5,H  16)          104.19  0.000040    0.26    104.46   
    46. A(C   3,O   6,C   4)           64.08 -0.001727    0.26     64.33   
    47. A(C   4,O   7,O   5)          111.28  0.000558   -0.07    111.21   
    48. D(H  13,C   2,C   1,H  10)   -168.98 -0.000085   -0.23   -169.21   
    49. D(H  13,C   2,C   1,H  11)     71.46 -0.000042   -0.25     71.21   
    50. D(C   4,C   2,C   1,H  12)     73.76  0.000344   -0.44     73.32   
    51. D(C   4,C   2,C   1,H  10)    -47.10  0.000188   -0.38    -47.48   
    52. D(C   4,C   2,C   1,H  11)   -166.66  0.000231   -0.39   -167.06   
    53. D(H  13,C   2,C   1,H  12)    -48.12  0.000071   -0.29    -48.41   
    54. D(C   4,C   3,C   0,H   8)    144.90  0.000287   -0.88    144.02   
    55. D(O   6,C   3,C   0,H   9)     31.04  0.000129    0.19     31.23   
    56. D(O   6,C   3,C   0,H   8)   -148.78  0.000468   -0.82   -149.60   
    57. D(H  15,C   3,C   0,H   8)     -7.32 -0.000015   -0.52     -7.84   
    58. D(C   4,C   3,C   0,H   9)    -35.28 -0.000052    0.13    -35.15   
    59. D(C   3,C   4,C   2,H  14)   -161.41 -0.000850    0.73   -160.68   
    60. D(C   3,C   4,C   2,H  13)     83.59 -0.000642    0.63     84.22   
    61. D(O   6,C   4,C   2,C   1)     31.17  0.000795    0.37     31.54   
    62. D(C   3,C   4,C   2,C   1)    -40.06 -0.000524    0.66    -39.40   
    63. D(O   6,C   4,C   3,H  15)   -102.28 -0.000412   -0.17   -102.45   
    64. D(O   6,C   4,C   3,C   0)    105.47 -0.000309    0.04    105.51   
    65. D(C   2,C   4,C   3,H  15)      5.62  0.000253   -0.48      5.14   
    66. D(C   2,C   4,C   3,O   6)    107.90  0.000665   -0.31    107.59   
    67. D(C   2,C   4,C   3,C   0)   -146.63  0.000356   -0.27   -146.90   
    68. D(O   6,C   4,C   2,H  14)    -90.18  0.000469    0.44    -89.74   
    69. D(O   7,C   4,C   3,C   0)     -1.41 -0.000415   -0.02     -1.43   
    70. D(O   6,C   4,C   2,H  13)    154.82  0.000676    0.34    155.17   
    71. D(C   3,O   6,C   4,O   7)    103.78  0.000906   -0.26    103.52   
    72. D(C   3,O   6,C   4,C   2)   -113.34 -0.000449   -0.05   -113.39   
    73. D(C   4,O   6,C   3,H  15)    106.57  0.001459   -0.52    106.05   
    74. D(C   4,O   6,C   3,C   0)   -111.06  0.000664   -0.18   -111.24   
    75. D(C   4,O   7,O   5,H  16)   -100.86 -0.000638    3.29    -97.58   
    76. D(O   5,O   7,C   4,O   6)     84.24 -0.000500   -0.77     83.47   
    77. D(O   5,O   7,C   4,C   3)    150.50  0.000738   -1.04    149.47   
    78. D(O   5,O   7,C   4,C   2)    -60.91  0.000375   -0.88    -61.78   
    ----------------------------------------------------------------------------

Geometry step timings:
Preparation and reading OPT file:      0.000 s ( 0.906 %)
Internal coordinates            :      0.000 s ( 1.261 %)
B/P matrices and projection     :      0.001 s (27.490 %)
Hessian update/contruction      :      0.000 s (15.750 %)
Making the step                 :      0.001 s (25.259 %)
Converting the step to Cartesian:      0.000 s ( 2.943 %)
Storing new data                :      0.000 s ( 1.811 %)
Checking convergence            :      0.000 s ( 2.005 %)
Final printing                  :      0.001 s (22.574 %)
Total time                      :      0.003 s

Time for energy+gradient        :      0.057 s
Time for complete geometry iter :      0.061 s

         *************************************************************
         *                GEOMETRY OPTIMIZATION CYCLE  13            *
         *************************************************************
---------------------------------
CARTESIAN COORDINATES (ANGSTROEM)
---------------------------------
  C    -2.345509   -1.058653    0.483940
  C     2.104488   -0.511665    0.086106
  C     1.104340    0.250773   -0.771887
  C    -0.936246   -0.830387    0.535954
  C    -0.287353    0.318323   -0.177786
  O    -0.740506    2.450284   -0.962834
  O    -0.449496    0.341353    1.197919
  O    -1.174886    1.099018   -0.903108
  H    -2.722290   -2.060715    0.461833
  H    -3.030725   -0.236042    0.453417
  H     2.041608   -0.181702    1.120482
  H     3.112392   -0.327994   -0.276411
  H     1.922478   -1.583294    0.049731
  H     1.018754   -0.194759   -1.765567
  H     1.437582    1.284503   -0.901702
  H    -0.312366   -1.705617    0.683339
  H    -1.239122    2.896091   -0.260956

----------------------------
CARTESIAN COORDINATES (A.U.)
----------------------------
  NO LB    ZA    FRAG    MASS        X           Y           Z
   0 C   6.0000    1    12.011   -4.432369   -2.000563    0.914514
   1 C   6.0000    1    12.011    3.976907   -0.966906    0.162716
   2 C   6.0000    1    12.011    2.086900    0.473892   -1.458654
   3 C   6.0000    1    12.011   -1.769249   -1.569205    1.012806
   4 C   6.0000    1    12.011   -0.543018    0.601544   -0.335966
   5 O   8.0000    1    15.999   -1.399354    4.630366   -1.819493
   6 O   8.0000    1    15.999   -0.849424    0.645064    2.263739
   7 O   8.0000    1    15.999   -2.220213    2.076843   -1.706627
   8 H   1.0000    1     1.008   -5.144383   -3.894186    0.872737
   9 H   1.0000    1     1.008   -5.727240   -0.446055    0.856834
  10 H   1.0000    1     1.008    3.858081   -0.343367    2.117405
  11 H   1.0000    1     1.008    5.881569   -0.619818   -0.522341
  12 H   1.0000    1     1.008    3.632957   -2.991991    0.093978
  13 H   1.0000    1     1.008    1.925166   -0.368041   -3.336439
  14 H   1.0000    1     1.008    2.716637    2.427360   -1.703969
  15 H   1.0000    1     1.008   -0.590287   -3.223150    1.291325
  16 H   1.0000    1     1.008   -2.341600    5.472819   -0.493136

      -----------------------------------------------------------      
     |                   =====================                   |     
     |                           x T B                           |     
     |                   =====================                   |     
     |                         S. Grimme                         |     
     |          Mulliken Center for Theoretical Chemistry        |     
     |                    University of Bonn                     |     
      -----------------------------------------------------------      

   * xtb version 6.7.1 (edcfbbe) compiled by 'albert@albert-system' on 2024-07-22

   xtb is free software: you can redistribute it and/or modify it under
   the terms of the GNU Lesser General Public License as published by
   the Free Software Foundation, either version 3 of the License, or
   (at your option) any later version.
   
   xtb is distributed in the hope that it will be useful,
   but WITHOUT ANY WARRANTY; without even the implied warranty of
   MERCHANTABILITY or FITNESS FOR A PARTICULAR PURPOSE.  See the
   GNU Lesser General Public License for more details.
   
   Cite this work as:
   * C. Bannwarth, E. Caldeweyher, S. Ehlert, A. Hansen, P. Pracht,
     J. Seibert, S. Spicher, S. Grimme, WIREs Comput. Mol. Sci., 2020, 11,
     e01493. DOI: 10.1002/wcms.1493
   
   for GFN2-xTB:
   * C. Bannwarth, S. Ehlert and S. Grimme., J. Chem. Theory Comput., 2019,
     15, 1652-1671. DOI: 10.1021/acs.jctc.8b01176
   for GFN1-xTB:
   * S. Grimme, C. Bannwarth, P. Shushkov, J. Chem. Theory Comput., 2017,
     13, 1989-2009. DOI: 10.1021/acs.jctc.7b00118
   for GFN0-xTB:
   * P. Pracht, E. Caldeweyher, S. Ehlert, S. Grimme, ChemRxiv, 2019, preprint.
     DOI: 10.26434/chemrxiv.8326202.v1
   for GFN-FF:
   * S. Spicher and S. Grimme, Angew. Chem. Int. Ed., 2020, 59, 15665-15673.
     DOI: 10.1002/anie.202004239
   
   for ALPB and GBSA implicit solvation:
   * S. Ehlert, M. Stahn, S. Spicher, S. Grimme, J. Chem. Theory Comput.,
     2021, 17, 4250-4261. DOI: 10.1021/acs.jctc.1c00471
   
   for ddCOSMO and CPCM-X implicit solvation:
   * M. Stahn, S. Ehlert, S. Grimme, J. Phys. Chem. A,
     2023, XX, XXXX-XXXX. DOI: 10.1021/acs.jpca.3c04382
   
   for DFT-D4:
   * E. Caldeweyher, C. Bannwarth and S. Grimme, J. Chem. Phys., 2017,
     147, 034112. DOI: 10.1063/1.4993215
   * E. Caldeweyher, S. Ehlert, A. Hansen, H. Neugebauer, S. Spicher,
     C. Bannwarth and S. Grimme, J. Chem. Phys., 2019, 150, 154122.
     DOI: 10.1063/1.5090222
   * E. Caldeweyher, J.-M. Mewes, S. Ehlert and S. Grimme, Phys. Chem. Chem. Phys.
     2020, 22, 8499-8512. DOI: 10.1039/D0CP00502A
   
   for sTDA-xTB:
   * S. Grimme and C. Bannwarth, J. Chem. Phys., 2016, 145, 054103.
     DOI: 10.1063/1.4959605
   
   in the mass-spec context:
   * V. Asgeirsson, C. Bauer and S. Grimme, Chem. Sci., 2017, 8, 4879.
     DOI: 10.1039/c7sc00601b
   * J. Koopman and S. Grimme, ACS Omega 2019, 4, 12, 15120-15133.
     DOI: 10.1021/acsomega.9b02011
   
   for metadynamics refer to:
   * S. Grimme, J. Chem. Theory Comput., 2019, 155, 2847-2862
     DOI: 10.1021/acs.jctc.9b00143
   
   for SPH calculations refer to:
   * S. Spicher and S. Grimme, J. Chem. Theory Comput., 2021, 17, 1701-1714
     DOI: 10.1021/acs.jctc.0c01306
   
   for ONIOM refer to:
   * C. Plett, A. Katbashev, S. Ehlert, S. Grimme, M. Bursch,
     Phys. Chem. Chem. Phys., 2023, 25, 17860-17868. DOI: 10.1039/D3CP02178E
   
   for DIPRO refer to:
   * J. Kohn, N. Gildemeister, S. Grimme, D. Fazzi, A. Hansen,
     J. Chem. Phys., 2023, just accepted.
   
   for PTB refer to:
   * S. Grimme, M. Mueller, A. Hansen, J. Chem. Phys., 2023, 158, 124111.
     DOI: 10.1063/5.0137838
   
   with help from (in alphabetical order)
   P. Atkinson, C. Bannwarth, F. Bohle, G. Brandenburg, E. Caldeweyher
   M. Checinski, S. Dohm, S. Ehlert, S. Ehrlich, I. Gerasimov, C. Hölzer
   A. Katbashev, J. Kohn, J. Koopman, C. Lavigne, S. Lehtola, F. März, M. Müller,
   F. Musil, H. Neugebauer, J. Pisarek, C. Plett, P. Pracht, F. Pultar,
   J. Seibert, P. Shushkov, S. Spicher, M. Stahn, M. Steiner, T. Strunk,
   J. Stückrath, T. Rose, and J. Unsleber
   
 * started run on 2026/02/18 at 13:00:38.951     
   ID    Z sym.   atoms
    1    6 C      1-5
    2    8 O      6-8
    3    1 H      9-17

           -------------------------------------------------
          |                Calculation Setup                |
           -------------------------------------------------

          program call               : /apps/eb/ORCA/6.1.1-gompi-2024a-avx2/bin/otool_xtb goat_XTB.xyz --grad -c 0 -u 1 -P 8 --namespace goat --input goat_XTB.input.tmp --acc 0.200000
          hostname                   : ra2-19
          calculation namespace      : goat
          coordinate file            : goat_XTB.xyz
          omp threads                :                     8


           -------------------------------------------------
          |                 G F N 2 - x T B                 |
           -------------------------------------------------

        Reference                      10.1021/acs.jctc.8b01176
      * Hamiltonian:
        H0-scaling (s, p, d)           1.850000    2.230000    2.230000
        zeta-weighting                 0.500000
      * Dispersion:
        s8                             2.700000
        a1                             0.520000
        a2                             5.000000
        s9                             5.000000
      * Repulsion:
        kExp                           1.500000    1.000000
        rExp                           1.000000
      * Coulomb:
        alpha                          2.000000
        third order                    shell-resolved
        anisotropic                    true
        a3                             3.000000
        a5                             4.000000
        cn-shift                       1.200000
        cn-exp                         4.000000
        max-rad                        5.000000

q/qsh data taken from xtbrestart
CAMM data taken from xtbrestart

          ...................................................
          :                      SETUP                      :
          :.................................................:
          :  # basis functions                  41          :
          :  # atomic orbitals                  41          :
          :  # shells                           25          :
          :  # electrons                        47          :
          :  max. iterations                   250          :
          :  Hamiltonian                  GFN2-xTB          :
          :  restarted?                       true          :
          :  GBSA solvation                  false          :
          :  PC potential                    false          :
          :  electronic temp.          300.0000000     K    :
          :  accuracy                    0.2000000          :
          :  -> integral cutoff          0.3198970E+02      :
          :  -> integral neglect         0.2000000E-08      :
          :  -> SCF convergence          0.2000000E-06 Eh   :
          :  -> wf. convergence          0.2000000E-04 e    :
          :  Broyden damping             0.4000000          :
          :  net charge                          0          :
          :  unpaired electrons                  1          :
          ...................................................

 iter      E             dE          RMSdq      gap      omega  full diag
   1    -27.5673271 -0.275673E+02  0.548E-02    4.52       0.0  T
   2    -27.5673289 -0.184075E-05  0.346E-02    4.52       1.0  T
   3    -27.5673278  0.106738E-05  0.121E-02    4.51       2.0  T
   4    -27.5673296 -0.176201E-05  0.193E-03    4.52      12.6  T
   5    -27.5673296 -0.296187E-08  0.932E-04    4.52      26.0  T
   6    -27.5673296 -0.149930E-08  0.238E-04    4.52     101.8  T
   7    -27.5673296 -0.173948E-09  0.799E-05    4.52     303.5  T
   8    -27.5673296 -0.195222E-10  0.381E-05    4.52     635.8  T

   *** convergence criteria satisfied after 8 iterations ***

         #    Occupation            Energy/Eh            Energy/eV
      -------------------------------------------------------------
         1        2.0000           -0.7435941             -20.2342
       ...           ...                  ...                  ...
        18        2.0000           -0.4768811             -12.9766
        19        2.0000           -0.4660893             -12.6829
        20        2.0000           -0.4642855             -12.6339
        21        2.0000           -0.4495687             -12.2334
        22        2.0000           -0.4437131             -12.0740
        23        2.0000           -0.4338955             -11.8069
        24        1.0000           -0.3336193              -9.0782 (HOMO)
        25                         -0.1676627              -4.5623 (LUMO)
        26                         -0.0671773              -1.8280
        27                          0.0412940               1.1237
        28                          0.0604194               1.6441
        29                          0.0860369               2.3412
       ...                                ...                  ...
        41                          0.3918447              10.6626
      -------------------------------------------------------------
                  HL-Gap            0.1659566 Eh            4.5159 eV
             Fermi-level           -0.3171992 Eh           -8.6314 eV

 SCC (total)                   0 d,  0 h,  0 min,  0.024 sec
 SCC setup                      ...        0 min,  0.000 sec (  1.029%)
 Dispersion                     ...        0 min,  0.000 sec (  1.379%)
 classical contributions        ...        0 min,  0.000 sec (  0.730%)
 integral evaluation            ...        0 min,  0.002 sec (  7.536%)
 iterations                     ...        0 min,  0.016 sec ( 64.794%)
 molecular gradient             ...        0 min,  0.005 sec ( 21.179%)
 printout                       ...        0 min,  0.001 sec (  3.237%)

         :::::::::::::::::::::::::::::::::::::::::::::::::::::
         ::                     SUMMARY                     ::
         :::::::::::::::::::::::::::::::::::::::::::::::::::::
         :: total energy             -27.315026366081 Eh    ::
         :: gradient norm              0.008624068475 Eh/a0 ::
         :: HOMO-LUMO gap              4.515909724697 eV    ::
         ::.................................................::
         :: SCC energy               -27.567293067259 Eh    ::
         :: -> isotropic ES            0.050081657451 Eh    ::
         :: -> anisotropic ES         -0.004683094144 Eh    ::
         :: -> anisotropic XC         -0.003758671227 Eh    ::
         :: -> dispersion             -0.010491032447 Eh    ::
         :: repulsion energy           0.252266701178 Eh    ::
         :: add. restraining           0.000000000000 Eh    ::
         :: total charge               0.000000000000 e     ::
         :::::::::::::::::::::::::::::::::::::::::::::::::::::


Property printout bound to 'properties.out'

           -------------------------------------------------
          | TOTAL ENERGY              -27.315026366081 Eh   |
          | GRADIENT NORM               0.008624068475 Eh/α |
          | HOMO-LUMO GAP               4.515909724697 eV   |
           -------------------------------------------------

------------------------------------------------------------------------
 * finished run on 2026/02/18 at 13:00:39.011     
------------------------------------------------------------------------
 total:
 * wall-time:     0 d,  0 h,  0 min,  0.059 sec
 *  cpu-time:     0 d,  0 h,  0 min,  0.226 sec
 * ratio c/w:     3.840 speedup
 SCF:
 * wall-time:     0 d,  0 h,  0 min,  0.025 sec
 *  cpu-time:     0 d,  0 h,  0 min,  0.098 sec
 * ratio c/w:     3.962 speedup


-------------------------   --------------------
FINAL SINGLE POINT ENERGY       -27.315026366080
-------------------------   --------------------


-------------
DIPOLE MOMENT
-------------
                                X             Y             Z
Total Dipole Moment    :      0.22000      -0.38200       0.12600
                        -----------------------------------------
Magnitude (a.u.)       :      0.45848
Magnitude (Debye)      :      1.16535


------------------
CARTESIAN GRADIENT
------------------

   1   C   :   -0.000468089    0.000808736   -0.000090856
   2   C   :   -0.000348846    0.000091873   -0.000079379
   3   C   :   -0.000449537    0.000607612   -0.000710758
   4   C   :    0.004739488    0.000754069   -0.003460060
   5   C   :   -0.001857178   -0.003508951    0.003515388
   6   O   :   -0.000284052   -0.000801368    0.000275075
   7   O   :   -0.000261942    0.001502756    0.001115288
   8   O   :    0.000167022    0.001364614   -0.000616675
   9   H   :   -0.000296237    0.000031941    0.000345814
  10   H   :   -0.000257685   -0.000341181   -0.000199597
  11   H   :    0.000067983   -0.000197055    0.000057300
  12   H   :    0.000033732    0.000057730    0.000073899
  13   H   :    0.000155093   -0.000055760    0.000032672
  14   H   :    0.000084991    0.000010308   -0.000027436
  15   H   :    0.000089063   -0.000049175   -0.000236446
  16   H   :   -0.001153439   -0.000505803    0.000381425
  17   H   :    0.000039633    0.000229654   -0.000375654

Difference to translation invariance:
           :   -0.0000000000    0.0000000000   -0.0000000000

Difference to rotation invariance:
           :    0.0000004966   -0.0000002047    0.0000000107

Norm of the Cartesian gradient     ...    0.0086240685
RMS gradient                       ...    0.0012076111
MAX gradient                       ...    0.0047394876
------------------------------------------------------------------------------
                         ORCA GEOMETRY RELAXATION STEP
------------------------------------------------------------------------------

Reading the OPT-File                    .... done
Getting information on internals        .... done
Copying old internal coords+grads       .... done
Making the new internal coordinates     .... (2022 redundants) done
Validating the new internal coordinates .... (2022 redundants) done
Calculating the B-matrix                .... done
Calculating the G,G- and P matrices     .... done
Transforming gradient to internals      .... done
Projecting the internal gradient        .... done
Number of atoms                         ....  17
Number of internal coordinates          ....  78
Current Energy                          ....   -27.315026366 Eh
Current gradient norm                   ....     0.008624068 Eh/bohr
Maximum allowed component of the step   ....  0.300
Current trust radius                    ....  0.700
Updating the Hessian (BFGS)             .... done
Forming the augmented Hessian           .... done
Diagonalizing the augmented Hessian     .... done
Last element of RFO vector              ....  0.987413577
Lowest eigenvalues of augmented Hessian:
 -0.000340655  0.001684808  0.006177864  0.008721883  0.012246039
Length of the computed step             ....  0.160175540
The final length of the internal step   ....  0.160175540
Converting the step to Cartesian space:
 Initial RMS(Int)=    0.0181363085
Transforming coordinates:
 Iter   0:  RMS(Cart)=    0.0309937881 RMS(Int)=    0.0181061200
 Iter   5:  RMS(Cart)=    0.0000000196 RMS(Int)=    0.0000000161
done
Storing new coordinates                 .... done
The predicted energy change is          ....    -0.000174697
Previously predicted energy change      ....    -0.000095142
Actually observed energy change         ....    -0.000157361
Ratio of predicted to observed change   ....     1.653948451
New trust radius                        ....     0.466666667

                                .--------------------.
          ----------------------|Geometry convergence|-------------------------
          Item                value                   Tolerance       Converged
          ---------------------------------------------------------------------
          Energy change      -0.0001573606            0.0000050000      NO
          RMS gradient        0.0004989734            0.0001000000      NO
          MAX gradient        0.0024385912            0.0003000000      NO
          RMS step            0.0181363085            0.0020000000      NO
          MAX step            0.0813532238            0.0040000000      NO
          -------------------------------------------------------------------------
          ........................................................
          Max(Bonds)      0.0125      Max(Angles)    1.24
          Max(Dihed)        4.66      Max(Improp)    0.00
          ---------------------------------------------------------------------

    ---------------------------------------------------------------------------
                         Redundant Internal Coordinates
                            (Angstroem and degrees)

        Definition                    Value    dE/dq     Step     New-Value
    ----------------------------------------------------------------------------
     1. B(C   2,C   1)                1.5224  0.000039 -0.0001    1.5223   
     2. B(C   3,C   0)                1.4286  0.000926 -0.0036    1.4250   
     3. B(C   4,C   3)                1.5000 -0.002439  0.0125    1.5126   
     4. B(C   4,C   2)                1.5147 -0.000009  0.0006    1.5153   
     5. B(O   6,C   4)                1.3854  0.000180  0.0009    1.3863   
     6. B(O   6,C   3)                1.4311  0.000237 -0.0041    1.4270   
     7. B(O   7,C   4)                1.3868  0.000871 -0.0032    1.3837   
     8. B(O   7,O   5)                1.4206 -0.000614  0.0022    1.4228   
     9. B(H   8,C   0)                1.0708  0.000067 -0.0001    1.0707   
    10. B(H   9,C   0)                1.0710 -0.000091  0.0005    1.0715   
    11. B(H  10,C   1)                1.0875 -0.000009  0.0000    1.0876   
    12. B(H  11,C   1)                1.0867  0.000016 -0.0001    1.0867   
    13. B(H  12,C   1)                1.0876  0.000028 -0.0001    1.0874   
    14. B(H  13,C   2)                1.0923  0.000014 -0.0001    1.0922   
    15. B(H  14,C   2)                1.0938  0.000009 -0.0001    1.0938   
    16. B(H  15,C   3)                1.0849 -0.000203  0.0010    1.0859   
    17. B(H  16,O   5)                0.9695 -0.000187  0.0007    0.9702   
    18. A(C   3,C   0,H   8)          119.83  0.000091   -0.07    119.75   
    19. A(C   3,C   0,H   9)          120.63  0.000382   -0.24    120.39   
    20. A(H   8,C   0,H   9)          119.54 -0.000471    0.30    119.84   
    21. A(H  11,C   1,H  12)          108.09 -0.000087    0.09    108.19   
    22. A(C   2,C   1,H  12)          111.39  0.000164   -0.14    111.25   
    23. A(H  10,C   1,H  12)          108.73 -0.000183    0.10    108.83   
    24. A(H  10,C   1,H  11)          108.64 -0.000110    0.10    108.74   
    25. A(C   2,C   1,H  11)          109.67 -0.000037    0.04    109.71   
    26. A(C   2,C   1,H  10)          110.25  0.000238   -0.19    110.06   
    27. A(C   1,C   2,H  14)          109.88  0.000026   -0.03    109.85   
    28. A(C   4,C   2,H  13)          107.64  0.000171   -0.11    107.53   
    29. A(C   4,C   2,H  14)          106.52  0.000286   -0.22    106.30   
    30. A(C   1,C   2,H  13)          111.09 -0.000112    0.13    111.22   
    31. A(C   1,C   2,C   4)          113.88 -0.000118   -0.04    113.85   
    32. A(H  13,C   2,H  14)          107.54 -0.000246    0.27    107.80   
    33. A(C   4,C   3,H  15)          115.70  0.001042   -1.24    114.47   
    34. A(C   0,C   3,H  15)          116.32 -0.000305    0.29    116.61   
    35. A(O   6,C   3,H  15)          113.71  0.000611   -0.16    113.55   
    36. A(C   4,C   3,O   6)           56.35  0.000543   -0.16     56.19   
    37. A(C   0,C   3,C   4)          122.13 -0.000773    0.54    122.66   
    38. A(C   0,C   3,O   6)          118.89 -0.000678    0.57    119.47   
    39. A(C   3,C   4,O   6)           59.31  0.000640   -0.52     58.79   
    40. A(C   2,C   4,O   6)          119.85  0.000149   -0.39    119.46   
    41. A(C   2,C   4,C   3)          123.36  0.000118   -0.06    123.31   
    42. A(O   6,C   4,O   7)          115.79  0.000223    0.00    115.79   
    43. A(C   3,C   4,O   7)          113.77  0.000304   -0.27    113.50   
    44. A(C   2,C   4,O   7)          114.08 -0.000717    0.65    114.73   
    45. A(O   7,O   5,H  16)          104.46  0.000554   -0.04    104.42   
    46. A(C   3,O   6,C   4)           64.33 -0.001182    0.69     65.02   
    47. A(C   4,O   7,O   5)          111.21  0.000361   -0.16    111.04   
    48. D(H  13,C   2,C   1,H  10)   -169.21  0.000043   -1.30   -170.50   
    49. D(H  13,C   2,C   1,H  11)     71.21  0.000054   -1.33     69.88   
    50. D(C   4,C   2,C   1,H  12)     73.32  0.000135   -1.46     71.86   
    51. D(C   4,C   2,C   1,H  10)    -47.48  0.000097   -1.37    -48.84   
    52. D(C   4,C   2,C   1,H  11)   -167.06  0.000107   -1.40   -168.46   
    53. D(H  13,C   2,C   1,H  12)    -48.41  0.000082   -1.39    -49.80   
    54. D(C   4,C   3,C   0,H   8)    144.02  0.000246   -3.11    140.92   
    55. D(O   6,C   3,C   0,H   9)     31.23  0.000219   -1.45     29.79   
    56. D(O   6,C   3,C   0,H   8)   -149.60  0.000356   -2.88   -152.48   
    57. D(H  15,C   3,C   0,H   8)     -7.85  0.000029   -1.88     -9.73   
    58. D(C   4,C   3,C   0,H   9)    -35.15  0.000109   -1.67    -36.81   
    59. D(C   3,C   4,C   2,H  14)   -160.67 -0.000525    0.30   -160.38   
    60. D(C   3,C   4,C   2,H  13)     84.23 -0.000462    0.15     84.38   
    61. D(O   6,C   4,C   2,C   1)     31.53  0.000557   -0.79     30.75   
    62. D(C   3,C   4,C   2,C   1)    -39.40 -0.000365    0.09    -39.31   
    63. D(O   6,C   4,C   3,H  15)   -102.46 -0.000352   -0.43   -102.89   
    64. D(O   6,C   4,C   3,C   0)    105.51 -0.000221    0.38    105.89   
    65. D(C   2,C   4,C   3,H  15)      5.13  0.000109   -1.17      3.97   
    66. D(C   2,C   4,C   3,O   6)    107.59  0.000461   -0.74    106.86   
    67. D(C   2,C   4,C   3,C   0)   -146.90  0.000240   -0.35   -147.25   
    68. D(O   6,C   4,C   2,H  14)    -89.74  0.000398   -0.57    -90.32   
    69. D(O   7,C   4,C   3,C   0)     -1.43 -0.000518    0.40     -1.03   
    70. D(O   6,C   4,C   2,H  13)    155.16  0.000460   -0.72    154.44   
    71. D(C   3,O   6,C   4,O   7)    103.52  0.000486   -0.51    103.01   
    72. D(C   3,O   6,C   4,C   2)   -113.37 -0.000321    0.10   -113.27   
    73. D(C   4,O   6,C   3,H  15)    106.06  0.001081   -1.48    104.59   
    74. D(C   4,O   6,C   3,C   0)   -111.24  0.000445   -0.33   -111.58   
    75. D(C   4,O   7,O   5,H  16)    -97.58 -0.000466    4.66    -92.92   
    76. D(O   5,O   7,C   4,O   6)     83.46 -0.000270   -1.66     81.80   
    77. D(O   5,O   7,C   4,C   3)    149.47  0.000621   -2.33    147.14   
    78. D(O   5,O   7,C   4,C   2)    -61.77  0.000194   -1.86    -63.63   
    ----------------------------------------------------------------------------

Geometry step timings:
Preparation and reading OPT file:      0.000 s ( 0.735 %)
Internal coordinates            :      0.000 s ( 1.024 %)
B/P matrices and projection     :      0.001 s (22.479 %)
Hessian update/contruction      :      0.001 s (30.042 %)
Making the step                 :      0.001 s (21.297 %)
Converting the step to Cartesian:      0.000 s ( 2.731 %)
Storing new data                :      0.000 s ( 1.103 %)
Checking convergence            :      0.000 s ( 1.602 %)
Final printing                  :      0.001 s (18.934 %)
Total time                      :      0.004 s

Time for energy+gradient        :      0.081 s
Time for complete geometry iter :      0.086 s

         *************************************************************
         *                GEOMETRY OPTIMIZATION CYCLE  14            *
         *************************************************************
---------------------------------
CARTESIAN COORDINATES (ANGSTROEM)
---------------------------------
  C    -2.348819   -1.059550    0.491257
  C     2.103268   -0.506157    0.093634
  C     1.110676    0.245016   -0.782737
  C    -0.944039   -0.824282    0.534512
  C    -0.285438    0.322910   -0.198944
  O    -0.760639    2.457382   -0.954526
  O    -0.448314    0.349306    1.177490
  O    -1.173819    1.096230   -0.925074
  H    -2.717879   -2.062965    0.434261
  H    -3.035871   -0.237378    0.478839
  H     2.047779   -0.141806    1.116849
  H     3.112202   -0.349829   -0.278447
  H     1.902036   -1.574815    0.090249
  H     1.029020   -0.213886   -1.770499
  H     1.443940    1.277673   -0.920212
  H    -0.309089   -1.694499    0.671030
  H    -1.221870    2.866169   -0.205211

----------------------------
CARTESIAN COORDINATES (A.U.)
----------------------------
  NO LB    ZA    FRAG    MASS        X           Y           Z
   0 C   6.0000    1    12.011   -4.438626   -2.002259    0.928341
   1 C   6.0000    1    12.011    3.974600   -0.956497    0.176943
   2 C   6.0000    1    12.011    2.098874    0.463012   -1.479158
   3 C   6.0000    1    12.011   -1.783975   -1.557667    1.010081
   4 C   6.0000    1    12.011   -0.539401    0.610211   -0.375950
   5 O   8.0000    1    15.999   -1.437399    4.643779   -1.803793
   6 O   8.0000    1    15.999   -0.847190    0.660092    2.225134
   7 O   8.0000    1    15.999   -2.218196    2.071574   -1.748137
   8 H   1.0000    1     1.008   -5.136046   -3.898439    0.820634
   9 H   1.0000    1     1.008   -5.736965   -0.448579    0.904874
  10 H   1.0000    1     1.008    3.869742   -0.267975    2.110539
  11 H   1.0000    1     1.008    5.881210   -0.661081   -0.526189
  12 H   1.0000    1     1.008    3.594327   -2.975970    0.170547
  13 H   1.0000    1     1.008    1.944566   -0.404185   -3.345758
  14 H   1.0000    1     1.008    2.728652    2.414452   -1.738949
  15 H   1.0000    1     1.008   -0.584093   -3.202138    1.268064
  16 H   1.0000    1     1.008   -2.308999    5.416275   -0.387792

      -----------------------------------------------------------      
     |                   =====================                   |     
     |                           x T B                           |     
     |                   =====================                   |     
     |                         S. Grimme                         |     
     |          Mulliken Center for Theoretical Chemistry        |     
     |                    University of Bonn                     |     
      -----------------------------------------------------------      

   * xtb version 6.7.1 (edcfbbe) compiled by 'albert@albert-system' on 2024-07-22

   xtb is free software: you can redistribute it and/or modify it under
   the terms of the GNU Lesser General Public License as published by
   the Free Software Foundation, either version 3 of the License, or
   (at your option) any later version.
   
   xtb is distributed in the hope that it will be useful,
   but WITHOUT ANY WARRANTY; without even the implied warranty of
   MERCHANTABILITY or FITNESS FOR A PARTICULAR PURPOSE.  See the
   GNU Lesser General Public License for more details.
   
   Cite this work as:
   * C. Bannwarth, E. Caldeweyher, S. Ehlert, A. Hansen, P. Pracht,
     J. Seibert, S. Spicher, S. Grimme, WIREs Comput. Mol. Sci., 2020, 11,
     e01493. DOI: 10.1002/wcms.1493
   
   for GFN2-xTB:
   * C. Bannwarth, S. Ehlert and S. Grimme., J. Chem. Theory Comput., 2019,
     15, 1652-1671. DOI: 10.1021/acs.jctc.8b01176
   for GFN1-xTB:
   * S. Grimme, C. Bannwarth, P. Shushkov, J. Chem. Theory Comput., 2017,
     13, 1989-2009. DOI: 10.1021/acs.jctc.7b00118
   for GFN0-xTB:
   * P. Pracht, E. Caldeweyher, S. Ehlert, S. Grimme, ChemRxiv, 2019, preprint.
     DOI: 10.26434/chemrxiv.8326202.v1
   for GFN-FF:
   * S. Spicher and S. Grimme, Angew. Chem. Int. Ed., 2020, 59, 15665-15673.
     DOI: 10.1002/anie.202004239
   
   for ALPB and GBSA implicit solvation:
   * S. Ehlert, M. Stahn, S. Spicher, S. Grimme, J. Chem. Theory Comput.,
     2021, 17, 4250-4261. DOI: 10.1021/acs.jctc.1c00471
   
   for ddCOSMO and CPCM-X implicit solvation:
   * M. Stahn, S. Ehlert, S. Grimme, J. Phys. Chem. A,
     2023, XX, XXXX-XXXX. DOI: 10.1021/acs.jpca.3c04382
   
   for DFT-D4:
   * E. Caldeweyher, C. Bannwarth and S. Grimme, J. Chem. Phys., 2017,
     147, 034112. DOI: 10.1063/1.4993215
   * E. Caldeweyher, S. Ehlert, A. Hansen, H. Neugebauer, S. Spicher,
     C. Bannwarth and S. Grimme, J. Chem. Phys., 2019, 150, 154122.
     DOI: 10.1063/1.5090222
   * E. Caldeweyher, J.-M. Mewes, S. Ehlert and S. Grimme, Phys. Chem. Chem. Phys.
     2020, 22, 8499-8512. DOI: 10.1039/D0CP00502A
   
   for sTDA-xTB:
   * S. Grimme and C. Bannwarth, J. Chem. Phys., 2016, 145, 054103.
     DOI: 10.1063/1.4959605
   
   in the mass-spec context:
   * V. Asgeirsson, C. Bauer and S. Grimme, Chem. Sci., 2017, 8, 4879.
     DOI: 10.1039/c7sc00601b
   * J. Koopman and S. Grimme, ACS Omega 2019, 4, 12, 15120-15133.
     DOI: 10.1021/acsomega.9b02011
   
   for metadynamics refer to:
   * S. Grimme, J. Chem. Theory Comput., 2019, 155, 2847-2862
     DOI: 10.1021/acs.jctc.9b00143
   
   for SPH calculations refer to:
   * S. Spicher and S. Grimme, J. Chem. Theory Comput., 2021, 17, 1701-1714
     DOI: 10.1021/acs.jctc.0c01306
   
   for ONIOM refer to:
   * C. Plett, A. Katbashev, S. Ehlert, S. Grimme, M. Bursch,
     Phys. Chem. Chem. Phys., 2023, 25, 17860-17868. DOI: 10.1039/D3CP02178E
   
   for DIPRO refer to:
   * J. Kohn, N. Gildemeister, S. Grimme, D. Fazzi, A. Hansen,
     J. Chem. Phys., 2023, just accepted.
   
   for PTB refer to:
   * S. Grimme, M. Mueller, A. Hansen, J. Chem. Phys., 2023, 158, 124111.
     DOI: 10.1063/5.0137838
   
   with help from (in alphabetical order)
   P. Atkinson, C. Bannwarth, F. Bohle, G. Brandenburg, E. Caldeweyher
   M. Checinski, S. Dohm, S. Ehlert, S. Ehrlich, I. Gerasimov, C. Hölzer
   A. Katbashev, J. Kohn, J. Koopman, C. Lavigne, S. Lehtola, F. März, M. Müller,
   F. Musil, H. Neugebauer, J. Pisarek, C. Plett, P. Pracht, F. Pultar,
   J. Seibert, P. Shushkov, S. Spicher, M. Stahn, M. Steiner, T. Strunk,
   J. Stückrath, T. Rose, and J. Unsleber
   
 * started run on 2026/02/18 at 13:00:39.037     
   ID    Z sym.   atoms
    1    6 C      1-5
    2    8 O      6-8
    3    1 H      9-17

           -------------------------------------------------
          |                Calculation Setup                |
           -------------------------------------------------

          program call               : /apps/eb/ORCA/6.1.1-gompi-2024a-avx2/bin/otool_xtb goat_XTB.xyz --grad -c 0 -u 1 -P 8 --namespace goat --input goat_XTB.input.tmp --acc 0.200000
          hostname                   : ra2-19
          calculation namespace      : goat
          coordinate file            : goat_XTB.xyz
          omp threads                :                     8


           -------------------------------------------------
          |                 G F N 2 - x T B                 |
           -------------------------------------------------

        Reference                      10.1021/acs.jctc.8b01176
      * Hamiltonian:
        H0-scaling (s, p, d)           1.850000    2.230000    2.230000
        zeta-weighting                 0.500000
      * Dispersion:
        s8                             2.700000
        a1                             0.520000
        a2                             5.000000
        s9                             5.000000
      * Repulsion:
        kExp                           1.500000    1.000000
        rExp                           1.000000
      * Coulomb:
        alpha                          2.000000
        third order                    shell-resolved
        anisotropic                    true
        a3                             3.000000
        a5                             4.000000
        cn-shift                       1.200000
        cn-exp                         4.000000
        max-rad                        5.000000

q/qsh data taken from xtbrestart
CAMM data taken from xtbrestart

          ...................................................
          :                      SETUP                      :
          :.................................................:
          :  # basis functions                  41          :
          :  # atomic orbitals                  41          :
          :  # shells                           25          :
          :  # electrons                        47          :
          :  max. iterations                   250          :
          :  Hamiltonian                  GFN2-xTB          :
          :  restarted?                       true          :
          :  GBSA solvation                  false          :
          :  PC potential                    false          :
          :  electronic temp.          300.0000000     K    :
          :  accuracy                    0.2000000          :
          :  -> integral cutoff          0.3198970E+02      :
          :  -> integral neglect         0.2000000E-08      :
          :  -> SCF convergence          0.2000000E-06 Eh   :
          :  -> wf. convergence          0.2000000E-04 e    :
          :  Broyden damping             0.4000000          :
          :  net charge                          0          :
          :  unpaired electrons                  1          :
          ...................................................

 iter      E             dE          RMSdq      gap      omega  full diag
   1    -27.5669082 -0.275669E+02  0.128E-01    4.47       0.0  T
   2    -27.5669138 -0.559257E-05  0.782E-02    4.46       1.0  T
   3    -27.5669114  0.243540E-05  0.184E-02    4.46       1.3  T
   4    -27.5669155 -0.416500E-05  0.444E-03    4.46       5.5  T
   5    -27.5669156 -0.471014E-07  0.244E-03    4.46       9.9  T
   6    -27.5669156 -0.175358E-07  0.795E-04    4.46      30.5  T
   7    -27.5669156 -0.267581E-08  0.295E-04    4.46      82.2  T
   8    -27.5669156 -0.376033E-09  0.180E-04    4.46     135.0  T
   9    -27.5669156 -0.197648E-09  0.635E-05    4.46     381.9  T

   *** convergence criteria satisfied after 9 iterations ***

         #    Occupation            Energy/Eh            Energy/eV
      -------------------------------------------------------------
         1        2.0000           -0.7442383             -20.2518
       ...           ...                  ...                  ...
        18        2.0000           -0.4771389             -12.9836
        19        2.0000           -0.4673898             -12.7183
        20        2.0000           -0.4652086             -12.6590
        21        2.0000           -0.4504837             -12.2583
        22        2.0000           -0.4443497             -12.0914
        23        2.0000           -0.4339533             -11.8085
        24        1.0000           -0.3336080              -9.0779 (HOMO)
        25                         -0.1696788              -4.6172 (LUMO)
        26                         -0.0684928              -1.8638
        27                          0.0411821               1.1206
        28                          0.0588870               1.6024
        29                          0.0863144               2.3487
       ...                                ...                  ...
        41                          0.3878008              10.5526
      -------------------------------------------------------------
                  HL-Gap            0.1639292 Eh            4.4607 eV
             Fermi-level           -0.3177120 Eh           -8.6454 eV

 SCC (total)                   0 d,  0 h,  0 min,  0.026 sec
 SCC setup                      ...        0 min,  0.000 sec (  1.409%)
 Dispersion                     ...        0 min,  0.000 sec (  1.474%)
 classical contributions        ...        0 min,  0.000 sec (  0.733%)
 integral evaluation            ...        0 min,  0.001 sec (  3.784%)
 iterations                     ...        0 min,  0.019 sec ( 71.536%)
 molecular gradient             ...        0 min,  0.005 sec ( 17.758%)
 printout                       ...        0 min,  0.001 sec (  3.204%)

         :::::::::::::::::::::::::::::::::::::::::::::::::::::
         ::                     SUMMARY                     ::
         :::::::::::::::::::::::::::::::::::::::::::::::::::::
         :: total energy             -27.315222300174 Eh    ::
         :: gradient norm              0.002403438814 Eh/a0 ::
         :: HOMO-LUMO gap              4.460739358593 eV    ::
         ::.................................................::
         :: SCC energy               -27.566878826546 Eh    ::
         :: -> isotropic ES            0.049907325357 Eh    ::
         :: -> anisotropic ES         -0.004537851419 Eh    ::
         :: -> anisotropic XC         -0.003662692376 Eh    ::
         :: -> dispersion             -0.010491409164 Eh    ::
         :: repulsion energy           0.251656526372 Eh    ::
         :: add. restraining           0.000000000000 Eh    ::
         :: total charge               0.000000000000 e     ::
         :::::::::::::::::::::::::::::::::::::::::::::::::::::


Property printout bound to 'properties.out'

           -------------------------------------------------
          | TOTAL ENERGY              -27.315222300174 Eh   |
          | GRADIENT NORM               0.002403438814 Eh/α |
          | HOMO-LUMO GAP               4.460739358593 eV   |
           -------------------------------------------------

------------------------------------------------------------------------
 * finished run on 2026/02/18 at 13:00:39.083     
------------------------------------------------------------------------
 total:
 * wall-time:     0 d,  0 h,  0 min,  0.045 sec
 *  cpu-time:     0 d,  0 h,  0 min,  0.169 sec
 * ratio c/w:     3.798 speedup
 SCF:
 * wall-time:     0 d,  0 h,  0 min,  0.026 sec
 *  cpu-time:     0 d,  0 h,  0 min,  0.103 sec
 * ratio c/w:     3.946 speedup


-------------------------   --------------------
FINAL SINGLE POINT ENERGY       -27.315222300170
-------------------------   --------------------


-------------
DIPOLE MOMENT
-------------
                                X             Y             Z
Total Dipole Moment    :      0.25300      -0.41300       0.16700
                        -----------------------------------------
Magnitude (a.u.)       :      0.51232
Magnitude (Debye)      :      1.30220


------------------
CARTESIAN GRADIENT
------------------

   1   C   :   -0.000054039   -0.000182241    0.000372726
   2   C   :    0.000146918   -0.000196246    0.000098788
   3   C   :    0.000942211    0.000457040   -0.000529239
   4   C   :   -0.000071607   -0.000674817   -0.000894431
   5   C   :    0.000322784    0.000237988    0.000878990
   6   O   :    0.000161571   -0.000286698   -0.000073767
   7   O   :    0.000387126    0.000476955    0.000184860
   8   O   :   -0.000733415    0.000212735   -0.000428797
   9   H   :   -0.000079247   -0.000126850    0.000210316
  10   H   :    0.000022096    0.000167578   -0.000255506
  11   H   :   -0.000116810    0.000130037    0.000007199
  12   H   :    0.000065148    0.000012638    0.000059589
  13   H   :   -0.000195653    0.000019424   -0.000067554
  14   H   :   -0.000348428   -0.000135915    0.000141093
  15   H   :   -0.000105745   -0.000051987    0.000236604
  16   H   :   -0.000242976   -0.000277734    0.000004578
  17   H   :   -0.000099935    0.000218094    0.000054550

Difference to translation invariance:
           :   -0.0000000000    0.0000000000    0.0000000000

Difference to rotation invariance:
           :    0.0000018679   -0.0000004022   -0.0000009883

Norm of the Cartesian gradient     ...    0.0024034388
RMS gradient                       ...    0.0003365488
MAX gradient                       ...    0.0009422109
------------------------------------------------------------------------------
                         ORCA GEOMETRY RELAXATION STEP
------------------------------------------------------------------------------

Reading the OPT-File                    .... done
Getting information on internals        .... done
Copying old internal coords+grads       .... done
Making the new internal coordinates     .... (2022 redundants) done
Validating the new internal coordinates .... (2022 redundants) done
Calculating the B-matrix                .... done
Calculating the G,G- and P matrices     .... done
Transforming gradient to internals      .... done
Projecting the internal gradient        .... done
Number of atoms                         ....  17
Number of internal coordinates          ....  78
Current Energy                          ....   -27.315222300 Eh
Current gradient norm                   ....     0.002403439 Eh/bohr
Maximum allowed component of the step   ....  0.300
Current trust radius                    ....  0.467
Updating the Hessian (BFGS)             .... done
Forming the augmented Hessian           .... done
Diagonalizing the augmented Hessian     .... done
Last element of RFO vector              ....  0.996223839
Lowest eigenvalues of augmented Hessian:
 -0.000045897  0.001661017  0.005157885  0.008106350  0.012326501
Length of the computed step             ....  0.087151119
The final length of the internal step   ....  0.087151119
Converting the step to Cartesian space:
 Initial RMS(Int)=    0.0098679210
Transforming coordinates:
 Iter   0:  RMS(Cart)=    0.0158158151 RMS(Int)=    0.0098671879
done
Storing new coordinates                 .... done
The predicted energy change is          ....    -0.000023123
Previously predicted energy change      ....    -0.000174697
Actually observed energy change         ....    -0.000195934
Ratio of predicted to observed change   ....     1.121562426
New trust radius                        ....     0.700000000

                                .--------------------.
          ----------------------|Geometry convergence|-------------------------
          Item                value                   Tolerance       Converged
          ---------------------------------------------------------------------
          Energy change      -0.0001959341            0.0000050000      NO
          RMS gradient        0.0002021163            0.0001000000      NO
          MAX gradient        0.0007470625            0.0003000000      NO
          RMS step            0.0098679210            0.0020000000      NO
          MAX step            0.0582161308            0.0040000000      NO
          -------------------------------------------------------------------------
          ........................................................
          Max(Bonds)      0.0017      Max(Angles)    0.26
          Max(Dihed)        3.34      Max(Improp)    0.00
          ---------------------------------------------------------------------

    ---------------------------------------------------------------------------
                         Redundant Internal Coordinates
                            (Angstroem and degrees)

        Definition                    Value    dE/dq     Step     New-Value
    ----------------------------------------------------------------------------
     1. B(C   2,C   1)                1.5223  0.000008 -0.0000    1.5223   
     2. B(C   3,C   0)                1.4250  0.000123 -0.0004    1.4246   
     3. B(C   4,C   3)                1.5125  0.000403  0.0016    1.5141   
     4. B(C   4,C   2)                1.5153  0.000366 -0.0003    1.5150   
     5. B(O   6,C   4)                1.3863 -0.000074  0.0007    1.3870   
     6. B(O   6,C   3)                1.4271  0.000575 -0.0017    1.4253   
     7. B(O   7,C   4)                1.3837  0.000747 -0.0009    1.3827   
     8. B(O   7,O   5)                1.4228 -0.000047 -0.0002    1.4226   
     9. B(H   8,C   0)                1.0707  0.000135 -0.0002    1.0705   
    10. B(H   9,C   0)                1.0715  0.000117 -0.0000    1.0715   
    11. B(H  10,C   1)                1.0876  0.000056 -0.0000    1.0875   
    12. B(H  11,C   1)                1.0867  0.000042 -0.0000    1.0866   
    13. B(H  12,C   1)                1.0874  0.000017 -0.0000    1.0874   
    14. B(H  13,C   2)                1.0922 -0.000044  0.0000    1.0923   
    15. B(H  14,C   2)                1.0938 -0.000111  0.0002    1.0940   
    16. B(H  15,C   3)                1.0859  0.000081  0.0001    1.0860   
    17. B(H  16,O   5)                0.9702  0.000181  0.0001    0.9703   
    18. A(C   3,C   0,H   8)          119.75  0.000118   -0.04    119.71   
    19. A(C   3,C   0,H   9)          120.38 -0.000179   -0.01    120.37   
    20. A(H   8,C   0,H   9)          119.83  0.000058    0.05    119.88   
    21. A(H  11,C   1,H  12)          108.19  0.000112   -0.02    108.17   
    22. A(C   2,C   1,H  12)          111.25 -0.000261    0.01    111.27   
    23. A(H  10,C   1,H  12)          108.83  0.000161    0.01    108.84   
    24. A(H  10,C   1,H  11)          108.74  0.000037    0.00    108.75   
    25. A(C   2,C   1,H  11)          109.71  0.000200   -0.03    109.68   
    26. A(C   2,C   1,H  10)          110.06 -0.000236    0.02    110.08   
    27. A(C   1,C   2,H  14)          109.85  0.000193   -0.05    109.80   
    28. A(C   4,C   2,H  13)          107.53 -0.000115    0.03    107.56   
    29. A(C   4,C   2,H  14)          106.30 -0.000119   -0.02    106.28   
    30. A(C   1,C   2,H  13)          111.23  0.000334   -0.02    111.21   
    31. A(C   1,C   2,C   4)          113.85 -0.000532    0.10    113.95   
    32. A(H  13,C   2,H  14)          107.81  0.000253   -0.06    107.74   
    33. A(C   4,C   3,H  15)          114.47  0.000223   -0.26    114.21   
    34. A(C   0,C   3,H  15)          116.61 -0.000296    0.06    116.67   
    35. A(O   6,C   3,H  15)          113.53  0.000158   -0.02    113.51   
    36. A(C   4,C   3,O   6)           56.18 -0.000215    0.03     56.22   
    37. A(C   0,C   3,C   4)          122.67  0.000122    0.03    122.70   
    38. A(C   0,C   3,O   6)          119.47  0.000109    0.15    119.62   
    39. A(C   3,C   4,O   6)           58.79  0.000161   -0.13     58.66   
    40. A(C   2,C   4,O   6)          119.46 -0.000147   -0.05    119.40   
    41. A(C   2,C   4,C   3)          123.30 -0.000077    0.01    123.31   
    42. A(O   6,C   4,O   7)          115.78  0.000139   -0.09    115.69   
    43. A(C   3,C   4,O   7)          113.50 -0.000178    0.08    113.58   
    44. A(C   2,C   4,O   7)          114.72  0.000110    0.09    114.80   
    45. A(O   7,O   5,H  16)          104.42  0.000252    0.07    104.49   
    46. A(C   3,O   6,C   4)           65.03  0.000054    0.10     65.13   
    47. A(C   4,O   7,O   5)          111.04 -0.000117   -0.03    111.02   
    48. D(H  13,C   2,C   1,H  10)   -170.51  0.000186   -0.25   -170.75   
    49. D(H  13,C   2,C   1,H  11)     69.88  0.000162   -0.24     69.64   
    50. D(C   4,C   2,C   1,H  12)     71.86 -0.000227   -0.10     71.76   
    51. D(C   4,C   2,C   1,H  10)    -48.84 -0.000100   -0.14    -48.99   
    52. D(C   4,C   2,C   1,H  11)   -168.46 -0.000123   -0.14   -168.60   
    53. D(H  13,C   2,C   1,H  12)    -49.80  0.000058   -0.21    -50.00   
    54. D(C   4,C   3,C   0,H   8)    140.91  0.000240   -1.52    139.39   
    55. D(O   6,C   3,C   0,H   9)     29.79  0.000139   -1.17     28.62   
    56. D(O   6,C   3,C   0,H   8)   -152.48  0.000066   -1.41   -153.89   
    57. D(H  15,C   3,C   0,H   8)     -9.73  0.000075   -1.12    -10.85   
    58. D(C   4,C   3,C   0,H   9)    -36.82  0.000313   -1.28    -38.09   
    59. D(C   3,C   4,C   2,H  14)   -160.38  0.000093    0.13   -160.25   
    60. D(C   3,C   4,C   2,H  13)     84.38 -0.000087    0.20     84.58   
    61. D(O   6,C   4,C   2,C   1)     30.75  0.000030   -0.06     30.69   
    62. D(C   3,C   4,C   2,C   1)    -39.31 -0.000072    0.12    -39.19   
    63. D(O   6,C   4,C   3,H  15)   -102.90  0.000000   -0.12   -103.01   
    64. D(O   6,C   4,C   3,C   0)    105.89 -0.000024    0.19    106.08   
    65. D(C   2,C   4,C   3,H  15)      3.96 -0.000072   -0.25      3.71   
    66. D(C   2,C   4,C   3,O   6)    106.86 -0.000073   -0.14    106.72   
    67. D(C   2,C   4,C   3,C   0)   -147.25 -0.000097    0.05   -147.20   
    68. D(O   6,C   4,C   2,H  14)    -90.32  0.000194   -0.06    -90.37   
    69. D(O   7,C   4,C   3,C   0)     -1.03 -0.000323    0.37     -0.66   
    70. D(O   6,C   4,C   2,H  13)    154.44  0.000014    0.01    154.45   
    71. D(C   3,O   6,C   4,O   7)    103.01 -0.000231    0.09    103.11   
    72. D(C   3,O   6,C   4,C   2)   -113.27 -0.000025    0.01   -113.26   
    73. D(C   4,O   6,C   3,H  15)    104.60  0.000125   -0.29    104.30   
    74. D(C   4,O   6,C   3,C   0)   -111.58 -0.000025    0.02   -111.55   
    75. D(C   4,O   7,O   5,H  16)    -92.92 -0.000165    3.34    -89.58   
    76. D(O   5,O   7,C   4,O   6)     81.81  0.000090   -1.20     80.61   
    77. D(O   5,O   7,C   4,C   3)    147.13  0.000251   -1.34    145.80   
    78. D(O   5,O   7,C   4,C   2)    -63.63 -0.000011   -1.06    -64.70   
    ----------------------------------------------------------------------------

Geometry step timings:
Preparation and reading OPT file:      0.000 s ( 0.842 %)
Internal coordinates            :      0.000 s ( 1.173 %)
B/P matrices and projection     :      0.001 s (24.368 %)
Hessian update/contruction      :      0.001 s (22.082 %)
Making the step                 :      0.001 s (24.308 %)
Converting the step to Cartesian:      0.000 s ( 2.708 %)
Storing new data                :      0.000 s ( 1.264 %)
Checking convergence            :      0.000 s ( 2.016 %)
Final printing                  :      0.001 s (21.209 %)
Total time                      :      0.003 s

Time for energy+gradient        :      0.067 s
Time for complete geometry iter :      0.072 s

         *************************************************************
         *                GEOMETRY OPTIMIZATION CYCLE  15            *
         *************************************************************
---------------------------------
CARTESIAN COORDINATES (ANGSTROEM)
---------------------------------
  C    -2.350594   -1.057643    0.490775
  C     2.103220   -0.502795    0.095753
  C     1.110706    0.240823   -0.787117
  C    -0.946775   -0.819250    0.535756
  C    -0.286751    0.322646   -0.207800
  O    -0.772111    2.457617   -0.951366
  O    -0.452227    0.358135    1.168828
  O    -1.173032    1.092794   -0.938083
  H    -2.716174   -2.061165    0.418263
  H    -3.039629   -0.237084    0.488642
  H     2.048185   -0.129676    1.115782
  H     3.111905   -0.349590   -0.278160
  H     1.902398   -1.571487    0.101438
  H     1.032299   -0.224445   -1.772202
  H     1.443737    1.272812   -0.931397
  H    -0.309077   -1.686970    0.676247
  H    -1.202935    2.844797   -0.172890

----------------------------
CARTESIAN COORDINATES (A.U.)
----------------------------
  NO LB    ZA    FRAG    MASS        X           Y           Z
   0 C   6.0000    1    12.011   -4.441979   -1.998656    0.927430
   1 C   6.0000    1    12.011    3.974510   -0.950144    0.180946
   2 C   6.0000    1    12.011    2.098930    0.455089   -1.487435
   3 C   6.0000    1    12.011   -1.789146   -1.548158    1.012432
   4 C   6.0000    1    12.011   -0.541880    0.609713   -0.392685
   5 O   8.0000    1    15.999   -1.459078    4.644223   -1.797820
   6 O   8.0000    1    15.999   -0.854586    0.676776    2.208765
   7 O   8.0000    1    15.999   -2.216710    2.065082   -1.772721
   8 H   1.0000    1     1.008   -5.132826   -3.895037    0.790403
   9 H   1.0000    1     1.008   -5.744066   -0.448024    0.923400
  10 H   1.0000    1     1.008    3.870509   -0.245051    2.108523
  11 H   1.0000    1     1.008    5.880648   -0.660630   -0.525646
  12 H   1.0000    1     1.008    3.595012   -2.969680    0.191691
  13 H   1.0000    1     1.008    1.950763   -0.424140   -3.348977
  14 H   1.0000    1     1.008    2.728268    2.405266   -1.760085
  15 H   1.0000    1     1.008   -0.584071   -3.187911    1.277922
  16 H   1.0000    1     1.008   -2.273218    5.375887   -0.326715

      -----------------------------------------------------------      
     |                   =====================                   |     
     |                           x T B                           |     
     |                   =====================                   |     
     |                         S. Grimme                         |     
     |          Mulliken Center for Theoretical Chemistry        |     
     |                    University of Bonn                     |     
      -----------------------------------------------------------      

   * xtb version 6.7.1 (edcfbbe) compiled by 'albert@albert-system' on 2024-07-22

   xtb is free software: you can redistribute it and/or modify it under
   the terms of the GNU Lesser General Public License as published by
   the Free Software Foundation, either version 3 of the License, or
   (at your option) any later version.
   
   xtb is distributed in the hope that it will be useful,
   but WITHOUT ANY WARRANTY; without even the implied warranty of
   MERCHANTABILITY or FITNESS FOR A PARTICULAR PURPOSE.  See the
   GNU Lesser General Public License for more details.
   
   Cite this work as:
   * C. Bannwarth, E. Caldeweyher, S. Ehlert, A. Hansen, P. Pracht,
     J. Seibert, S. Spicher, S. Grimme, WIREs Comput. Mol. Sci., 2020, 11,
     e01493. DOI: 10.1002/wcms.1493
   
   for GFN2-xTB:
   * C. Bannwarth, S. Ehlert and S. Grimme., J. Chem. Theory Comput., 2019,
     15, 1652-1671. DOI: 10.1021/acs.jctc.8b01176
   for GFN1-xTB:
   * S. Grimme, C. Bannwarth, P. Shushkov, J. Chem. Theory Comput., 2017,
     13, 1989-2009. DOI: 10.1021/acs.jctc.7b00118
   for GFN0-xTB:
   * P. Pracht, E. Caldeweyher, S. Ehlert, S. Grimme, ChemRxiv, 2019, preprint.
     DOI: 10.26434/chemrxiv.8326202.v1
   for GFN-FF:
   * S. Spicher and S. Grimme, Angew. Chem. Int. Ed., 2020, 59, 15665-15673.
     DOI: 10.1002/anie.202004239
   
   for ALPB and GBSA implicit solvation:
   * S. Ehlert, M. Stahn, S. Spicher, S. Grimme, J. Chem. Theory Comput.,
     2021, 17, 4250-4261. DOI: 10.1021/acs.jctc.1c00471
   
   for ddCOSMO and CPCM-X implicit solvation:
   * M. Stahn, S. Ehlert, S. Grimme, J. Phys. Chem. A,
     2023, XX, XXXX-XXXX. DOI: 10.1021/acs.jpca.3c04382
   
   for DFT-D4:
   * E. Caldeweyher, C. Bannwarth and S. Grimme, J. Chem. Phys., 2017,
     147, 034112. DOI: 10.1063/1.4993215
   * E. Caldeweyher, S. Ehlert, A. Hansen, H. Neugebauer, S. Spicher,
     C. Bannwarth and S. Grimme, J. Chem. Phys., 2019, 150, 154122.
     DOI: 10.1063/1.5090222
   * E. Caldeweyher, J.-M. Mewes, S. Ehlert and S. Grimme, Phys. Chem. Chem. Phys.
     2020, 22, 8499-8512. DOI: 10.1039/D0CP00502A
   
   for sTDA-xTB:
   * S. Grimme and C. Bannwarth, J. Chem. Phys., 2016, 145, 054103.
     DOI: 10.1063/1.4959605
   
   in the mass-spec context:
   * V. Asgeirsson, C. Bauer and S. Grimme, Chem. Sci., 2017, 8, 4879.
     DOI: 10.1039/c7sc00601b
   * J. Koopman and S. Grimme, ACS Omega 2019, 4, 12, 15120-15133.
     DOI: 10.1021/acsomega.9b02011
   
   for metadynamics refer to:
   * S. Grimme, J. Chem. Theory Comput., 2019, 155, 2847-2862
     DOI: 10.1021/acs.jctc.9b00143
   
   for SPH calculations refer to:
   * S. Spicher and S. Grimme, J. Chem. Theory Comput., 2021, 17, 1701-1714
     DOI: 10.1021/acs.jctc.0c01306
   
   for ONIOM refer to:
   * C. Plett, A. Katbashev, S. Ehlert, S. Grimme, M. Bursch,
     Phys. Chem. Chem. Phys., 2023, 25, 17860-17868. DOI: 10.1039/D3CP02178E
   
   for DIPRO refer to:
   * J. Kohn, N. Gildemeister, S. Grimme, D. Fazzi, A. Hansen,
     J. Chem. Phys., 2023, just accepted.
   
   for PTB refer to:
   * S. Grimme, M. Mueller, A. Hansen, J. Chem. Phys., 2023, 158, 124111.
     DOI: 10.1063/5.0137838
   
   with help from (in alphabetical order)
   P. Atkinson, C. Bannwarth, F. Bohle, G. Brandenburg, E. Caldeweyher
   M. Checinski, S. Dohm, S. Ehlert, S. Ehrlich, I. Gerasimov, C. Hölzer
   A. Katbashev, J. Kohn, J. Koopman, C. Lavigne, S. Lehtola, F. März, M. Müller,
   F. Musil, H. Neugebauer, J. Pisarek, C. Plett, P. Pracht, F. Pultar,
   J. Seibert, P. Shushkov, S. Spicher, M. Stahn, M. Steiner, T. Strunk,
   J. Stückrath, T. Rose, and J. Unsleber
   
 * started run on 2026/02/18 at 13:00:39.108     
   ID    Z sym.   atoms
    1    6 C      1-5
    2    8 O      6-8
    3    1 H      9-17

           -------------------------------------------------
          |                Calculation Setup                |
           -------------------------------------------------

          program call               : /apps/eb/ORCA/6.1.1-gompi-2024a-avx2/bin/otool_xtb goat_XTB.xyz --grad -c 0 -u 1 -P 8 --namespace goat --input goat_XTB.input.tmp --acc 0.200000
          hostname                   : ra2-19
          calculation namespace      : goat
          coordinate file            : goat_XTB.xyz
          omp threads                :                     8


           -------------------------------------------------
          |                 G F N 2 - x T B                 |
           -------------------------------------------------

        Reference                      10.1021/acs.jctc.8b01176
      * Hamiltonian:
        H0-scaling (s, p, d)           1.850000    2.230000    2.230000
        zeta-weighting                 0.500000
      * Dispersion:
        s8                             2.700000
        a1                             0.520000
        a2                             5.000000
        s9                             5.000000
      * Repulsion:
        kExp                           1.500000    1.000000
        rExp                           1.000000
      * Coulomb:
        alpha                          2.000000
        third order                    shell-resolved
        anisotropic                    true
        a3                             3.000000
        a5                             4.000000
        cn-shift                       1.200000
        cn-exp                         4.000000
        max-rad                        5.000000

q/qsh data taken from xtbrestart
CAMM data taken from xtbrestart

          ...................................................
          :                      SETUP                      :
          :.................................................:
          :  # basis functions                  41          :
          :  # atomic orbitals                  41          :
          :  # shells                           25          :
          :  # electrons                        47          :
          :  max. iterations                   250          :
          :  Hamiltonian                  GFN2-xTB          :
          :  restarted?                       true          :
          :  GBSA solvation                  false          :
          :  PC potential                    false          :
          :  electronic temp.          300.0000000     K    :
          :  accuracy                    0.2000000          :
          :  -> integral cutoff          0.3198970E+02      :
          :  -> integral neglect         0.2000000E-08      :
          :  -> SCF convergence          0.2000000E-06 Eh   :
          :  -> wf. convergence          0.2000000E-04 e    :
          :  Broyden damping             0.4000000          :
          :  net charge                          0          :
          :  unpaired electrons                  1          :
          ...................................................

 iter      E             dE          RMSdq      gap      omega  full diag
   1    -27.5669806 -0.275670E+02  0.658E-02    4.47       0.0  T
   2    -27.5669819 -0.127727E-05  0.404E-02    4.46       1.0  T
   3    -27.5669813  0.614252E-06  0.911E-03    4.46       2.7  T
   4    -27.5669824 -0.111099E-05  0.229E-03    4.46      10.6  T
   5    -27.5669824 -0.790827E-08  0.119E-03    4.46      20.3  T
   6    -27.5669824 -0.464137E-08  0.344E-04    4.46      70.5  T
   7    -27.5669824 -0.551385E-09  0.142E-04    4.46     171.0  T
   8    -27.5669824 -0.863878E-10  0.806E-05    4.46     300.9  T

   *** convergence criteria satisfied after 8 iterations ***

         #    Occupation            Energy/Eh            Energy/eV
      -------------------------------------------------------------
         1        2.0000           -0.7446885             -20.2640
       ...           ...                  ...                  ...
        18        2.0000           -0.4772827             -12.9875
        19        2.0000           -0.4685252             -12.7492
        20        2.0000           -0.4657264             -12.6731
        21        2.0000           -0.4506334             -12.2624
        22        2.0000           -0.4448567             -12.1052
        23        2.0000           -0.4340887             -11.8122
        24        1.0000           -0.3337340              -9.0814 (HOMO)
        25                         -0.1697424              -4.6189 (LUMO)
        26                         -0.0685101              -1.8643
        27                          0.0411599               1.1200
        28                          0.0590574               1.6070
        29                          0.0859669               2.3393
       ...                                ...                  ...
        41                          0.3870172              10.5313
      -------------------------------------------------------------
                  HL-Gap            0.1639916 Eh            4.4624 eV
             Fermi-level           -0.3178248 Eh           -8.6485 eV

 SCC (total)                   0 d,  0 h,  0 min,  0.033 sec
 SCC setup                      ...        0 min,  0.008 sec ( 25.180%)
 Dispersion                     ...        0 min,  0.001 sec (  1.577%)
 classical contributions        ...        0 min,  0.000 sec (  0.692%)
 integral evaluation            ...        0 min,  0.001 sec (  3.426%)
 iterations                     ...        0 min,  0.016 sec ( 48.958%)
 molecular gradient             ...        0 min,  0.006 sec ( 17.556%)
 printout                       ...        0 min,  0.001 sec (  2.520%)

         :::::::::::::::::::::::::::::::::::::::::::::::::::::
         ::                     SUMMARY                     ::
         :::::::::::::::::::::::::::::::::::::::::::::::::::::
         :: total energy             -27.315253866139 Eh    ::
         :: gradient norm              0.001800430501 Eh/a0 ::
         :: HOMO-LUMO gap              4.462438281277 eV    ::
         ::.................................................::
         :: SCC energy               -27.566945493938 Eh    ::
         :: -> isotropic ES            0.049870346168 Eh    ::
         :: -> anisotropic ES         -0.004434793107 Eh    ::
         :: -> anisotropic XC         -0.003684316627 Eh    ::
         :: -> dispersion             -0.010494225432 Eh    ::
         :: repulsion energy           0.251691627799 Eh    ::
         :: add. restraining           0.000000000000 Eh    ::
         :: total charge              -0.000000000000 e     ::
         :::::::::::::::::::::::::::::::::::::::::::::::::::::


Property printout bound to 'properties.out'

           -------------------------------------------------
          | TOTAL ENERGY              -27.315253866139 Eh   |
          | GRADIENT NORM               0.001800430501 Eh/α |
          | HOMO-LUMO GAP               4.462438281277 eV   |
           -------------------------------------------------

------------------------------------------------------------------------
 * finished run on 2026/02/18 at 13:00:39.160     
------------------------------------------------------------------------
 total:
 * wall-time:     0 d,  0 h,  0 min,  0.051 sec
 *  cpu-time:     0 d,  0 h,  0 min,  0.195 sec
 * ratio c/w:     3.834 speedup
 SCF:
 * wall-time:     0 d,  0 h,  0 min,  0.033 sec
 *  cpu-time:     0 d,  0 h,  0 min,  0.130 sec
 * ratio c/w:     3.963 speedup


-------------------------   --------------------
FINAL SINGLE POINT ENERGY       -27.315253866140
-------------------------   --------------------


-------------
DIPOLE MOMENT
-------------
                                X             Y             Z
Total Dipole Moment    :      0.27900      -0.43600       0.19500
                        -----------------------------------------
Magnitude (a.u.)       :      0.55314
Magnitude (Debye)      :      1.40597


------------------
CARTESIAN GRADIENT
------------------

   1   C   :   -0.000109766   -0.000308503    0.000249161
   2   C   :    0.000218169   -0.000185865    0.000107522
   3   C   :    0.000777467    0.000279203   -0.000300668
   4   C   :   -0.000492599   -0.000559257   -0.000442775
   5   C   :    0.000323017    0.000418311    0.000427836
   6   O   :   -0.000110368   -0.000247617   -0.000027111
   7   O   :    0.000398885    0.000263186   -0.000000026
   8   O   :   -0.000444756    0.000148376   -0.000332255
   9   H   :   -0.000002332   -0.000067797    0.000116539
  10   H   :    0.000081093    0.000177351   -0.000136992
  11   H   :   -0.000093749    0.000140892   -0.000018653
  12   H   :    0.000025336   -0.000005657    0.000051415
  13   H   :   -0.000158106    0.000037744   -0.000084851
  14   H   :   -0.000291218   -0.000082292    0.000108132
  15   H   :   -0.000076031   -0.000055125    0.000215572
  16   H   :   -0.000097866   -0.000124098    0.000021626
  17   H   :    0.000052825    0.000171147    0.000045527

Difference to translation invariance:
           :    0.0000000000   -0.0000000000   -0.0000000000

Difference to rotation invariance:
           :    0.0000022758   -0.0000006265   -0.0000009420

Norm of the Cartesian gradient     ...    0.0018004305
RMS gradient                       ...    0.0002521107
MAX gradient                       ...    0.0007774666
------------------------------------------------------------------------------
                         ORCA GEOMETRY RELAXATION STEP
------------------------------------------------------------------------------

Reading the OPT-File                    .... done
Getting information on internals        .... done
Copying old internal coords+grads       .... done
Making the new internal coordinates     .... (2022 redundants) done
Validating the new internal coordinates .... (2022 redundants) done
Calculating the B-matrix                .... done
Calculating the G,G- and P matrices     .... done
Transforming gradient to internals      .... done
Projecting the internal gradient        .... done
Number of atoms                         ....  17
Number of internal coordinates          ....  78
Current Energy                          ....   -27.315253866 Eh
Current gradient norm                   ....     0.001800431 Eh/bohr
Maximum allowed component of the step   ....  0.300
Current trust radius                    ....  0.700
Updating the Hessian (BFGS)             .... done
Forming the augmented Hessian           .... done
Diagonalizing the augmented Hessian     .... done
Last element of RFO vector              ....  0.994868452
Lowest eigenvalues of augmented Hessian:
 -0.000036620  0.002094205  0.003414055  0.007964942  0.011899334
Length of the computed step             ....  0.101698761
The final length of the internal step   ....  0.101698761
Converting the step to Cartesian space:
 Initial RMS(Int)=    0.0115151171
Transforming coordinates:
 Iter   0:  RMS(Cart)=    0.0210833910 RMS(Int)=    0.0115087499
done
Storing new coordinates                 .... done
The predicted energy change is          ....    -0.000018499
Previously predicted energy change      ....    -0.000023123
Actually observed energy change         ....    -0.000031566
Ratio of predicted to observed change   ....     1.365156821
New trust radius                        ....     0.700000000

                                .--------------------.
          ----------------------|Geometry convergence|-------------------------
          Item                value                   Tolerance       Converged
          ---------------------------------------------------------------------
          Energy change      -0.0000315660            0.0000050000      NO
          RMS gradient        0.0001654582            0.0001000000      NO
          MAX gradient        0.0005278493            0.0003000000      NO
          RMS step            0.0115151171            0.0020000000      NO
          MAX step            0.0408449472            0.0040000000      NO
          -------------------------------------------------------------------------
          ........................................................
          Max(Bonds)      0.0028      Max(Angles)    0.35
          Max(Dihed)        2.34      Max(Improp)    0.00
          ---------------------------------------------------------------------

    ---------------------------------------------------------------------------
                         Redundant Internal Coordinates
                            (Angstroem and degrees)

        Definition                    Value    dE/dq     Step     New-Value
    ----------------------------------------------------------------------------
     1. B(C   2,C   1)                1.5223  0.000033 -0.0001    1.5223   
     2. B(C   3,C   0)                1.4246  0.000057 -0.0003    1.4243   
     3. B(C   4,C   3)                1.5141  0.000496  0.0014    1.5155   
     4. B(C   4,C   2)                1.5150  0.000334 -0.0006    1.5144   
     5. B(O   6,C   4)                1.3870 -0.000118  0.0010    1.3880   
     6. B(O   6,C   3)                1.4253  0.000443 -0.0028    1.4225   
     7. B(O   7,C   4)                1.3827  0.000528 -0.0017    1.3810   
     8. B(O   7,O   5)                1.4226 -0.000090  0.0009    1.4234   
     9. B(H   8,C   0)                1.0705  0.000056 -0.0001    1.0704   
    10. B(H   9,C   0)                1.0715  0.000084 -0.0001    1.0714   
    11. B(H  10,C   1)                1.0875  0.000036 -0.0001    1.0874   
    12. B(H  11,C   1)                1.0866  0.000005  0.0000    1.0866   
    13. B(H  12,C   1)                1.0874 -0.000008  0.0000    1.0874   
    14. B(H  13,C   2)                1.0923 -0.000042  0.0002    1.0924   
    15. B(H  14,C   2)                1.0940 -0.000104  0.0003    1.0943   
    16. B(H  15,C   3)                1.0860  0.000044  0.0003    1.0863   
    17. B(H  16,O   5)                0.9703  0.000081 -0.0001    0.9703   
    18. A(C   3,C   0,H   8)          119.70  0.000087   -0.06    119.65   
    19. A(C   3,C   0,H   9)          120.37 -0.000218    0.01    120.38   
    20. A(H   8,C   0,H   9)          119.88  0.000129    0.02    119.90   
    21. A(H  11,C   1,H  12)          108.17  0.000089   -0.03    108.13   
    22. A(C   2,C   1,H  12)          111.27 -0.000234    0.06    111.33   
    23. A(H  10,C   1,H  12)          108.84  0.000173   -0.04    108.80   
    24. A(H  10,C   1,H  11)          108.74  0.000038    0.01    108.75   
    25. A(C   2,C   1,H  11)          109.68  0.000169   -0.06    109.62   
    26. A(C   2,C   1,H  10)          110.08 -0.000224    0.06    110.14   
    27. A(C   1,C   2,H  14)          109.80  0.000099   -0.07    109.73   
    28. A(C   4,C   2,H  13)          107.56 -0.000148    0.13    107.69   
    29. A(C   4,C   2,H  14)          106.28 -0.000114    0.01    106.29   
    30. A(C   1,C   2,H  13)          111.21  0.000257   -0.07    111.14   
    31. A(C   1,C   2,C   4)          113.95 -0.000299    0.12    114.08   
    32. A(H  13,C   2,H  14)          107.74  0.000213   -0.13    107.61   
    33. A(C   4,C   3,H  15)          114.22  0.000083   -0.35    113.87   
    34. A(C   0,C   3,H  15)          116.68 -0.000210    0.08    116.76   
    35. A(O   6,C   3,H  15)          113.50  0.000040    0.02    113.53   
    36. A(C   4,C   3,O   6)           56.21 -0.000230    0.06     56.28   
    37. A(C   0,C   3,C   4)          122.70  0.000183   -0.00    122.70   
    38. A(C   0,C   3,O   6)          119.61  0.000169    0.19    119.81   
    39. A(C   3,C   4,O   6)           58.66  0.000091   -0.18     58.48   
    40. A(C   2,C   4,O   6)          119.40 -0.000151   -0.01    119.39   
    41. A(C   2,C   4,C   3)          123.31 -0.000072   -0.07    123.24   
    42. A(O   6,C   4,O   7)          115.69  0.000074   -0.07    115.62   
    43. A(C   3,C   4,O   7)          113.58 -0.000207    0.12    113.70   
    44. A(C   2,C   4,O   7)          114.79  0.000190    0.08    114.88   
    45. A(O   7,O   5,H  16)          104.49  0.000300   -0.11    104.38   
    46. A(C   3,O   6,C   4)           65.13  0.000139    0.12     65.25   
    47. A(C   4,O   7,O   5)          111.02  0.000038   -0.04    110.98   
    48. D(H  13,C   2,C   1,H  10)   -170.75  0.000129   -0.55   -171.30   
    49. D(H  13,C   2,C   1,H  11)     69.63  0.000115   -0.56     69.07   
    50. D(C   4,C   2,C   1,H  12)     71.76 -0.000175   -0.31     71.46   
    51. D(C   4,C   2,C   1,H  10)    -48.98 -0.000089   -0.34    -49.33   
    52. D(C   4,C   2,C   1,H  11)   -168.60 -0.000102   -0.35   -168.95   
    53. D(H  13,C   2,C   1,H  12)    -50.00  0.000043   -0.52    -50.52   
    54. D(C   4,C   3,C   0,H   8)    139.39  0.000163   -2.34    137.05   
    55. D(O   6,C   3,C   0,H   9)     28.62  0.000055   -1.88     26.75   
    56. D(O   6,C   3,C   0,H   8)   -153.89  0.000018   -2.18   -156.07   
    57. D(H  15,C   3,C   0,H   8)    -10.85  0.000026   -1.69    -12.54   
    58. D(C   4,C   3,C   0,H   9)    -38.10  0.000200   -2.04    -40.14   
    59. D(C   3,C   4,C   2,H  14)   -160.25  0.000108   -0.76   -161.01   
    60. D(C   3,C   4,C   2,H  13)     84.58 -0.000012   -0.68     83.90   
    61. D(O   6,C   4,C   2,C   1)     30.69 -0.000015   -1.03     29.66   
    62. D(C   3,C   4,C   2,C   1)    -39.19 -0.000029   -0.77    -39.95   
    63. D(O   6,C   4,C   3,H  15)   -103.02  0.000070   -0.25   -103.27   
    64. D(O   6,C   4,C   3,C   0)    106.08  0.000016    0.28    106.36   
    65. D(C   2,C   4,C   3,H  15)      3.70 -0.000045   -0.33      3.38   
    66. D(C   2,C   4,C   3,O   6)    106.72 -0.000115   -0.08    106.64   
    67. D(C   2,C   4,C   3,C   0)   -147.20 -0.000099    0.20   -147.00   
    68. D(O   6,C   4,C   2,H  14)    -90.37  0.000122   -1.02    -91.39   
    69. D(O   7,C   4,C   3,C   0)     -0.66 -0.000202    0.47     -0.18   
    70. D(O   6,C   4,C   2,H  13)    154.45  0.000002   -0.94    153.51   
    71. D(C   3,O   6,C   4,O   7)    103.11 -0.000259    0.12    103.23   
    72. D(C   3,O   6,C   4,C   2)   -113.26 -0.000008    0.15   -113.11   
    73. D(C   4,O   6,C   3,H  15)    104.31  0.000015   -0.42    103.88   
    74. D(C   4,O   6,C   3,C   0)   -111.55 -0.000065    0.07   -111.48   
    75. D(C   4,O   7,O   5,H  16)    -89.58  0.000050   -1.49    -91.07   
    76. D(O   5,O   7,C   4,O   6)     80.62  0.000092   -1.08     79.53   
    77. D(O   5,O   7,C   4,C   3)    145.80  0.000147   -1.26    144.53   
    78. D(O   5,O   7,C   4,C   2)    -64.70 -0.000025   -1.07    -65.78   
    ----------------------------------------------------------------------------

Geometry step timings:
Preparation and reading OPT file:      0.000 s ( 0.835 %)
Internal coordinates            :      0.000 s ( 1.267 %)
B/P matrices and projection     :      0.001 s (23.864 %)
Hessian update/contruction      :      0.001 s (21.824 %)
Making the step                 :      0.001 s (24.946 %)
Converting the step to Cartesian:      0.000 s ( 2.720 %)
Storing new data                :      0.000 s ( 1.236 %)
Checking convergence            :      0.000 s ( 1.855 %)
Final printing                  :      0.001 s (21.453 %)
Total time                      :      0.003 s

Time for energy+gradient        :      0.073 s
Time for complete geometry iter :      0.077 s

         *************************************************************
         *                GEOMETRY OPTIMIZATION CYCLE  16            *
         *************************************************************
---------------------------------
CARTESIAN COORDINATES (ANGSTROEM)
---------------------------------
  C    -2.353064   -1.053439    0.488925
  C     2.107403   -0.498628    0.099522
  C     1.111431    0.230275   -0.791580
  C    -0.949206   -0.817692    0.535554
  C    -0.284866    0.320708   -0.212387
  O    -0.769645    2.463447   -0.929727
  O    -0.449863    0.356054    1.165273
  O    -1.166281    1.096453   -0.939443
  H    -2.718768   -2.053713    0.382194
  H    -3.041513   -0.232927    0.514746
  H     2.059942   -0.106855    1.112800
  H     3.113778   -0.354321   -0.284044
  H     1.905576   -1.566810    0.126920
  H     1.034419   -0.248777   -1.770343
  H     1.444295    1.260210   -0.952292
  H    -0.311445   -1.686680    0.669995
  H    -1.229048    2.842216   -0.163641

----------------------------
CARTESIAN COORDINATES (A.U.)
----------------------------
  NO LB    ZA    FRAG    MASS        X           Y           Z
   0 C   6.0000    1    12.011   -4.446647   -1.990710    0.923935
   1 C   6.0000    1    12.011    3.982415   -0.942271    0.188069
   2 C   6.0000    1    12.011    2.100299    0.435156   -1.495869
   3 C   6.0000    1    12.011   -1.793740   -1.545214    1.012050
   4 C   6.0000    1    12.011   -0.538319    0.606051   -0.401353
   5 O   8.0000    1    15.999   -1.454419    4.655241   -1.756930
   6 O   8.0000    1    15.999   -0.850117    0.672844    2.202047
   7 O   8.0000    1    15.999   -2.203952    2.071997   -1.775289
   8 H   1.0000    1     1.008   -5.137726   -3.880956    0.722242
   9 H   1.0000    1     1.008   -5.747627   -0.440168    0.972729
  10 H   1.0000    1     1.008    3.892725   -0.201927    2.102887
  11 H   1.0000    1     1.008    5.884188   -0.669570   -0.536766
  12 H   1.0000    1     1.008    3.601016   -2.960842    0.239844
  13 H   1.0000    1     1.008    1.954768   -0.470121   -3.345464
  14 H   1.0000    1     1.008    2.729323    2.381451   -1.799572
  15 H   1.0000    1     1.008   -0.588546   -3.187364    1.266107
  16 H   1.0000    1     1.008   -2.322563    5.371009   -0.309237

      -----------------------------------------------------------      
     |                   =====================                   |     
     |                           x T B                           |     
     |                   =====================                   |     
     |                         S. Grimme                         |     
     |          Mulliken Center for Theoretical Chemistry        |     
     |                    University of Bonn                     |     
      -----------------------------------------------------------      

   * xtb version 6.7.1 (edcfbbe) compiled by 'albert@albert-system' on 2024-07-22

   xtb is free software: you can redistribute it and/or modify it under
   the terms of the GNU Lesser General Public License as published by
   the Free Software Foundation, either version 3 of the License, or
   (at your option) any later version.
   
   xtb is distributed in the hope that it will be useful,
   but WITHOUT ANY WARRANTY; without even the implied warranty of
   MERCHANTABILITY or FITNESS FOR A PARTICULAR PURPOSE.  See the
   GNU Lesser General Public License for more details.
   
   Cite this work as:
   * C. Bannwarth, E. Caldeweyher, S. Ehlert, A. Hansen, P. Pracht,
     J. Seibert, S. Spicher, S. Grimme, WIREs Comput. Mol. Sci., 2020, 11,
     e01493. DOI: 10.1002/wcms.1493
   
   for GFN2-xTB:
   * C. Bannwarth, S. Ehlert and S. Grimme., J. Chem. Theory Comput., 2019,
     15, 1652-1671. DOI: 10.1021/acs.jctc.8b01176
   for GFN1-xTB:
   * S. Grimme, C. Bannwarth, P. Shushkov, J. Chem. Theory Comput., 2017,
     13, 1989-2009. DOI: 10.1021/acs.jctc.7b00118
   for GFN0-xTB:
   * P. Pracht, E. Caldeweyher, S. Ehlert, S. Grimme, ChemRxiv, 2019, preprint.
     DOI: 10.26434/chemrxiv.8326202.v1
   for GFN-FF:
   * S. Spicher and S. Grimme, Angew. Chem. Int. Ed., 2020, 59, 15665-15673.
     DOI: 10.1002/anie.202004239
   
   for ALPB and GBSA implicit solvation:
   * S. Ehlert, M. Stahn, S. Spicher, S. Grimme, J. Chem. Theory Comput.,
     2021, 17, 4250-4261. DOI: 10.1021/acs.jctc.1c00471
   
   for ddCOSMO and CPCM-X implicit solvation:
   * M. Stahn, S. Ehlert, S. Grimme, J. Phys. Chem. A,
     2023, XX, XXXX-XXXX. DOI: 10.1021/acs.jpca.3c04382
   
   for DFT-D4:
   * E. Caldeweyher, C. Bannwarth and S. Grimme, J. Chem. Phys., 2017,
     147, 034112. DOI: 10.1063/1.4993215
   * E. Caldeweyher, S. Ehlert, A. Hansen, H. Neugebauer, S. Spicher,
     C. Bannwarth and S. Grimme, J. Chem. Phys., 2019, 150, 154122.
     DOI: 10.1063/1.5090222
   * E. Caldeweyher, J.-M. Mewes, S. Ehlert and S. Grimme, Phys. Chem. Chem. Phys.
     2020, 22, 8499-8512. DOI: 10.1039/D0CP00502A
   
   for sTDA-xTB:
   * S. Grimme and C. Bannwarth, J. Chem. Phys., 2016, 145, 054103.
     DOI: 10.1063/1.4959605
   
   in the mass-spec context:
   * V. Asgeirsson, C. Bauer and S. Grimme, Chem. Sci., 2017, 8, 4879.
     DOI: 10.1039/c7sc00601b
   * J. Koopman and S. Grimme, ACS Omega 2019, 4, 12, 15120-15133.
     DOI: 10.1021/acsomega.9b02011
   
   for metadynamics refer to:
   * S. Grimme, J. Chem. Theory Comput., 2019, 155, 2847-2862
     DOI: 10.1021/acs.jctc.9b00143
   
   for SPH calculations refer to:
   * S. Spicher and S. Grimme, J. Chem. Theory Comput., 2021, 17, 1701-1714
     DOI: 10.1021/acs.jctc.0c01306
   
   for ONIOM refer to:
   * C. Plett, A. Katbashev, S. Ehlert, S. Grimme, M. Bursch,
     Phys. Chem. Chem. Phys., 2023, 25, 17860-17868. DOI: 10.1039/D3CP02178E
   
   for DIPRO refer to:
   * J. Kohn, N. Gildemeister, S. Grimme, D. Fazzi, A. Hansen,
     J. Chem. Phys., 2023, just accepted.
   
   for PTB refer to:
   * S. Grimme, M. Mueller, A. Hansen, J. Chem. Phys., 2023, 158, 124111.
     DOI: 10.1063/5.0137838
   
   with help from (in alphabetical order)
   P. Atkinson, C. Bannwarth, F. Bohle, G. Brandenburg, E. Caldeweyher
   M. Checinski, S. Dohm, S. Ehlert, S. Ehrlich, I. Gerasimov, C. Hölzer
   A. Katbashev, J. Kohn, J. Koopman, C. Lavigne, S. Lehtola, F. März, M. Müller,
   F. Musil, H. Neugebauer, J. Pisarek, C. Plett, P. Pracht, F. Pultar,
   J. Seibert, P. Shushkov, S. Spicher, M. Stahn, M. Steiner, T. Strunk,
   J. Stückrath, T. Rose, and J. Unsleber
   
 * started run on 2026/02/18 at 13:00:39.185     
   ID    Z sym.   atoms
    1    6 C      1-5
    2    8 O      6-8
    3    1 H      9-17

           -------------------------------------------------
          |                Calculation Setup                |
           -------------------------------------------------

          program call               : /apps/eb/ORCA/6.1.1-gompi-2024a-avx2/bin/otool_xtb goat_XTB.xyz --grad -c 0 -u 1 -P 8 --namespace goat --input goat_XTB.input.tmp --acc 0.200000
          hostname                   : ra2-19
          calculation namespace      : goat
          coordinate file            : goat_XTB.xyz
          omp threads                :                     8


           -------------------------------------------------
          |                 G F N 2 - x T B                 |
           -------------------------------------------------

        Reference                      10.1021/acs.jctc.8b01176
      * Hamiltonian:
        H0-scaling (s, p, d)           1.850000    2.230000    2.230000
        zeta-weighting                 0.500000
      * Dispersion:
        s8                             2.700000
        a1                             0.520000
        a2                             5.000000
        s9                             5.000000
      * Repulsion:
        kExp                           1.500000    1.000000
        rExp                           1.000000
      * Coulomb:
        alpha                          2.000000
        third order                    shell-resolved
        anisotropic                    true
        a3                             3.000000
        a5                             4.000000
        cn-shift                       1.200000
        cn-exp                         4.000000
        max-rad                        5.000000

q/qsh data taken from xtbrestart
CAMM data taken from xtbrestart

          ...................................................
          :                      SETUP                      :
          :.................................................:
          :  # basis functions                  41          :
          :  # atomic orbitals                  41          :
          :  # shells                           25          :
          :  # electrons                        47          :
          :  max. iterations                   250          :
          :  Hamiltonian                  GFN2-xTB          :
          :  restarted?                       true          :
          :  GBSA solvation                  false          :
          :  PC potential                    false          :
          :  electronic temp.          300.0000000     K    :
          :  accuracy                    0.2000000          :
          :  -> integral cutoff          0.3198970E+02      :
          :  -> integral neglect         0.2000000E-08      :
          :  -> SCF convergence          0.2000000E-06 Eh   :
          :  -> wf. convergence          0.2000000E-04 e    :
          :  Broyden damping             0.4000000          :
          :  net charge                          0          :
          :  unpaired electrons                  1          :
          ...................................................

 iter      E             dE          RMSdq      gap      omega  full diag
   1    -27.5671423 -0.275671E+02  0.102E-01    4.44       0.0  T
   2    -27.5671441 -0.184016E-05  0.605E-02    4.43       1.0  T
   3    -27.5671438  0.317869E-06  0.865E-03    4.44       2.8  T
   4    -27.5671447 -0.912509E-06  0.278E-03    4.43       8.7  T
   5    -27.5671447 -0.174736E-07  0.161E-03    4.43      15.1  T
   6    -27.5671448 -0.110248E-07  0.645E-04    4.43      37.6  T
   7    -27.5671448 -0.271907E-08  0.260E-04    4.43      93.3  T
   8    -27.5671448 -0.333369E-09  0.130E-04    4.43     186.0  T
   9    -27.5671448 -0.100037E-09  0.275E-05    4.43     881.7  T

   *** convergence criteria satisfied after 9 iterations ***

         #    Occupation            Energy/Eh            Energy/eV
      -------------------------------------------------------------
         1        2.0000           -0.7447264             -20.2650
       ...           ...                  ...                  ...
        18        2.0000           -0.4771244             -12.9832
        19        2.0000           -0.4684225             -12.7464
        20        2.0000           -0.4656210             -12.6702
        21        2.0000           -0.4503676             -12.2551
        22        2.0000           -0.4449817             -12.1086
        23        2.0000           -0.4340949             -11.8123
        24        1.0000           -0.3334304              -9.0731 (HOMO)
        25                         -0.1705062              -4.6397 (LUMO)
        26                         -0.0680949              -1.8530
        27                          0.0422608               1.1500
        28                          0.0604804               1.6458
        29                          0.0859587               2.3391
       ...                                ...                  ...
        41                          0.3862994              10.5117
      -------------------------------------------------------------
                  HL-Gap            0.1629242 Eh            4.4334 eV
             Fermi-level           -0.3178655 Eh           -8.6496 eV

 SCC (total)                   0 d,  0 h,  0 min,  0.011 sec
 SCC setup                      ...        0 min,  0.000 sec (  1.741%)
 Dispersion                     ...        0 min,  0.000 sec (  1.230%)
 classical contributions        ...        0 min,  0.000 sec (  0.264%)
 integral evaluation            ...        0 min,  0.001 sec (  5.599%)
 iterations                     ...        0 min,  0.009 sec ( 77.694%)
 molecular gradient             ...        0 min,  0.001 sec ( 10.607%)
 printout                       ...        0 min,  0.000 sec (  2.556%)

         :::::::::::::::::::::::::::::::::::::::::::::::::::::
         ::                     SUMMARY                     ::
         :::::::::::::::::::::::::::::::::::::::::::::::::::::
         :: total energy             -27.315265669047 Eh    ::
         :: gradient norm              0.001179668292 Eh/a0 ::
         :: HOMO-LUMO gap              4.433392402507 eV    ::
         ::.................................................::
         :: SCC energy               -27.567107824503 Eh    ::
         :: -> isotropic ES            0.049831013989 Eh    ::
         :: -> anisotropic ES         -0.004445962773 Eh    ::
         :: -> anisotropic XC         -0.003707616844 Eh    ::
         :: -> dispersion             -0.010493283175 Eh    ::
         :: repulsion energy           0.251842155456 Eh    ::
         :: add. restraining           0.000000000000 Eh    ::
         :: total charge              -0.000000000000 e     ::
         :::::::::::::::::::::::::::::::::::::::::::::::::::::


Property printout bound to 'properties.out'

           -------------------------------------------------
          | TOTAL ENERGY              -27.315265669047 Eh   |
          | GRADIENT NORM               0.001179668292 Eh/α |
          | HOMO-LUMO GAP               4.433392402507 eV   |
           -------------------------------------------------

------------------------------------------------------------------------
 * finished run on 2026/02/18 at 13:00:39.208     
------------------------------------------------------------------------
 total:
 * wall-time:     0 d,  0 h,  0 min,  0.022 sec
 *  cpu-time:     0 d,  0 h,  0 min,  0.153 sec
 * ratio c/w:     7.056 speedup
 SCF:
 * wall-time:     0 d,  0 h,  0 min,  0.012 sec
 *  cpu-time:     0 d,  0 h,  0 min,  0.091 sec
 * ratio c/w:     7.887 speedup


-------------------------   --------------------
FINAL SINGLE POINT ENERGY       -27.315265669050
-------------------------   --------------------


-------------
DIPOLE MOMENT
-------------
                                X             Y             Z
Total Dipole Moment    :      0.25700      -0.44300       0.18400
                        -----------------------------------------
Magnitude (a.u.)       :      0.54420
Magnitude (Debye)      :      1.38325


------------------
CARTESIAN GRADIENT
------------------

   1   C   :   -0.000150210   -0.000281289    0.000040696
   2   C   :    0.000175523   -0.000090083    0.000079588
   3   C   :    0.000289080   -0.000009593    0.000058478
   4   C   :   -0.000693532   -0.000184781    0.000088193
   5   C   :    0.000108345    0.000270938   -0.000463805
   6   O   :    0.000025561   -0.000248456    0.000023297
   7   O   :    0.000263903    0.000109179   -0.000085626
   8   O   :   -0.000087710    0.000018386    0.000166004
   9   H   :    0.000081363   -0.000002249   -0.000041434
  10   H   :    0.000134515    0.000140803    0.000029400
  11   H   :   -0.000019753    0.000093612   -0.000033568
  12   H   :   -0.000012275   -0.000016673    0.000013916
  13   H   :   -0.000077603    0.000042873   -0.000060746
  14   H   :   -0.000087614   -0.000003049    0.000020836
  15   H   :    0.000076373   -0.000028783    0.000073282
  16   H   :    0.000112274    0.000067190    0.000032830
  17   H   :   -0.000138240    0.000121974    0.000058659

Difference to translation invariance:
           :   -0.0000000000   -0.0000000000    0.0000000000

Difference to rotation invariance:
           :    0.0000003599    0.0000000931   -0.0000001692

Norm of the Cartesian gradient     ...    0.0011796683
RMS gradient                       ...    0.0001651866
MAX gradient                       ...    0.0006935315
------------------------------------------------------------------------------
                         ORCA GEOMETRY RELAXATION STEP
------------------------------------------------------------------------------

Reading the OPT-File                    .... done
Getting information on internals        .... done
Copying old internal coords+grads       .... done
Making the new internal coordinates     .... (2022 redundants) done
Validating the new internal coordinates .... (2022 redundants) done
Calculating the B-matrix                .... done
Calculating the G,G- and P matrices     .... done
Transforming gradient to internals      .... done
Projecting the internal gradient        .... done
Number of atoms                         ....  17
Number of internal coordinates          ....  78
Current Energy                          ....   -27.315265669 Eh
Current gradient norm                   ....     0.001179668 Eh/bohr
Maximum allowed component of the step   ....  0.300
Current trust radius                    ....  0.700
Updating the Hessian (BFGS)             .... done
Forming the augmented Hessian           .... done
Diagonalizing the augmented Hessian     .... done
Last element of RFO vector              ....  0.998888042
Lowest eigenvalues of augmented Hessian:
 -0.000014775  0.002853572  0.003948662  0.008204236  0.011537284
Length of the computed step             ....  0.047197781
The final length of the internal step   ....  0.047197781
Converting the step to Cartesian space:
 Initial RMS(Int)=    0.0053440964
Transforming coordinates:
 Iter   0:  RMS(Cart)=    0.0111609697 RMS(Int)=    0.0053441247
done
Storing new coordinates                 .... done
The predicted energy change is          ....    -0.000007404
Previously predicted energy change      ....    -0.000018499
Actually observed energy change         ....    -0.000011803
Ratio of predicted to observed change   ....     0.638012496
New trust radius                        ....     0.700000000

                                .--------------------.
          ----------------------|Geometry convergence|-------------------------
          Item                value                   Tolerance       Converged
          ---------------------------------------------------------------------
          Energy change      -0.0000118029            0.0000050000      NO
          RMS gradient        0.0001044625            0.0001000000      NO
          MAX gradient        0.0003263424            0.0003000000      NO
          RMS step            0.0053440964            0.0020000000      NO
          MAX step            0.0417903369            0.0040000000      NO
          -------------------------------------------------------------------------
          ........................................................
          Max(Bonds)      0.0015      Max(Angles)    0.11
          Max(Dihed)        2.39      Max(Improp)    0.00
          ---------------------------------------------------------------------

    ---------------------------------------------------------------------------
                         Redundant Internal Coordinates
                            (Angstroem and degrees)

        Definition                    Value    dE/dq     Step     New-Value
    ----------------------------------------------------------------------------
     1. B(C   2,C   1)                1.5223  0.000028 -0.0001    1.5222   
     2. B(C   3,C   0)                1.4243 -0.000042  0.0003    1.4245   
     3. B(C   4,C   3)                1.5155  0.000277 -0.0015    1.5140   
     4. B(C   4,C   2)                1.5144  0.000260 -0.0005    1.5138   
     5. B(O   6,C   4)                1.3880 -0.000078  0.0000    1.3880   
     6. B(O   6,C   3)                1.4225  0.000199  0.0003    1.4228   
     7. B(O   7,C   4)                1.3810 -0.000063  0.0002    1.3812   
     8. B(O   7,O   5)                1.4234 -0.000152  0.0001    1.4235   
     9. B(H   8,C   0)                1.0704 -0.000022  0.0000    1.0704   
    10. B(H   9,C   0)                1.0714  0.000022 -0.0001    1.0713   
    11. B(H  10,C   1)                1.0874  0.000003  0.0000    1.0874   
    12. B(H  11,C   1)                1.0866 -0.000018  0.0000    1.0867   
    13. B(H  12,C   1)                1.0874 -0.000029  0.0001    1.0875   
    14. B(H  13,C   2)                1.0924 -0.000011  0.0000    1.0925   
    15. B(H  14,C   2)                1.0943 -0.000015  0.0001    1.0944   
    16. B(H  15,C   3)                1.0863  0.000016 -0.0001    1.0861   
    17. B(H  16,O   5)                0.9703  0.000159 -0.0001    0.9701   
    18. A(C   3,C   0,H   8)          119.65  0.000026    0.00    119.65   
    19. A(C   3,C   0,H   9)          120.39 -0.000211    0.06    120.45   
    20. A(H   8,C   0,H   9)          119.90  0.000184   -0.06    119.85   
    21. A(H  11,C   1,H  12)          108.13  0.000044   -0.03    108.10   
    22. A(C   2,C   1,H  12)          111.33 -0.000131    0.05    111.37   
    23. A(H  10,C   1,H  12)          108.80  0.000113   -0.02    108.78   
    24. A(H  10,C   1,H  11)          108.75  0.000018   -0.02    108.73   
    25. A(C   2,C   1,H  11)          109.62  0.000064   -0.02    109.59   
    26. A(C   2,C   1,H  10)          110.15 -0.000103    0.05    110.20   
    27. A(C   1,C   2,H  14)          109.73 -0.000079    0.00    109.73   
    28. A(C   4,C   2,H  13)          107.69 -0.000087    0.04    107.73   
    29. A(C   4,C   2,H  14)          106.29  0.000077    0.01    106.29   
    30. A(C   1,C   2,H  13)          111.14  0.000071   -0.03    111.11   
    31. A(C   1,C   2,C   4)          114.08 -0.000018    0.05    114.12   
    32. A(H  13,C   2,H  14)          107.61  0.000041   -0.07    107.54   
    33. A(C   4,C   3,H  15)          113.87 -0.000087    0.11    113.98   
    34. A(C   0,C   3,H  15)          116.77  0.000009   -0.01    116.75   
    35. A(O   6,C   3,H  15)          113.53 -0.000094    0.02    113.54   
    36. A(C   4,C   3,O   6)           56.27 -0.000125    0.03     56.30   
    37. A(C   0,C   3,C   4)          122.70  0.000118   -0.08    122.62   
    38. A(C   0,C   3,O   6)          119.81  0.000111   -0.04    119.76   
    39. A(C   3,C   4,O   6)           58.48  0.000033    0.05     58.53   
    40. A(C   2,C   4,O   6)          119.39 -0.000126    0.07    119.46   
    41. A(C   2,C   4,C   3)          123.24 -0.000068    0.01    123.25   
    42. A(O   6,C   4,O   7)          115.62 -0.000138   -0.04    115.58   
    43. A(C   3,C   4,O   7)          113.70 -0.000230    0.10    113.80   
    44. A(C   2,C   4,O   7)          114.88  0.000326   -0.10    114.77   
    45. A(O   7,O   5,H  16)          104.38  0.000075   -0.07    104.31   
    46. A(C   3,O   6,C   4)           65.25  0.000093   -0.08     65.17   
    47. A(C   4,O   7,O   5)          110.98  0.000080   -0.02    110.96   
    48. D(H  13,C   2,C   1,H  10)   -171.30  0.000019    0.23   -171.07   
    49. D(H  13,C   2,C   1,H  11)     69.07  0.000020    0.24     69.32   
    50. D(C   4,C   2,C   1,H  12)     71.46 -0.000069    0.33     71.79   
    51. D(C   4,C   2,C   1,H  10)    -49.33 -0.000055    0.30    -49.03   
    52. D(C   4,C   2,C   1,H  11)   -168.95 -0.000054    0.31   -168.64   
    53. D(H  13,C   2,C   1,H  12)    -50.52  0.000006    0.27    -50.26   
    54. D(C   4,C   3,C   0,H   8)    137.05  0.000012    0.46    137.50   
    55. D(O   6,C   3,C   0,H   9)     26.75 -0.000044    0.13     26.88   
    56. D(O   6,C   3,C   0,H   8)   -156.07 -0.000051    0.44   -155.62   
    57. D(H  15,C   3,C   0,H   8)    -12.54 -0.000043    0.38    -12.15   
    58. D(C   4,C   3,C   0,H   9)    -40.14  0.000019    0.14    -39.99   
    59. D(C   3,C   4,C   2,H  14)   -161.01  0.000069    0.07   -160.94   
    60. D(C   3,C   4,C   2,H  13)     83.90  0.000025    0.13     84.03   
    61. D(O   6,C   4,C   2,C   1)     29.66 -0.000033    0.20     29.86   
    62. D(C   3,C   4,C   2,C   1)    -39.95  0.000012    0.10    -39.85   
    63. D(O   6,C   4,C   3,H  15)   -103.27  0.000103    0.04   -103.23   
    64. D(O   6,C   4,C   3,C   0)    106.36  0.000025   -0.00    106.36   
    65. D(C   2,C   4,C   3,H  15)      3.38 -0.000010    0.15      3.52   
    66. D(C   2,C   4,C   3,O   6)    106.64 -0.000113    0.11    106.75   
    67. D(C   2,C   4,C   3,C   0)   -147.00 -0.000089    0.11   -146.89   
    68. D(O   6,C   4,C   2,H  14)    -91.39  0.000024    0.17    -91.23   
    69. D(O   7,C   4,C   3,C   0)     -0.18  0.000065    0.08     -0.10   
    70. D(O   6,C   4,C   2,H  13)    153.51 -0.000020    0.23    153.74   
    71. D(C   3,O   6,C   4,O   7)    103.23 -0.000198    0.16    103.39   
    72. D(C   3,O   6,C   4,C   2)   -113.11  0.000019   -0.00   -113.11   
    73. D(C   4,O   6,C   3,H  15)    103.89 -0.000089    0.13    104.02   
    74. D(C   4,O   6,C   3,C   0)   -111.48 -0.000049    0.07   -111.41   
    75. D(C   4,O   7,O   5,H  16)    -91.07 -0.000181    2.39    -88.68   
    76. D(O   5,O   7,C   4,O   6)     79.54 -0.000049    0.15     79.69   
    77. D(O   5,O   7,C   4,C   3)    144.53 -0.000122    0.24    144.76   
    78. D(O   5,O   7,C   4,C   2)    -65.78 -0.000099    0.25    -65.53   
    ----------------------------------------------------------------------------

Geometry step timings:
Preparation and reading OPT file:      0.000 s ( 0.776 %)
Internal coordinates            :      0.000 s ( 1.081 %)
B/P matrices and projection     :      0.001 s (23.149 %)
Hessian update/contruction      :      0.001 s (27.530 %)
Making the step                 :      0.001 s (22.512 %)
Converting the step to Cartesian:      0.000 s ( 2.495 %)
Storing new data                :      0.000 s ( 1.137 %)
Checking convergence            :      0.000 s ( 1.885 %)
Final printing                  :      0.001 s (19.434 %)
Total time                      :      0.004 s

Time for energy+gradient        :      0.044 s
Time for complete geometry iter :      0.049 s

         *************************************************************
         *                GEOMETRY OPTIMIZATION CYCLE  17            *
         *************************************************************
---------------------------------
CARTESIAN COORDINATES (ANGSTROEM)
---------------------------------
  C    -2.353684   -1.055042    0.486943
  C     2.105309   -0.496012    0.098854
  C     1.107741    0.231538   -0.791450
  C    -0.950039   -0.816995    0.536354
  C    -0.288231    0.320225   -0.212638
  O    -0.770012    2.460800   -0.938347
  O    -0.454875    0.359639    1.164749
  O    -1.169163    1.094419   -0.942248
  H    -2.717846   -2.056787    0.388965
  H    -3.044238   -0.236233    0.506924
  H     2.054786   -0.108791    1.113738
  H     3.111630   -0.345243   -0.282483
  H     1.909390   -1.565454    0.122023
  H     1.032150   -0.247061   -1.770595
  H     1.439273    1.261929   -0.952686
  H    -0.311598   -1.684569    0.675433
  H    -1.197451    2.833156   -0.151067

----------------------------
CARTESIAN COORDINATES (A.U.)
----------------------------
  NO LB    ZA    FRAG    MASS        X           Y           Z
   0 C   6.0000    1    12.011   -4.447818   -1.993740    0.920190
   1 C   6.0000    1    12.011    3.978458   -0.937326    0.186807
   2 C   6.0000    1    12.011    2.093328    0.437544   -1.495624
   3 C   6.0000    1    12.011   -1.795313   -1.543896    1.013562
   4 C   6.0000    1    12.011   -0.544678    0.605138   -0.401828
   5 O   8.0000    1    15.999   -1.455112    4.650238   -1.773218
   6 O   8.0000    1    15.999   -0.859589    0.679620    2.201057
   7 O   8.0000    1    15.999   -2.209398    2.068152   -1.780590
   8 H   1.0000    1     1.008   -5.135984   -3.886765    0.735038
   9 H   1.0000    1     1.008   -5.752776   -0.446415    0.957948
  10 H   1.0000    1     1.008    3.882983   -0.205586    2.104660
  11 H   1.0000    1     1.008    5.880129   -0.652415   -0.533816
  12 H   1.0000    1     1.008    3.608225   -2.958280    0.230589
  13 H   1.0000    1     1.008    1.950481   -0.466878   -3.345939
  14 H   1.0000    1     1.008    2.719833    2.384700   -1.800315
  15 H   1.0000    1     1.008   -0.588835   -3.183374    1.276383
  16 H   1.0000    1     1.008   -2.262854    5.353889   -0.285476

      -----------------------------------------------------------      
     |                   =====================                   |     
     |                           x T B                           |     
     |                   =====================                   |     
     |                         S. Grimme                         |     
     |          Mulliken Center for Theoretical Chemistry        |     
     |                    University of Bonn                     |     
      -----------------------------------------------------------      

   * xtb version 6.7.1 (edcfbbe) compiled by 'albert@albert-system' on 2024-07-22

   xtb is free software: you can redistribute it and/or modify it under
   the terms of the GNU Lesser General Public License as published by
   the Free Software Foundation, either version 3 of the License, or
   (at your option) any later version.
   
   xtb is distributed in the hope that it will be useful,
   but WITHOUT ANY WARRANTY; without even the implied warranty of
   MERCHANTABILITY or FITNESS FOR A PARTICULAR PURPOSE.  See the
   GNU Lesser General Public License for more details.
   
   Cite this work as:
   * C. Bannwarth, E. Caldeweyher, S. Ehlert, A. Hansen, P. Pracht,
     J. Seibert, S. Spicher, S. Grimme, WIREs Comput. Mol. Sci., 2020, 11,
     e01493. DOI: 10.1002/wcms.1493
   
   for GFN2-xTB:
   * C. Bannwarth, S. Ehlert and S. Grimme., J. Chem. Theory Comput., 2019,
     15, 1652-1671. DOI: 10.1021/acs.jctc.8b01176
   for GFN1-xTB:
   * S. Grimme, C. Bannwarth, P. Shushkov, J. Chem. Theory Comput., 2017,
     13, 1989-2009. DOI: 10.1021/acs.jctc.7b00118
   for GFN0-xTB:
   * P. Pracht, E. Caldeweyher, S. Ehlert, S. Grimme, ChemRxiv, 2019, preprint.
     DOI: 10.26434/chemrxiv.8326202.v1
   for GFN-FF:
   * S. Spicher and S. Grimme, Angew. Chem. Int. Ed., 2020, 59, 15665-15673.
     DOI: 10.1002/anie.202004239
   
   for ALPB and GBSA implicit solvation:
   * S. Ehlert, M. Stahn, S. Spicher, S. Grimme, J. Chem. Theory Comput.,
     2021, 17, 4250-4261. DOI: 10.1021/acs.jctc.1c00471
   
   for ddCOSMO and CPCM-X implicit solvation:
   * M. Stahn, S. Ehlert, S. Grimme, J. Phys. Chem. A,
     2023, XX, XXXX-XXXX. DOI: 10.1021/acs.jpca.3c04382
   
   for DFT-D4:
   * E. Caldeweyher, C. Bannwarth and S. Grimme, J. Chem. Phys., 2017,
     147, 034112. DOI: 10.1063/1.4993215
   * E. Caldeweyher, S. Ehlert, A. Hansen, H. Neugebauer, S. Spicher,
     C. Bannwarth and S. Grimme, J. Chem. Phys., 2019, 150, 154122.
     DOI: 10.1063/1.5090222
   * E. Caldeweyher, J.-M. Mewes, S. Ehlert and S. Grimme, Phys. Chem. Chem. Phys.
     2020, 22, 8499-8512. DOI: 10.1039/D0CP00502A
   
   for sTDA-xTB:
   * S. Grimme and C. Bannwarth, J. Chem. Phys., 2016, 145, 054103.
     DOI: 10.1063/1.4959605
   
   in the mass-spec context:
   * V. Asgeirsson, C. Bauer and S. Grimme, Chem. Sci., 2017, 8, 4879.
     DOI: 10.1039/c7sc00601b
   * J. Koopman and S. Grimme, ACS Omega 2019, 4, 12, 15120-15133.
     DOI: 10.1021/acsomega.9b02011
   
   for metadynamics refer to:
   * S. Grimme, J. Chem. Theory Comput., 2019, 155, 2847-2862
     DOI: 10.1021/acs.jctc.9b00143
   
   for SPH calculations refer to:
   * S. Spicher and S. Grimme, J. Chem. Theory Comput., 2021, 17, 1701-1714
     DOI: 10.1021/acs.jctc.0c01306
   
   for ONIOM refer to:
   * C. Plett, A. Katbashev, S. Ehlert, S. Grimme, M. Bursch,
     Phys. Chem. Chem. Phys., 2023, 25, 17860-17868. DOI: 10.1039/D3CP02178E
   
   for DIPRO refer to:
   * J. Kohn, N. Gildemeister, S. Grimme, D. Fazzi, A. Hansen,
     J. Chem. Phys., 2023, just accepted.
   
   for PTB refer to:
   * S. Grimme, M. Mueller, A. Hansen, J. Chem. Phys., 2023, 158, 124111.
     DOI: 10.1063/5.0137838
   
   with help from (in alphabetical order)
   P. Atkinson, C. Bannwarth, F. Bohle, G. Brandenburg, E. Caldeweyher
   M. Checinski, S. Dohm, S. Ehlert, S. Ehrlich, I. Gerasimov, C. Hölzer
   A. Katbashev, J. Kohn, J. Koopman, C. Lavigne, S. Lehtola, F. März, M. Müller,
   F. Musil, H. Neugebauer, J. Pisarek, C. Plett, P. Pracht, F. Pultar,
   J. Seibert, P. Shushkov, S. Spicher, M. Stahn, M. Steiner, T. Strunk,
   J. Stückrath, T. Rose, and J. Unsleber
   
 * started run on 2026/02/18 at 13:00:39.233     
   ID    Z sym.   atoms
    1    6 C      1-5
    2    8 O      6-8
    3    1 H      9-17

           -------------------------------------------------
          |                Calculation Setup                |
           -------------------------------------------------

          program call               : /apps/eb/ORCA/6.1.1-gompi-2024a-avx2/bin/otool_xtb goat_XTB.xyz --grad -c 0 -u 1 -P 8 --namespace goat --input goat_XTB.input.tmp --acc 0.200000
          hostname                   : ra2-19
          calculation namespace      : goat
          coordinate file            : goat_XTB.xyz
          omp threads                :                     8


           -------------------------------------------------
          |                 G F N 2 - x T B                 |
           -------------------------------------------------

        Reference                      10.1021/acs.jctc.8b01176
      * Hamiltonian:
        H0-scaling (s, p, d)           1.850000    2.230000    2.230000
        zeta-weighting                 0.500000
      * Dispersion:
        s8                             2.700000
        a1                             0.520000
        a2                             5.000000
        s9                             5.000000
      * Repulsion:
        kExp                           1.500000    1.000000
        rExp                           1.000000
      * Coulomb:
        alpha                          2.000000
        third order                    shell-resolved
        anisotropic                    true
        a3                             3.000000
        a5                             4.000000
        cn-shift                       1.200000
        cn-exp                         4.000000
        max-rad                        5.000000

q/qsh data taken from xtbrestart
CAMM data taken from xtbrestart

          ...................................................
          :                      SETUP                      :
          :.................................................:
          :  # basis functions                  41          :
          :  # atomic orbitals                  41          :
          :  # shells                           25          :
          :  # electrons                        47          :
          :  max. iterations                   250          :
          :  Hamiltonian                  GFN2-xTB          :
          :  restarted?                       true          :
          :  GBSA solvation                  false          :
          :  PC potential                    false          :
          :  electronic temp.          300.0000000     K    :
          :  accuracy                    0.2000000          :
          :  -> integral cutoff          0.3198970E+02      :
          :  -> integral neglect         0.2000000E-08      :
          :  -> SCF convergence          0.2000000E-06 Eh   :
          :  -> wf. convergence          0.2000000E-04 e    :
          :  Broyden damping             0.4000000          :
          :  net charge                          0          :
          :  unpaired electrons                  1          :
          ...................................................

 iter      E             dE          RMSdq      gap      omega  full diag
   1    -27.5672908 -0.275673E+02  0.397E-02    4.43       0.0  T
   2    -27.5672912 -0.365221E-06  0.240E-02    4.44       1.0  T
   3    -27.5672910  0.173596E-06  0.468E-03    4.43       5.2  T
   4    -27.5672914 -0.317459E-06  0.124E-03    4.44      19.6  T
   5    -27.5672914 -0.337877E-08  0.575E-04    4.44      42.2  T
   6    -27.5672914 -0.476710E-09  0.191E-04    4.44     127.0  T
   7    -27.5672914 -0.167937E-09  0.842E-05    4.44     288.1  T

   *** convergence criteria satisfied after 7 iterations ***

         #    Occupation            Energy/Eh            Energy/eV
      -------------------------------------------------------------
         1        2.0000           -0.7450022             -20.2725
       ...           ...                  ...                  ...
        18        2.0000           -0.4772110             -12.9856
        19        2.0000           -0.4690270             -12.7629
        20        2.0000           -0.4661148             -12.6836
        21        2.0000           -0.4505320             -12.2596
        22        2.0000           -0.4451573             -12.1133
        23        2.0000           -0.4342455             -11.8164
        24        1.0000           -0.3336137              -9.0781 (HOMO)
        25                         -0.1706149              -4.6427 (LUMO)
        26                         -0.0681416              -1.8542
        27                          0.0421944               1.1482
        28                          0.0604572               1.6451
        29                          0.0856539               2.3308
       ...                                ...                  ...
        41                          0.3864895              10.5169
      -------------------------------------------------------------
                  HL-Gap            0.1629988 Eh            4.4354 eV
             Fermi-level           -0.3180219 Eh           -8.6538 eV

 SCC (total)                   0 d,  0 h,  0 min,  0.026 sec
 SCC setup                      ...        0 min,  0.000 sec (  1.313%)
 Dispersion                     ...        0 min,  0.001 sec (  2.212%)
 classical contributions        ...        0 min,  0.000 sec (  1.201%)
 integral evaluation            ...        0 min,  0.001 sec (  5.431%)
 iterations                     ...        0 min,  0.016 sec ( 63.478%)
 molecular gradient             ...        0 min,  0.006 sec ( 22.857%)
 printout                       ...        0 min,  0.001 sec (  3.402%)

         :::::::::::::::::::::::::::::::::::::::::::::::::::::
         ::                     SUMMARY                     ::
         :::::::::::::::::::::::::::::::::::::::::::::::::::::
         :: total energy             -27.315271406910 Eh    ::
         :: gradient norm              0.000602205030 Eh/a0 ::
         :: HOMO-LUMO gap              4.435424205898 eV    ::
         ::.................................................::
         :: SCC energy               -27.567254373396 Eh    ::
         :: -> isotropic ES            0.049843064256 Eh    ::
         :: -> anisotropic ES         -0.004391009330 Eh    ::
         :: -> anisotropic XC         -0.003699833766 Eh    ::
         :: -> dispersion             -0.010496241143 Eh    ::
         :: repulsion energy           0.251982966485 Eh    ::
         :: add. restraining           0.000000000000 Eh    ::
         :: total charge               0.000000000000 e     ::
         :::::::::::::::::::::::::::::::::::::::::::::::::::::


Property printout bound to 'properties.out'

           -------------------------------------------------
          | TOTAL ENERGY              -27.315271406910 Eh   |
          | GRADIENT NORM               0.000602205030 Eh/α |
          | HOMO-LUMO GAP               4.435424205898 eV   |
           -------------------------------------------------

------------------------------------------------------------------------
 * finished run on 2026/02/18 at 13:00:39.280     
------------------------------------------------------------------------
 total:
 * wall-time:     0 d,  0 h,  0 min,  0.046 sec
 *  cpu-time:     0 d,  0 h,  0 min,  0.173 sec
 * ratio c/w:     3.776 speedup
 SCF:
 * wall-time:     0 d,  0 h,  0 min,  0.026 sec
 *  cpu-time:     0 d,  0 h,  0 min,  0.103 sec
 * ratio c/w:     3.963 speedup


-------------------------   --------------------
FINAL SINGLE POINT ENERGY       -27.315271406910
-------------------------   --------------------


-------------
DIPOLE MOMENT
-------------
                                X             Y             Z
Total Dipole Moment    :      0.28300      -0.45100       0.20200
                        -----------------------------------------
Magnitude (a.u.)       :      0.56947
Magnitude (Debye)      :      1.44747


------------------
CARTESIAN GRADIENT
------------------

   1   C   :   -0.000082855   -0.000105146   -0.000094477
   2   C   :    0.000014457   -0.000002821    0.000024502
   3   C   :   -0.000157724   -0.000026679    0.000135211
   4   C   :   -0.000160933   -0.000059233   -0.000035405
   5   C   :   -0.000018449   -0.000017949   -0.000053038
   6   O   :    0.000036923    0.000293472   -0.000065956
   7   O   :    0.000099527    0.000106477   -0.000102522
   8   O   :    0.000031609   -0.000197502    0.000206057
   9   H   :    0.000045425    0.000026436    0.000002836
  10   H   :    0.000069481    0.000034315    0.000048725
  11   H   :    0.000019538    0.000024200   -0.000023682
  12   H   :   -0.000016581   -0.000003084   -0.000003829
  13   H   :    0.000013578    0.000001321   -0.000022621
  14   H   :    0.000017680    0.000034383   -0.000035032
  15   H   :    0.000042143   -0.000009648    0.000010949
  16   H   :    0.000020755    0.000060263    0.000040004
  17   H   :    0.000025424   -0.000158805   -0.000031721

Difference to translation invariance:
           :   -0.0000000000   -0.0000000000    0.0000000000

Difference to rotation invariance:
           :   -0.0000015176    0.0000004845    0.0000006306

Norm of the Cartesian gradient     ...    0.0006022050
RMS gradient                       ...    0.0000843256
MAX gradient                       ...    0.0002934722
------------------------------------------------------------------------------
                         ORCA GEOMETRY RELAXATION STEP
------------------------------------------------------------------------------

Reading the OPT-File                    .... done
Getting information on internals        .... done
Copying old internal coords+grads       .... done
Making the new internal coordinates     .... (2022 redundants) done
Validating the new internal coordinates .... (2022 redundants) done
Calculating the B-matrix                .... done
Calculating the G,G- and P matrices     .... done
Transforming gradient to internals      .... done
Projecting the internal gradient        .... done
Number of atoms                         ....  17
Number of internal coordinates          ....  78
Current Energy                          ....   -27.315271407 Eh
Current gradient norm                   ....     0.000602205 Eh/bohr
Maximum allowed component of the step   ....  0.300
Current trust radius                    ....  0.700
Updating the Hessian (BFGS)             .... done
Forming the augmented Hessian           .... done
Diagonalizing the augmented Hessian     .... done
Last element of RFO vector              ....  0.999888218
Lowest eigenvalues of augmented Hessian:
 -0.000002007  0.003252360  0.003786593  0.009243757  0.011325253
Length of the computed step             ....  0.014953279
The final length of the internal step   ....  0.014953279
Converting the step to Cartesian space:
 Initial RMS(Int)=    0.0016931254
Transforming coordinates:
 Iter   0:  RMS(Cart)=    0.0030954540 RMS(Int)=    0.0016933923
done
Storing new coordinates                 .... done
The predicted energy change is          ....    -0.000001004
Previously predicted energy change      ....    -0.000007404
Actually observed energy change         ....    -0.000005738
Ratio of predicted to observed change   ....     0.774953106
New trust radius                        ....     0.700000000

                                .--------------------.
          ----------------------|Geometry convergence|-------------------------
          Item                value                   Tolerance       Converged
          ---------------------------------------------------------------------
          Energy change      -0.0000057379            0.0000050000      NO
          RMS gradient        0.0000509934            0.0001000000      YES
          MAX gradient        0.0002293044            0.0003000000      YES
          RMS step            0.0016931254            0.0020000000      YES
          MAX step            0.0130149423            0.0040000000      NO
          -------------------------------------------------------------------------
          ........................................................
          Max(Bonds)      0.0003      Max(Angles)    0.07
          Max(Dihed)        0.75      Max(Improp)    0.00
          ---------------------------------------------------------------------

    ---------------------------------------------------------------------------
                         Redundant Internal Coordinates
                            (Angstroem and degrees)

        Definition                    Value    dE/dq     Step     New-Value
    ----------------------------------------------------------------------------
     1. B(C   2,C   1)                1.5222 -0.000004  0.0000    1.5222   
     2. B(C   3,C   0)                1.4245 -0.000023  0.0001    1.4246   
     3. B(C   4,C   3)                1.5140 -0.000009 -0.0002    1.5138   
     4. B(C   4,C   2)                1.5138 -0.000095  0.0002    1.5140   
     5. B(O   6,C   4)                1.3880 -0.000090  0.0000    1.3880   
     6. B(O   6,C   3)                1.4229  0.000054  0.0000    1.4229   
     7. B(O   7,C   4)                1.3812 -0.000152  0.0003    1.3815   
     8. B(O   7,O   5)                1.4235  0.000147 -0.0003    1.4232   
     9. B(H   8,C   0)                1.0704 -0.000040  0.0001    1.0704   
    10. B(H   9,C   0)                1.0713 -0.000018  0.0000    1.0713   
    11. B(H  10,C   1)                1.0874 -0.000014  0.0000    1.0874   
    12. B(H  11,C   1)                1.0867 -0.000014  0.0000    1.0867   
    13. B(H  12,C   1)                1.0875 -0.000004 -0.0000    1.0875   
    14. B(H  13,C   2)                1.0925  0.000015 -0.0000    1.0924   
    15. B(H  14,C   2)                1.0944  0.000002 -0.0000    1.0943   
    16. B(H  15,C   3)                1.0861 -0.000031  0.0000    1.0861   
    17. B(H  16,O   5)                0.9701 -0.000098  0.0001    0.9702   
    18. A(C   3,C   0,H   8)          119.66  0.000007    0.00    119.66   
    19. A(C   3,C   0,H   9)          120.45 -0.000082    0.01    120.46   
    20. A(H   8,C   0,H   9)          119.85  0.000076   -0.02    119.83   
    21. A(H  11,C   1,H  12)          108.10 -0.000005    0.01    108.11   
    22. A(C   2,C   1,H  12)          111.37  0.000004   -0.01    111.36   
    23. A(H  10,C   1,H  12)          108.78  0.000027   -0.01    108.77   
    24. A(H  10,C   1,H  11)          108.73 -0.000003    0.00    108.74   
    25. A(C   2,C   1,H  11)          109.59 -0.000019    0.01    109.60   
    26. A(C   2,C   1,H  10)          110.20 -0.000004   -0.01    110.19   
    27. A(C   1,C   2,H  14)          109.73 -0.000067    0.02    109.75   
    28. A(C   4,C   2,H  13)          107.73 -0.000021   -0.01    107.72   
    29. A(C   4,C   2,H  14)          106.29  0.000029   -0.00    106.29   
    30. A(C   1,C   2,H  13)          111.11 -0.000023    0.01    111.12   
    31. A(C   1,C   2,C   4)          114.12  0.000099   -0.03    114.09   
    32. A(H  13,C   2,H  14)          107.54 -0.000020    0.02    107.56   
    33. A(C   4,C   3,H  15)          113.98 -0.000017    0.03    114.01   
    34. A(C   0,C   3,H  15)          116.75  0.000011   -0.02    116.74   
    35. A(O   6,C   3,H  15)          113.54 -0.000036    0.02    113.57   
    36. A(C   4,C   3,O   6)           56.30 -0.000044    0.00     56.31   
    37. A(C   0,C   3,C   4)          122.62  0.000023   -0.00    122.62   
    38. A(C   0,C   3,O   6)          119.76  0.000034   -0.03    119.73   
    39. A(C   3,C   4,O   6)           58.53  0.000041    0.01     58.53   
    40. A(C   2,C   4,O   6)          119.46 -0.000027    0.01    119.47   
    41. A(C   2,C   4,C   3)          123.25  0.000002    0.00    123.25   
    42. A(O   6,C   4,O   7)          115.58 -0.000041    0.02    115.60   
    43. A(C   3,C   4,O   7)          113.80 -0.000037   -0.00    113.80   
    44. A(C   2,C   4,O   7)          114.77  0.000046   -0.02    114.75   
    45. A(O   7,O   5,H  16)          104.31 -0.000229    0.07    104.37   
    46. A(C   3,O   6,C   4)           65.17  0.000004   -0.01     65.16   
    47. A(C   4,O   7,O   5)          110.96  0.000077   -0.00    110.96   
    48. D(H  13,C   2,C   1,H  10)   -171.07 -0.000036    0.07   -171.00   
    49. D(H  13,C   2,C   1,H  11)     69.32 -0.000019    0.06     69.38   
    50. D(C   4,C   2,C   1,H  12)     71.79  0.000025    0.02     71.81   
    51. D(C   4,C   2,C   1,H  10)    -49.03 -0.000009    0.04    -48.99   
    52. D(C   4,C   2,C   1,H  11)   -168.64  0.000009    0.03   -168.61   
    53. D(H  13,C   2,C   1,H  12)    -50.26 -0.000002    0.05    -50.20   
    54. D(C   4,C   3,C   0,H   8)    137.50  0.000020    0.11    137.62   
    55. D(O   6,C   3,C   0,H   9)     26.88 -0.000054    0.21     27.09   
    56. D(O   6,C   3,C   0,H   8)   -155.62 -0.000012    0.10   -155.52   
    57. D(H  15,C   3,C   0,H   8)    -12.15 -0.000011    0.07    -12.08   
    58. D(C   4,C   3,C   0,H   9)    -39.99 -0.000022    0.22    -39.77   
    59. D(C   3,C   4,C   2,H  14)   -160.94 -0.000011   -0.02   -160.96   
    60. D(C   3,C   4,C   2,H  13)     84.03  0.000007   -0.03     83.99   
    61. D(O   6,C   4,C   2,C   1)     29.86  0.000024    0.00     29.86   
    62. D(C   3,C   4,C   2,C   1)    -39.85 -0.000015   -0.01    -39.87   
    63. D(O   6,C   4,C   3,H  15)   -103.23  0.000048   -0.01   -103.24   
    64. D(O   6,C   4,C   3,C   0)    106.36  0.000011   -0.04    106.32   
    65. D(C   2,C   4,C   3,H  15)      3.52  0.000034    0.00      3.52   
    66. D(C   2,C   4,C   3,O   6)    106.75 -0.000015    0.01    106.76   
    67. D(C   2,C   4,C   3,C   0)   -146.89 -0.000004   -0.02   -146.92   
    68. D(O   6,C   4,C   2,H  14)    -91.23  0.000027   -0.01    -91.23   
    69. D(O   7,C   4,C   3,C   0)     -0.10  0.000031   -0.07     -0.17   
    70. D(O   6,C   4,C   2,H  13)    153.74  0.000046   -0.02    153.72   
    71. D(C   3,O   6,C   4,O   7)    103.39 -0.000009   -0.01    103.38   
    72. D(C   3,O   6,C   4,C   2)   -113.11 -0.000028   -0.00   -113.11   
    73. D(C   4,O   6,C   3,H  15)    104.02 -0.000012    0.03    104.05   
    74. D(C   4,O   6,C   3,C   0)   -111.41  0.000003   -0.01   -111.43   
    75. D(C   4,O   7,O   5,H  16)    -88.68  0.000072   -0.75    -89.42   
    76. D(O   5,O   7,C   4,O   6)     79.69 -0.000007    0.07     79.76   
    77. D(O   5,O   7,C   4,C   3)    144.76  0.000017    0.09    144.85   
    78. D(O   5,O   7,C   4,C   2)    -65.53  0.000036    0.05    -65.48   
    ----------------------------------------------------------------------------

Geometry step timings:
Preparation and reading OPT file:      0.000 s ( 0.876 %)
Internal coordinates            :      0.000 s ( 1.233 %)
B/P matrices and projection     :      0.001 s (26.347 %)
Hessian update/contruction      :      0.001 s (16.321 %)
Making the step                 :      0.001 s (26.347 %)
Converting the step to Cartesian:      0.000 s ( 2.790 %)
Storing new data                :      0.000 s ( 1.330 %)
Checking convergence            :      0.000 s ( 1.979 %)
Final printing                  :      0.001 s (22.777 %)
Total time                      :      0.003 s

Time for energy+gradient        :      0.067 s
Time for complete geometry iter :      0.072 s

         *************************************************************
         *                GEOMETRY OPTIMIZATION CYCLE  18            *
         *************************************************************
---------------------------------
CARTESIAN COORDINATES (ANGSTROEM)
---------------------------------
  C    -2.353159   -1.054830    0.487708
  C     2.105560   -0.496956    0.098564
  C     1.108302    0.231841   -0.791099
  C    -0.949264   -0.817566    0.536378
  C    -0.287550    0.320230   -0.211472
  O    -0.768716    2.460894   -0.937222
  O    -0.453705    0.358294    1.166032
  O    -1.168713    1.095089   -0.940655
  H    -2.717994   -2.056454    0.390418
  H    -3.043335   -0.235635    0.505765
  H     2.054665   -0.110960    1.113915
  H     3.112082   -0.345995   -0.282197
  H     1.909226   -1.566349    0.120445
  H     1.031965   -0.246135   -1.770451
  H     1.439886    1.262298   -0.951520
  H    -0.311453   -1.685797    0.674454
  H    -1.204650    2.837549   -0.156593

----------------------------
CARTESIAN COORDINATES (A.U.)
----------------------------
  NO LB    ZA    FRAG    MASS        X           Y           Z
   0 C   6.0000    1    12.011   -4.446827   -1.993339    0.921634
   1 C   6.0000    1    12.011    3.978932   -0.939111    0.186258
   2 C   6.0000    1    12.011    2.094387    0.438116   -1.494960
   3 C   6.0000    1    12.011   -1.793850   -1.544975    1.013608
   4 C   6.0000    1    12.011   -0.543391    0.605147   -0.399624
   5 O   8.0000    1    15.999   -1.452664    4.650415   -1.771093
   6 O   8.0000    1    15.999   -0.857378    0.677078    2.203481
   7 O   8.0000    1    15.999   -2.208548    2.069418   -1.777579
   8 H   1.0000    1     1.008   -5.136264   -3.886135    0.737784
   9 H   1.0000    1     1.008   -5.751069   -0.445285    0.955757
  10 H   1.0000    1     1.008    3.882754   -0.209684    2.104993
  11 H   1.0000    1     1.008    5.880983   -0.653836   -0.533274
  12 H   1.0000    1     1.008    3.607914   -2.959970    0.227607
  13 H   1.0000    1     1.008    1.950130   -0.465127   -3.345668
  14 H   1.0000    1     1.008    2.720989    2.385398   -1.798112
  15 H   1.0000    1     1.008   -0.588562   -3.185695    1.274534
  16 H   1.0000    1     1.008   -2.276458    5.362191   -0.295918

      -----------------------------------------------------------      
     |                   =====================                   |     
     |                           x T B                           |     
     |                   =====================                   |     
     |                         S. Grimme                         |     
     |          Mulliken Center for Theoretical Chemistry        |     
     |                    University of Bonn                     |     
      -----------------------------------------------------------      

   * xtb version 6.7.1 (edcfbbe) compiled by 'albert@albert-system' on 2024-07-22

   xtb is free software: you can redistribute it and/or modify it under
   the terms of the GNU Lesser General Public License as published by
   the Free Software Foundation, either version 3 of the License, or
   (at your option) any later version.
   
   xtb is distributed in the hope that it will be useful,
   but WITHOUT ANY WARRANTY; without even the implied warranty of
   MERCHANTABILITY or FITNESS FOR A PARTICULAR PURPOSE.  See the
   GNU Lesser General Public License for more details.
   
   Cite this work as:
   * C. Bannwarth, E. Caldeweyher, S. Ehlert, A. Hansen, P. Pracht,
     J. Seibert, S. Spicher, S. Grimme, WIREs Comput. Mol. Sci., 2020, 11,
     e01493. DOI: 10.1002/wcms.1493
   
   for GFN2-xTB:
   * C. Bannwarth, S. Ehlert and S. Grimme., J. Chem. Theory Comput., 2019,
     15, 1652-1671. DOI: 10.1021/acs.jctc.8b01176
   for GFN1-xTB:
   * S. Grimme, C. Bannwarth, P. Shushkov, J. Chem. Theory Comput., 2017,
     13, 1989-2009. DOI: 10.1021/acs.jctc.7b00118
   for GFN0-xTB:
   * P. Pracht, E. Caldeweyher, S. Ehlert, S. Grimme, ChemRxiv, 2019, preprint.
     DOI: 10.26434/chemrxiv.8326202.v1
   for GFN-FF:
   * S. Spicher and S. Grimme, Angew. Chem. Int. Ed., 2020, 59, 15665-15673.
     DOI: 10.1002/anie.202004239
   
   for ALPB and GBSA implicit solvation:
   * S. Ehlert, M. Stahn, S. Spicher, S. Grimme, J. Chem. Theory Comput.,
     2021, 17, 4250-4261. DOI: 10.1021/acs.jctc.1c00471
   
   for ddCOSMO and CPCM-X implicit solvation:
   * M. Stahn, S. Ehlert, S. Grimme, J. Phys. Chem. A,
     2023, XX, XXXX-XXXX. DOI: 10.1021/acs.jpca.3c04382
   
   for DFT-D4:
   * E. Caldeweyher, C. Bannwarth and S. Grimme, J. Chem. Phys., 2017,
     147, 034112. DOI: 10.1063/1.4993215
   * E. Caldeweyher, S. Ehlert, A. Hansen, H. Neugebauer, S. Spicher,
     C. Bannwarth and S. Grimme, J. Chem. Phys., 2019, 150, 154122.
     DOI: 10.1063/1.5090222
   * E. Caldeweyher, J.-M. Mewes, S. Ehlert and S. Grimme, Phys. Chem. Chem. Phys.
     2020, 22, 8499-8512. DOI: 10.1039/D0CP00502A
   
   for sTDA-xTB:
   * S. Grimme and C. Bannwarth, J. Chem. Phys., 2016, 145, 054103.
     DOI: 10.1063/1.4959605
   
   in the mass-spec context:
   * V. Asgeirsson, C. Bauer and S. Grimme, Chem. Sci., 2017, 8, 4879.
     DOI: 10.1039/c7sc00601b
   * J. Koopman and S. Grimme, ACS Omega 2019, 4, 12, 15120-15133.
     DOI: 10.1021/acsomega.9b02011
   
   for metadynamics refer to:
   * S. Grimme, J. Chem. Theory Comput., 2019, 155, 2847-2862
     DOI: 10.1021/acs.jctc.9b00143
   
   for SPH calculations refer to:
   * S. Spicher and S. Grimme, J. Chem. Theory Comput., 2021, 17, 1701-1714
     DOI: 10.1021/acs.jctc.0c01306
   
   for ONIOM refer to:
   * C. Plett, A. Katbashev, S. Ehlert, S. Grimme, M. Bursch,
     Phys. Chem. Chem. Phys., 2023, 25, 17860-17868. DOI: 10.1039/D3CP02178E
   
   for DIPRO refer to:
   * J. Kohn, N. Gildemeister, S. Grimme, D. Fazzi, A. Hansen,
     J. Chem. Phys., 2023, just accepted.
   
   for PTB refer to:
   * S. Grimme, M. Mueller, A. Hansen, J. Chem. Phys., 2023, 158, 124111.
     DOI: 10.1063/5.0137838
   
   with help from (in alphabetical order)
   P. Atkinson, C. Bannwarth, F. Bohle, G. Brandenburg, E. Caldeweyher
   M. Checinski, S. Dohm, S. Ehlert, S. Ehrlich, I. Gerasimov, C. Hölzer
   A. Katbashev, J. Kohn, J. Koopman, C. Lavigne, S. Lehtola, F. März, M. Müller,
   F. Musil, H. Neugebauer, J. Pisarek, C. Plett, P. Pracht, F. Pultar,
   J. Seibert, P. Shushkov, S. Spicher, M. Stahn, M. Steiner, T. Strunk,
   J. Stückrath, T. Rose, and J. Unsleber
   
 * started run on 2026/02/18 at 13:00:39.305     
   ID    Z sym.   atoms
    1    6 C      1-5
    2    8 O      6-8
    3    1 H      9-17

           -------------------------------------------------
          |                Calculation Setup                |
           -------------------------------------------------

          program call               : /apps/eb/ORCA/6.1.1-gompi-2024a-avx2/bin/otool_xtb goat_XTB.xyz --grad -c 0 -u 1 -P 8 --namespace goat --input goat_XTB.input.tmp --acc 0.200000
          hostname                   : ra2-19
          calculation namespace      : goat
          coordinate file            : goat_XTB.xyz
          omp threads                :                     8


           -------------------------------------------------
          |                 G F N 2 - x T B                 |
           -------------------------------------------------

        Reference                      10.1021/acs.jctc.8b01176
      * Hamiltonian:
        H0-scaling (s, p, d)           1.850000    2.230000    2.230000
        zeta-weighting                 0.500000
      * Dispersion:
        s8                             2.700000
        a1                             0.520000
        a2                             5.000000
        s9                             5.000000
      * Repulsion:
        kExp                           1.500000    1.000000
        rExp                           1.000000
      * Coulomb:
        alpha                          2.000000
        third order                    shell-resolved
        anisotropic                    true
        a3                             3.000000
        a5                             4.000000
        cn-shift                       1.200000
        cn-exp                         4.000000
        max-rad                        5.000000

q/qsh data taken from xtbrestart
CAMM data taken from xtbrestart

          ...................................................
          :                      SETUP                      :
          :.................................................:
          :  # basis functions                  41          :
          :  # atomic orbitals                  41          :
          :  # shells                           25          :
          :  # electrons                        47          :
          :  max. iterations                   250          :
          :  Hamiltonian                  GFN2-xTB          :
          :  restarted?                       true          :
          :  GBSA solvation                  false          :
          :  PC potential                    false          :
          :  electronic temp.          300.0000000     K    :
          :  accuracy                    0.2000000          :
          :  -> integral cutoff          0.3198970E+02      :
          :  -> integral neglect         0.2000000E-08      :
          :  -> SCF convergence          0.2000000E-06 Eh   :
          :  -> wf. convergence          0.2000000E-04 e    :
          :  Broyden damping             0.4000000          :
          :  net charge                          0          :
          :  unpaired electrons                  1          :
          ...................................................

 iter      E             dE          RMSdq      gap      omega  full diag
   1    -27.5672326 -0.275672E+02  0.110E-02    4.44       0.0  T
   2    -27.5672326 -0.263194E-07  0.677E-03    4.44       3.6  T
   3    -27.5672326  0.742315E-08  0.116E-03    4.44      20.9  T
   4    -27.5672326 -0.186973E-07  0.353E-04    4.44      68.6  T
   5    -27.5672326 -0.200611E-09  0.158E-04    4.44     153.2  T
   6    -27.5672326 -0.493081E-10  0.466E-05    4.44     520.8  T

   *** convergence criteria satisfied after 6 iterations ***

         #    Occupation            Energy/Eh            Energy/eV
      -------------------------------------------------------------
         1        2.0000           -0.7448914             -20.2695
       ...           ...                  ...                  ...
        18        2.0000           -0.4771770             -12.9846
        19        2.0000           -0.4687732             -12.7560
        20        2.0000           -0.4659601             -12.6794
        21        2.0000           -0.4504802             -12.2582
        22        2.0000           -0.4450796             -12.1112
        23        2.0000           -0.4341975             -11.8151
        24        1.0000           -0.3335715              -9.0769 (HOMO)
        25                         -0.1703497              -4.6355 (LUMO)
        26                         -0.0680434              -1.8516
        27                          0.0421100               1.1459
        28                          0.0605524               1.6477
        29                          0.0856760               2.3314
       ...                                ...                  ...
        41                          0.3865398              10.5183
      -------------------------------------------------------------
                  HL-Gap            0.1632218 Eh            4.4415 eV
             Fermi-level           -0.3179226 Eh           -8.6511 eV

 SCC (total)                   0 d,  0 h,  0 min,  0.015 sec
 SCC setup                      ...        0 min,  0.000 sec (  1.854%)
 Dispersion                     ...        0 min,  0.000 sec (  1.601%)
 classical contributions        ...        0 min,  0.000 sec (  0.762%)
 integral evaluation            ...        0 min,  0.001 sec (  5.354%)
 iterations                     ...        0 min,  0.011 sec ( 71.686%)
 molecular gradient             ...        0 min,  0.002 sec ( 14.196%)
 printout                       ...        0 min,  0.001 sec (  4.328%)

         :::::::::::::::::::::::::::::::::::::::::::::::::::::
         ::                     SUMMARY                     ::
         :::::::::::::::::::::::::::::::::::::::::::::::::::::
         :: total energy             -27.315272503989 Eh    ::
         :: gradient norm              0.000229854986 Eh/a0 ::
         :: HOMO-LUMO gap              4.441492499424 eV    ::
         ::.................................................::
         :: SCC energy               -27.567195655278 Eh    ::
         :: -> isotropic ES            0.049838793877 Eh    ::
         :: -> anisotropic ES         -0.004408249957 Eh    ::
         :: -> anisotropic XC         -0.003709223369 Eh    ::
         :: -> dispersion             -0.010495737074 Eh    ::
         :: repulsion energy           0.251923151289 Eh    ::
         :: add. restraining           0.000000000000 Eh    ::
         :: total charge               0.000000000000 e     ::
         :::::::::::::::::::::::::::::::::::::::::::::::::::::


Property printout bound to 'properties.out'

           -------------------------------------------------
          | TOTAL ENERGY              -27.315272503989 Eh   |
          | GRADIENT NORM               0.000229854986 Eh/α |
          | HOMO-LUMO GAP               4.441492499424 eV   |
           -------------------------------------------------

------------------------------------------------------------------------
 * finished run on 2026/02/18 at 13:00:39.339     
------------------------------------------------------------------------
 total:
 * wall-time:     0 d,  0 h,  0 min,  0.033 sec
 *  cpu-time:     0 d,  0 h,  0 min,  0.182 sec
 * ratio c/w:     5.539 speedup
 SCF:
 * wall-time:     0 d,  0 h,  0 min,  0.016 sec
 *  cpu-time:     0 d,  0 h,  0 min,  0.092 sec
 * ratio c/w:     5.917 speedup


-------------------------   --------------------
FINAL SINGLE POINT ENERGY       -27.315272503990
-------------------------   --------------------


-------------
DIPOLE MOMENT
-------------
                                X             Y             Z
Total Dipole Moment    :      0.27600      -0.44700       0.19600
                        -----------------------------------------
Magnitude (a.u.)       :      0.56071
Magnitude (Debye)      :      1.42522


------------------
CARTESIAN GRADIENT
------------------

   1   C   :   -0.000071236   -0.000057591   -0.000011532
   2   C   :    0.000013372   -0.000021295    0.000024237
   3   C   :   -0.000038777    0.000011184    0.000031740
   4   C   :   -0.000065981   -0.000025870   -0.000074403
   5   C   :   -0.000003235   -0.000076916   -0.000023104
   6   O   :   -0.000006281    0.000013456   -0.000010286
   7   O   :    0.000053184    0.000095322    0.000010860
   8   O   :    0.000010792   -0.000019835    0.000053982
   9   H   :    0.000029410    0.000004101   -0.000001880
  10   H   :    0.000045993    0.000034005    0.000010531
  11   H   :    0.000005074    0.000019304   -0.000011368
  12   H   :   -0.000003371   -0.000000314   -0.000003397
  13   H   :   -0.000002617    0.000004151   -0.000014664
  14   H   :   -0.000003427    0.000021436   -0.000012152
  15   H   :    0.000029011   -0.000004203    0.000013760
  16   H   :    0.000009816    0.000014817    0.000021343
  17   H   :   -0.000001725   -0.000011752   -0.000003667

Difference to translation invariance:
           :   -0.0000000000    0.0000000000   -0.0000000000

Difference to rotation invariance:
           :    0.0000000904   -0.0000000135   -0.0000005776

Norm of the Cartesian gradient     ...    0.0002298550
RMS gradient                       ...    0.0000321861
MAX gradient                       ...    0.0000953219
------------------------------------------------------------------------------
                         ORCA GEOMETRY RELAXATION STEP
------------------------------------------------------------------------------

Reading the OPT-File                    .... done
Getting information on internals        .... done
Copying old internal coords+grads       .... done
Making the new internal coordinates     .... (2022 redundants) done
Validating the new internal coordinates .... (2022 redundants) done
Calculating the B-matrix                .... done
Calculating the G,G- and P matrices     .... done
Transforming gradient to internals      .... done
Projecting the internal gradient        .... done
Number of atoms                         ....  17
Number of internal coordinates          ....  78
Current Energy                          ....   -27.315272504 Eh
Current gradient norm                   ....     0.000229855 Eh/bohr
Maximum allowed component of the step   ....  0.300
Current trust radius                    ....  0.700
Updating the Hessian (BFGS)             .... done
Forming the augmented Hessian           .... done
Diagonalizing the augmented Hessian     .... done
Last element of RFO vector              ....  0.999983379
Lowest eigenvalues of augmented Hessian:
 -0.000000278  0.002996058  0.003884513  0.010529748  0.011177604
Length of the computed step             ....  0.005765698
The final length of the internal step   ....  0.005765698
Converting the step to Cartesian space:
 Initial RMS(Int)=    0.0006528367
Transforming coordinates:
 Iter   0:  RMS(Cart)=    0.0013177536 RMS(Int)=    0.0006528092
done
Storing new coordinates                 .... done
The predicted energy change is          ....    -0.000000139
Previously predicted energy change      ....    -0.000001004
Actually observed energy change         ....    -0.000001097
Ratio of predicted to observed change   ....     1.092737516
New trust radius                        ....     0.700000000

                                .--------------------.
          ----------------------|Geometry convergence|-------------------------
          Item                value                   Tolerance       Converged
          ---------------------------------------------------------------------
          Energy change      -0.0000010971            0.0000050000      YES
          RMS gradient        0.0000179654            0.0001000000      YES
          MAX gradient        0.0000598837            0.0003000000      YES
          RMS step            0.0006528367            0.0020000000      YES
          MAX step            0.0026428833            0.0040000000      YES
          -------------------------------------------------------------------------
          ........................................................
          Max(Bonds)      0.0002      Max(Angles)    0.01
          Max(Dihed)        0.15      Max(Improp)    0.00
          ---------------------------------------------------------------------

                    ***********************HURRAY********************
                    ***        THE OPTIMIZATION HAS CONVERGED     ***
                    *************************************************


    ---------------------------------------------------------------------------
                         Redundant Internal Coordinates

                          --- Optimized Parameters ---  
                            (Angstroem and degrees)

        Definition                    OldVal   dE/dq     Step     FinalVal
    ----------------------------------------------------------------------------
     1. B(C   2,C   1)                1.5222  0.000004 -0.0000    1.5222   
     2. B(C   3,C   0)                1.4246 -0.000001 -0.0000    1.4246   
     3. B(C   4,C   3)                1.5138 -0.000015  0.0001    1.5139   
     4. B(C   4,C   2)                1.5140 -0.000013  0.0000    1.5140   
     5. B(O   6,C   4)                1.3880 -0.000012  0.0000    1.3880   
     6. B(O   6,C   3)                1.4229  0.000054 -0.0002    1.4228   
     7. B(O   7,C   4)                1.3815 -0.000033  0.0000    1.3815   
     8. B(O   7,O   5)                1.4232 -0.000001  0.0001    1.4232   
     9. B(H   8,C   0)                1.0704 -0.000014  0.0000    1.0705   
    10. B(H   9,C   0)                1.0713 -0.000003  0.0000    1.0713   
    11. B(H  10,C   1)                1.0874 -0.000004  0.0000    1.0874   
    12. B(H  11,C   1)                1.0867 -0.000002  0.0000    1.0867   
    13. B(H  12,C   1)                1.0875 -0.000004  0.0000    1.0875   
    14. B(H  13,C   2)                1.0924  0.000002  0.0000    1.0924   
    15. B(H  14,C   2)                1.0943  0.000003 -0.0000    1.0943   
    16. B(H  15,C   3)                1.0861 -0.000003  0.0000    1.0862   
    17. B(H  16,O   5)                0.9702 -0.000007 -0.0000    0.9702   
    18. A(C   3,C   0,H   8)          119.66  0.000003   -0.00    119.66   
    19. A(C   3,C   0,H   9)          120.46 -0.000060    0.01    120.47   
    20. A(H   8,C   0,H   9)          119.83  0.000057   -0.01    119.82   
    21. A(H  11,C   1,H  12)          108.11  0.000004   -0.00    108.11   
    22. A(C   2,C   1,H  12)          111.36 -0.000011    0.00    111.37   
    23. A(H  10,C   1,H  12)          108.77  0.000022   -0.01    108.76   
    24. A(H  10,C   1,H  11)          108.74  0.000002    0.00    108.74   
    25. A(C   2,C   1,H  11)          109.60 -0.000004    0.00    109.60   
    26. A(C   2,C   1,H  10)          110.19 -0.000012    0.00    110.19   
    27. A(C   1,C   2,H  14)          109.76 -0.000030    0.01    109.76   
    28. A(C   4,C   2,H  13)          107.72 -0.000013    0.01    107.72   
    29. A(C   4,C   2,H  14)          106.29  0.000026   -0.00    106.29   
    30. A(C   1,C   2,H  13)          111.12  0.000003   -0.00    111.11   
    31. A(C   1,C   2,C   4)          114.09  0.000021   -0.00    114.09   
    32. A(H  13,C   2,H  14)          107.56 -0.000007   -0.00    107.56   
    33. A(C   4,C   3,H  15)          114.01 -0.000002   -0.01    114.00   
    34. A(C   0,C   3,H  15)          116.74  0.000007   -0.00    116.74   
    35. A(O   6,C   3,H  15)          113.57 -0.000013    0.01    113.58   
    36. A(C   4,C   3,O   6)           56.31 -0.000011    0.00     56.31   
    37. A(C   0,C   3,C   4)          122.62  0.000003   -0.00    122.62   
    38. A(C   0,C   3,O   6)          119.73  0.000006    0.00    119.73   
    39. A(C   3,C   4,O   6)           58.53  0.000028   -0.01     58.53   
    40. A(C   2,C   4,O   6)          119.47 -0.000015    0.00    119.47   
    41. A(C   2,C   4,C   3)          123.25  0.000003   -0.01    123.24   
    42. A(O   6,C   4,O   7)          115.60 -0.000022    0.01    115.61   
    43. A(C   3,C   4,O   7)          113.80 -0.000034    0.01    113.81   
    44. A(C   2,C   4,O   7)          114.75  0.000031   -0.00    114.75   
    45. A(O   7,O   5,H  16)          104.37 -0.000019   -0.01    104.37   
    46. A(C   3,O   6,C   4)           65.16 -0.000017    0.01     65.16   
    47. A(C   4,O   7,O   5)          110.96  0.000040   -0.01    110.95   
    48. D(H  13,C   2,C   1,H  10)   -171.00 -0.000011    0.01   -170.99   
    49. D(H  13,C   2,C   1,H  11)     69.38 -0.000003    0.01     69.39   
    50. D(C   4,C   2,C   1,H  12)     71.81  0.000002    0.01     71.81   
    51. D(C   4,C   2,C   1,H  10)    -48.99 -0.000010    0.02    -48.98   
    52. D(C   4,C   2,C   1,H  11)   -168.61 -0.000003    0.01   -168.60   
    53. D(H  13,C   2,C   1,H  12)    -50.20  0.000002    0.01    -50.20   
    54. D(C   4,C   3,C   0,H   8)    137.62  0.000006   -0.02    137.59   
    55. D(O   6,C   3,C   0,H   9)     27.09 -0.000011   -0.01     27.08   
    56. D(O   6,C   3,C   0,H   8)   -155.52 -0.000004   -0.02   -155.54   
    57. D(H  15,C   3,C   0,H   8)    -12.08 -0.000009    0.00    -12.08   
    58. D(C   4,C   3,C   0,H   9)    -39.77 -0.000001   -0.01    -39.78   
    59. D(C   3,C   4,C   2,H  14)   -160.96  0.000000   -0.11   -161.07   
    60. D(C   3,C   4,C   2,H  13)     83.99  0.000002   -0.11     83.88   
    61. D(O   6,C   4,C   2,C   1)     29.86  0.000022   -0.12     29.74   
    62. D(C   3,C   4,C   2,C   1)    -39.87 -0.000007   -0.11    -39.97   
    63. D(O   6,C   4,C   3,H  15)   -103.24  0.000018   -0.02   -103.26   
    64. D(O   6,C   4,C   3,C   0)    106.32  0.000001    0.00    106.32   
    65. D(C   2,C   4,C   3,H  15)      3.52  0.000012   -0.01      3.51   
    66. D(C   2,C   4,C   3,O   6)    106.76 -0.000006    0.01    106.77   
    67. D(C   2,C   4,C   3,C   0)   -146.92 -0.000005    0.01   -146.91   
    68. D(O   6,C   4,C   2,H  14)    -91.23  0.000029   -0.12    -91.35   
    69. D(O   7,C   4,C   3,C   0)     -0.17  0.000002    0.01     -0.16   
    70. D(O   6,C   4,C   2,H  13)    153.72  0.000031   -0.12    153.60   
    71. D(C   3,O   6,C   4,O   7)    103.38 -0.000021    0.01    103.38   
    72. D(C   3,O   6,C   4,C   2)   -113.11 -0.000020    0.02   -113.09   
    73. D(C   4,O   6,C   3,H  15)    104.05  0.000001   -0.02    104.03   
    74. D(C   4,O   6,C   3,C   0)   -111.43  0.000003    0.00   -111.43   
    75. D(C   4,O   7,O   5,H  16)    -89.42 -0.000001   -0.15    -89.57   
    76. D(O   5,O   7,C   4,O   6)     79.77 -0.000010    0.02     79.79   
    77. D(O   5,O   7,C   4,C   3)    144.85  0.000005    0.02    144.87   
    78. D(O   5,O   7,C   4,C   2)    -65.48  0.000004    0.01    -65.47   
    ----------------------------------------------------------------------------

Geometry step timings:
Preparation and reading OPT file:      0.000 s ( 1.375 %)
Internal coordinates            :      0.000 s ( 1.247 %)
B/P matrices and projection     :      0.001 s (26.215 %)
Hessian update/contruction      :      0.000 s (15.537 %)
Making the step                 :      0.001 s (26.535 %)
Converting the step to Cartesian:      0.000 s ( 2.621 %)
Storing new data                :      0.000 s ( 1.311 %)
Checking convergence            :      0.000 s ( 2.302 %)
Final printing                  :      0.001 s (22.794 %)
Total time                      :      0.003 s
                 *******************************************************
                 *** FINAL ENERGY EVALUATION AT THE STATIONARY POINT ***
                 ***               (AFTER   18 CYCLES)               ***
                 *******************************************************
---------------------------------
CARTESIAN COORDINATES (ANGSTROEM)
---------------------------------
  C    -2.353380   -1.054853    0.487586
  C     2.105757   -0.496287    0.098809
  C     1.108087    0.231247   -0.791410
  C    -0.949423   -0.817970    0.536102
  C    -0.287559    0.320068   -0.211345
  O    -0.767484    2.461291   -0.936098
  O    -0.453442    0.357258    1.166250
  O    -1.168495    1.095721   -0.939964
  H    -2.718476   -2.056326    0.389482
  H    -3.043554   -0.235670    0.506362
  H     2.054996   -0.109288    1.113789
  H     3.112155   -0.345479   -0.282354
  H     1.909752   -1.565720    0.122006
  H     1.031595   -0.247976   -1.770143
  H     1.439316    1.261597   -0.953230
  H    -0.311789   -1.686513    0.673166
  H    -1.204913    2.838419   -0.156539

----------------------------
CARTESIAN COORDINATES (A.U.)
----------------------------
  NO LB    ZA    FRAG    MASS        X           Y           Z
   0 C   6.0000    1    12.011   -4.447243   -1.993383    0.921405
   1 C   6.0000    1    12.011    3.979305   -0.937847    0.186722
   2 C   6.0000    1    12.011    2.093980    0.436993   -1.495548
   3 C   6.0000    1    12.011   -1.794149   -1.545740    1.013085
   4 C   6.0000    1    12.011   -0.543407    0.604841   -0.399385
   5 O   8.0000    1    15.999   -1.450334    4.651166   -1.768968
   6 O   8.0000    1    15.999   -0.856881    0.675121    2.203894
   7 O   8.0000    1    15.999   -2.208135    2.070612   -1.776274
   8 H   1.0000    1     1.008   -5.137176   -3.885892    0.736015
   9 H   1.0000    1     1.008   -5.751484   -0.445352    0.956885
  10 H   1.0000    1     1.008    3.883379   -0.206525    2.104756
  11 H   1.0000    1     1.008    5.881121   -0.652860   -0.533571
  12 H   1.0000    1     1.008    3.608909   -2.958782    0.230558
  13 H   1.0000    1     1.008    1.949432   -0.468607   -3.345085
  14 H   1.0000    1     1.008    2.719913    2.384073   -1.801343
  15 H   1.0000    1     1.008   -0.589196   -3.187048    1.272099
  16 H   1.0000    1     1.008   -2.276955    5.363835   -0.295816

      -----------------------------------------------------------      
     |                   =====================                   |     
     |                           x T B                           |     
     |                   =====================                   |     
     |                         S. Grimme                         |     
     |          Mulliken Center for Theoretical Chemistry        |     
     |                    University of Bonn                     |     
      -----------------------------------------------------------      

   * xtb version 6.7.1 (edcfbbe) compiled by 'albert@albert-system' on 2024-07-22

   xtb is free software: you can redistribute it and/or modify it under
   the terms of the GNU Lesser General Public License as published by
   the Free Software Foundation, either version 3 of the License, or
   (at your option) any later version.
   
   xtb is distributed in the hope that it will be useful,
   but WITHOUT ANY WARRANTY; without even the implied warranty of
   MERCHANTABILITY or FITNESS FOR A PARTICULAR PURPOSE.  See the
   GNU Lesser General Public License for more details.
   
   Cite this work as:
   * C. Bannwarth, E. Caldeweyher, S. Ehlert, A. Hansen, P. Pracht,
     J. Seibert, S. Spicher, S. Grimme, WIREs Comput. Mol. Sci., 2020, 11,
     e01493. DOI: 10.1002/wcms.1493
   
   for GFN2-xTB:
   * C. Bannwarth, S. Ehlert and S. Grimme., J. Chem. Theory Comput., 2019,
     15, 1652-1671. DOI: 10.1021/acs.jctc.8b01176
   for GFN1-xTB:
   * S. Grimme, C. Bannwarth, P. Shushkov, J. Chem. Theory Comput., 2017,
     13, 1989-2009. DOI: 10.1021/acs.jctc.7b00118
   for GFN0-xTB:
   * P. Pracht, E. Caldeweyher, S. Ehlert, S. Grimme, ChemRxiv, 2019, preprint.
     DOI: 10.26434/chemrxiv.8326202.v1
   for GFN-FF:
   * S. Spicher and S. Grimme, Angew. Chem. Int. Ed., 2020, 59, 15665-15673.
     DOI: 10.1002/anie.202004239
   
   for ALPB and GBSA implicit solvation:
   * S. Ehlert, M. Stahn, S. Spicher, S. Grimme, J. Chem. Theory Comput.,
     2021, 17, 4250-4261. DOI: 10.1021/acs.jctc.1c00471
   
   for ddCOSMO and CPCM-X implicit solvation:
   * M. Stahn, S. Ehlert, S. Grimme, J. Phys. Chem. A,
     2023, XX, XXXX-XXXX. DOI: 10.1021/acs.jpca.3c04382
   
   for DFT-D4:
   * E. Caldeweyher, C. Bannwarth and S. Grimme, J. Chem. Phys., 2017,
     147, 034112. DOI: 10.1063/1.4993215
   * E. Caldeweyher, S. Ehlert, A. Hansen, H. Neugebauer, S. Spicher,
     C. Bannwarth and S. Grimme, J. Chem. Phys., 2019, 150, 154122.
     DOI: 10.1063/1.5090222
   * E. Caldeweyher, J.-M. Mewes, S. Ehlert and S. Grimme, Phys. Chem. Chem. Phys.
     2020, 22, 8499-8512. DOI: 10.1039/D0CP00502A
   
   for sTDA-xTB:
   * S. Grimme and C. Bannwarth, J. Chem. Phys., 2016, 145, 054103.
     DOI: 10.1063/1.4959605
   
   in the mass-spec context:
   * V. Asgeirsson, C. Bauer and S. Grimme, Chem. Sci., 2017, 8, 4879.
     DOI: 10.1039/c7sc00601b
   * J. Koopman and S. Grimme, ACS Omega 2019, 4, 12, 15120-15133.
     DOI: 10.1021/acsomega.9b02011
   
   for metadynamics refer to:
   * S. Grimme, J. Chem. Theory Comput., 2019, 155, 2847-2862
     DOI: 10.1021/acs.jctc.9b00143
   
   for SPH calculations refer to:
   * S. Spicher and S. Grimme, J. Chem. Theory Comput., 2021, 17, 1701-1714
     DOI: 10.1021/acs.jctc.0c01306
   
   for ONIOM refer to:
   * C. Plett, A. Katbashev, S. Ehlert, S. Grimme, M. Bursch,
     Phys. Chem. Chem. Phys., 2023, 25, 17860-17868. DOI: 10.1039/D3CP02178E
   
   for DIPRO refer to:
   * J. Kohn, N. Gildemeister, S. Grimme, D. Fazzi, A. Hansen,
     J. Chem. Phys., 2023, just accepted.
   
   for PTB refer to:
   * S. Grimme, M. Mueller, A. Hansen, J. Chem. Phys., 2023, 158, 124111.
     DOI: 10.1063/5.0137838
   
   with help from (in alphabetical order)
   P. Atkinson, C. Bannwarth, F. Bohle, G. Brandenburg, E. Caldeweyher
   M. Checinski, S. Dohm, S. Ehlert, S. Ehrlich, I. Gerasimov, C. Hölzer
   A. Katbashev, J. Kohn, J. Koopman, C. Lavigne, S. Lehtola, F. März, M. Müller,
   F. Musil, H. Neugebauer, J. Pisarek, C. Plett, P. Pracht, F. Pultar,
   J. Seibert, P. Shushkov, S. Spicher, M. Stahn, M. Steiner, T. Strunk,
   J. Stückrath, T. Rose, and J. Unsleber
   
 * started run on 2026/02/18 at 13:00:39.365     
   ID    Z sym.   atoms
    1    6 C      1-5
    2    8 O      6-8
    3    1 H      9-17

           -------------------------------------------------
          |                Calculation Setup                |
           -------------------------------------------------

          program call               : /apps/eb/ORCA/6.1.1-gompi-2024a-avx2/bin/otool_xtb goat_XTB.xyz --grad -c 0 -u 1 -P 8 --namespace goat --input goat_XTB.input.tmp --acc 0.200000
          hostname                   : ra2-19
          calculation namespace      : goat
          coordinate file            : goat_XTB.xyz
          omp threads                :                     8


           -------------------------------------------------
          |                 G F N 2 - x T B                 |
           -------------------------------------------------

        Reference                      10.1021/acs.jctc.8b01176
      * Hamiltonian:
        H0-scaling (s, p, d)           1.850000    2.230000    2.230000
        zeta-weighting                 0.500000
      * Dispersion:
        s8                             2.700000
        a1                             0.520000
        a2                             5.000000
        s9                             5.000000
      * Repulsion:
        kExp                           1.500000    1.000000
        rExp                           1.000000
      * Coulomb:
        alpha                          2.000000
        third order                    shell-resolved
        anisotropic                    true
        a3                             3.000000
        a5                             4.000000
        cn-shift                       1.200000
        cn-exp                         4.000000
        max-rad                        5.000000

q/qsh data taken from xtbrestart
CAMM data taken from xtbrestart

          ...................................................
          :                      SETUP                      :
          :.................................................:
          :  # basis functions                  41          :
          :  # atomic orbitals                  41          :
          :  # shells                           25          :
          :  # electrons                        47          :
          :  max. iterations                   250          :
          :  Hamiltonian                  GFN2-xTB          :
          :  restarted?                       true          :
          :  GBSA solvation                  false          :
          :  PC potential                    false          :
          :  electronic temp.          300.0000000     K    :
          :  accuracy                    0.2000000          :
          :  -> integral cutoff          0.3198970E+02      :
          :  -> integral neglect         0.2000000E-08      :
          :  -> SCF convergence          0.2000000E-06 Eh   :
          :  -> wf. convergence          0.2000000E-04 e    :
          :  Broyden damping             0.4000000          :
          :  net charge                          0          :
          :  unpaired electrons                  1          :
          ...................................................

 iter      E             dE          RMSdq      gap      omega  full diag
   1    -27.5672278 -0.275672E+02  0.439E-03    4.44       0.0  T
   2    -27.5672278 -0.532786E-08  0.265E-03    4.44       9.2  T
   3    -27.5672278  0.240963E-09  0.426E-04    4.44      56.9  T
   4    -27.5672278 -0.170750E-08  0.141E-04    4.44     171.8  T
   5    -27.5672278 -0.611600E-10  0.748E-05    4.44     324.5  T

   *** convergence criteria satisfied after 5 iterations ***

         #    Occupation            Energy/Eh            Energy/eV
      -------------------------------------------------------------
         1        2.0000           -0.7448803             -20.2692
       ...           ...                  ...                  ...
        18        2.0000           -0.4771566             -12.9841
        19        2.0000           -0.4687296             -12.7548
        20        2.0000           -0.4659503             -12.6792
        21        2.0000           -0.4504750             -12.2580
        22        2.0000           -0.4450573             -12.1106
        23        2.0000           -0.4342003             -11.8152
        24        1.0000           -0.3335519              -9.0764 (HOMO)
        25                         -0.1703927              -4.6366 (LUMO)
        26                         -0.0680229              -1.8510
        27                          0.0421277               1.1464
        28                          0.0606538               1.6505
        29                          0.0856675               2.3311
       ...                                ...                  ...
        41                          0.3864886              10.5169
      -------------------------------------------------------------
                  HL-Gap            0.1631592 Eh            4.4398 eV
             Fermi-level           -0.3179242 Eh           -8.6512 eV

 SCC (total)                   0 d,  0 h,  0 min,  0.021 sec
 SCC setup                      ...        0 min,  0.000 sec (  1.187%)
 Dispersion                     ...        0 min,  0.000 sec (  1.821%)
 classical contributions        ...        0 min,  0.000 sec (  0.889%)
 integral evaluation            ...        0 min,  0.002 sec (  7.559%)
 iterations                     ...        0 min,  0.012 sec ( 56.487%)
 molecular gradient             ...        0 min,  0.006 sec ( 27.936%)
 printout                       ...        0 min,  0.001 sec (  3.993%)

         :::::::::::::::::::::::::::::::::::::::::::::::::::::
         ::                     SUMMARY                     ::
         :::::::::::::::::::::::::::::::::::::::::::::::::::::
         :: total energy             -27.315272721329 Eh    ::
         :: gradient norm              0.000147948812 Eh/a0 ::
         :: HOMO-LUMO gap              4.439787638150 eV    ::
         ::.................................................::
         :: SCC energy               -27.567190816764 Eh    ::
         :: -> isotropic ES            0.049832881088 Eh    ::
         :: -> anisotropic ES         -0.004410067753 Eh    ::
         :: -> anisotropic XC         -0.003708550308 Eh    ::
         :: -> dispersion             -0.010495606980 Eh    ::
         :: repulsion energy           0.251918095435 Eh    ::
         :: add. restraining           0.000000000000 Eh    ::
         :: total charge               0.000000000000 e     ::
         :::::::::::::::::::::::::::::::::::::::::::::::::::::


Property printout bound to 'properties.out'

           -------------------------------------------------
          | TOTAL ENERGY              -27.315272721329 Eh   |
          | GRADIENT NORM               0.000147948812 Eh/α |
          | HOMO-LUMO GAP               4.439787638150 eV   |
           -------------------------------------------------

------------------------------------------------------------------------
 * finished run on 2026/02/18 at 13:00:39.422     
------------------------------------------------------------------------
 total:
 * wall-time:     0 d,  0 h,  0 min,  0.056 sec
 *  cpu-time:     0 d,  0 h,  0 min,  0.216 sec
 * ratio c/w:     3.845 speedup
 SCF:
 * wall-time:     0 d,  0 h,  0 min,  0.021 sec
 *  cpu-time:     0 d,  0 h,  0 min,  0.083 sec
 * ratio c/w:     3.962 speedup


-------------------------   --------------------
FINAL SINGLE POINT ENERGY       -27.315272721330
-------------------------   --------------------


-------------
DIPOLE MOMENT
-------------
                                X             Y             Z
Total Dipole Moment    :      0.27400      -0.44600       0.19400
                        -----------------------------------------
Magnitude (a.u.)       :      0.55824
Magnitude (Debye)      :      1.41892

                                *** OPTIMIZATION RUN DONE ***

		     ------------------------------
			                   _   
			                  | |  
			  __ _  ___   __ _| |_ 
			 / _` |/ _ \ / _` | __|
			| (_| | (_) | (_| | |_ 
			 \__, |\___/ \__,_|\__|
			 __/ |                
			|___/                 

		      A Global Optimizer Algorithm
		     ------------------------------

Global parameters
-----------------
  GOAT version                               ... default
  Minimum global steps                       ... 3
  Number of base workers                     ... 4
  Split workers by                           ... 2
  Final number of workers                    ... 8
  Number of available CPUs                   ... 8
  Parameter list (worker : temperature)      ...  0 : 2903.97,  1 : 1451.98, 
                                                  2 :  725.99,  3 :  363.00, 
                                                  4 : 2903.97,  5 : 1451.98, 
                                                  6 :  725.99,  7 :  363.00 
  GradComp (mean : sigma)                    ... 1.00 : 0.50
  Number of fragments                        ... 1
  Number of atoms                            ... 17
  Flexibility parameter                      ... 0.81
  Optimizations per global step              ... 224
  Optimizations per worker                   ... 28

Filtering criteria
------------------
  RMSD                                       ... 0.125 Angs (atom. pos.)
  EnDiff                                     ... 0.100 kcal/mol
  RotConst                                   ... 1.00-2.50 %
  Maximum Conf. Energy                       ... 6.000 kcal/mol

Thermodynamics
--------------
  Ensemble temperature                       ... 298.15 K
  Degeneracy of conformers                   ... 1
  *No rotamers will be included in Gconf

------------------------------------------------------------------------------
   Iter  MinTemp     MaxEn       GradComp    NOpt   NProcs    Output
------------------------------------------------------------------------------
List of participating nodes    ...  goat.goat.0.hostnames

   4     2903.97     51.00    1.00 : 0.50      28        1    goat.goat.0.4.out
   6      725.99     51.00    1.00 : 0.50      28        1    goat.goat.0.6.out
   7      363.00     51.00    1.00 : 0.50      28        1    goat.goat.0.7.out
   3      363.00     51.00    1.00 : 0.50      28        1    goat.goat.0.3.out
   5     1451.98     51.00    1.00 : 0.50      28        1    goat.goat.0.5.out
   1     1451.98     51.00    1.00 : 0.50      28        1    goat.goat.0.1.out
   0     2903.97     51.00    1.00 : 0.50      28        1    goat.goat.0.0.out
   2      725.99     51.00    1.00 : 0.50      28        1    goat.goat.0.2.out

			     GOAT Global Iter 1
		Iter    Min En       Sconf       Gconf   
		        Hartree      cal/(molK)  kcal/mol
		=========================================

		   1    -27.316833   3.525       -0.649

List of participating nodes    ...  goat.goat.1.hostnames

   4     2903.97     51.00    1.00 : 0.50      28        1    goat.goat.1.4.out
   6      725.99     51.00    1.00 : 0.50      28        1    goat.goat.1.6.out
   2      725.99     51.00    1.00 : 0.50      28        1    goat.goat.1.2.out
   0     2903.97     51.00    1.00 : 0.50      28        1    goat.goat.1.0.out
   7      363.00     51.00    1.00 : 0.50      28        1    goat.goat.1.7.out
   5     1451.98     51.00    1.00 : 0.50      28        1    goat.goat.1.5.out
   3      363.00     51.00    1.00 : 0.50      28        1    goat.goat.1.3.out
   1     1451.98     51.00    1.00 : 0.50      28        1    goat.goat.1.1.out

			     GOAT Global Iter 2
		Iter    Min En       Sconf       Gconf   
		        Hartree      cal/(molK)  kcal/mol
		=========================================

		   1    -27.316833   3.525       -0.649
		   2    -27.316833   3.563       -0.651

List of participating nodes    ...  goat.goat.2.hostnames

   1     1451.98     51.00    1.00 : 0.50      28        1    goat.goat.2.1.out
   3      363.00     51.00    1.00 : 0.50      28        1    goat.goat.2.3.out
   2      725.99     51.00    1.00 : 0.50      28        1    goat.goat.2.2.out
   7      363.00     51.00    1.00 : 0.50      28        1    goat.goat.2.7.out
   4     2903.97     51.00    1.00 : 0.50      28        1    goat.goat.2.4.out
   6      725.99     51.00    1.00 : 0.50      28        1    goat.goat.2.6.out
   0     2903.97     51.00    1.00 : 0.50      28        1    goat.goat.2.0.out
   5     1451.98     51.00    1.00 : 0.50      28        1    goat.goat.2.5.out

			     GOAT Global Iter 3
		Iter    Min En       Sconf       Gconf   
		        Hartree      cal/(molK)  kcal/mol
		=========================================

		   1    -27.316833   3.525       -0.649
		   2    -27.316833   3.563       -0.651
		   3    -27.316833   3.563       -0.651

		Global minimum found!
		Writing structure to goat.globalminimum.xyz

		# Final ensemble info #
		Conformer     Energy     Degen.   % total   % cumul.  
		              (kcal/mol)
		------------------------------------------------------
		        0     0.000	     1      33.31      33.31
		        1     0.103	     1      27.98      61.29
		        2     0.463	     1      15.25      76.54
		        3     0.979	     1       6.38      82.92
		        4     1.259	     1       3.98      86.90
		        5     1.278	     1       3.85      90.76
		        6     1.456	     1       2.85      93.61
		        7     1.480	     1       2.74      96.35
		        8     1.623	     1       2.15      98.50
		        9     2.025	     1       1.09      99.59
		       10     2.611	     1       0.41     100.00

		Conformers below 3 kcal/mol: 11
		Lowest energy conformer    : -27.316833 Eh
		Sconf at 298.15 K          :  3.56 cal/(molK)
		Gconf at 298.15 K          : -0.65 kcal/mol

		Writing final ensemble to goat.finalensemble.xyz

--------------------------------
SUGGESTED CITATIONS FOR THIS RUN
--------------------------------

Below you find a list of papers that are relevant to this ORCA run
We neither can nor want to force you to cite these papers, but we appreciate if you do
You receive ORCA, which is the product of decades of hard work by many enthusiastic individuals, for free
The only thing we kindly ask in return is that you cite our papers,
We deeply appreciate it, if you show your appreciation for ORCA by not just citing the generic ORCA reference.

Please note that relegating all ORCA citations to the supporting information does *not* help us.
SI sections are not indexed - citations you put there will not count into any citation statistics
But we need these citations in order to attract the funding resources that allow us to do what we are doing

Therefore, if you are a happy ORCA user, please consider citing a few of the papers listed below in the main body of your paper

In addition to the list printed below, the program has created the file goat.bibtex that contains the list in bibtex format
You can import this file easily into all common literature databanks and citation aid programs

It goes without saying that in many instances, there are alternative algorithms to achieve similar
results as the ones you have gotten from ORCA. It is, of course, also the case that in some instances
ORCA just re-implements algorithms worked out by others. We are fully aware of that and we are also
fully appreciative of our colleagues work. Hence this citation list should not be read as indicating
that the listed papers, which are focused on our own work, are the only ones worth citing. It simply
meant to make it easier for users to cite ORCA specific papers. It is not a substitute for doing your
own literature research and citing the relevant literature in a scientifically appropriate manner.

List of essential papers. We consider these as the minimum necessary citations

  1. Bannwarth, C.; Ehlert, S.; Grimme, S.
     GFN2-xTB—An Accurate and Broadly Parametrized Self-Consistent Tight-Binding Quantum Chemical Method with Multipole Electrostatics and Density-Dependent Dispersion Contributions
     J. Chem. Theory Comput. 2019 15(3), 1652-1671
     doi.org/10.1021/acs.jctc.8b01176
  2. Neese, F.
     Software update: the ORCA program system, version 6.0
     WIRES Comput. Molec. Sci. 2025 15(1), e70019
     doi.org/10.1002/wcms.70019
  3. de Souza, B.
     GOAT: A Global Optimization Algorithm for Molecules and Atomic Clusters
     Angewandte Chemie 2025 64(18), e202500393
     doi.org/10.1002/anie.202500393

List of papers to cite with high priority. The work reported in these papers was absolutely
necessary for this run to complete.
Our perspective: the developers of density functionals and basis sets usually get cited in chemistry papers
Good! But without the algorithms to do something with them, the functionals or basis sets would not do anything.
Hence, in our opinion, the algorithm design and method developments papers are equally worthy of getting cited

  1. Bannwarth, C.; Caldeweyher, E.; Ehlert, S.; Hansen, A.; Pracht, P.; Seibert, J.; Spicher, S.; Grimme, S.
     Extended tight-binding quantum chemistry methods
     WIRES Comput. Molec. Sci. 2020 11(2), e1493
     doi.org/10.1002/wcms.1493

List of suggested additional citations. These are papers that are important in the 'surrounding' of 
of this run, or papers that preceded the highly important papers. If you like your results we are grateful for a citation.

  1. Neese, F.
     The ORCA program system
     WIRES Comput. Molec. Sci. 2012 2(1), 73-78
     doi.org/10.1002/wcms.81
  2. Neese, F.
     Software update: the ORCA program system, version 4.0
     WIRES Comput. Molec. Sci. 2018 8(1), 1-6
     doi.org/10.1002/wcms.1327
  3. Neese, F.; Wennmohs, F.; Becker, U.; Riplinger, C.
     The ORCA quantum chemistry program package
     J. Chem. Phys. 2020 152(22), 224108
     doi.org/10.1063/5.0004608
  4. Neese, F.
     Software update: The ORCA program system—Version 5.0
     WIRES Comput. Molec. Sci. 2022 12(1), e1606
     doi.org/10.1002/wcms.1606

List of optional additional citations

  1. Neese, F.
     Approximate second-order SCF convergence for spin unrestricted wavefunctions
     Chem. Phys. Lett. 2000 325(1-3), 93-98
     doi.org/10.1016/s0009-2614(00)00662-x

Timings for individual modules:

Sum of individual times          ...      261.629 sec (=   4.360 min)
Geometry relaxation              ...        0.079 sec (=   0.001 min)   0.0 %
GOAT                             ...      260.359 sec (=   4.339 min)  99.5 %
XTB module                       ...        1.190 sec (=   0.020 min)   0.5 %
                             ****ORCA TERMINATED NORMALLY****
TOTAL RUN TIME: 0 days 0 hours 4 minutes 23 seconds 979 msec
