15
Coordinates from ORCA-job freq E -271.037967241799
  C          -2.05384698514927      1.08638437343741      0.46744235585743
  C           2.88967641674851      0.35313255878408      0.29420181285544
  C           1.45712766858598      0.15540475239965      0.31561453309208
  C          -0.76963781675504      1.15871502009546     -0.35051082546251
  C           0.49314815720236      1.28586301672970      0.52416769670677
  O           2.25634662695938      0.21230559142924     -0.89844815965154
  H          -2.17497157905836      1.98156266698703      1.07926615532298
  H          -2.03786244532048      0.22685411327974      1.13984505856273
  H          -2.93141944526305      0.99545810747811     -0.17205968909799
  H           3.73247383640549     -0.26729043172514      0.57386806111257
  H           1.06170031092320     -0.84222519854117      0.49399110083710
  H          -0.82291008333984      2.00119747027871     -1.03979029301547
  H          -0.68649397846622      0.26780952164237     -0.97699587625559
  H           0.21626816876715      1.29492447420813      1.58211126591844
  H           1.02023014776016      2.21966696351666      0.32884480321753
