17
Coordinates from ORCA-job freq E -421.406051901485
  C           2.31877291643065      0.04135213887003     -0.35407021545898
  C          -2.12816725542075      1.23104604639451      0.38511074832996
  C           1.15140608289102     -0.85599131022109     -0.05190327705771
  C           0.04792638778228     -0.23806476675631      0.71399256793317
  C          -1.20781913025982      0.11277719644019      0.01061184703108
  O          -0.59078804324116     -1.22228783158791     -1.75522962697901
  O          -1.15751323378169     -1.00520830926150      0.82725549654751
  O          -1.24619711935171     -0.07447585448071     -1.36802772904802
  H           0.44201558207225     -1.13714360121638     -1.15086996944947
  H           3.03660391094768     -0.45048491258669     -1.00722217450494
  H           2.84410425670086      0.32212148706789      0.56454201619116
  H           1.98823099018227      0.96114489682040     -0.83791971341195
  H          -1.90783925141863      2.11690410416614     -0.20663850556193
  H          -3.15750994232231      0.92842745938937      0.19845005401508
  H          -2.01003395223158      1.45897595681607      1.44144408002454
  H           1.38990178739949     -1.87122606064495      0.26170898212921
  H           0.30165801362116      0.34914236079094      1.59562341927026
