17
* (null), Energy   -1000.0000000
C     2.683950    0.302898   -0.120001    0.009573    0.007817    0.014129
C    -1.762990    1.492592    0.619180   -0.003005   -0.000721   -0.002011
C     1.516583   -0.594445    0.182166   -0.060999   -0.034823   -0.107827
C     0.413103    0.023481    0.948062    0.006991    0.002342    0.012574
C    -0.842642    0.374323    0.244681   -0.007068   -0.003498    0.015358
O    -0.225611   -0.960742   -1.521161   -0.093794    0.034008   -0.019162
O    -0.792336   -0.743662    1.061325    0.000040    0.002789   -0.002384
O    -0.881020    0.187070   -1.133959    0.034214   -0.037719   -0.018211
H     0.807193   -0.875597   -0.916801    1.539008    0.249577    1.208627
H     3.401781   -0.188939   -0.773153   -0.011018    0.002166   -0.004032
H     3.209281    0.583668    0.798611    0.005874    0.003618   -0.007380
H     2.353408    1.222691   -0.603851    0.004404   -0.008237   -0.010227
H    -1.542662    2.378450    0.027431    0.000901    0.001114    0.001496
H    -2.792333    1.189974    0.432519   -0.008188    0.009067    0.007593
H    -1.644857    1.720522    1.675513    0.003280   -0.002562   -0.002918
H     1.755079   -1.609680    0.495778    0.093134    0.097091    0.240332
H     0.666835    0.610689    1.829692   -0.032890    0.006955    0.005140
17
* Frequency(6) -1833.6322
C     2.685038    0.303787   -0.118396    0.009573    0.007817    0.014129
C    -1.763332    1.492510    0.618951   -0.003005   -0.000721   -0.002011
C     1.509651   -0.598403    0.169912   -0.060999   -0.034823   -0.107827
C     0.413898    0.023748    0.949491    0.006991    0.002342    0.012574
C    -0.843445    0.373926    0.246426   -0.007068   -0.003498    0.015358
O    -0.236270   -0.956877   -1.523338   -0.093794    0.034008   -0.019162
O    -0.792332   -0.743345    1.061054    0.000040    0.002789   -0.002384
O    -0.877132    0.182784   -1.136028    0.034214   -0.037719   -0.018211
H     0.982093   -0.847234   -0.779447    1.539008    0.249577    1.208627
H     3.400529   -0.188693   -0.773611   -0.011018    0.002166   -0.004032
H     3.209949    0.584079    0.797772    0.005874    0.003618   -0.007380
H     2.353909    1.221755   -0.605013    0.004404   -0.008237   -0.010227
H    -1.542560    2.378577    0.027601    0.000901    0.001114    0.001496
H    -2.793263    1.191004    0.433382   -0.008188    0.009067    0.007593
H    -1.644484    1.720231    1.675181    0.003280   -0.002562   -0.002918
H     1.765663   -1.598646    0.523090    0.093134    0.097091    0.240332
H     0.663097    0.611479    1.830277   -0.032890    0.006955    0.005140
17
* Frequency(6) -1833.6322
C     2.686008    0.304579   -0.116964    0.009573    0.007817    0.014129
C    -1.763636    1.492437    0.618748   -0.003005   -0.000721   -0.002011
C     1.503470   -0.601931    0.158986   -0.060999   -0.034823   -0.107827
C     0.414606    0.023985    0.950765    0.006991    0.002342    0.012574
C    -0.844161    0.373571    0.247983   -0.007068   -0.003498    0.015358
O    -0.245774   -0.953431   -1.525280   -0.093794    0.034008   -0.019162
O    -0.792327   -0.743063    1.060812    0.000040    0.002789   -0.002384
O    -0.873665    0.178962   -1.137874    0.034214   -0.037719   -0.018211
H     1.138040   -0.821945   -0.656977    1.539008    0.249577    1.208627
H     3.399413   -0.188473   -0.774020   -0.011018    0.002166   -0.004032
H     3.210544    0.584445    0.797025    0.005874    0.003618   -0.007380
H     2.354355    1.220920   -0.606049    0.004404   -0.008237   -0.010227
H    -1.542468    2.378690    0.027752    0.000901    0.001114    0.001496
H    -2.794093    1.191923    0.434151   -0.008188    0.009067    0.007593
H    -1.644152    1.719971    1.674886    0.003280   -0.002562   -0.002918
H     1.775100   -1.588808    0.547443    0.093134    0.097091    0.240332
H     0.659765    0.612184    1.830797   -0.032890    0.006955    0.005140
17
* Frequency(6) -1833.6322
C     2.686755    0.305189   -0.115861    0.009573    0.007817    0.014129
C    -1.763871    1.492381    0.618591   -0.003005   -0.000721   -0.002011
C     1.498710   -0.604649    0.150571   -0.060999   -0.034823   -0.107827
C     0.415152    0.024168    0.951746    0.006991    0.002342    0.012574
C    -0.844713    0.373298    0.249181   -0.007068   -0.003498    0.015358
O    -0.253093   -0.950777   -1.526775   -0.093794    0.034008   -0.019162
O    -0.792324   -0.742845    1.060626    0.000040    0.002789   -0.002384
O    -0.870995    0.176018   -1.139295    0.034214   -0.037719   -0.018211
H     1.258135   -0.802469   -0.562663    1.539008    0.249577    1.208627
H     3.398553   -0.188304   -0.774335   -0.011018    0.002166   -0.004032
H     3.211003    0.584728    0.796449    0.005874    0.003618   -0.007380
H     2.354699    1.220277   -0.606847    0.004404   -0.008237   -0.010227
H    -1.542398    2.378777    0.027869    0.000901    0.001114    0.001496
H    -2.794732    1.192630    0.434744   -0.008188    0.009067    0.007593
H    -1.643896    1.719771    1.674658    0.003280   -0.002562   -0.002918
H     1.782368   -1.581232    0.566197    0.093134    0.097091    0.240332
H     0.657198    0.612726    1.831199   -0.032890    0.006955    0.005140
17
* Frequency(6) -1833.6322
C     2.687198    0.305550   -0.115208    0.009573    0.007817    0.014129
C    -1.764010    1.492348    0.618498   -0.003005   -0.000721   -0.002011
C     1.495887   -0.606260    0.145581   -0.060999   -0.034823   -0.107827
C     0.415475    0.024276    0.952328    0.006991    0.002342    0.012574
C    -0.845040    0.373136    0.249892   -0.007068   -0.003498    0.015358
O    -0.257434   -0.949203   -1.527662   -0.093794    0.034008   -0.019162
O    -0.792322   -0.742716    1.060516    0.000040    0.002789   -0.002384
O    -0.869412    0.174273   -1.140137    0.034214   -0.037719   -0.018211
H     1.329363   -0.790919   -0.506726    1.539008    0.249577    1.208627
H     3.398043   -0.188204   -0.774521   -0.011018    0.002166   -0.004032
H     3.211274    0.584895    0.796107    0.005874    0.003618   -0.007380
H     2.354902    1.219896   -0.607320    0.004404   -0.008237   -0.010227
H    -1.542356    2.378828    0.027938    0.000901    0.001114    0.001496
H    -2.795111    1.193050    0.435095   -0.008188    0.009067    0.007593
H    -1.643744    1.719653    1.674523    0.003280   -0.002562   -0.002918
H     1.786678   -1.576738    0.577320    0.093134    0.097091    0.240332
H     0.655676    0.613048    1.831436   -0.032890    0.006955    0.005140
17
* Frequency(6) -1833.6322
C     2.687289    0.305625   -0.115073    0.009573    0.007817    0.014129
C    -1.764038    1.492341    0.618478   -0.003005   -0.000721   -0.002011
C     1.495306   -0.606591    0.144555   -0.060999   -0.034823   -0.107827
C     0.415542    0.024298    0.952447    0.006991    0.002342    0.012574
C    -0.845107    0.373103    0.250038   -0.007068   -0.003498    0.015358
O    -0.258327   -0.948879   -1.527844   -0.093794    0.034008   -0.019162
O    -0.792322   -0.742689    1.060493    0.000040    0.002789   -0.002384
O    -0.869086    0.173914   -1.140311    0.034214   -0.037719   -0.018211
H     1.344006   -0.788544   -0.495226    1.539008    0.249577    1.208627
H     3.397938   -0.188183   -0.774560   -0.011018    0.002166   -0.004032
H     3.211330    0.584930    0.796037    0.005874    0.003618   -0.007380
H     2.354944    1.219818   -0.607418    0.004404   -0.008237   -0.010227
H    -1.542348    2.378839    0.027952    0.000901    0.001114    0.001496
H    -2.795189    1.193136    0.435167   -0.008188    0.009067    0.007593
H    -1.643713    1.719628    1.674495    0.003280   -0.002562   -0.002918
H     1.787564   -1.575814    0.579607    0.093134    0.097091    0.240332
H     0.655363    0.613114    1.831485   -0.032890    0.006955    0.005140
17
* Frequency(6) -1833.6322
C     2.687018    0.305404   -0.115473    0.009573    0.007817    0.014129
C    -1.763953    1.492361    0.618535   -0.003005   -0.000721   -0.002011
C     1.497032   -0.605607    0.147605   -0.060999   -0.034823   -0.107827
C     0.415344    0.024232    0.952092    0.006991    0.002342    0.012574
C    -0.844907    0.373202    0.249604   -0.007068   -0.003498    0.015358
O    -0.255674   -0.949841   -1.527303   -0.093794    0.034008   -0.019162
O    -0.792323   -0.742768    1.060561    0.000040    0.002789   -0.002384
O    -0.870054    0.174981   -1.139796    0.034214   -0.037719   -0.018211
H     1.300477   -0.795603   -0.529411    1.539008    0.249577    1.208627
H     3.398250   -0.188245   -0.774446   -0.011018    0.002166   -0.004032
H     3.211164    0.584827    0.796246    0.005874    0.003618   -0.007380
H     2.354820    1.220051   -0.607128    0.004404   -0.008237   -0.010227
H    -1.542373    2.378807    0.027910    0.000901    0.001114    0.001496
H    -2.794957    1.192880    0.434953   -0.008188    0.009067    0.007593
H    -1.643806    1.719701    1.674578    0.003280   -0.002562   -0.002918
H     1.784930   -1.578560    0.572809    0.093134    0.097091    0.240332
H     0.656293    0.612918    1.831340   -0.032890    0.006955    0.005140
17
* Frequency(6) -1833.6322
C     2.686415    0.304911   -0.116363    0.009573    0.007817    0.014129
C    -1.763764    1.492407    0.618662   -0.003005   -0.000721   -0.002011
C     1.500876   -0.603412    0.154400   -0.060999   -0.034823   -0.107827
C     0.414904    0.024084    0.951299    0.006991    0.002342    0.012574
C    -0.844462    0.373423    0.248636   -0.007068   -0.003498    0.015358
O    -0.249763   -0.951984   -1.526095   -0.093794    0.034008   -0.019162
O    -0.792326   -0.742944    1.060711    0.000040    0.002789   -0.002384
O    -0.872210    0.177358   -1.138648    0.034214   -0.037719   -0.018211
H     1.203492   -0.811331   -0.605575    1.539008    0.249577    1.208627
H     3.398944   -0.188381   -0.774191   -0.011018    0.002166   -0.004032
H     3.210794    0.584599    0.796711    0.005874    0.003618   -0.007380
H     2.354542    1.220570   -0.606484    0.004404   -0.008237   -0.010227
H    -1.542430    2.378737    0.027816    0.000901    0.001114    0.001496
H    -2.794441    1.192308    0.434474   -0.008188    0.009067    0.007593
H    -1.644012    1.719862    1.674762    0.003280   -0.002562   -0.002918
H     1.779061   -1.584679    0.557664    0.093134    0.097091    0.240332
H     0.658366    0.612479    1.831016   -0.032890    0.006955    0.005140
17
* Frequency(6) -1833.6322
C     2.685545    0.304200   -0.117648    0.009573    0.007817    0.014129
C    -1.763491    1.492472    0.618845   -0.003005   -0.000721   -0.002011
C     1.506422   -0.600246    0.164204   -0.060999   -0.034823   -0.107827
C     0.414268    0.023871    0.950156    0.006991    0.002342    0.012574
C    -0.843819    0.373741    0.247239   -0.007068   -0.003498    0.015358
O    -0.241235   -0.955076   -1.524353   -0.093794    0.034008   -0.019162
O    -0.792329   -0.743198    1.060927    0.000040    0.002789   -0.002384
O    -0.875321    0.180787   -1.136992    0.034214   -0.037719   -0.018211
H     1.063563   -0.834023   -0.715466    1.539008    0.249577    1.208627
H     3.399946   -0.188578   -0.773825   -0.011018    0.002166   -0.004032
H     3.210260    0.584270    0.797382    0.005874    0.003618   -0.007380
H     2.354142    1.221319   -0.605554    0.004404   -0.008237   -0.010227
H    -1.542512    2.378636    0.027680    0.000901    0.001114    0.001496
H    -2.793697    1.191484    0.433784   -0.008188    0.009067    0.007593
H    -1.644310    1.720095    1.675027    0.003280   -0.002562   -0.002918
H     1.770593   -1.593506    0.535813    0.093134    0.097091    0.240332
H     0.661356    0.611847    1.830549   -0.032890    0.006955    0.005140
17
* Frequency(6) -1833.6322
C     2.684502    0.303349   -0.119187    0.009573    0.007817    0.014129
C    -1.763163    1.492551    0.619064   -0.003005   -0.000721   -0.002011
C     1.513069   -0.596451    0.175954   -0.060999   -0.034823   -0.107827
C     0.413506    0.023616    0.948786    0.006991    0.002342    0.012574
C    -0.843049    0.374122    0.245566   -0.007068   -0.003498    0.015358
O    -0.231014   -0.958783   -1.522264   -0.093794    0.034008   -0.019162
O    -0.792334   -0.743501    1.061187    0.000040    0.002789   -0.002384
O    -0.879049    0.184897   -1.135008    0.034214   -0.037719   -0.018211
H     0.895852   -0.861220   -0.847174    1.539008    0.249577    1.208627
H     3.401146   -0.188814   -0.773385   -0.011018    0.002166   -0.004032
H     3.209620    0.583876    0.798186    0.005874    0.003618   -0.007380
H     2.353662    1.222217   -0.604440    0.004404   -0.008237   -0.010227
H    -1.542610    2.378514    0.027517    0.000901    0.001114    0.001496
H    -2.792805    1.190496    0.432956   -0.008188    0.009067    0.007593
H    -1.644668    1.720375    1.675345    0.003280   -0.002562   -0.002918
H     1.760444   -1.604087    0.509623    0.093134    0.097091    0.240332
H     0.664940    0.611089    1.829989   -0.032890    0.006955    0.005140
17
* Frequency(6) -1833.6322
C     2.683398    0.302448   -0.120815    0.009573    0.007817    0.014129
C    -1.762817    1.492634    0.619296   -0.003005   -0.000721   -0.002011
C     1.520097   -0.592439    0.188377   -0.060999   -0.034823   -0.107827
C     0.412701    0.023346    0.947337    0.006991    0.002342    0.012574
C    -0.842235    0.374525    0.243796   -0.007068   -0.003498    0.015358
O    -0.220208   -0.962701   -1.520057   -0.093794    0.034008   -0.019162
O    -0.792338   -0.743823    1.061462    0.000040    0.002789   -0.002384
O    -0.882991    0.189243   -1.132910    0.034214   -0.037719   -0.018211
H     0.718533   -0.889975   -0.986428    1.539008    0.249577    1.208627
H     3.402416   -0.189064   -0.772921   -0.011018    0.002166   -0.004032
H     3.208943    0.583459    0.799036    0.005874    0.003618   -0.007380
H     2.353154    1.223166   -0.603262    0.004404   -0.008237   -0.010227
H    -1.542714    2.378386    0.027344    0.000901    0.001114    0.001496
H    -2.791861    1.189451    0.432082   -0.008188    0.009067    0.007593
H    -1.645046    1.720670    1.675681    0.003280   -0.002562   -0.002918
H     1.749714   -1.615273    0.481933    0.093134    0.097091    0.240332
H     0.668730    0.610288    1.829396   -0.032890    0.006955    0.005140
17
* Frequency(6) -1833.6322
C     2.682355    0.301596   -0.122355    0.009573    0.007817    0.014129
C    -1.762490    1.492712    0.619515   -0.003005   -0.000721   -0.002011
C     1.526745   -0.588644    0.200128   -0.060999   -0.034823   -0.107827
C     0.411939    0.023091    0.945967    0.006991    0.002342    0.012574
C    -0.841465    0.374906    0.242122   -0.007068   -0.003498    0.015358
O    -0.209987   -0.966407   -1.517969   -0.093794    0.034008   -0.019162
O    -0.792343   -0.744127    1.061722    0.000040    0.002789   -0.002384
O    -0.886719    0.193354   -1.130925    0.034214   -0.037719   -0.018211
H     0.550822   -0.917172   -1.118136    1.539008    0.249577    1.208627
H     3.403616   -0.189300   -0.772481   -0.011018    0.002166   -0.004032
H     3.208303    0.583065    0.799840    0.005874    0.003618   -0.007380
H     2.352674    1.224063   -0.602147    0.004404   -0.008237   -0.010227
H    -1.542812    2.378265    0.027181    0.000901    0.001114    0.001496
H    -2.790969    1.188463    0.431254   -0.008188    0.009067    0.007593
H    -1.645403    1.720949    1.675999    0.003280   -0.002562   -0.002918
H     1.739565   -1.625853    0.455743    0.093134    0.097091    0.240332
H     0.672314    0.609530    1.828836   -0.032890    0.006955    0.005140
17
* Frequency(6) -1833.6322
C     2.681485    0.300885   -0.123639    0.009573    0.007817    0.014129
C    -1.762216    1.492778    0.619698   -0.003005   -0.000721   -0.002011
C     1.532291   -0.585478    0.209932   -0.060999   -0.034823   -0.107827
C     0.411303    0.022878    0.944824    0.006991    0.002342    0.012574
C    -0.840822    0.375224    0.240726   -0.007068   -0.003498    0.015358
O    -0.201459   -0.969499   -1.516226   -0.093794    0.034008   -0.019162
O    -0.792347   -0.744380    1.061938    0.000040    0.002789   -0.002384
O    -0.889830    0.196783   -1.129269    0.034214   -0.037719   -0.018211
H     0.410893   -0.939864   -1.228026    1.539008    0.249577    1.208627
H     3.404618   -0.189496   -0.772115   -0.011018    0.002166   -0.004032
H     3.207769    0.582736    0.800511    0.005874    0.003618   -0.007380
H     2.352274    1.224812   -0.601217    0.004404   -0.008237   -0.010227
H    -1.542894    2.378163    0.027045    0.000901    0.001114    0.001496
H    -2.790225    1.187639    0.430564   -0.008188    0.009067    0.007593
H    -1.645702    1.721182    1.676265    0.003280   -0.002562   -0.002918
H     1.731097   -1.634681    0.433892    0.093134    0.097091    0.240332
H     0.675304    0.608898    1.828369   -0.032890    0.006955    0.005140
17
* Frequency(6) -1833.6322
C     2.680881    0.300393   -0.124530    0.009573    0.007817    0.014129
C    -1.762027    1.492823    0.619824   -0.003005   -0.000721   -0.002011
C     1.536135   -0.583284    0.216727   -0.060999   -0.034823   -0.107827
C     0.410863    0.022731    0.944031    0.006991    0.002342    0.012574
C    -0.840377    0.375445    0.239758   -0.007068   -0.003498    0.015358
O    -0.195548   -0.971642   -1.515019   -0.093794    0.034008   -0.019162
O    -0.792349   -0.744556    1.062089    0.000040    0.002789   -0.002384
O    -0.891986    0.199160   -1.128122    0.034214   -0.037719   -0.018211
H     0.313909   -0.955592   -1.304191    1.539008    0.249577    1.208627
H     3.405312   -0.189633   -0.771861   -0.011018    0.002166   -0.004032
H     3.207399    0.582508    0.800977    0.005874    0.003618   -0.007380
H     2.351996    1.225331   -0.600573    0.004404   -0.008237   -0.010227
H    -1.542951    2.378093    0.026951    0.000901    0.001114    0.001496
H    -2.789709    1.187068    0.430086   -0.008188    0.009067    0.007593
H    -1.645908    1.721343    1.676449    0.003280   -0.002562   -0.002918
H     1.725228   -1.640799    0.418747    0.093134    0.097091    0.240332
H     0.677377    0.608459    1.828045   -0.032890    0.006955    0.005140
17
* Frequency(6) -1833.6322
C     2.680611    0.300172   -0.124929    0.009573    0.007817    0.014129
C    -1.761942    1.492844    0.619881   -0.003005   -0.000721   -0.002011
C     1.537860   -0.582299    0.219776   -0.060999   -0.034823   -0.107827
C     0.410665    0.022665    0.943676    0.006991    0.002342    0.012574
C    -0.840177    0.375544    0.239324   -0.007068   -0.003498    0.015358
O    -0.192895   -0.972604   -1.514477   -0.093794    0.034008   -0.019162
O    -0.792350   -0.744635    1.062156    0.000040    0.002789   -0.002384
O    -0.892954    0.200227   -1.127607    0.034214   -0.037719   -0.018211
H     0.270380   -0.962651   -1.338376    1.539008    0.249577    1.208627
H     3.405624   -0.189694   -0.771747   -0.011018    0.002166   -0.004032
H     3.207232    0.582406    0.801185    0.005874    0.003618   -0.007380
H     2.351872    1.225564   -0.600284    0.004404   -0.008237   -0.010227
H    -1.542976    2.378062    0.026909    0.000901    0.001114    0.001496
H    -2.789477    1.186811    0.429871   -0.008188    0.009067    0.007593
H    -1.646001    1.721416    1.676531    0.003280   -0.002562   -0.002918
H     1.722593   -1.643546    0.411949    0.093134    0.097091    0.240332
H     0.678307    0.608263    1.827900   -0.032890    0.006955    0.005140
17
* Frequency(6) -1833.6322
C     2.680702    0.300246   -0.124795    0.009573    0.007817    0.014129
C    -1.761971    1.492837    0.619862   -0.003005   -0.000721   -0.002011
C     1.537280   -0.582630    0.218751   -0.060999   -0.034823   -0.107827
C     0.410731    0.022687    0.943795    0.006991    0.002342    0.012574
C    -0.840244    0.375510    0.239470   -0.007068   -0.003498    0.015358
O    -0.193788   -0.972280   -1.514659   -0.093794    0.034008   -0.019162
O    -0.792350   -0.744608    1.062133    0.000040    0.002789   -0.002384
O    -0.892629    0.199868   -1.127780    0.034214   -0.037719   -0.018211
H     0.285022   -0.960276   -1.326876    1.539008    0.249577    1.208627
H     3.405519   -0.189674   -0.771785   -0.011018    0.002166   -0.004032
H     3.207288    0.582440    0.801115    0.005874    0.003618   -0.007380
H     2.351914    1.225486   -0.600381    0.004404   -0.008237   -0.010227
H    -1.542968    2.378072    0.026923    0.000901    0.001114    0.001496
H    -2.789555    1.186897    0.429943   -0.008188    0.009067    0.007593
H    -1.645970    1.721391    1.676503    0.003280   -0.002562   -0.002918
H     1.723480   -1.642622    0.414236    0.093134    0.097091    0.240332
H     0.677994    0.608329    1.827948   -0.032890    0.006955    0.005140
17
* Frequency(6) -1833.6322
C     2.681145    0.300608   -0.124141    0.009573    0.007817    0.014129
C    -1.762110    1.492803    0.619769   -0.003005   -0.000721   -0.002011
C     1.534456   -0.584242    0.213760   -0.060999   -0.034823   -0.107827
C     0.411055    0.022795    0.944377    0.006991    0.002342    0.012574
C    -0.840571    0.375348    0.240181   -0.007068   -0.003498    0.015358
O    -0.198129   -0.970706   -1.515546   -0.093794    0.034008   -0.019162
O    -0.792348   -0.744479    1.062023    0.000040    0.002789   -0.002384
O    -0.891045    0.198122   -1.128623    0.034214   -0.037719   -0.018211
H     0.356251   -0.948726   -1.270939    1.539008    0.249577    1.208627
H     3.405009   -0.189573   -0.771972   -0.011018    0.002166   -0.004032
H     3.207560    0.582608    0.800773    0.005874    0.003618   -0.007380
H     2.352118    1.225105   -0.600854    0.004404   -0.008237   -0.010227
H    -1.542926    2.378124    0.026992    0.000901    0.001114    0.001496
H    -2.789934    1.187317    0.430294   -0.008188    0.009067    0.007593
H    -1.645818    1.721273    1.676368    0.003280   -0.002562   -0.002918
H     1.727790   -1.638128    0.425359    0.093134    0.097091    0.240332
H     0.676472    0.608651    1.828186   -0.032890    0.006955    0.005140
17
* Frequency(6) -1833.6322
C     2.681892    0.301218   -0.123038    0.009573    0.007817    0.014129
C    -1.762344    1.492747    0.619612   -0.003005   -0.000721   -0.002011
C     1.529696   -0.586959    0.205346   -0.060999   -0.034823   -0.107827
C     0.411601    0.022978    0.945359    0.006991    0.002342    0.012574
C    -0.841123    0.375075    0.241379   -0.007068   -0.003498    0.015358
O    -0.205448   -0.968053   -1.517041   -0.093794    0.034008   -0.019162
O    -0.792345   -0.744262    1.061837    0.000040    0.002789   -0.002384
O    -0.888375    0.195179   -1.130044    0.034214   -0.037719   -0.018211
H     0.476345   -0.929250   -1.176625    1.539008    0.249577    1.208627
H     3.404149   -0.189404   -0.772286   -0.011018    0.002166   -0.004032
H     3.208019    0.582890    0.800198    0.005874    0.003618   -0.007380
H     2.352461    1.224462   -0.601652    0.004404   -0.008237   -0.010227
H    -1.542856    2.378211    0.027109    0.000901    0.001114    0.001496
H    -2.790573    1.188025    0.430887   -0.008188    0.009067    0.007593
H    -1.645562    1.721073    1.676141    0.003280   -0.002562   -0.002918
H     1.735058   -1.630552    0.444113    0.093134    0.097091    0.240332
H     0.673906    0.609193    1.828587   -0.032890    0.006955    0.005140
17
* Frequency(6) -1833.6322
C     2.682862    0.302010   -0.121607    0.009573    0.007817    0.014129
C    -1.762649    1.492674    0.619408   -0.003005   -0.000721   -0.002011
C     1.523515   -0.590488    0.194420   -0.060999   -0.034823   -0.107827
C     0.412309    0.023215    0.946633    0.006991    0.002342    0.012574
C    -0.841839    0.374721    0.242935   -0.007068   -0.003498    0.015358
O    -0.214952   -0.964607   -1.518983   -0.093794    0.034008   -0.019162
O    -0.792341   -0.743979    1.061595    0.000040    0.002789   -0.002384
O    -0.884908    0.191357   -1.131889    0.034214   -0.037719   -0.018211
H     0.632292   -0.903961   -1.054155    1.539008    0.249577    1.208627
H     3.403033   -0.189185   -0.772695   -0.011018    0.002166   -0.004032
H     3.208614    0.583256    0.799450    0.005874    0.003618   -0.007380
H     2.352908    1.223627   -0.602688    0.004404   -0.008237   -0.010227
H    -1.542765    2.378324    0.027260    0.000901    0.001114    0.001496
H    -2.791402    1.188943    0.431656   -0.008188    0.009067    0.007593
H    -1.645230    1.720813    1.675845    0.003280   -0.002562   -0.002918
H     1.744495   -1.620714    0.468466    0.093134    0.097091    0.240332
H     0.670573    0.609898    1.829108   -0.032890    0.006955    0.005140
17
* Frequency(6) -1833.6322
C     2.683950    0.302898   -0.120001    0.009573    0.007817    0.014129
C    -1.762990    1.492592    0.619180   -0.003005   -0.000721   -0.002011
C     1.516583   -0.594445    0.182166   -0.060999   -0.034823   -0.107827
C     0.413103    0.023481    0.948062    0.006991    0.002342    0.012574
C    -0.842642    0.374323    0.244681   -0.007068   -0.003498    0.015358
O    -0.225611   -0.960742   -1.521161   -0.093794    0.034008   -0.019162
O    -0.792336   -0.743662    1.061325    0.000040    0.002789   -0.002384
O    -0.881020    0.187070   -1.133959    0.034214   -0.037719   -0.018211
H     0.807193   -0.875597   -0.916801    1.539008    0.249577    1.208627
H     3.401781   -0.188939   -0.773153   -0.011018    0.002166   -0.004032
H     3.209281    0.583668    0.798611    0.005874    0.003618   -0.007380
H     2.353408    1.222691   -0.603851    0.004404   -0.008237   -0.010227
H    -1.542662    2.378450    0.027431    0.000901    0.001114    0.001496
H    -2.792333    1.189974    0.432519   -0.008188    0.009067    0.007593
H    -1.644857    1.720522    1.675513    0.003280   -0.002562   -0.002918
H     1.755079   -1.609680    0.495778    0.093134    0.097091    0.240332
H     0.666835    0.610689    1.829692   -0.032890    0.006955    0.005140
