17
Coordinates from ORCA-job freq E -421.372558610223
  C      -0.844127      1.918760     -0.000647
  C      -1.512329      0.637374      0.428220
  C      -0.383357     -0.372278      0.675794
  O      -0.684944     -1.712925      0.686364
  O      -0.717120     -2.201851     -0.665300
  O       0.572215      0.007490      1.618460
  C       0.928197      0.169307      0.280141
  C       2.104961     -0.526037     -0.313928
  H      -0.774265      2.689168      0.751612
  H      -1.093735      2.283864     -0.984259
  H      -2.100386      0.751286      1.340496
  H      -2.147502      0.225672     -0.357066
  H      -0.999902     -3.116710     -0.532018
  H       0.461360      1.347913     -0.071315
  H       2.005137     -0.546763     -1.396550
  H       3.022117     -0.005041     -0.045610
  H       2.163679     -1.549227      0.059541
17
Coordinates from ORCA-job freq E -421.374376859178
  C      -0.849347      1.905263      0.001794
  C      -1.511082      0.609003      0.416518
  C      -0.368909     -0.369470      0.653957
  O      -0.624035     -1.723806      0.704724
  O      -0.808049     -2.148011     -0.653227
  O       0.576066      0.035038      1.601536
  C       0.928853      0.169027      0.251051
  C       2.121936     -0.524459     -0.304513
  H      -0.750285      2.658703      0.772261
  H      -1.122469      2.303917     -0.965982
  H      -2.102047      0.705439      1.328511
  H      -2.144768      0.201501     -0.370959
  H      -1.038483     -3.074539     -0.515193
  H       0.437715      1.362145     -0.116146
  H       2.057358     -0.553793     -1.390125
  H       3.036319     -0.008684     -0.015465
  H       2.161226     -1.547273      0.075194
17
Coordinates from ORCA-job freq E -421.374942569651
  C      -0.854573      1.898574      0.006491
  C      -1.509582      0.588929      0.396056
  C      -0.359138     -0.369649      0.638695
  O      -0.600640     -1.726787      0.729288
  O      -0.770483     -2.167990     -0.625314
  O       0.579858      0.061966      1.584014
  C       0.930383      0.168043      0.226555
  C       2.138257     -0.516240     -0.304202
  H      -0.717295      2.618527      0.804837
  H      -1.160248      2.342692     -0.932746
  H      -2.117225      0.665934      1.299033
  H      -2.126700      0.184796     -0.405567
  H      -1.171777     -3.030642     -0.471654
  H       0.422821      1.361954     -0.155935
  H       2.107685     -0.527898     -1.392031
  H       3.044930     -0.006218      0.018357
  H       2.163726     -1.545990      0.058058
17
Coordinates from ORCA-job freq E -421.375374913613
  C      -0.869203      1.877271     -0.002099
  C      -1.502231      0.556740      0.390978
  C      -0.333292     -0.374351      0.637798
  O      -0.522885     -1.742640      0.742769
  O      -0.771226     -2.181445     -0.597881
  O       0.602083      0.071233      1.578900
  C       0.947921      0.179385      0.217900
  C       2.162128     -0.499659     -0.304720
  H      -0.745003      2.603249      0.794568
  H      -1.177692      2.312062     -0.945326
  H      -2.125501      0.622975      1.283923
  H      -2.099219      0.142061     -0.420333
  H      -1.376003     -2.912466     -0.429064
  H       0.418112      1.374783     -0.160684
  H       2.181286     -0.443158     -1.391691
  H       3.065690     -0.035174      0.087450
  H       2.145032     -1.550864     -0.008554
17
Coordinates from ORCA-job freq E -421.375570563095
  C      -0.873324      1.871426     -0.000497
  C      -1.504005      0.546926      0.383181
  C      -0.333806     -0.381865      0.637400
  O      -0.542082     -1.743785      0.777467
  O      -0.660556     -2.266494     -0.546449
  O       0.602126      0.099655      1.564266
  C       0.940213      0.168851      0.199256
  C       2.167571     -0.499163     -0.307582
  H      -0.711339      2.572725      0.810748
  H      -1.214535      2.336092     -0.917954
  H      -2.127333      0.610669      1.276867
  H      -2.100574      0.135248     -0.429649
  H      -1.468754     -2.785045     -0.466553
  H       0.402337      1.347801     -0.205612
  H       2.205909     -0.441569     -1.393627
  H       3.056374     -0.021385      0.102468
  H       2.161777     -1.550085     -0.009794
17
Coordinates from ORCA-job freq E -421.375857916417
  C      -0.885853      1.833179     -0.014335
  C      -1.487563      0.496240      0.371237
  C      -0.296174     -0.402413      0.632501
  O      -0.462396     -1.774345      0.766373
  O      -0.770115     -2.258620     -0.537188
  O       0.620715      0.080881      1.571236
  C       0.968638      0.177704      0.208013
  C       2.205984     -0.471878     -0.298794
  H      -0.759143      2.546175      0.793256
  H      -1.220793      2.278802     -0.943332
  H      -2.121885      0.544882      1.257725
  H      -2.066886      0.069582     -0.447341
  H      -1.680744     -2.551763     -0.420996
  H       0.409048      1.352966     -0.187247
  H       2.242839     -0.411318     -1.384967
  H       3.090764      0.013426      0.110412
  H       2.213564     -1.523498     -0.002616
17
Coordinates from ORCA-job freq E -421.375963928902
  C      -0.877751      1.836495     -0.012399
  C      -1.484923      0.501848      0.374100
  C      -0.298205     -0.408689      0.623296
  O      -0.484719     -1.777709      0.744848
  O      -0.809266     -2.253416     -0.558557
  O       0.617603      0.062926      1.570607
  C       0.970104      0.173112      0.210402
  C       2.214397     -0.461915     -0.294965
  H      -0.764871      2.558722      0.788578
  H      -1.199471      2.272059     -0.950909
  H      -2.105324      0.553406      1.270214
  H      -2.079385      0.083220     -0.437132
  H      -1.692017     -2.612261     -0.413035
  H       0.415313      1.351595     -0.177043
  H       2.239837     -0.422417     -1.382278
  H       3.092851      0.049745      0.096090
  H       2.245825     -1.506717      0.022118
17
Coordinates from ORCA-job freq E -421.375965713341
  C      -0.877336      1.836379     -0.012655
  C      -1.484770      0.502167      0.375020
  C      -0.298281     -0.409125      0.623226
  O      -0.485416     -1.778267      0.742940
  O      -0.811231     -2.251699     -0.561133
  O       0.617353      0.061071      1.571412
  C       0.970310      0.172866      0.211444
  C       2.214673     -0.461472     -0.294619
  H      -0.766985      2.560584      0.786874
  H      -1.197154      2.269622     -0.952917
  H      -2.103673      0.554551      1.272112
  H      -2.080787      0.083597     -0.435091
  H      -1.692124     -2.614421     -0.413956
  H       0.416040      1.351829     -0.174944
  H       2.238352     -0.423876     -1.382054
  H       3.093181      0.051880      0.094107
  H       2.247846     -1.505685      0.024168
17
Coordinates from ORCA-job freq E -421.375967374645
  C      -0.877328      1.836428     -0.012731
  C      -1.484793      0.502309      0.375216
  C      -0.298337     -0.409072      0.623297
  O      -0.485503     -1.778211      0.742866
  O      -0.811087     -2.251468     -0.561338
  O       0.617339      0.060990      1.571498
  C       0.970283      0.172872      0.211536
  C       2.214580     -0.461534     -0.294634
  H      -0.767213      2.560942      0.786551
  H      -1.196968      2.269320     -0.953219
  H      -2.103496      0.554874      1.272435
  H      -2.081033      0.083699     -0.434707
  H      -1.691590     -2.615120     -0.414137
  H       0.416083      1.351874     -0.174780
  H       2.238390     -0.423530     -1.382050
  H       3.093138      0.051508      0.094384
  H       2.247533     -1.505879      0.023748
