17
Coordinates from ORCA-job freq E -421.417207015438
  C           2.67989492608793      0.48462073477093     -0.29498519390129
  C           1.42635010421060     -0.31194310323224     -0.29147484933094
  C           0.19866711202082      0.54206322953328     -0.59434674807611
  C          -1.30191894324140     -1.62573808797559     -0.40151922198117
  C          -1.10867547155732     -0.17813698317949     -0.40654988327941
  O          -2.34669985256286      1.68535756589333     -0.03236640634945
  O          -1.30399805388717     -0.86196073819843      0.80455145069350
  O          -2.23419544509024      0.51602246032262     -0.83266259466418
  H           3.63800325427012      0.00488327399183     -0.42245708949699
  H           2.66846293847490      1.52064634302073      0.01124605731631
  H           1.50817679288511     -1.12645021732885     -1.01641602879834
  H           1.28065462671352     -0.79306136391928      0.68650067622378
  H           0.23389300121648      0.91270935691790     -1.61977632005981
  H           0.18521607702259      1.41549371517501      0.06005684467233
  H          -2.26780252888502     -2.01552403558260     -0.69669851263920
  H          -0.45085740653307     -2.28308517038424     -0.52763189513612
  H          -2.81571613114501      1.34428202017507      0.74058271480710
