17
Coordinates from ORCA-job freq E -421.421479930025
  C          -2.08720899895887      0.67956523660727     -0.60450984151380
  C          -1.56641404984045     -0.09538493583789      0.55126736961704
  C          -0.84888353701534     -1.38512042221349      0.35040279602358
  C           0.62394849313385     -1.25529346721311      0.01112428376205
  C           1.42260596881024     -0.08585223245801      0.35413677907427
  O           3.44621375800468      0.87456281121305      0.17819487368657
  O           0.99211175782747     -0.28193407736002     -0.96809465624310
  O           2.76109790892266     -0.30398433306814      0.58279945825046
  H          -2.66664424893156      0.03749304275268     -1.27510255625391
  H          -2.72405482264697      1.50278721703778     -0.28603642918945
  H          -1.27175537524654      1.09298953219208     -1.20899921319401
  H          -1.61206558021625      0.32438215133587      1.54604347403316
  H          -1.31363464995902     -1.94619084179192     -0.46751489924511
  H          -0.91545772712341     -2.01116041638171      1.24351052429023
  H           1.16778078713959     -2.18966968616370     -0.09245857333808
  H           1.01677514863007      0.78834154535023      0.85041544867165
  H           3.57558316746987      0.71065287599902     -0.76517883843152
