17
Coordinates from ORCA-job freq E -421.363612945101
  C      -3.263583      0.880127     -0.210107
  C      -1.862418      0.720737     -0.366897
  C      -1.213321     -0.220118     -1.335187
  C      -0.378761      0.510280     -2.389801
  C       0.324105     -0.468128     -3.323901
  O      -3.200397      1.396126     -1.399557
  O       1.763627     -0.551136     -5.126580
  O       1.083778      0.313680     -4.214541
  H      -4.103021      0.439337      0.288390
  H      -1.181656      1.400410      0.140014
  H      -1.969833     -0.837678     -1.821145
  H      -0.557822     -0.873640     -0.748360
  H      -1.031078      1.159380     -2.974736
  H       0.375079      1.134107     -1.906438
  H      -0.402503     -1.072660     -3.882180
  H       0.985732     -1.142579     -2.763584
  H       2.098659      0.073806     -5.782222
17
Coordinates from ORCA-job freq E -421.365130734049
  C      -3.262765      0.850549     -0.201277
  C      -1.864421      0.716224     -0.381277
  C      -1.217758     -0.205306     -1.368216
  C      -0.371821      0.530436     -2.406297
  C       0.339828     -0.438312     -3.328894
  O      -3.222256      1.395396     -1.370595
  O       1.784126     -0.593796     -5.052601
  O       1.096456      0.342385     -4.224464
  H      -4.104564      0.424745      0.324827
  H      -1.181922      1.362854      0.171491
  H      -1.980509     -0.814622     -1.853075
  H      -0.573489     -0.879959     -0.790495
  H      -1.019693      1.186455     -2.987968
  H       0.370252      1.158165     -1.907654
  H      -0.372663     -1.052055     -3.888690
  H       1.008114     -1.100737     -2.769127
  H       2.039670     -0.020373     -5.782521
17
Coordinates from ORCA-job freq E -421.365283944036
  C      -3.255262      0.837285     -0.172194
  C      -1.863128      0.707529     -0.385278
  C      -1.237667     -0.200231     -1.397485
  C      -0.386971      0.543503     -2.425973
  C       0.341080     -0.424255     -3.336668
  O      -3.234403      1.414232     -1.328590
  O       1.903661     -0.572843     -4.968561
  O       1.094688      0.353346     -4.241403
  H      -4.089070      0.419826      0.373278
  H      -1.166831      1.330153      0.178938
  H      -2.012110     -0.790428     -1.887456
  H      -0.598447     -0.895589     -0.838497
  H      -1.032447      1.198332     -3.012072
  H       0.347177      1.173787     -1.919027
  H      -0.356953     -1.062101     -3.887625
  H       1.018612     -1.063509     -2.762172
  H       1.994656     -0.106987     -5.806046
17
Coordinates from ORCA-job freq E -421.365522910363
  C      -3.256476      0.784938     -0.145180
  C      -1.873264      0.721782     -0.408325
  C      -1.238353     -0.180676     -1.418479
  C      -0.386843      0.564215     -2.444785
  C       0.341852     -0.409271     -3.349079
  O      -3.292819      1.358290     -1.307693
  O       1.949816     -0.595527     -4.937520
  O       1.220317      0.346926     -4.156208
  H      -4.054981      0.399886      0.469288
  H      -1.183911      1.369528      0.137821
  H      -2.008049     -0.780940     -1.903218
  H      -0.592510     -0.868188     -0.856787
  H      -1.022946      1.224219     -3.035282
  H       0.350035      1.187058     -1.932333
  H      -0.354526     -0.976629     -3.973146
  H       0.929654     -1.118149     -2.757336
  H       1.939590     -0.165410     -5.798569
17
Coordinates from ORCA-job freq E -421.365476548977
  C      -3.245512      0.766965     -0.123233
  C      -1.864791      0.711619     -0.405393
  C      -1.247404     -0.181054     -1.435584
  C      -0.401402      0.568994     -2.463013
  C       0.329467     -0.392536     -3.379234
  O      -3.308647      1.359352     -1.273282
  O       2.077194     -0.519852     -4.836963
  O       1.217663      0.382309     -4.162016
  H      -4.034697      0.399537      0.513063
  H      -1.169556      1.365331      0.125391
  H      -2.025682     -0.771834     -1.918796
  H      -0.600917     -0.877969     -0.886538
  H      -1.042706      1.234452     -3.041302
  H       0.339586      1.189096     -1.953205
  H      -0.359125     -0.947508     -4.023866
  H       0.909981     -1.110666     -2.793468
  H       1.893135     -0.314184     -5.759392
17
Coordinates from ORCA-job freq E -421.365882868026
  C      -3.264386      0.777285     -0.168917
  C      -1.876612      0.712826     -0.408753
  C      -1.230918     -0.183406     -1.418176
  C      -0.367342      0.568795     -2.429081
  C       0.364027     -0.391580     -3.345712
  O      -3.288638      1.357610     -1.326661
  O       2.009502     -0.529219     -4.910078
  O       1.232876      0.383908     -4.146999
  H      -4.070545      0.391916      0.435807
  H      -1.194555      1.360283      0.145950
  H      -1.995803     -0.777792     -1.917954
  H      -0.594132     -0.876606     -0.853517
  H      -0.998027      1.240088     -3.012348
  H       0.369534      1.181793     -1.904853
  H      -0.332641     -0.949076     -3.979714
  H       0.955923     -1.107481     -2.768038
  H       1.748323     -0.297294     -5.807787
17
Coordinates from ORCA-job freq E -421.366002994026
  C      -3.277360      0.782459     -0.209825
  C      -1.883788      0.700014     -0.408078
  C      -1.219687     -0.190878     -1.410788
  C      -0.340156      0.569466     -2.401746
  C       0.395789     -0.383454     -3.321613
  O      -3.255425      1.373645     -1.362438
  O       1.982185     -0.487558     -4.954070
  O       1.222182      0.405098     -4.154853
  H      -4.107951      0.400740      0.363042
  H      -1.210195      1.332914      0.173099
  H      -1.976145     -0.778836     -1.930591
  H      -0.594604     -0.889921     -0.840543
  H      -0.963536      1.246473     -2.986390
  H       0.391145      1.177180     -1.863902
  H      -0.304568     -0.963353     -3.931847
  H       1.018138     -1.079632     -2.752156
  H       1.590561     -0.352304     -5.824133
17
Coordinates from ORCA-job freq E -421.366022013552
  C      -3.284700      0.790186     -0.234413
  C      -1.888005      0.696365     -0.406691
  C      -1.212731     -0.195388     -1.401468
  C      -0.325827      0.565436     -2.385541
  C       0.410556     -0.386924     -3.305344
  O      -3.235298      1.382834     -1.385364
  O       1.943629     -0.484678     -4.987500
  O       1.207516      0.405131     -4.162708
  H      -4.129318      0.409728      0.318390
  H      -1.220514      1.323244      0.187825
  H      -1.963577     -0.783704     -1.928956
  H      -0.592846     -0.893789     -0.824911
  H      -0.945786      1.243650     -2.972479
  H       0.403113      1.171928     -1.843236
  H      -0.291914     -0.984015     -3.896389
  H       1.053123     -1.067539     -2.739321
  H       1.539162     -0.330415     -5.848725
17
Coordinates from ORCA-job freq E -421.366021360469
  C      -3.284305      0.789614     -0.233043
  C      -1.887634      0.697509     -0.406821
  C      -1.212382     -0.195111     -1.400881
  C      -0.326595      0.565235     -2.386376
  C       0.408797     -0.387044     -3.307334
  O      -3.237193      1.380452     -1.384974
  O       1.947688     -0.483678     -4.985120
  O       1.211065      0.405214     -4.160022
  H      -4.127792      0.408489      0.321043
  H      -1.220346      1.326455      0.185720
  H      -1.963234     -0.784498     -1.927168
  H      -0.591674     -0.892418     -0.823927
  H      -0.947384      1.243464     -2.972393
  H       0.403125      1.171735     -1.845153
  H      -0.294110     -0.979391     -3.902519
  H       1.047560     -1.071815     -2.742106
  H       1.541002     -0.332160     -5.845757
17
Coordinates from ORCA-job freq E -421.366024521426
  C      -3.284304      0.789468     -0.232985
  C      -1.887675      0.697498     -0.406876
  C      -1.212366     -0.195154     -1.400886
  C      -0.326647      0.565228     -2.386410
  C       0.408652     -0.387031     -3.307453
  O      -3.237284      1.380273     -1.384972
  O       1.947847     -0.483782     -4.984972
  O       1.210977      0.405174     -4.160133
  H      -4.127739      0.408853      0.321504
  H      -1.220377      1.326499      0.185617
  H      -1.963176     -0.784603     -1.927160
  H      -0.591645     -0.892386     -0.823863
  H      -0.947517      1.243466     -2.972343
  H       0.403107      1.171717     -1.845217
  H      -0.294350     -0.979304     -3.902603
  H       1.047364     -1.071872     -2.742255
  H       1.541717     -0.331991     -5.845823
