17
Coordinates from ORCA-job freq E -421.366024521426
  C          -3.28430364620367      0.78946826042635     -0.23298466943277
  C          -1.88767514498688      0.69749771074780     -0.40687630332316
  C          -1.21236607885723     -0.19515417846517     -1.40088625432483
  C          -0.32664694000012      0.56522794252397     -2.38641009053595
  C           0.40865215900824     -0.38703114325952     -3.30745266909978
  O          -3.23728372854241      1.38027279002490     -1.38497189675956
  O           1.94784661493682     -0.48378190788187     -4.98497216142915
  O           1.21097671786033      0.40517374116019     -4.16013343086927
  H          -4.12773900673936      0.40885311084511      0.32150426312627
  H          -1.22037678409331      1.32649869673030      0.18561696255437
  H          -1.96317587813154     -0.78460318005329     -1.92716049495159
  H          -0.59164459681895     -0.89238624142832     -0.82386291905454
  H          -0.94751663516213      1.24346553356228     -2.97234263112294
  H           0.40310743958591      1.17171660909190     -1.84521722035744
  H          -0.29435010730634     -0.97930417448653     -3.90260260684894
  H           1.04736437753915     -1.07187190823912     -2.74225538118336
  H           1.54171723791154     -0.33199066129894     -5.84582349638728
