17
Coordinates from ORCA-job freq
  C           3.48661239458547      0.37338602357049     -0.74436000836667
  C           0.37442251344385     -0.97551804572575     -0.06220427914917
  C          -0.14685316975851      0.36148921178313     -0.44653576874339
  C          -3.00985508796376      0.57336106479068     -0.00674329434777
  C          -1.54044398649851      0.07710171915638     -0.02406772032201
  O          -0.70535677879887     -1.81285345875149      0.12928998199202
  O          -2.14701563230033      0.67453678567392      1.35943048371271
  O          -2.10904617723148     -1.15605531652470     -0.05826950346290
  H           1.04403391601006     -1.35636936879790     -0.84973689136163
  H           3.39291233329518      1.02592129674255      0.11401521310182
  H           3.21374208278989      0.70953561616145     -1.74006877668073
  H           3.91699355390068     -0.61007506938702     -0.61976569352259
  H           0.95651765485618     -0.94858573025634      0.87119135015135
  H           0.30710105598799      1.16820787349403      0.13207245826568
  H          -0.07581671006497      0.60034617711538     -1.50384661825905
  H          -3.32034237475833      1.49401883643249     -0.45747365226490
  H          -3.70505558749454     -0.23405961547730     -0.00844728074272
