17
Coordinates from ORCA-job freq E -421.372874022012
  C      -1.440929      1.077504      0.511428
  C      -1.346893     -0.178087     -0.347773
  C       1.680299      0.756773     -0.931248
  C       1.229452     -0.453724     -0.259820
  C      -0.148230     -1.053727      0.010483
  O       1.117071     -1.692611      1.772703
  O       1.920097     -0.555632     -1.423417
  O      -0.147211     -1.279650      1.409144
  H       1.693218     -1.025809      0.905926
  H      -2.338510      1.633873      0.254619
  H      -0.578927      1.723397      0.366387
  H      -1.490156      0.799422      1.559918
  H      -1.283005      0.075619     -1.407773
  H      -2.245032     -0.780525     -0.200330
  H       2.553243      1.276852     -0.556614
  H       0.999495      1.347132     -1.532980
  H      -0.184407     -2.011542     -0.535100
17
Coordinates from ORCA-job freq E -421.374600416614
  C      -1.474509      1.087338      0.491438
  C      -1.347883     -0.186649     -0.335002
  C       1.704899      0.762713     -0.901006
  C       1.237883     -0.458613     -0.261792
  C      -0.144936     -1.041254      0.034872
  O       1.146680     -1.737674      1.723155
  O       1.843276     -0.541701     -1.473240
  O      -0.106219     -1.227010      1.436284
  H       1.721842     -1.072960      0.848645
  H      -2.370572      1.630639      0.198690
  H      -0.617150      1.742956      0.353790
  H      -1.547301      0.843836      1.548020
  H      -1.275868      0.040939     -1.401135
  H      -2.240328     -0.799482     -0.196493
  H       2.626502      1.219663     -0.564457
  H       1.013035      1.409045     -1.428123
  H      -0.179777     -2.012522     -0.478091
17
Coordinates from ORCA-job freq E -421.375056828076
  C      -1.489087      1.079691      0.498591
  C      -1.337658     -0.187793     -0.334803
  C       1.695807      0.762016     -0.906497
  C       1.242114     -0.463803     -0.266474
  C      -0.141306     -1.037379      0.055507
  O       1.166853     -1.736520      1.708023
  O       1.796321     -0.543421     -1.502528
  O      -0.077781     -1.179338      1.458737
  H       1.738357     -1.081989      0.817582
  H      -2.326781      1.671919      0.134630
  H      -0.592845      1.697563      0.458670
  H      -1.669527      0.831505      1.541791
  H      -1.229546      0.049991     -1.396409
  H      -2.235886     -0.800140     -0.242648
  H       2.638572      1.200780     -0.608037
  H       0.986492      1.418483     -1.396095
  H      -0.174523     -2.022299     -0.424488
17
Coordinates from ORCA-job freq E -421.375088917056
  C      -1.491851      1.078245      0.496960
  C      -1.334254     -0.190576     -0.333721
  C       1.692933      0.762051     -0.900209
  C       1.242169     -0.470200     -0.271936
  C      -0.140567     -1.039323      0.060777
  O       1.179020     -1.725874      1.707483
  O       1.771083     -0.538060     -1.519912
  O      -0.067832     -1.167287      1.465140
  H       1.745427     -1.085846      0.798767
  H      -2.309869      1.684077      0.110001
  H      -0.586436      1.684483      0.483868
  H      -1.705745      0.834792      1.535259
  H      -1.219603      0.046575     -1.395036
  H      -2.233696     -0.802935     -0.252829
  H       2.645787      1.187322     -0.615107
  H       0.978678      1.430265     -1.366406
  H      -0.175671     -2.028445     -0.407545
17
Coordinates from ORCA-job freq E -421.375089429725
  C      -1.491391      1.079223      0.496170
  C      -1.334285     -0.190123     -0.334062
  C       1.692305      0.762662     -0.899444
  C       1.242752     -0.470026     -0.271074
  C      -0.140565     -1.038971      0.060645
  O       1.176401     -1.730722      1.705792
  O       1.775589     -0.538222     -1.517383
  O      -0.067551     -1.165466      1.465135
  H       1.745251     -1.089960      0.798393
  H      -2.314550      1.681259      0.114268
  H      -0.588630      1.689205      0.476338
  H      -1.697459      0.835896      1.536108
  H      -1.220017      0.046423     -1.395517
  H      -2.233657     -0.802396     -0.252247
  H       2.643367      1.190462     -0.612080
  H       0.977851      1.428521     -1.368605
  H      -0.175837     -2.028500     -0.406886
17
Coordinates from ORCA-job freq E -421.375077069456
  C      -1.490122      1.081430      0.493141
  C      -1.336553     -0.189381     -0.335074
  C       1.698419      0.761969     -0.894727
  C       1.241313     -0.467771     -0.266239
  C      -0.142684     -1.039382      0.056868
  O       1.171289     -1.732836      1.706402
  O       1.779879     -0.540295     -1.509683
  O      -0.077037     -1.179419      1.460558
  H       1.739693     -1.084321      0.805358
  H      -2.342988      1.660050      0.141429
  H      -0.604922      1.713815      0.431640
  H      -1.647852      0.840279      1.542021
  H      -1.225917      0.044640     -1.397463
  H      -2.235424     -0.801621     -0.247122
  H       2.649139      1.187486     -0.602843
  H       0.988756      1.429303     -1.369034
  H      -0.175415     -2.024680     -0.419680
17
Coordinates from ORCA-job freq E -421.375086227197
  C      -1.491171      1.078581      0.497184
  C      -1.334066     -0.189825     -0.334281
  C       1.691934      0.762258     -0.900828
  C       1.242465     -0.469589     -0.270791
  C      -0.140664     -1.039131      0.060406
  O       1.176599     -1.728635      1.706997
  O       1.775808     -0.539601     -1.516792
  O      -0.068608     -1.166797      1.464913
  H       1.744916     -1.087293      0.799724
  H      -2.312602      1.682357      0.114360
  H      -0.587296      1.687003      0.480236
  H      -1.699702      0.834144      1.536377
  H      -1.218804      0.047854     -1.395402
  H      -2.233746     -0.801817     -0.253721
  H       2.642720      1.190796     -0.613645
  H       0.977446      1.427235     -1.371206
  H      -0.175655     -2.028276     -0.407980
17
Coordinates from ORCA-job freq E -421.375101316522
  C      -1.491254      1.078966      0.496728
  C      -1.334318     -0.189884     -0.334205
  C       1.692591      0.762329     -0.900088
  C       1.242555     -0.469630     -0.270662
  C      -0.140722     -1.039085      0.060135
  O       1.176265     -1.729301      1.706714
  O       1.776163     -0.539319     -1.516557
  O      -0.068874     -1.167303      1.464617
  H       1.744763     -1.087796      0.799635
  H      -2.315003      1.680808      0.115811
  H      -0.588756      1.689328      0.476397
  H      -1.696313      0.834972      1.536713
  H      -1.219995      0.047184     -1.395544
  H      -2.233759     -0.802099     -0.252609
  H       2.643465      1.190409     -0.612522
  H       0.978497      1.427755     -1.370427
  H      -0.175728     -2.028070     -0.408585
17
Coordinates from ORCA-job freq E -421.375096018958
  C      -1.491177      1.078920      0.496733
  C      -1.334288     -0.189896     -0.334251
  C       1.692493      0.762329     -0.900078
  C       1.242509     -0.469663     -0.270693
  C      -0.140742     -1.039124      0.060149
  O       1.176262     -1.729189      1.706780
  O       1.776082     -0.539297     -1.516607
  O      -0.068881     -1.167214      1.464634
  H       1.744754     -1.087766      0.799597
  H      -2.314884      1.680807      0.115807
  H      -0.588651      1.689245      0.476467
  H      -1.696280      0.834903      1.536700
  H      -1.219853      0.047213     -1.395563
  H      -2.233776     -0.802048     -0.252744
  H       2.643365      1.190411     -0.612502
  H       0.978393      1.427778     -1.370373
  H      -0.175753     -2.028143     -0.408503
