17
Coordinates from ORCA-job freq E -421.377916259350
  C          -1.39618037077301      1.37213038396201     -0.74508723172822
  C           0.02694121740484     -0.20918706948340      0.71476908316556
  C           2.52380880138134     -0.28190326979015      0.13454925319989
  C          -1.36125415414725      0.19594400972040      0.20282489327226
  C           1.11802409082797     -0.26158579128211     -0.28162057168326
  O          -1.47461501608890     -2.00147360425655      0.38360190780297
  O           1.93918702089794      0.90674513218416     -0.35666587153757
  O          -1.78419815585648     -0.97189669959651     -0.49518336375427
  H          -0.45475564526436     -1.45061637169467      0.83167835878026
  H          -0.76024429191492      1.18956070501257     -1.60994975731148
  H          -2.41464608939993      1.55250376028557     -1.08561650848915
  H          -1.03389845147203      2.26412930595677     -0.23554788126080
  H           0.32794662443810      0.19479728877475      1.67774956126672
  H           3.25873202127014     -0.73993972846509     -0.51638586944640
  H           2.75956590438176     -0.27908543997070      1.19295913600340
  H          -2.01721421136294      0.35364810144619      1.06329722369488
  H           0.86393070567773     -0.68766471280326     -1.24647436197479
