17
Coordinates from ORCA-job freq E -421.362238627069
  C          -1.92455138959976     -0.05927354615402     -1.22528798860613
  C           2.23271474487686      0.13626578806612      0.51945528577999
  C          -1.31820070209671     -0.54977389956353      0.08375978229454
  C           1.02974220576617      0.31590032975047     -0.32085015473226
  C          -0.22055263502600      0.37873483615865      0.57742307781186
  O           1.21991654090734     -0.92410694638913      1.70709960913801
  O           1.76635043378115      1.40891120074075     -0.64445584008779
  O           0.24338716901243      0.00709200051701      1.88111965764321
  H           2.43533323947877      0.82606836896741      1.31985049846883
  H          -2.37156177061042      0.92773240158105     -1.10023956042095
  H          -2.70265434928573     -0.73777569665237     -1.57040589043578
  H          -1.17581392971201      0.01537022940518     -2.01494734767674
  H           3.05255953222941     -0.44619406739435      0.12641713490213
  H          -0.89842794353897     -1.55176310259443     -0.02988438368326
  H          -2.08474592352008     -0.60704050047105      0.85692319787054
  H           0.93842539008995     -0.42606426103961     -1.11866132218175
  H          -0.58365761275239      1.40304386507185      0.68298124391555
