17
* (null), Energy   -1000.0000000
C    -1.924551   -0.059274   -1.225288    0.003165    0.003482   -0.000679
C     2.232715    0.136266    0.519455    0.303916    0.971030   -0.978848
C    -1.318201   -0.549774    0.083760   -0.022087    0.003903    0.020555
C     1.029742    0.315900   -0.320850   -0.108277   -0.171674    0.065332
C    -0.220553    0.378735    0.577423    0.008824   -0.014229   -0.071169
O     1.219917   -0.924107    1.707100   -0.482025   -0.181240    0.434569
O     1.766350    1.408911   -0.644456    0.252355   -0.241032    0.253720
O     0.243387    0.007092    1.881120    0.108574   -0.163035    0.020366
H     2.435333    0.826068    1.319850   -0.328209   -0.558885    0.466094
H    -2.371562    0.927732   -1.100240    0.000246    0.000904   -0.008429
H    -2.702654   -0.737776   -1.570406    0.003728   -0.005226    0.014637
H    -1.175814    0.015370   -2.014947    0.015102   -0.005999    0.016671
H     3.052560   -0.446194    0.126417    0.177210    0.479996   -0.473795
H    -0.898428   -1.551763   -0.029884    0.012464    0.018125    0.001861
H    -2.084746   -0.607041    0.856923   -0.054442   -0.020034   -0.012773
H     0.938425   -0.426064   -1.118661   -0.219301   -0.011135   -0.044880
H    -0.583658    1.403044    0.682981    0.104404   -0.051072    0.289187
17
* Frequency(6) -1150.4737
C    -1.924192   -0.058878   -1.225365    0.003165    0.003482   -0.000679
C     2.267253    0.246618    0.408214    0.303916    0.971030   -0.978848
C    -1.320711   -0.549330    0.086096   -0.022087    0.003903    0.020555
C     1.017437    0.296390   -0.313425   -0.108277   -0.171674    0.065332
C    -0.219550    0.377118    0.569335    0.008824   -0.014229   -0.071169
O     1.165137   -0.944704    1.756486   -0.482025   -0.181240    0.434569
O     1.795029    1.381519   -0.615622    0.252355   -0.241032    0.253720
O     0.255726   -0.011436    1.883434    0.108574   -0.163035    0.020366
H     2.398034    0.762554    1.372820   -0.328209   -0.558885    0.466094
H    -2.371534    0.927835   -1.101197    0.000246    0.000904   -0.008429
H    -2.702231   -0.738370   -1.568742    0.003728   -0.005226    0.014637
H    -1.174098    0.014688   -2.013053    0.015102   -0.005999    0.016671
H     3.072699   -0.391645    0.072573    0.177210    0.479996   -0.473795
H    -0.897011   -1.549703   -0.029673    0.012464    0.018125    0.001861
H    -2.090933   -0.609317    0.855472   -0.054442   -0.020034   -0.012773
H     0.913503   -0.427330   -1.123762   -0.219301   -0.011135   -0.044880
H    -0.571793    1.397240    0.715846    0.104404   -0.051072    0.289187
17
* Frequency(6) -1150.4737
C    -1.923871   -0.058525   -1.225434    0.003165    0.003482   -0.000679
C     2.298049    0.345012    0.309028    0.303916    0.971030   -0.978848
C    -1.322949   -0.548935    0.088179   -0.022087    0.003903    0.020555
C     1.006465    0.278995   -0.306805   -0.108277   -0.171674    0.065332
C    -0.218656    0.375676    0.562124    0.008824   -0.014229   -0.071169
O     1.116293   -0.963069    1.800521   -0.482025   -0.181240    0.434569
O     1.820600    1.357096   -0.589913    0.252355   -0.241032    0.253720
O     0.266728   -0.027956    1.885498    0.108574   -0.163035    0.020366
H     2.364777    0.705922    1.420049   -0.328209   -0.558885    0.466094
H    -2.371509    0.927927   -1.102052    0.000246    0.000904   -0.008429
H    -2.701853   -0.738899   -1.567259    0.003728   -0.005226    0.014637
H    -1.172567    0.014081   -2.011364    0.015102   -0.005999    0.016671
H     3.090655   -0.343007    0.024563    0.177210    0.479996   -0.473795
H    -0.895748   -1.547867   -0.029484    0.012464    0.018125    0.001861
H    -2.096450   -0.611347    0.854177   -0.054442   -0.020034   -0.012773
H     0.891281   -0.428458   -1.128309   -0.219301   -0.011135   -0.044880
H    -0.561214    1.392065    0.745149    0.104404   -0.051072    0.289187
17
* Frequency(6) -1150.4737
C    -1.923624   -0.058253   -1.225487    0.003165    0.003482   -0.000679
C     2.321765    0.420786    0.232645    0.303916    0.971030   -0.978848
C    -1.324672   -0.548630    0.089783   -0.022087    0.003903    0.020555
C     0.998016    0.265598   -0.301707   -0.108277   -0.171674    0.065332
C    -0.217967    0.374566    0.556570    0.008824   -0.014229   -0.071169
O     1.078679   -0.977212    1.834432   -0.482025   -0.181240    0.434569
O     1.840292    1.338287   -0.570114    0.252355   -0.241032    0.253720
O     0.275200   -0.040678    1.887087    0.108574   -0.163035    0.020366
H     2.339165    0.662310    1.456420   -0.328209   -0.558885    0.466094
H    -2.371490    0.927997   -1.102709    0.000246    0.000904   -0.008429
H    -2.701562   -0.739307   -1.566117    0.003728   -0.005226    0.014637
H    -1.171389    0.013612   -2.010063    0.015102   -0.005999    0.016671
H     3.104484   -0.305551   -0.012409    0.177210    0.479996   -0.473795
H    -0.894776   -1.546452   -0.029339    0.012464    0.018125    0.001861
H    -2.100698   -0.612911    0.853181   -0.054442   -0.020034   -0.012773
H     0.874168   -0.429327   -1.131811   -0.219301   -0.011135   -0.044880
H    -0.553067    1.388079    0.767715    0.104404   -0.051072    0.289187
17
* Frequency(6) -1150.4737
C    -1.923477   -0.058092   -1.225518    0.003165    0.003482   -0.000679
C     2.335830    0.465727    0.187342    0.303916    0.971030   -0.978848
C    -1.325695   -0.548450    0.090734   -0.022087    0.003903    0.020555
C     0.993005    0.257653   -0.298684   -0.108277   -0.171674    0.065332
C    -0.217559    0.373907    0.553276    0.008824   -0.014229   -0.071169
O     1.056370   -0.985600    1.854544   -0.482025   -0.181240    0.434569
O     1.851972    1.327131   -0.558371    0.252355   -0.241032    0.253720
O     0.280225   -0.048224    1.888030    0.108574   -0.163035    0.020366
H     2.323975    0.636444    1.477992   -0.328209   -0.558885    0.466094
H    -2.371478    0.928039   -1.103099    0.000246    0.000904   -0.008429
H    -2.701390   -0.739549   -1.565440    0.003728   -0.005226    0.014637
H    -1.170690    0.013335   -2.009291    0.015102   -0.005999    0.016671
H     3.112685   -0.283336   -0.034337    0.177210    0.479996   -0.473795
H    -0.894199   -1.545613   -0.029253    0.012464    0.018125    0.001861
H    -2.103218   -0.613838    0.852589   -0.054442   -0.020034   -0.012773
H     0.864019   -0.429842   -1.133889   -0.219301   -0.011135   -0.044880
H    -0.548235    1.385716    0.781100    0.104404   -0.051072    0.289187
17
* Frequency(6) -1150.4737
C    -1.923447   -0.058059   -1.225525    0.003165    0.003482   -0.000679
C     2.338722    0.474965    0.178029    0.303916    0.971030   -0.978848
C    -1.325905   -0.548412    0.090929   -0.022087    0.003903    0.020555
C     0.991975    0.256019   -0.298062   -0.108277   -0.171674    0.065332
C    -0.217475    0.373772    0.552599    0.008824   -0.014229   -0.071169
O     1.051784   -0.987324    1.858679   -0.482025   -0.181240    0.434569
O     1.854373    1.324838   -0.555957    0.252355   -0.241032    0.253720
O     0.281258   -0.049775    1.888223    0.108574   -0.163035    0.020366
H     2.320852    0.631127    1.482426   -0.328209   -0.558885    0.466094
H    -2.371476    0.928048   -1.103180    0.000246    0.000904   -0.008429
H    -2.701354   -0.739598   -1.565301    0.003728   -0.005226    0.014637
H    -1.170546    0.013278   -2.009132    0.015102   -0.005999    0.016671
H     3.114371   -0.278769   -0.038845    0.177210    0.479996   -0.473795
H    -0.894080   -1.545441   -0.029235    0.012464    0.018125    0.001861
H    -2.103736   -0.614028    0.852468   -0.054442   -0.020034   -0.012773
H     0.861932   -0.429948   -1.134316   -0.219301   -0.011135   -0.044880
H    -0.547241    1.385230    0.783851    0.104404   -0.051072    0.289187
17
* Frequency(6) -1150.4737
C    -1.923537   -0.058157   -1.225506    0.003165    0.003482   -0.000679
C     2.330126    0.447501    0.205714    0.303916    0.971030   -0.978848
C    -1.325280   -0.548523    0.090348   -0.022087    0.003903    0.020555
C     0.995037    0.260875   -0.299910   -0.108277   -0.171674    0.065332
C    -0.217724    0.374174    0.554612    0.008824   -0.014229   -0.071169
O     1.065418   -0.982198    1.846388   -0.482025   -0.181240    0.434569
O     1.847235    1.331656   -0.563133    0.252355   -0.241032    0.253720
O     0.278187   -0.045164    1.887647    0.108574   -0.163035    0.020366
H     2.330135    0.646934    1.469243   -0.328209   -0.558885    0.466094
H    -2.371483    0.928022   -1.102941    0.000246    0.000904   -0.008429
H    -2.701460   -0.739451   -1.565714    0.003728   -0.005226    0.014637
H    -1.170974    0.013447   -2.009604    0.015102   -0.005999    0.016671
H     3.109359   -0.292345   -0.025444    0.177210    0.479996   -0.473795
H    -0.894433   -1.545954   -0.029288    0.012464    0.018125    0.001861
H    -2.102196   -0.613462    0.852829   -0.054442   -0.020034   -0.012773
H     0.868135   -0.429633   -1.133046   -0.219301   -0.011135   -0.044880
H    -0.550194    1.386674    0.775672    0.104404   -0.051072    0.289187
17
* Frequency(6) -1150.4737
C    -1.923736   -0.058377   -1.225463    0.003165    0.003482   -0.000679
C     2.310974    0.386309    0.267399    0.303916    0.971030   -0.978848
C    -1.323888   -0.548769    0.089053   -0.022087    0.003903    0.020555
C     1.001860    0.271694   -0.304027   -0.108277   -0.171674    0.065332
C    -0.218281    0.375071    0.559097    0.008824   -0.014229   -0.071169
O     1.095793   -0.970777    1.819002   -0.482025   -0.181240    0.434569
O     1.831333    1.346845   -0.579122    0.252355   -0.241032    0.253720
O     0.271345   -0.034890    1.886364    0.108574   -0.163035    0.020366
H     2.350818    0.682154    1.439871   -0.328209   -0.558885    0.466094
H    -2.371498    0.927965   -1.102410    0.000246    0.000904   -0.008429
H    -2.701694   -0.739121   -1.566637    0.003728   -0.005226    0.014637
H    -1.171925    0.013825   -2.010655    0.015102   -0.005999    0.016671
H     3.098192   -0.322594    0.004413    0.177210    0.479996   -0.473795
H    -0.895218   -1.547096   -0.029405    0.012464    0.018125    0.001861
H    -2.098765   -0.612199    0.853634   -0.054442   -0.020034   -0.012773
H     0.881955   -0.428932   -1.130218   -0.219301   -0.011135   -0.044880
H    -0.556773    1.389893    0.757448    0.104404   -0.051072    0.289187
17
* Frequency(6) -1150.4737
C    -1.924024   -0.058693   -1.225401    0.003165    0.003482   -0.000679
C     2.283342    0.298021    0.356397    0.303916    0.971030   -0.978848
C    -1.321880   -0.549124    0.087184   -0.022087    0.003903    0.020555
C     1.011705    0.287303   -0.309967   -0.108277   -0.171674    0.065332
C    -0.219083    0.376365    0.565568    0.008824   -0.014229   -0.071169
O     1.139620   -0.954298    1.779491   -0.482025   -0.181240    0.434569
O     1.808388    1.368760   -0.602191    0.252355   -0.241032    0.253720
O     0.261474   -0.020067    1.884512    0.108574   -0.163035    0.020366
H     2.380660    0.732968    1.397493   -0.328209   -0.558885    0.466094
H    -2.371521    0.927883   -1.101644    0.000246    0.000904   -0.008429
H    -2.702033   -0.738646   -1.567968    0.003728   -0.005226    0.014637
H    -1.173298    0.014371   -2.012170    0.015102   -0.005999    0.016671
H     3.082079   -0.366236    0.047492    0.177210    0.479996   -0.473795
H    -0.896352   -1.548744   -0.029574    0.012464    0.018125    0.001861
H    -2.093815   -0.610378    0.854795   -0.054442   -0.020034   -0.012773
H     0.901894   -0.427919   -1.126137   -0.219301   -0.011135   -0.044880
H    -0.566266    1.394536    0.731154    0.104404   -0.051072    0.289187
17
* Frequency(6) -1150.4737
C    -1.924369   -0.059073   -1.225327    0.003165    0.003482   -0.000679
C     2.250223    0.192205    0.463066    0.303916    0.971030   -0.978848
C    -1.319473   -0.549549    0.084944   -0.022087    0.003903    0.020555
C     1.023505    0.306010   -0.317086   -0.108277   -0.171674    0.065332
C    -0.220044    0.377915    0.573323    0.008824   -0.014229   -0.071169
O     1.192148   -0.934548    1.732134   -0.482025   -0.181240    0.434569
O     1.780888    1.395026   -0.629840    0.252355   -0.241032    0.253720
O     0.249642   -0.002300    1.882293    0.108574   -0.163035    0.020366
H     2.416426    0.793872    1.346701   -0.328209   -0.558885    0.466094
H    -2.371548    0.927784   -1.100725    0.000246    0.000904   -0.008429
H    -2.702440   -0.738077   -1.569563    0.003728   -0.005226    0.014637
H    -1.174944    0.015025   -2.013987    0.015102   -0.005999    0.016671
H     3.062768   -0.418542    0.099123    0.177210    0.479996   -0.473795
H    -0.897710   -1.550719   -0.029777    0.012464    0.018125    0.001861
H    -2.087882   -0.608195    0.856187   -0.054442   -0.020034   -0.012773
H     0.925792   -0.426706   -1.121247   -0.219301   -0.011135   -0.044880
H    -0.577643    1.400102    0.699641    0.104404   -0.051072    0.289187
17
* Frequency(6) -1150.4737
C    -1.924734   -0.059474   -1.225249    0.003165    0.003482   -0.000679
C     2.215207    0.080327    0.575845    0.303916    0.971030   -0.978848
C    -1.316928   -0.549999    0.082576   -0.022087    0.003903    0.020555
C     1.035980    0.325790   -0.324614   -0.108277   -0.171674    0.065332
C    -0.221061    0.379555    0.581523    0.008824   -0.014229   -0.071169
O     1.247685   -0.913666    1.682065   -0.482025   -0.181240    0.434569
O     1.751813    1.422797   -0.659072    0.252355   -0.241032    0.253720
O     0.237132    0.016484    1.879946    0.108574   -0.163035    0.020366
H     2.454241    0.858265    1.293000   -0.328209   -0.558885    0.466094
H    -2.371576    0.927680   -1.099754    0.000246    0.000904   -0.008429
H    -2.702869   -0.737475   -1.571249    0.003728   -0.005226    0.014637
H    -1.176684    0.015716   -2.015908    0.015102   -0.005999    0.016671
H     3.042351   -0.473846    0.153712    0.177210    0.479996   -0.473795
H    -0.899146   -1.552807   -0.029992    0.012464    0.018125    0.001861
H    -2.081610   -0.605886    0.857659   -0.054442   -0.020034   -0.012773
H     0.951059   -0.425423   -1.116076   -0.219301   -0.011135   -0.044880
H    -0.589672    1.405986    0.666322    0.104404   -0.051072    0.289187
17
* Frequency(6) -1150.4737
C    -1.925079   -0.059854   -1.225175    0.003165    0.003482   -0.000679
C     2.182088   -0.025490    0.682513    0.303916    0.971030   -0.978848
C    -1.314521   -0.550424    0.080336   -0.022087    0.003903    0.020555
C     1.047779    0.344498   -0.331733   -0.108277   -0.171674    0.065332
C    -0.222022    0.381105    0.589279    0.008824   -0.014229   -0.071169
O     1.300213   -0.893916    1.634708   -0.482025   -0.181240    0.434569
O     1.724313    1.449063   -0.686721    0.252355   -0.241032    0.253720
O     0.225301    0.034251    1.877727    0.108574   -0.163035    0.020366
H     2.490007    0.919168    1.242208   -0.328209   -0.558885    0.466094
H    -2.371603    0.927582   -1.098835    0.000246    0.000904   -0.008429
H    -2.703275   -0.736905   -1.572844    0.003728   -0.005226    0.014637
H    -1.178330    0.016370   -2.017724    0.015102   -0.005999    0.016671
H     3.023040   -0.526153    0.205343    0.177210    0.479996   -0.473795
H    -0.900504   -1.554782   -0.030194    0.012464    0.018125    0.001861
H    -2.075677   -0.603703    0.859051   -0.054442   -0.020034   -0.012773
H     0.974957   -0.424209   -1.111185   -0.219301   -0.011135   -0.044880
H    -0.601049    1.411551    0.634808    0.104404   -0.051072    0.289187
17
* Frequency(6) -1150.4737
C    -1.925366   -0.060170   -1.225113    0.003165    0.003482   -0.000679
C     2.154455   -0.113778    0.771512    0.303916    0.971030   -0.978848
C    -1.312513   -0.550779    0.078467   -0.022087    0.003903    0.020555
C     1.057624    0.360107   -0.337673   -0.108277   -0.171674    0.065332
C    -0.222825    0.382399    0.595749    0.008824   -0.014229   -0.071169
O     1.344040   -0.877437    1.595197   -0.482025   -0.181240    0.434569
O     1.701368    1.470978   -0.709790    0.252355   -0.241032    0.253720
O     0.215429    0.049074    1.875875    0.108574   -0.163035    0.020366
H     2.519848    0.969983    1.199830   -0.328209   -0.558885    0.466094
H    -2.371625    0.927500   -1.098069    0.000246    0.000904   -0.008429
H    -2.703614   -0.736430   -1.574175    0.003728   -0.005226    0.014637
H    -1.179703    0.016915   -2.019240    0.015102   -0.005999    0.016671
H     3.006927   -0.569795    0.248421    0.177210    0.479996   -0.473795
H    -0.901638   -1.556430   -0.030364    0.012464    0.018125    0.001861
H    -2.070727   -0.601882    0.860212   -0.054442   -0.020034   -0.012773
H     0.994896   -0.423197   -1.107105   -0.219301   -0.011135   -0.044880
H    -0.610542    1.416195    0.608515    0.104404   -0.051072    0.289187
17
* Frequency(6) -1150.4737
C    -1.925566   -0.060390   -1.225070    0.003165    0.003482   -0.000679
C     2.135303   -0.174969    0.833196    0.303916    0.971030   -0.978848
C    -1.311121   -0.551025    0.077171   -0.022087    0.003903    0.020555
C     1.064447    0.370926   -0.341791   -0.108277   -0.171674    0.065332
C    -0.223381    0.383295    0.600234    0.008824   -0.014229   -0.071169
O     1.374416   -0.866016    1.567811   -0.482025   -0.181240    0.434569
O     1.685466    1.486167   -0.725778    0.252355   -0.241032    0.253720
O     0.208587    0.059348    1.874592    0.108574   -0.163035    0.020366
H     2.540531    1.005203    1.170458   -0.328209   -0.558885    0.466094
H    -2.371641    0.927443   -1.097538    0.000246    0.000904   -0.008429
H    -2.703849   -0.736101   -1.575097    0.003728   -0.005226    0.014637
H    -1.180654    0.017293   -2.020291    0.015102   -0.005999    0.016671
H     2.995760   -0.600043    0.278278    0.177210    0.479996   -0.473795
H    -0.902423   -1.557573   -0.030481    0.012464    0.018125    0.001861
H    -2.067296   -0.600619    0.861017   -0.054442   -0.020034   -0.012773
H     1.008716   -0.422495   -1.104276   -0.219301   -0.011135   -0.044880
H    -0.617121    1.419413    0.590291    0.104404   -0.051072    0.289187
17
* Frequency(6) -1150.4737
C    -1.925656   -0.060488   -1.225051    0.003165    0.003482   -0.000679
C     2.126707   -0.202434    0.860882    0.303916    0.971030   -0.978848
C    -1.310497   -0.551135    0.076590   -0.022087    0.003903    0.020555
C     1.067510    0.375781   -0.343638   -0.108277   -0.171674    0.065332
C    -0.223630    0.383698    0.602247    0.008824   -0.014229   -0.071169
O     1.388049   -0.860890    1.555520   -0.482025   -0.181240    0.434569
O     1.678328    1.492984   -0.732955    0.252355   -0.241032    0.253720
O     0.205516    0.063959    1.874016    0.108574   -0.163035    0.020366
H     2.549814    1.021010    1.157275   -0.328209   -0.558885    0.466094
H    -2.371648    0.927417   -1.097300    0.000246    0.000904   -0.008429
H    -2.703955   -0.735953   -1.575511    0.003728   -0.005226    0.014637
H    -1.181081    0.017463   -2.020762    0.015102   -0.005999    0.016671
H     2.990748   -0.613619    0.291679    0.177210    0.479996   -0.473795
H    -0.902776   -1.558085   -0.030534    0.012464    0.018125    0.001861
H    -2.065756   -0.600053    0.861378   -0.054442   -0.020034   -0.012773
H     1.014918   -0.422180   -1.103007   -0.219301   -0.011135   -0.044880
H    -0.620074    1.420858    0.582112    0.104404   -0.051072    0.289187
17
* Frequency(6) -1150.4737
C    -1.925625   -0.060455   -1.225057    0.003165    0.003482   -0.000679
C     2.129599   -0.193195    0.851569    0.303916    0.971030   -0.978848
C    -1.310707   -0.551098    0.076786   -0.022087    0.003903    0.020555
C     1.066480    0.374148   -0.343017   -0.108277   -0.171674    0.065332
C    -0.223546    0.383562    0.601570    0.008824   -0.014229   -0.071169
O     1.383463   -0.862614    1.559655   -0.482025   -0.181240    0.434569
O     1.680729    1.490691   -0.730541    0.252355   -0.241032    0.253720
O     0.206549    0.062408    1.874210    0.108574   -0.163035    0.020366
H     2.546691    1.015693    1.161709   -0.328209   -0.558885    0.466094
H    -2.371645    0.927426   -1.097380    0.000246    0.000904   -0.008429
H    -2.703919   -0.736003   -1.575372    0.003728   -0.005226    0.014637
H    -1.180938    0.017406   -2.020604    0.015102   -0.005999    0.016671
H     2.992434   -0.609052    0.287171    0.177210    0.479996   -0.473795
H    -0.902657   -1.557913   -0.030516    0.012464    0.018125    0.001861
H    -2.066274   -0.600243    0.861257   -0.054442   -0.020034   -0.012773
H     1.012832   -0.422286   -1.103434   -0.219301   -0.011135   -0.044880
H    -0.619081    1.420372    0.584863    0.104404   -0.051072    0.289187
17
* Frequency(6) -1150.4737
C    -1.925479   -0.060294   -1.225089    0.003165    0.003482   -0.000679
C     2.143665   -0.148254    0.806266    0.303916    0.971030   -0.978848
C    -1.311729   -0.550918    0.077737   -0.022087    0.003903    0.020555
C     1.061468    0.366202   -0.339993   -0.108277   -0.171674    0.065332
C    -0.223138    0.382904    0.598276    0.008824   -0.014229   -0.071169
O     1.361154   -0.871002    1.579767   -0.482025   -0.181240    0.434569
O     1.692408    1.479536   -0.718798    0.252355   -0.241032    0.253720
O     0.211574    0.054862    1.875152    0.108574   -0.163035    0.020366
H     2.531501    0.989826    1.183281   -0.328209   -0.558885    0.466094
H    -2.371634    0.927468   -1.097770    0.000246    0.000904   -0.008429
H    -2.703747   -0.736245   -1.574695    0.003728   -0.005226    0.014637
H    -1.180239    0.017128   -2.019832    0.015102   -0.005999    0.016671
H     3.000636   -0.586837    0.265243    0.177210    0.479996   -0.473795
H    -0.902080   -1.557074   -0.030430    0.012464    0.018125    0.001861
H    -2.068794   -0.601170    0.860666   -0.054442   -0.020034   -0.012773
H     1.002682   -0.422802   -1.105511   -0.219301   -0.011135   -0.044880
H    -0.614249    1.418008    0.598247    0.104404   -0.051072    0.289187
17
* Frequency(6) -1150.4737
C    -1.925232   -0.060022   -1.225142    0.003165    0.003482   -0.000679
C     2.167381   -0.072481    0.729883    0.303916    0.971030   -0.978848
C    -1.313453   -0.550613    0.079341   -0.022087    0.003903    0.020555
C     1.053019    0.352806   -0.334895   -0.108277   -0.171674    0.065332
C    -0.222449    0.381794    0.592723    0.008824   -0.014229   -0.071169
O     1.323540   -0.885145    1.613678   -0.482025   -0.181240    0.434569
O     1.712101    1.460727   -0.698999    0.252355   -0.241032    0.253720
O     0.220047    0.042140    1.876742    0.108574   -0.163035    0.020366
H     2.505890    0.946214    1.219652   -0.328209   -0.558885    0.466094
H    -2.371615    0.927538   -1.098428    0.000246    0.000904   -0.008429
H    -2.703456   -0.736652   -1.573552    0.003728   -0.005226    0.014637
H    -1.179060    0.016660   -2.018531    0.015102   -0.005999    0.016671
H     3.014464   -0.549381    0.228271    0.177210    0.479996   -0.473795
H    -0.901107   -1.555660   -0.030284    0.012464    0.018125    0.001861
H    -2.073042   -0.602734    0.859669   -0.054442   -0.020034   -0.012773
H     0.985569   -0.423670   -1.109013   -0.219301   -0.011135   -0.044880
H    -0.606102    1.414023    0.620813    0.104404   -0.051072    0.289187
17
* Frequency(6) -1150.4737
C    -1.924911   -0.059669   -1.225211    0.003165    0.003482   -0.000679
C     2.198176    0.025913    0.630696    0.303916    0.971030   -0.978848
C    -1.315691   -0.550217    0.081424   -0.022087    0.003903    0.020555
C     1.042047    0.335410   -0.328275   -0.108277   -0.171674    0.065332
C    -0.221555    0.380352    0.585511    0.008824   -0.014229   -0.071169
O     1.274696   -0.903510    1.657713   -0.482025   -0.181240    0.434569
O     1.737672    1.436303   -0.673290    0.252355   -0.241032    0.253720
O     0.231048    0.025620    1.878805    0.108574   -0.163035    0.020366
H     2.472633    0.889583    1.266881   -0.328209   -0.558885    0.466094
H    -2.371590    0.927630   -1.099282    0.000246    0.000904   -0.008429
H    -2.703078   -0.737182   -1.572069    0.003728   -0.005226    0.014637
H    -1.177530    0.016052   -2.016842    0.015102   -0.005999    0.016671
H     3.032421   -0.500743    0.180261    0.177210    0.479996   -0.473795
H    -0.899844   -1.553823   -0.030096    0.012464    0.018125    0.001861
H    -2.078559   -0.604764    0.858375   -0.054442   -0.020034   -0.012773
H     0.963348   -0.424799   -1.113561   -0.219301   -0.011135   -0.044880
H    -0.595523    1.408848    0.650117    0.104404   -0.051072    0.289187
17
* Frequency(6) -1150.4737
C    -1.924551   -0.059274   -1.225288    0.003165    0.003482   -0.000679
C     2.232715    0.136266    0.519455    0.303916    0.971030   -0.978848
C    -1.318201   -0.549774    0.083760   -0.022087    0.003903    0.020555
C     1.029742    0.315900   -0.320850   -0.108277   -0.171674    0.065332
C    -0.220553    0.378735    0.577423    0.008824   -0.014229   -0.071169
O     1.219917   -0.924107    1.707100   -0.482025   -0.181240    0.434569
O     1.766350    1.408911   -0.644456    0.252355   -0.241032    0.253720
O     0.243387    0.007092    1.881120    0.108574   -0.163035    0.020366
H     2.435333    0.826068    1.319850   -0.328209   -0.558885    0.466094
H    -2.371562    0.927732   -1.100240    0.000246    0.000904   -0.008429
H    -2.702654   -0.737776   -1.570406    0.003728   -0.005226    0.014637
H    -1.175814    0.015370   -2.014947    0.015102   -0.005999    0.016671
H     3.052560   -0.446194    0.126417    0.177210    0.479996   -0.473795
H    -0.898428   -1.551763   -0.029884    0.012464    0.018125    0.001861
H    -2.084746   -0.607041    0.856923   -0.054442   -0.020034   -0.012773
H     0.938425   -0.426064   -1.118661   -0.219301   -0.011135   -0.044880
H    -0.583658    1.403044    0.682981    0.104404   -0.051072    0.289187
