15
* (null), Energy   -1000.0000000
C     2.819245    0.667400    1.014780    0.100225   -0.059768   -0.256076
C    -0.044389    1.036086    3.828216   -0.467067   -0.118332   -0.018777
C     1.798651   -0.158750    0.853746    0.001397    0.045617   -0.172644
C     0.098978    1.168817    2.317203    0.234422    0.078507    0.068579
C     0.498693   -0.150944    1.628754    0.143541    0.055796    0.066484
O    -0.522042   -0.700702    0.896461    0.016523    0.008638    0.278841
H     3.719089    0.553860    0.425948   -0.014058   -0.072822   -0.427961
H     2.808899    1.475126    1.734854    0.301627   -0.134006   -0.172002
H    -0.347367    1.978931    4.281736   -0.511740   -0.136406   -0.010265
H     0.899965    0.732661    4.283723   -0.714962   -0.339123    0.348799
H    -0.795219    0.286227    4.080408   -0.698900   -0.036672   -0.462576
H     1.857464   -0.962818    0.127751   -0.186284    0.120658   -0.271144
H    -0.849548    1.475502    1.876902    0.528494    0.436684   -0.318822
H     0.821518    1.946223    2.073910    0.574911   -0.097531    0.526820
H     0.620564   -0.921695    2.422006    0.309501    0.100430    0.084242
15
* Frequency(6) -100.5700
C     2.830635    0.660607    0.985678    0.100225   -0.059768   -0.256076
C    -0.097469    1.022638    3.826082   -0.467067   -0.118332   -0.018777
C     1.798810   -0.153566    0.834126    0.001397    0.045617   -0.172644
C     0.125619    1.177739    2.324996    0.234422    0.078507    0.068579
C     0.515005   -0.144603    1.636309    0.143541    0.055796    0.066484
O    -0.520164   -0.699721    0.928150    0.016523    0.008638    0.278841
H     3.717491    0.545585    0.377313   -0.014058   -0.072822   -0.427961
H     2.843177    1.459896    1.715307    0.301627   -0.134006   -0.172002
H    -0.405524    1.963429    4.280569   -0.511740   -0.136406   -0.010265
H     0.818713    0.694122    4.323362   -0.714962   -0.339123    0.348799
H    -0.874646    0.282060    4.027839   -0.698900   -0.036672   -0.462576
H     1.836293   -0.949106    0.096937   -0.186284    0.120658   -0.271144
H    -0.789488    1.525129    1.840669    0.528494    0.436684   -0.318822
H     0.886853    1.935139    2.133780    0.574911   -0.097531    0.526820
H     0.655737   -0.910282    2.431580    0.309501    0.100430    0.084242
15
* Frequency(6) -100.5700
C     2.840791    0.654551    0.959730    0.100225   -0.059768   -0.256076
C    -0.144797    1.010648    3.824180   -0.467067   -0.118332   -0.018777
C     1.798952   -0.148944    0.816632    0.001397    0.045617   -0.172644
C     0.149373    1.185694    2.331945    0.234422    0.078507    0.068579
C     0.529550   -0.138950    1.643046    0.143541    0.055796    0.066484
O    -0.518490   -0.698845    0.956405    0.016523    0.008638    0.278841
H     3.716067    0.538205    0.333947   -0.014058   -0.072822   -0.427961
H     2.873741    1.446318    1.697878    0.301627   -0.134006   -0.172002
H    -0.457378    1.949607    4.279529   -0.511740   -0.136406   -0.010265
H     0.746266    0.659759    4.358706   -0.714962   -0.339123    0.348799
H    -0.945465    0.278344    3.980966   -0.698900   -0.036672   -0.462576
H     1.817417   -0.936880    0.069462   -0.186284    0.120658   -0.271144
H    -0.735936    1.569378    1.808363    0.528494    0.436684   -0.318822
H     0.945109    1.925256    2.187163    0.574911   -0.097531    0.526820
H     0.687098   -0.900105    2.440116    0.309501    0.100430    0.084242
15
* Frequency(6) -100.5700
C     2.848612    0.649887    0.939747    0.100225   -0.059768   -0.256076
C    -0.181244    1.001414    3.822715   -0.467067   -0.118332   -0.018777
C     1.799061   -0.145384    0.803160    0.001397    0.045617   -0.172644
C     0.167666    1.191821    2.337297    0.234422    0.078507    0.068579
C     0.540751   -0.134596    1.648234    0.143541    0.055796    0.066484
O    -0.517201   -0.698171    0.978164    0.016523    0.008638    0.278841
H     3.714970    0.532523    0.300552   -0.014058   -0.072822   -0.427961
H     2.897278    1.435861    1.684456    0.301627   -0.134006   -0.172002
H    -0.497311    1.938963    4.278728   -0.511740   -0.136406   -0.010265
H     0.690475    0.633295    4.385924   -0.714962   -0.339123    0.348799
H    -1.000003    0.275482    3.944870   -0.698900   -0.036672   -0.462576
H     1.802881   -0.927465    0.048304   -0.186284    0.120658   -0.271144
H    -0.694695    1.603454    1.783484    0.528494    0.436684   -0.318822
H     0.989971    1.917645    2.228272    0.574911   -0.097531    0.526820
H     0.711250   -0.892269    2.446690    0.309501    0.100430    0.084242
15
* Frequency(6) -100.5700
C     2.853250    0.647121    0.927896    0.100225   -0.059768   -0.256076
C    -0.202861    0.995937    3.821846   -0.467067   -0.118332   -0.018777
C     1.799125   -0.143273    0.795170    0.001397    0.045617   -0.172644
C     0.178516    1.195454    2.340471    0.234422    0.078507    0.068579
C     0.547395   -0.132013    1.651311    0.143541    0.055796    0.066484
O    -0.516436   -0.697771    0.991069    0.016523    0.008638    0.278841
H     3.714319    0.529153    0.280745   -0.014058   -0.072822   -0.427961
H     2.911238    1.429659    1.676495    0.301627   -0.134006   -0.172002
H    -0.520995    1.932650    4.278253   -0.511740   -0.136406   -0.010265
H     0.657385    0.617600    4.402067   -0.714962   -0.339123    0.348799
H    -1.032349    0.273785    3.923461   -0.698900   -0.036672   -0.462576
H     1.794259   -0.921880    0.035754   -0.186284    0.120658   -0.271144
H    -0.670236    1.623665    1.768729    0.528494    0.436684   -0.318822
H     1.016579    1.913131    2.252655    0.574911   -0.097531    0.526820
H     0.725574   -0.887621    2.450589    0.309501    0.100430    0.084242
15
* Frequency(6) -100.5700
C     2.854204    0.646552    0.925459    0.100225   -0.059768   -0.256076
C    -0.207305    0.994811    3.821667   -0.467067   -0.118332   -0.018777
C     1.799138   -0.142839    0.793527    0.001397    0.045617   -0.172644
C     0.180746    1.196201    2.341123    0.234422    0.078507    0.068579
C     0.548760   -0.131482    1.651944    0.143541    0.055796    0.066484
O    -0.516279   -0.697689    0.993722    0.016523    0.008638    0.278841
H     3.714186    0.528460    0.276673   -0.014058   -0.072822   -0.427961
H     2.914108    1.428384    1.674859    0.301627   -0.134006   -0.172002
H    -0.525864    1.931352    4.278155   -0.511740   -0.136406   -0.010265
H     0.650583    0.614374    4.405386   -0.714962   -0.339123    0.348799
H    -1.038999    0.273436    3.919060   -0.698900   -0.036672   -0.462576
H     1.792487   -0.920732    0.033175   -0.186284    0.120658   -0.271144
H    -0.665207    1.627820    1.765695    0.528494    0.436684   -0.318822
H     1.022049    1.912203    2.257667    0.574911   -0.097531    0.526820
H     0.728519   -0.886665    2.451390    0.309501    0.100430    0.084242
15
* Frequency(6) -100.5700
C     2.851369    0.648243    0.932702    0.100225   -0.059768   -0.256076
C    -0.194094    0.998158    3.822198   -0.467067   -0.118332   -0.018777
C     1.799099   -0.144129    0.798410    0.001397    0.045617   -0.172644
C     0.174116    1.193981    2.339184    0.234422    0.078507    0.068579
C     0.544700   -0.133061    1.650063    0.143541    0.055796    0.066484
O    -0.516746   -0.697933    0.985835    0.016523    0.008638    0.278841
H     3.714583    0.530519    0.288778   -0.014058   -0.072822   -0.427961
H     2.905577    1.432174    1.679724    0.301627   -0.134006   -0.172002
H    -0.511390    1.935210    4.278446   -0.511740   -0.136406   -0.010265
H     0.670805    0.623965    4.395521   -0.714962   -0.339123    0.348799
H    -1.019231    0.274473    3.932143   -0.698900   -0.036672   -0.462576
H     1.797756   -0.924145    0.040844   -0.186284    0.120658   -0.271144
H    -0.680155    1.615469    1.774713    0.528494    0.436684   -0.318822
H     1.005789    1.914962    2.242767    0.574911   -0.097531    0.526820
H     0.719765   -0.889506    2.449008    0.309501    0.100430    0.084242
15
* Frequency(6) -100.5700
C     2.845053    0.652009    0.948839    0.100225   -0.059768   -0.256076
C    -0.164661    1.005615    3.823381   -0.467067   -0.118332   -0.018777
C     1.799011   -0.147004    0.809290    0.001397    0.045617   -0.172644
C     0.159343    1.189033    2.334862    0.234422    0.078507    0.068579
C     0.535655   -0.136577    1.645874    0.143541    0.055796    0.066484
O    -0.517787   -0.698478    0.968263    0.016523    0.008638    0.278841
H     3.715469    0.535108    0.315747   -0.014058   -0.072822   -0.427961
H     2.886569    1.440619    1.690563    0.301627   -0.134006   -0.172002
H    -0.479142    1.943806    4.279093   -0.511740   -0.136406   -0.010265
H     0.715860    0.645336    4.373540   -0.714962   -0.339123    0.348799
H    -0.975188    0.276784    3.961293   -0.698900   -0.036672   -0.462576
H     1.809495   -0.931749    0.057930   -0.186284    0.120658   -0.271144
H    -0.713460    1.587950    1.794804    0.528494    0.436684   -0.318822
H     0.969559    1.921108    2.209568    0.574911   -0.097531    0.526820
H     0.700261   -0.895834    2.443699    0.309501    0.100430    0.084242
15
* Frequency(6) -100.5700
C     2.835941    0.657443    0.972122    0.100225   -0.059768   -0.256076
C    -0.122194    1.016374    3.825088   -0.467067   -0.118332   -0.018777
C     1.798884   -0.151151    0.824987    0.001397    0.045617   -0.172644
C     0.138029    1.181895    2.328627    0.234422    0.078507    0.068579
C     0.522604   -0.141650    1.639829    0.143541    0.055796    0.066484
O    -0.519290   -0.699263    0.942911    0.016523    0.008638    0.278841
H     3.716747    0.541730    0.354658   -0.014058   -0.072822   -0.427961
H     2.859145    1.452803    1.706202    0.301627   -0.134006   -0.172002
H    -0.432614    1.956208    4.280026   -0.511740   -0.136406   -0.010265
H     0.780865    0.676170    4.341827   -0.714962   -0.339123    0.348799
H    -0.911643    0.280118    4.003352   -0.698900   -0.036672   -0.462576
H     1.826432   -0.942719    0.082583   -0.186284    0.120658   -0.271144
H    -0.761511    1.548246    1.823792    0.528494    0.436684   -0.318822
H     0.917287    1.929976    2.161668    0.574911   -0.097531    0.526820
H     0.672121   -0.904966    2.436040    0.309501    0.100430    0.084242
15
* Frequency(6) -100.5700
C     2.825019    0.663957    1.000027    0.100225   -0.059768   -0.256076
C    -0.071296    1.029269    3.827135   -0.467067   -0.118332   -0.018777
C     1.798732   -0.156122    0.843801    0.001397    0.045617   -0.172644
C     0.112483    1.173340    2.321153    0.234422    0.078507    0.068579
C     0.506962   -0.147730    1.632584    0.143541    0.055796    0.066484
O    -0.521090   -0.700205    0.912524    0.016523    0.008638    0.278841
H     3.718279    0.549665    0.401294   -0.014058   -0.072822   -0.427961
H     2.826275    1.467406    1.724945    0.301627   -0.134006   -0.172002
H    -0.376848    1.971073    4.281145   -0.511740   -0.136406   -0.010265
H     0.858777    0.713125    4.303817   -0.714962   -0.339123    0.348799
H    -0.835481    0.284115    4.053760   -0.698900   -0.036672   -0.462576
H     1.846732   -0.955867    0.112131   -0.186284    0.120658   -0.271144
H    -0.819103    1.500659    1.858535    0.528494    0.436684   -0.318822
H     0.854637    1.940604    2.104259    0.574911   -0.097531    0.526820
H     0.638393   -0.915910    2.426859    0.309501    0.100430    0.084242
15
* Frequency(6) -100.5700
C     2.813471    0.670843    1.029532    0.100225   -0.059768   -0.256076
C    -0.017483    1.042903    3.829298   -0.467067   -0.118332   -0.018777
C     1.798571   -0.161378    0.863692    0.001397    0.045617   -0.172644
C     0.085474    1.164295    2.313252    0.234422    0.078507    0.068579
C     0.490423   -0.154159    1.624924    0.143541    0.055796    0.066484
O    -0.522994   -0.701200    0.880397    0.016523    0.008638    0.278841
H     3.719899    0.558056    0.450602   -0.014058   -0.072822   -0.427961
H     2.791523    1.482845    1.744763    0.301627   -0.134006   -0.172002
H    -0.317887    1.986789    4.282327   -0.511740   -0.136406   -0.010265
H     0.941153    0.752197    4.263630   -0.714962   -0.339123    0.348799
H    -0.754957    0.288340    4.107056   -0.698900   -0.036672   -0.462576
H     1.868195   -0.969769    0.143371   -0.186284    0.120658   -0.271144
H    -0.879994    1.450346    1.895269    0.528494    0.436684   -0.318822
H     0.788398    1.951841    2.043561    0.574911   -0.097531    0.526820
H     0.602734   -0.927481    2.417153    0.309501    0.100430    0.084242
15
* Frequency(6) -100.5700
C     2.802549    0.677356    1.057437    0.100225   -0.059768   -0.256076
C     0.033415    1.055798    3.831344   -0.467067   -0.118332   -0.018777
C     1.798419   -0.166349    0.882506    0.001397    0.045617   -0.172644
C     0.059928    1.155740    2.305779    0.234422    0.078507    0.068579
C     0.474781   -0.160239    1.617679    0.143541    0.055796    0.066484
O    -0.524794   -0.702141    0.850011    0.016523    0.008638    0.278841
H     3.721431    0.565991    0.497239   -0.014058   -0.072822   -0.427961
H     2.758653    1.497449    1.763506    0.301627   -0.134006   -0.172002
H    -0.262121    2.001654    4.283446   -0.511740   -0.136406   -0.010265
H     1.019064    0.789153    4.225620   -0.714962   -0.339123    0.348799
H    -0.678795    0.292336    4.157465   -0.698900   -0.036672   -0.462576
H     1.888495   -0.982918    0.172919   -0.186284    0.120658   -0.271144
H    -0.937586    1.402759    1.930012    0.528494    0.436684   -0.318822
H     0.725748    1.962469    1.986151    0.574911   -0.097531    0.526820
H     0.569006   -0.938425    2.407973    0.309501    0.100430    0.084242
15
* Frequency(6) -100.5700
C     2.793436    0.682790    1.080720    0.100225   -0.059768   -0.256076
C     0.075882    1.066557    3.833051   -0.467067   -0.118332   -0.018777
C     1.798292   -0.170497    0.898203    0.001397    0.045617   -0.172644
C     0.038614    1.148601    2.299544    0.234422    0.078507    0.068579
C     0.461730   -0.165312    1.611634    0.143541    0.055796    0.066484
O    -0.526297   -0.702927    0.824658    0.016523    0.008638    0.278841
H     3.722709    0.572612    0.536150   -0.014058   -0.072822   -0.427961
H     2.731229    1.509633    1.779145    0.301627   -0.134006   -0.172002
H    -0.215592    2.014056    4.284379   -0.511740   -0.136406   -0.010265
H     1.084070    0.819986    4.193906   -0.714962   -0.339123    0.348799
H    -0.615250    0.295671    4.199523   -0.698900   -0.036672   -0.462576
H     1.905432   -0.993888    0.197572   -0.186284    0.120658   -0.271144
H    -0.985637    1.363055    1.959000    0.528494    0.436684   -0.318822
H     0.673476    1.971337    1.938252    0.574911   -0.097531    0.526820
H     0.540866   -0.947556    2.400314    0.309501    0.100430    0.084242
15
* Frequency(6) -100.5700
C     2.787121    0.686557    1.096857    0.100225   -0.059768   -0.256076
C     0.105315    1.074014    3.834235   -0.467067   -0.118332   -0.018777
C     1.798204   -0.173371    0.909082    0.001397    0.045617   -0.172644
C     0.023841    1.143654    2.295222    0.234422    0.078507    0.068579
C     0.452685   -0.168828    1.607444    0.143541    0.055796    0.066484
O    -0.527338   -0.703471    0.807087    0.016523    0.008638    0.278841
H     3.723595    0.577202    0.563119   -0.014058   -0.072822   -0.427961
H     2.712221    1.518077    1.789984    0.301627   -0.134006   -0.172002
H    -0.183344    2.022652    4.285026   -0.511740   -0.136406   -0.010265
H     1.129125    0.841357    4.171926   -0.714962   -0.339123    0.348799
H    -0.571207    0.297982    4.228673   -0.698900   -0.036672   -0.462576
H     1.917172   -1.001492    0.214658   -0.186284    0.120658   -0.271144
H    -1.018942    1.335536    1.979091    0.528494    0.436684   -0.318822
H     0.637247    1.977483    1.905053    0.574911   -0.097531    0.526820
H     0.521362   -0.953885    2.395005    0.309501    0.100430    0.084242
15
* Frequency(6) -100.5700
C     2.784286    0.688247    1.104100    0.100225   -0.059768   -0.256076
C     0.118526    1.077361    3.834766   -0.467067   -0.118332   -0.018777
C     1.798164   -0.174662    0.913966    0.001397    0.045617   -0.172644
C     0.017211    1.141434    2.293282    0.234422    0.078507    0.068579
C     0.448625   -0.170406    1.605564    0.143541    0.055796    0.066484
O    -0.527805   -0.703715    0.799200    0.016523    0.008638    0.278841
H     3.723993    0.579261    0.575223   -0.014058   -0.072822   -0.427961
H     2.703690    1.521868    1.794849    0.301627   -0.134006   -0.172002
H    -0.168870    2.026510    4.285316   -0.511740   -0.136406   -0.010265
H     1.149347    0.850949    4.162061   -0.714962   -0.339123    0.348799
H    -0.551440    0.299019    4.241757   -0.698900   -0.036672   -0.462576
H     1.922440   -1.004904    0.222327   -0.186284    0.120658   -0.271144
H    -1.033889    1.323185    1.988108    0.528494    0.436684   -0.318822
H     0.620986    1.980242    1.890152    0.574911   -0.097531    0.526820
H     0.512608   -0.956726    2.392623    0.309501    0.100430    0.084242
15
* Frequency(6) -100.5700
C     2.785239    0.687679    1.101663    0.100225   -0.059768   -0.256076
C     0.114082    1.076235    3.834587   -0.467067   -0.118332   -0.018777
C     1.798178   -0.174228    0.912323    0.001397    0.045617   -0.172644
C     0.019441    1.142181    2.293935    0.234422    0.078507    0.068579
C     0.449991   -0.169875    1.606196    0.143541    0.055796    0.066484
O    -0.527648   -0.703633    0.801853    0.016523    0.008638    0.278841
H     3.723859    0.578568    0.571151   -0.014058   -0.072822   -0.427961
H     2.706560    1.520593    1.793213    0.301627   -0.134006   -0.172002
H    -0.173739    2.025212    4.285219   -0.511740   -0.136406   -0.010265
H     1.142545    0.847722    4.165379   -0.714962   -0.339123    0.348799
H    -0.558089    0.298670    4.237356   -0.698900   -0.036672   -0.462576
H     1.920668   -1.003756    0.219748   -0.186284    0.120658   -0.271144
H    -1.028861    1.327340    1.985075    0.528494    0.436684   -0.318822
H     0.626456    1.979314    1.895165    0.574911   -0.097531    0.526820
H     0.515553   -0.955770    2.393424    0.309501    0.100430    0.084242
15
* Frequency(6) -100.5700
C     2.789878    0.684912    1.089812    0.100225   -0.059768   -0.256076
C     0.092465    1.070758    3.833718   -0.467067   -0.118332   -0.018777
C     1.798242   -0.172116    0.904333    0.001397    0.045617   -0.172644
C     0.030291    1.145814    2.297109    0.234422    0.078507    0.068579
C     0.456634   -0.167293    1.609273    0.143541    0.055796    0.066484
O    -0.526883   -0.703233    0.814758    0.016523    0.008638    0.278841
H     3.723208    0.575198    0.551344   -0.014058   -0.072822   -0.427961
H     2.720520    1.514390    1.785252    0.301627   -0.134006   -0.172002
H    -0.197423    2.018899    4.284744   -0.511740   -0.136406   -0.010265
H     1.109455    0.832027    4.181522   -0.714962   -0.339123    0.348799
H    -0.590436    0.296973    4.215947   -0.698900   -0.036672   -0.462576
H     1.912046   -0.998172    0.207199   -0.186284    0.120658   -0.271144
H    -1.004401    1.347551    1.970319    0.528494    0.436684   -0.318822
H     0.653064    1.974800    1.919547    0.574911   -0.097531    0.526820
H     0.529877   -0.951122    2.397323    0.309501    0.100430    0.084242
15
* Frequency(6) -100.5700
C     2.797699    0.680248    1.069829    0.100225   -0.059768   -0.256076
C     0.056018    1.061524    3.832253   -0.467067   -0.118332   -0.018777
C     1.798351   -0.168557    0.890860    0.001397    0.045617   -0.172644
C     0.048584    1.151940    2.302460    0.234422    0.078507    0.068579
C     0.467835   -0.162939    1.614461    0.143541    0.055796    0.066484
O    -0.525594   -0.702559    0.836517    0.016523    0.008638    0.278841
H     3.722111    0.569515    0.517949   -0.014058   -0.072822   -0.427961
H     2.744057    1.503933    1.771830    0.301627   -0.134006   -0.172002
H    -0.237356    2.008255    4.283943   -0.511740   -0.136406   -0.010265
H     1.053664    0.805564    4.208740   -0.714962   -0.339123    0.348799
H    -0.644974    0.294111    4.179850   -0.698900   -0.036672   -0.462576
H     1.897510   -0.988757    0.186040   -0.186284    0.120658   -0.271144
H    -0.963161    1.381627    1.945440    0.528494    0.436684   -0.318822
H     0.697926    1.967189    1.960657    0.574911   -0.097531    0.526820
H     0.554029   -0.943285    2.403897    0.309501    0.100430    0.084242
15
* Frequency(6) -100.5700
C     2.807855    0.674192    1.043881    0.100225   -0.059768   -0.256076
C     0.008690    1.049534    3.830350   -0.467067   -0.118332   -0.018777
C     1.798493   -0.163934    0.873367    0.001397    0.045617   -0.172644
C     0.072338    1.159895    2.309409    0.234422    0.078507    0.068579
C     0.482380   -0.157285    1.621198    0.143541    0.055796    0.066484
O    -0.523920   -0.701684    0.864772    0.016523    0.008638    0.278841
H     3.720687    0.562136    0.474584   -0.014058   -0.072822   -0.427961
H     2.774621    1.490355    1.754401    0.301627   -0.134006   -0.172002
H    -0.289211    1.994433    4.282903   -0.511740   -0.136406   -0.010265
H     0.981217    0.771201    4.244084   -0.714962   -0.339123    0.348799
H    -0.715793    0.290395    4.132978   -0.698900   -0.036672   -0.462576
H     1.878634   -0.976531    0.158565   -0.186284    0.120658   -0.271144
H    -0.909609    1.425876    1.913134    0.528494    0.436684   -0.318822
H     0.756182    1.957306    2.014039    0.574911   -0.097531    0.526820
H     0.585390   -0.933109    2.412433    0.309501    0.100430    0.084242
15
* Frequency(6) -100.5700
C     2.819245    0.667400    1.014780    0.100225   -0.059768   -0.256076
C    -0.044389    1.036086    3.828216   -0.467067   -0.118332   -0.018777
C     1.798651   -0.158750    0.853746    0.001397    0.045617   -0.172644
C     0.098978    1.168817    2.317203    0.234422    0.078507    0.068579
C     0.498693   -0.150944    1.628754    0.143541    0.055796    0.066484
O    -0.522042   -0.700702    0.896461    0.016523    0.008638    0.278841
H     3.719089    0.553860    0.425948   -0.014058   -0.072822   -0.427961
H     2.808899    1.475126    1.734854    0.301627   -0.134006   -0.172002
H    -0.347367    1.978931    4.281736   -0.511740   -0.136406   -0.010265
H     0.899965    0.732661    4.283723   -0.714962   -0.339123    0.348799
H    -0.795219    0.286227    4.080408   -0.698900   -0.036672   -0.462576
H     1.857464   -0.962818    0.127751   -0.186284    0.120658   -0.271144
H    -0.849548    1.475502    1.876902    0.528494    0.436684   -0.318822
H     0.821518    1.946223    2.073910    0.574911   -0.097531    0.526820
H     0.620564   -0.921695    2.422006    0.309501    0.100430    0.084242
