17
Coordinates from ORCA-job freq E -421.377065481508
  C       1.969304     -0.284116      0.241458
  C      -0.184650     -0.160919     -1.062526
  C       1.247956      0.258952     -0.987704
  C      -2.055656      1.085952      0.299800
  C      -1.036196      0.033589      0.173671
  O      -0.981111     -2.193914     -0.113265
  O      -0.836994      1.099209      1.018228
  O      -1.220808     -1.195042      0.817982
  H      -0.325554     -1.481342     -0.887576
  H       1.485618      0.064361      1.150283
  H       1.956676     -1.371849      0.239070
  H       3.002895      0.051241      0.248931
  H      -0.687545      0.062137     -1.998720
  H       1.286374      1.356838     -0.959167
  H       1.758089     -0.052882     -1.903211
  H      -2.936365      0.892354      0.897610
  H      -2.146135      1.841791     -0.470541
17
Coordinates from ORCA-job freq E -421.378734877582
  C       1.954176     -0.310784      0.248117
  C      -0.181750     -0.137975     -1.082754
  C       1.260644      0.253367     -0.988645
  C      -2.085323      1.063324      0.299959
  C      -1.020887      0.064118      0.161225
  O      -0.976047     -2.147027     -0.104030
  O      -0.833210      1.162855      0.967144
  O      -1.101527     -1.149935      0.855502
  H      -0.339426     -1.454661     -0.910388
  H       1.468002      0.042449      1.154868
  H       1.915928     -1.398816      0.244403
  H       2.995891     -0.000404      0.273034
  H      -0.678734      0.099271     -2.018631
  H       1.315735      1.349764     -0.956639
  H       1.777371     -0.061090     -1.898530
  H      -2.925490      0.839758      0.943848
  H      -2.249454      1.792148     -0.484160
17
Coordinates from ORCA-job freq E -421.379692191720
  C       1.959723     -0.339191      0.249811
  C      -0.178045     -0.113879     -1.087230
  C       1.275541      0.242954     -0.983086
  C      -2.128194      1.038687      0.291280
  C      -1.018803      0.095564      0.153130
  O      -0.968091     -2.100016     -0.085049
  O      -0.861954      1.215834      0.935504
  O      -1.003904     -1.100689      0.887084
  H      -0.361339     -1.420542     -0.930616
  H       1.492059      0.026112      1.162602
  H       1.891269     -1.426656      0.251127
  H       3.010997     -0.058882      0.267556
  H      -0.663922      0.152419     -2.021472
  H       1.347821      1.337752     -0.952669
  H       1.785849     -0.074713     -1.894570
  H      -2.939999      0.784255      0.959909
  H      -2.343112      1.747352     -0.498989
17
Coordinates from ORCA-job freq E -421.379819060843
  C       1.956135     -0.353970      0.253398
  C      -0.177688     -0.093296     -1.093131
  C       1.283229      0.236041     -0.981677
  C      -2.151065      1.020814      0.290400
  C      -1.015324      0.113035      0.149216
  O      -0.931269     -2.081046     -0.072682
  O      -0.879079      1.246469      0.916360
  O      -0.962991     -1.075227      0.895444
  H      -0.367826     -1.393660     -0.947355
  H       1.512332      0.040983      1.165882
  H       1.846388     -1.438096      0.272589
  H       3.017586     -0.113458      0.256805
  H      -0.654983      0.198358     -2.024334
  H       1.373961      1.329439     -0.957257
  H       1.789449     -0.092692     -1.891448
  H      -2.943467      0.747445      0.974700
  H      -2.399489      1.715224     -0.502588
17
Coordinates from ORCA-job freq E -421.379864743686
  C       1.964676     -0.354695      0.254341
  C      -0.177728     -0.096027     -1.091013
  C       1.284194      0.234558     -0.976996
  C      -2.157389      1.018869      0.286685
  C      -1.019496      0.115018      0.146514
  O      -0.941964     -2.075631     -0.073132
  O      -0.882789      1.245665      0.917107
  O      -0.957810     -1.070572      0.897785
  H      -0.379728     -1.392101     -0.954331
  H       1.531739      0.044258      1.170604
  H       1.851012     -1.438648      0.278893
  H       3.027536     -0.118693      0.247638
  H      -0.651799      0.199197     -2.022963
  H       1.371058      1.328071     -0.954702
  H       1.788694     -0.090617     -1.888552
  H      -2.949264      0.740710      0.969839
  H      -2.405045      1.716999     -0.503394
17
Coordinates from ORCA-job freq E -421.379866480278
  C       1.962160     -0.363098      0.251433
  C      -0.177991     -0.095185     -1.092841
  C       1.283531      0.236589     -0.976068
  C      -2.160275      1.019515      0.284226
  C      -1.018954      0.120767      0.144666
  O      -0.927283     -2.072083     -0.059871
  O      -0.882785      1.257733      0.906546
  O      -0.952476     -1.059611      0.903617
  H      -0.373942     -1.389881     -0.948628
  H       1.521826      0.021644      1.170342
  H       1.854762     -1.447936      0.262132
  H       3.023578     -0.120766      0.253250
  H      -0.651549      0.195642     -2.026412
  H       1.368285      1.329970     -0.943611
  H       1.789583     -0.080399     -1.889517
  H      -2.946760      0.742036      0.973846
  H      -2.415812      1.711423     -0.508787
17
Coordinates from ORCA-job freq E -421.379866829282
  C       1.963692     -0.357929      0.252221
  C      -0.178206     -0.098095     -1.091562
  C       1.282793      0.236495     -0.976532
  C      -2.156891      1.021704      0.285418
  C      -1.020314      0.116401      0.145624
  O      -0.935515     -2.076393     -0.066911
  O      -0.880280      1.248933      0.913270
  O      -0.962400     -1.067503      0.899995
  H      -0.372997     -1.393322     -0.949131
  H       1.524629      0.030219      1.170244
  H       1.857524     -1.442855      0.267243
  H       3.024883     -0.114548      0.251469
  H      -0.653006      0.191209     -2.024971
  H       1.366485      1.330071     -0.947764
  H       1.788500     -0.082518     -1.889533
  H      -2.947662      0.746059      0.970877
  H      -2.405337      1.718432     -0.505634
17
Coordinates from ORCA-job freq E -421.379869273665
  C       1.963329     -0.358490      0.252139
  C      -0.178228     -0.097829     -1.091795
  C       1.282815      0.236445     -0.976596
  C      -2.157082      1.021585      0.285361
  C      -1.020026      0.116892      0.145544
  O      -0.934795     -2.075869     -0.066097
  O      -0.880342      1.249882      0.912574
  O      -0.960948     -1.066615      0.900444
  H      -0.373003     -1.393062     -0.948992
  H       1.523297      0.028513      1.170160
  H       1.857929     -1.443499      0.266217
  H       3.024342     -0.114348      0.252283
  H      -0.653051      0.191497     -2.025187
  H       1.366700      1.329999     -0.947460
  H       1.788634     -0.082382     -1.889598
  H      -2.947441      0.745847      0.971261
  H      -2.406234      1.717795     -0.505932
17
Coordinates from ORCA-job freq E -421.379868437191
  C       1.963466     -0.358644      0.252057
  C      -0.178233     -0.097774     -1.091717
  C       1.282810      0.236477     -0.976508
  C      -2.157217      1.021564      0.285227
  C      -1.020068      0.116975      0.145578
  O      -0.934701     -2.075800     -0.065874
  O      -0.880533      1.250055      0.912499
  O      -0.960944     -1.066468      0.900576
  H      -0.373095     -1.393021     -0.948859
  H       1.523588      0.028248      1.170199
  H       1.858070     -1.443655      0.266011
  H       3.024478     -0.114501      0.252073
  H      -0.653006      0.191568     -2.025126
  H       1.366672      1.330024     -0.947161
  H       1.788579     -0.082172     -1.889597
  H      -2.947587      0.745840      0.971117
  H      -2.406381      1.717646     -0.506174
