17
Coordinates from ORCA-job freq
  C           2.30584919496466      0.47376803704608      0.12442873636054
  C          -0.84265198710573     -1.24193713656667     -0.82272936181405
  C           1.57353168092041      0.52602745968987     -1.17691817669307
  C          -1.54779903304299      1.08211452044594      0.61787123409335
  C          -1.55999640964553     -0.28065707013870      0.11678592115663
  O          -2.03237983223037     -2.06040562677760     -0.73965897896408
  O          -0.95143564619402      0.05199356940007      1.36523588500225
  O          -2.71396030538880     -1.06063991299939      0.05821191406429
  H          -0.73047697782518     -0.73875296163347     -1.78786026137926
  H           1.47533031703060      0.26351349037262      0.81880214633030
  H           2.51629701877034     -0.56930990365410      0.45850783206257
  H           3.22631352951388      0.99263557714344      0.35627120991298
  H           0.03918367632913     -1.83041329489024     -0.54530147419668
  H           1.27352810914381      1.54156489137366     -1.37952842830965
  H           1.68533964026351     -0.29093823390792     -1.86874600385136
  H          -2.49229543321494      1.42090502067993      1.03601306063970
  H          -1.04443454228877      1.83417457441650      0.01919074558555
