15
Coordinates from ORCA-job freq E -270.974714268626
  C           2.21582220568653     -0.38860493785342      0.09355044060246
  C           0.91824940842936     -0.07766401994737     -0.59222715112317
  C          -0.03673790426202      0.92293463362456      0.06563269149176
  C          -2.51576480684791     -0.17460718435793     -0.11664792734984
  C          -1.10289776816576     -0.12566626977510      0.22772963821359
  O          -2.03819409395837     -0.22529919655814      1.23784040033028
  H          -0.09911577622253     -0.98843524295352     -0.23908408575494
  H           2.72154117571763     -1.23576696383322     -0.36719735383996
  H           2.89496841659778      0.46963560648520      0.05470366733889
  H           2.05065315581044     -0.62148834700519      1.14724725780614
  H           0.93660584450039     -0.05391455821208     -1.67804534488813
  H           0.33047606594797      1.25927309369484      1.03580315402923
  H          -0.31252818948728      1.78996269500473     -0.53284980813973
  H          -2.95154796470408     -1.09599856994092     -0.48225289533161
  H          -3.04039376904218      0.73987026162756     -0.37067968338498
