17
Coordinates from ORCA-job freq E -421.375096018958
  C          -1.49117692892866      1.07892005535964      0.49673286657900
  C          -1.33428759780063     -0.18989645942134     -0.33425134877967
  C           1.69249336610002      0.76232921641509     -0.90007842913455
  C           1.24250935787282     -0.46966335621724     -0.27069343840282
  C          -0.14074155162148     -1.03912352032638      0.06014918084338
  O           1.17626227058320     -1.72918883026972      1.70677998523849
  O           1.77608218264806     -0.53929697744327     -1.51660660765080
  O          -0.06888092891045     -1.16721424618018      1.46463445357522
  H           1.74475360799133     -1.08776637196055      0.79959718672773
  H          -2.31488363112589      1.68080710134978      0.11580709251233
  H          -0.58865086376639      1.68924486466384      0.47646710227428
  H          -1.69628022354281      0.83490343060655      1.53670021412319
  H          -1.21985275971107      0.04721257182199     -1.39556334044467
  H          -2.23377615694791     -0.80204762008499     -0.25274438077019
  H           2.64336521440009      1.19041100106969     -0.61250174682581
  H           0.97839293557659      1.42777756745293     -1.37037329791600
  H          -0.17575329281686     -2.02814342683583     -0.40850349194910
