8
Coordinates from ORCA-job freq E -191.861395689709
  C           1.41318624358823      0.02332757035256     -0.21973714529379
  C           0.12067277970888     -0.16022662769758     -0.08194869441882
  C          -1.23178314637884      0.16280915727461      0.27377780051221
  O          -0.81135414798267     -1.10267171836153     -0.31442040026746
  H           2.03692961260648     -0.75125122522587     -0.63960159637502
  H           1.85600281409809      0.95607443799086      0.08938967494106
  H          -1.83129210628711      0.78163434849418     -0.38149245116836
  H          -1.55236004935308      0.09030505717276      1.30515081207019
