17
Coordinates from ORCA-job freq E -421.486697422466
  C           2.16525436335256     -0.87638858621695     -1.11242025651008
  C           1.02335523796110     -0.84584505726370     -0.11304331166561
  C          -2.08631415794442     -0.62166483374749      0.47777761275437
  C           0.15909180038288      0.37738804088932     -0.24998874609117
  C          -1.08184007481696      0.45136663205548      0.58453163619647
  O          -1.37085157024628      3.48696942620451     -0.79964820440916
  O          -1.23089169145160     -0.52933333493669      1.59129476449301
  O           0.43563042505553      1.29173147879642     -0.99448986900988
  H           2.79731581796128      0.00248665480097     -1.00143438712164
  H           2.77586105439108     -1.76520548701224     -0.96593198598164
  H           1.78736393984905     -0.87921486049572     -2.13358696102394
  H           0.38625493156987     -1.73093343590364     -0.18703893237349
  H           1.38290271569049     -0.85477219567644      0.92041276385154
  H          -3.12318991945398     -0.36829416500694      0.65931037298920
  H          -1.90402125647035     -1.46094840148638     -0.18363454914144
  H          -1.41726962601881      1.45346846260646      0.82764647288545
  H          -0.67273698981142      2.82326166239301     -0.98583441984198
