15
Coordinates from ORCA-job freq E -270.989465144841
  C           1.06387561021043      0.30603866229447     -1.30168486785424
  C          -2.14127833592222      0.21163030564892     -0.30019387953161
  C           0.91342753719845     -0.48034059337446     -0.05388831440978
  C          -1.34788065811211      0.34318175705705      0.96508659342889
  C           0.08788936318005     -0.00713024067974      1.07386241309025
  O          -0.34438174534778      1.34478012831416      1.02290846435895
  H           1.93131765534957      0.24150433249275     -0.32750263187014
  H           0.62641238668402      1.28999803675403     -1.34538861494055
  H           1.40610322908206     -0.18280686107276     -2.19932111578723
  H          -2.83896947936749      1.04449729724719     -0.39566355859500
  H          -1.49606418520139      0.19542917841390     -1.17487026552667
  H          -2.72047972893554     -0.71185170448462     -0.27611388636462
  H           1.19406698509306     -1.52374135490028     -0.07267272363770
  H          -1.92616674568291      0.27488684121597      1.88342373810315
  H           0.42615611177182     -0.32471578492659      2.05651964953631
