15
Coordinates from ORCA-job freq E -271.033349530974
  C           2.68329875546210     -0.11040374459318      1.08828935116066
  C          -1.24003667512733     -0.18917456959519     -2.35436118666209
  C          -0.43583708644855     -0.43691966184398     -1.08575449228219
  C           0.87725654430480      0.36235277386024     -1.07968344612815
  C           1.65332943296202      0.20892843687297      0.15288359098014
  O           1.40293258828567      0.49059523137889      1.46057918331748
  H           3.53496029026513      0.54845638150230      1.23030115448992
  H           2.81674662788035     -1.12443636838652      1.45356692482410
  H          -2.16874481873443     -0.75846815003830     -2.35389041151860
  H          -1.49492546374475      0.86707093763987     -2.45351698120448
  H          -0.67093907277179     -0.47732036354320     -3.23984361802595
  H          -1.01918474213886     -0.15683851924102     -0.20700670415241
  H          -0.20287781538021     -1.49830087945271     -0.98286022298599
  H           0.63718723019097      1.42181753142975     -1.24470606194346
  H           1.50385920499483      0.05078496401009     -1.91732507986888
