15
* (null), Energy   -1000.0000000
C     2.683299   -0.110404    1.088289    0.187606    0.358172   -0.018263
C    -1.240037   -0.189175   -2.354361   -0.019062    0.065793   -0.075912
C    -0.435837   -0.436920   -1.085754   -0.004910    0.120978   -0.096941
C     0.877257    0.362353   -1.079683    0.035032    0.104429    0.045441
C     1.653329    0.208928    0.152884   -0.364199   -0.966432    0.152000
O     1.402933    0.490595    1.460579    0.069061    0.098502    0.002089
H     3.534960    0.548456    1.230301   -0.055292    0.808656   -0.652247
H     2.816747   -1.124436    1.453567    0.737335    0.623908    0.519427
H    -2.168745   -0.758468   -2.353890   -0.003144    0.038017   -0.039488
H    -1.494925    0.867071   -2.453517   -0.053023    0.054492   -0.114093
H    -0.670939   -0.477320   -3.239844   -0.021260    0.045409   -0.071571
H    -1.019185   -0.156839   -0.207007   -0.007563    0.069177   -0.078903
H    -0.202878   -1.498301   -0.982860    0.056785    0.134588   -0.096205
H     0.637187    1.421818   -1.244706    0.196570    0.202046    0.435869
H     1.503859    0.050785   -1.917325    0.025894    0.238267   -0.011307
15
* Frequency(6) -339.6134
C     2.704619   -0.069699    1.086214    0.187606    0.358172   -0.018263
C    -1.242203   -0.181698   -2.362988   -0.019062    0.065793   -0.075912
C    -0.436395   -0.423171   -1.096771   -0.004910    0.120978   -0.096941
C     0.881238    0.374221   -1.074519    0.035032    0.104429    0.045441
C     1.611940    0.099098    0.170158   -0.364199   -0.966432    0.152000
O     1.410781    0.501789    1.460817    0.069061    0.098502    0.002089
H     3.528677    0.640356    1.156177   -0.055292    0.808656   -0.652247
H     2.900541   -1.053532    1.512597    0.737335    0.623908    0.519427
H    -2.169102   -0.754148   -2.358378   -0.003144    0.038017   -0.039488
H    -1.500951    0.873264   -2.466483   -0.053023    0.054492   -0.114093
H    -0.673355   -0.472160   -3.247977   -0.021260    0.045409   -0.071571
H    -1.020044   -0.148977   -0.215974   -0.007563    0.069177   -0.078903
H    -0.196424   -1.483006   -0.993793    0.056785    0.134588   -0.096205
H     0.659526    1.444779   -1.195172    0.196570    0.202046    0.435869
H     1.506802    0.077863   -1.918610    0.025894    0.238267   -0.011307
15
* Frequency(6) -339.6134
C     2.723629   -0.033406    1.084363    0.187606    0.358172   -0.018263
C    -1.244135   -0.175031   -2.370680   -0.019062    0.065793   -0.075912
C    -0.436893   -0.410912   -1.106594   -0.004910    0.120978   -0.096941
C     0.884788    0.384802   -1.069915    0.035032    0.104429    0.045441
C     1.575036    0.001170    0.185560   -0.364199   -0.966432    0.152000
O     1.417779    0.511771    1.461028    0.069061    0.098502    0.002089
H     3.523074    0.722297    1.090085   -0.055292    0.808656   -0.652247
H     2.975255   -0.990312    1.565231    0.737335    0.623908    0.519427
H    -2.169421   -0.750295   -2.362379   -0.003144    0.038017   -0.039488
H    -1.506324    0.878785   -2.478044   -0.053023    0.054492   -0.114093
H    -0.675509   -0.467559   -3.255230   -0.021260    0.045409   -0.071571
H    -1.020811   -0.141967   -0.223969   -0.007563    0.069177   -0.078903
H    -0.190670   -1.469368   -1.003542    0.056785    0.134588   -0.096205
H     0.679445    1.465252   -1.151005    0.196570    0.202046    0.435869
H     1.509426    0.102006   -1.919756    0.025894    0.238267   -0.011307
15
* Frequency(6) -339.6134
C     2.738269   -0.005456    1.082938    0.187606    0.358172   -0.018263
C    -1.245622   -0.169897   -2.376604   -0.019062    0.065793   -0.075912
C    -0.437276   -0.401472   -1.114159   -0.004910    0.120978   -0.096941
C     0.887521    0.392951   -1.066369    0.035032    0.104429    0.045441
C     1.546616   -0.074244    0.197421   -0.364199   -0.966432    0.152000
O     1.423168    0.519457    1.461191    0.069061    0.098502    0.002089
H     3.518759    0.785399    1.039187   -0.055292    0.808656   -0.652247
H     3.032792   -0.941626    1.605763    0.737335    0.623908    0.519427
H    -2.169666   -0.747329   -2.365461   -0.003144    0.038017   -0.039488
H    -1.510462    0.883037   -2.486947   -0.053023    0.054492   -0.114093
H    -0.677168   -0.464015   -3.260814   -0.021260    0.045409   -0.071571
H    -1.021401   -0.136569   -0.230126   -0.007563    0.069177   -0.078903
H    -0.186239   -1.458866   -1.011049    0.056785    0.134588   -0.096205
H     0.694784    1.481019   -1.116993    0.196570    0.202046    0.435869
H     1.511446    0.120599   -1.920638    0.025894    0.238267   -0.011307
15
* Frequency(6) -339.6134
C     2.746952    0.011120    1.082093    0.187606    0.358172   -0.018263
C    -1.246504   -0.166852   -2.380117   -0.019062    0.065793   -0.075912
C    -0.437503   -0.395873   -1.118646   -0.004910    0.120978   -0.096941
C     0.889143    0.397784   -1.064266    0.035032    0.104429    0.045441
C     1.529760   -0.118972    0.204456   -0.364199   -0.966432    0.152000
O     1.426364    0.524016    1.461288    0.069061    0.098502    0.002089
H     3.516200    0.822825    1.009000   -0.055292    0.808656   -0.652247
H     3.066917   -0.912750    1.629803    0.737335    0.623908    0.519427
H    -2.169812   -0.745569   -2.367288   -0.003144    0.038017   -0.039488
H    -1.512916    0.885559   -2.492228   -0.053023    0.054492   -0.114093
H    -0.678152   -0.461914   -3.264127   -0.021260    0.045409   -0.071571
H    -1.021751   -0.133367   -0.233778   -0.007563    0.069177   -0.078903
H    -0.183611   -1.452637   -1.015502    0.056785    0.134588   -0.096205
H     0.703881    1.490370   -1.096820    0.196570    0.202046    0.435869
H     1.512645    0.131627   -1.921161    0.025894    0.238267   -0.011307
15
* Frequency(6) -339.6134
C     2.748737    0.014528    1.081919    0.187606    0.358172   -0.018263
C    -1.246686   -0.166226   -2.380840   -0.019062    0.065793   -0.075912
C    -0.437550   -0.394722   -1.119568   -0.004910    0.120978   -0.096941
C     0.889476    0.398778   -1.063833    0.035032    0.104429    0.045441
C     1.526295   -0.128167    0.205902   -0.364199   -0.966432    0.152000
O     1.427021    0.524953    1.461308    0.069061    0.098502    0.002089
H     3.515674    0.830519    1.002794   -0.055292    0.808656   -0.652247
H     3.073932   -0.906814    1.634746    0.737335    0.623908    0.519427
H    -2.169841   -0.745207   -2.367664   -0.003144    0.038017   -0.039488
H    -1.513420    0.886078   -2.493313   -0.053023    0.054492   -0.114093
H    -0.678355   -0.461482   -3.264808   -0.021260    0.045409   -0.071571
H    -1.021823   -0.132709   -0.234528   -0.007563    0.069177   -0.078903
H    -0.183071   -1.451356   -1.016417    0.056785    0.134588   -0.096205
H     0.705752    1.492292   -1.092673    0.196570    0.202046    0.435869
H     1.512891    0.133894   -1.921269    0.025894    0.238267   -0.011307
15
* Frequency(6) -339.6134
C     2.743430    0.004398    1.082436    0.187606    0.358172   -0.018263
C    -1.246146   -0.168087   -2.378693   -0.019062    0.065793   -0.075912
C    -0.437411   -0.398144   -1.116826   -0.004910    0.120978   -0.096941
C     0.888485    0.395824   -1.065119    0.035032    0.104429    0.045441
C     1.536596   -0.100833    0.201603   -0.364199   -0.966432    0.152000
O     1.425068    0.522167    1.461249    0.069061    0.098502    0.002089
H     3.517238    0.807647    1.021242   -0.055292    0.808656   -0.652247
H     3.053078   -0.924461    1.620054    0.737335    0.623908    0.519427
H    -2.169753   -0.746283   -2.366547   -0.003144    0.038017   -0.039488
H    -1.511921    0.884537   -2.490086   -0.053023    0.054492   -0.114093
H    -0.677753   -0.462766   -3.262784   -0.021260    0.045409   -0.071571
H    -1.021609   -0.134666   -0.232297   -0.007563    0.069177   -0.078903
H    -0.184677   -1.455163   -1.013696    0.056785    0.134588   -0.096205
H     0.700192    1.486577   -1.105001    0.196570    0.202046    0.435869
H     1.512159    0.127154   -1.920949    0.025894    0.238267   -0.011307
15
* Frequency(6) -339.6134
C     2.731608   -0.018173    1.083587    0.187606    0.358172   -0.018263
C    -1.244945   -0.172233   -2.373909   -0.019062    0.065793   -0.075912
C    -0.437101   -0.405767   -1.110717   -0.004910    0.120978   -0.096941
C     0.886277    0.389244   -1.067982    0.035032    0.104429    0.045441
C     1.559547   -0.039931    0.192024   -0.364199   -0.966432    0.152000
O     1.420716    0.515960    1.461117    0.069061    0.098502    0.002089
H     3.520722    0.756688    1.062345   -0.055292    0.808656   -0.652247
H     3.006613   -0.963778    1.587321    0.737335    0.623908    0.519427
H    -2.169554   -0.748679   -2.364059   -0.003144    0.038017   -0.039488
H    -1.508579    0.881103   -2.482896   -0.053023    0.054492   -0.114093
H    -0.676414   -0.465627   -3.258273   -0.021260    0.045409   -0.071571
H    -1.021132   -0.139025   -0.227325   -0.007563    0.069177   -0.078903
H    -0.188255   -1.463644   -1.007633    0.056785    0.134588   -0.096205
H     0.687805    1.473845   -1.132468    0.196570    0.202046    0.435869
H     1.510527    0.112140   -1.920237    0.025894    0.238267   -0.011307
15
* Frequency(6) -339.6134
C     2.714550   -0.050739    1.085247    0.187606    0.358172   -0.018263
C    -1.243212   -0.178215   -2.367007   -0.019062    0.065793   -0.075912
C    -0.436655   -0.416767   -1.101903   -0.004910    0.120978   -0.096941
C     0.883092    0.379749   -1.072114    0.035032    0.104429    0.045441
C     1.592661    0.047939    0.178204   -0.364199   -0.966432    0.152000
O     1.414437    0.507004    1.460927    0.069061    0.098502    0.002089
H     3.525750    0.683164    1.121649   -0.055292    0.808656   -0.652247
H     2.939573   -1.020505    1.540094    0.737335    0.623908    0.519427
H    -2.169269   -0.752135   -2.360468   -0.003144    0.038017   -0.039488
H    -1.503758    0.876148   -2.472523   -0.053023    0.054492   -0.114093
H    -0.674481   -0.469756   -3.251766   -0.021260    0.045409   -0.071571
H    -1.020445   -0.145315   -0.220151   -0.007563    0.069177   -0.078903
H    -0.193418   -1.475881   -0.998886    0.056785    0.134588   -0.096205
H     0.669932    1.455475   -1.172098    0.196570    0.202046    0.435869
H     1.508173    0.090476   -1.919209    0.025894    0.238267   -0.011307
15
* Frequency(6) -339.6134
C     2.694106   -0.089770    1.087237    0.187606    0.358172   -0.018263
C    -1.241135   -0.185384   -2.358734   -0.019062    0.065793   -0.075912
C    -0.436120   -0.429950   -1.091339   -0.004910    0.120978   -0.096941
C     0.879275    0.368369   -1.077066    0.035032    0.104429    0.045441
C     1.632349    0.153254    0.161640   -0.364199   -0.966432    0.152000
O     1.406911    0.496270    1.460700    0.069061    0.098502    0.002089
H     3.531775    0.595042    1.192726   -0.055292    0.808656   -0.652247
H     2.859223   -1.088494    1.483490    0.737335    0.623908    0.519427
H    -2.168926   -0.756278   -2.356165   -0.003144    0.038017   -0.039488
H    -1.497980    0.870210   -2.460090   -0.053023    0.054492   -0.114093
H    -0.672164   -0.474704   -3.243967   -0.021260    0.045409   -0.071571
H    -1.019620   -0.152853   -0.211552   -0.007563    0.069177   -0.078903
H    -0.199607   -1.490548   -0.988402    0.056785    0.134588   -0.096205
H     0.648511    1.433457   -1.219596    0.196570    0.202046    0.435869
H     1.505351    0.064511   -1.917976    0.025894    0.238267   -0.011307
15
* Frequency(6) -339.6134
C     2.672491   -0.131037    1.089341    0.187606    0.358172   -0.018263
C    -1.238939   -0.192965   -2.349988   -0.019062    0.065793   -0.075912
C    -0.435554   -0.443889   -1.080170   -0.004910    0.120978   -0.096941
C     0.875238    0.356337   -1.082301    0.035032    0.104429    0.045441
C     1.674310    0.264603    0.144127   -0.364199   -0.966432    0.152000
O     1.398954    0.484921    1.460459    0.069061    0.098502    0.002089
H     3.538146    0.501871    1.267876   -0.055292    0.808656   -0.652247
H     2.774270   -1.160379    1.423644    0.737335    0.623908    0.519427
H    -2.168564   -0.760658   -2.351616   -0.003144    0.038017   -0.039488
H    -1.491871    0.863932   -2.446944   -0.053023    0.054492   -0.114093
H    -0.669714   -0.479936   -3.235721   -0.021260    0.045409   -0.071571
H    -1.018749   -0.160824   -0.202461   -0.007563    0.069177   -0.078903
H    -0.206149   -1.506054   -0.977318    0.056785    0.134588   -0.096205
H     0.625863    1.410178   -1.269816    0.196570    0.202046    0.435869
H     1.502368    0.037059   -1.916674    0.025894    0.238267   -0.011307
15
* Frequency(6) -339.6134
C     2.652047   -0.170069    1.091332    0.187606    0.358172   -0.018263
C    -1.236861   -0.200134   -2.341716   -0.019062    0.065793   -0.075912
C    -0.435019   -0.457072   -1.069606   -0.004910    0.120978   -0.096941
C     0.871421    0.344957   -1.087253    0.035032    0.104429    0.045441
C     1.713998    0.369918    0.127563   -0.364199   -0.966432    0.152000
O     1.391428    0.474187    1.460231    0.069061    0.098502    0.002089
H     3.544171    0.413749    1.338954   -0.055292    0.808656   -0.652247
H     2.693920   -1.228368    1.367040    0.737335    0.623908    0.519427
H    -2.168221   -0.764801   -2.347312   -0.003144    0.038017   -0.039488
H    -1.486093    0.857994   -2.434511   -0.053023    0.054492   -0.114093
H    -0.667398   -0.484885   -3.227921   -0.021260    0.045409   -0.071571
H    -1.017925   -0.168362   -0.193863   -0.007563    0.069177   -0.078903
H    -0.212337   -1.520721   -0.966834    0.056785    0.134588   -0.096205
H     0.604442    1.388160   -1.317314    0.196570    0.202046    0.435869
H     1.499546    0.011094   -1.915442    0.025894    0.238267   -0.011307
15
* Frequency(6) -339.6134
C     2.634990   -0.202634    1.092992    0.187606    0.358172   -0.018263
C    -1.235128   -0.206117   -2.334814   -0.019062    0.065793   -0.075912
C    -0.434573   -0.468072   -1.060792   -0.004910    0.120978   -0.096941
C     0.868236    0.335462   -1.091385    0.035032    0.104429    0.045441
C     1.747112    0.457788    0.113743   -0.364199   -0.966432    0.152000
O     1.385149    0.465231    1.460041    0.069061    0.098502    0.002089
H     3.549198    0.340225    1.398257   -0.055292    0.808656   -0.652247
H     2.626880   -1.285095    1.319813    0.737335    0.623908    0.519427
H    -2.167935   -0.768258   -2.343722   -0.003144    0.038017   -0.039488
H    -1.481272    0.853039   -2.424138   -0.053023    0.054492   -0.114093
H    -0.665465   -0.489013   -3.221414   -0.021260    0.045409   -0.071571
H    -1.017237   -0.174652   -0.186689   -0.007563    0.069177   -0.078903
H    -0.217500   -1.532958   -0.958087    0.056785    0.134588   -0.096205
H     0.586570    1.369790   -1.356944    0.196570    0.202046    0.435869
H     1.497191   -0.010570   -1.914413    0.025894    0.238267   -0.011307
15
* Frequency(6) -339.6134
C     2.623167   -0.225205    1.094143    0.187606    0.358172   -0.018263
C    -1.233927   -0.210263   -2.330030   -0.019062    0.065793   -0.075912
C    -0.434263   -0.475696   -1.054683   -0.004910    0.120978   -0.096941
C     0.866028    0.328881   -1.094248    0.035032    0.104429    0.045441
C     1.770063    0.518690    0.104165   -0.364199   -0.966432    0.152000
O     1.380797    0.459023    1.459910    0.069061    0.098502    0.002089
H     3.552682    0.289265    1.439360   -0.055292    0.808656   -0.652247
H     2.580416   -1.324412    1.287080    0.737335    0.623908    0.519427
H    -2.167737   -0.770654   -2.341234   -0.003144    0.038017   -0.039488
H    -1.477930    0.849605   -2.416948   -0.053023    0.054492   -0.114093
H    -0.664125   -0.491875   -3.216904   -0.021260    0.045409   -0.071571
H    -1.016761   -0.179011   -0.181717   -0.007563    0.069177   -0.078903
H    -0.221079   -1.541439   -0.952025    0.056785    0.134588   -0.096205
H     0.574183    1.357058   -1.384411    0.196570    0.202046    0.435869
H     1.495560   -0.025585   -1.913701    0.025894    0.238267   -0.011307
15
* Frequency(6) -339.6134
C     2.617861   -0.235336    1.094660    0.187606    0.358172   -0.018263
C    -1.233388   -0.212123   -2.327883   -0.019062    0.065793   -0.075912
C    -0.434124   -0.479117   -1.051941   -0.004910    0.120978   -0.096941
C     0.865037    0.325927   -1.095534    0.035032    0.104429    0.045441
C     1.780364    0.546024    0.099865   -0.364199   -0.966432    0.152000
O     1.378844    0.456237    1.459851    0.069061    0.098502    0.002089
H     3.554246    0.266393    1.457808   -0.055292    0.808656   -0.652247
H     2.559561   -1.342058    1.272388    0.737335    0.623908    0.519427
H    -2.167648   -0.771729   -2.340117   -0.003144    0.038017   -0.039488
H    -1.476431    0.848064   -2.413721   -0.053023    0.054492   -0.114093
H    -0.663524   -0.493159   -3.214879   -0.021260    0.045409   -0.071571
H    -1.016547   -0.180968   -0.179485   -0.007563    0.069177   -0.078903
H    -0.222685   -1.545246   -0.949304    0.056785    0.134588   -0.096205
H     0.568623    1.351343   -1.396739    0.196570    0.202046    0.435869
H     1.494827   -0.032324   -1.913381    0.025894    0.238267   -0.011307
15
* Frequency(6) -339.6134
C     2.619646   -0.231928    1.094486    0.187606    0.358172   -0.018263
C    -1.233569   -0.211498   -2.328605   -0.019062    0.065793   -0.075912
C    -0.434171   -0.477966   -1.052863   -0.004910    0.120978   -0.096941
C     0.865370    0.326921   -1.095101    0.035032    0.104429    0.045441
C     1.776899    0.536829    0.101312   -0.364199   -0.966432    0.152000
O     1.379501    0.457175    1.459871    0.069061    0.098502    0.002089
H     3.553720    0.274087    1.451602   -0.055292    0.808656   -0.652247
H     2.566576   -1.336122    1.277330    0.737335    0.623908    0.519427
H    -2.167678   -0.771367   -2.340492   -0.003144    0.038017   -0.039488
H    -1.476935    0.848582   -2.414806   -0.053023    0.054492   -0.114093
H    -0.663726   -0.492727   -3.215560   -0.021260    0.045409   -0.071571
H    -1.016619   -0.180310   -0.180236   -0.007563    0.069177   -0.078903
H    -0.222145   -1.543965   -0.950219    0.056785    0.134588   -0.096205
H     0.570493    1.353265   -1.392592    0.196570    0.202046    0.435869
H     1.495074   -0.030057   -1.913489    0.025894    0.238267   -0.011307
15
* Frequency(6) -339.6134
C     2.628329   -0.215351    1.093641    0.187606    0.358172   -0.018263
C    -1.234451   -0.208452   -2.332118   -0.019062    0.065793   -0.075912
C    -0.434398   -0.472367   -1.057350   -0.004910    0.120978   -0.096941
C     0.866992    0.331754   -1.092998    0.035032    0.104429    0.045441
C     1.760043    0.492101    0.108346   -0.364199   -0.966432    0.152000
O     1.382697    0.461733    1.459967    0.069061    0.098502    0.002089
H     3.551161    0.311513    1.421415   -0.055292    0.808656   -0.652247
H     2.600701   -1.307247    1.301370    0.737335    0.623908    0.519427
H    -2.167824   -0.769608   -2.342320   -0.003144    0.038017   -0.039488
H    -1.479389    0.851104   -2.420087   -0.053023    0.054492   -0.114093
H    -0.664710   -0.490625   -3.218873   -0.021260    0.045409   -0.071571
H    -1.016969   -0.177108   -0.183887   -0.007563    0.069177   -0.078903
H    -0.219516   -1.537736   -0.954671    0.056785    0.134588   -0.096205
H     0.579591    1.362616   -1.372419    0.196570    0.202046    0.435869
H     1.496272   -0.019029   -1.914012    0.025894    0.238267   -0.011307
15
* Frequency(6) -339.6134
C     2.642968   -0.187402    1.092215    0.187606    0.358172   -0.018263
C    -1.235939   -0.203318   -2.338042   -0.019062    0.065793   -0.075912
C    -0.434782   -0.462927   -1.064915   -0.004910    0.120978   -0.096941
C     0.869725    0.339903   -1.089452    0.035032    0.104429    0.045441
C     1.731623    0.416687    0.120208   -0.364199   -0.966432    0.152000
O     1.388086    0.469420    1.460130    0.069061    0.098502    0.002089
H     3.546847    0.374616    1.370518   -0.055292    0.808656   -0.652247
H     2.658238   -1.258561    1.341903    0.737335    0.623908    0.519427
H    -2.168069   -0.766641   -2.345401   -0.003144    0.038017   -0.039488
H    -1.483527    0.855357   -2.428990   -0.053023    0.054492   -0.114093
H    -0.666369   -0.487082   -3.224458   -0.021260    0.045409   -0.071571
H    -1.017559   -0.171710   -0.190045   -0.007563    0.069177   -0.078903
H    -0.215085   -1.527234   -0.962179    0.056785    0.134588   -0.096205
H     0.594930    1.378383   -1.338407    0.196570    0.202046    0.435869
H     1.498293   -0.000436   -1.914894    0.025894    0.238267   -0.011307
15
* Frequency(6) -339.6134
C     2.661978   -0.151108    1.090365    0.187606    0.358172   -0.018263
C    -1.237870   -0.196652   -2.345734   -0.019062    0.065793   -0.075912
C    -0.435279   -0.450668   -1.074738   -0.004910    0.120978   -0.096941
C     0.873275    0.350485   -1.084848    0.035032    0.104429    0.045441
C     1.694719    0.318758    0.135610   -0.364199   -0.966432    0.152000
O     1.395084    0.479401    1.460342    0.069061    0.098502    0.002089
H     3.541244    0.456557    1.304426   -0.055292    0.808656   -0.652247
H     2.732952   -1.195340    1.394537    0.737335    0.623908    0.519427
H    -2.168388   -0.762789   -2.349403   -0.003144    0.038017   -0.039488
H    -1.488900    0.860878   -2.440551   -0.053023    0.054492   -0.114093
H    -0.668523   -0.482481   -3.231710   -0.021260    0.045409   -0.071571
H    -1.018325   -0.164700   -0.198040   -0.007563    0.069177   -0.078903
H    -0.209331   -1.513596   -0.971927    0.056785    0.134588   -0.096205
H     0.614848    1.398856   -1.294240    0.196570    0.202046    0.435869
H     1.500917    0.023707   -1.916040    0.025894    0.238267   -0.011307
15
* Frequency(6) -339.6134
C     2.683299   -0.110404    1.088289    0.187606    0.358172   -0.018263
C    -1.240037   -0.189175   -2.354361   -0.019062    0.065793   -0.075912
C    -0.435837   -0.436920   -1.085754   -0.004910    0.120978   -0.096941
C     0.877257    0.362353   -1.079683    0.035032    0.104429    0.045441
C     1.653329    0.208928    0.152884   -0.364199   -0.966432    0.152000
O     1.402933    0.490595    1.460579    0.069061    0.098502    0.002089
H     3.534960    0.548456    1.230301   -0.055292    0.808656   -0.652247
H     2.816747   -1.124436    1.453567    0.737335    0.623908    0.519427
H    -2.168745   -0.758468   -2.353890   -0.003144    0.038017   -0.039488
H    -1.494925    0.867071   -2.453517   -0.053023    0.054492   -0.114093
H    -0.670939   -0.477320   -3.239844   -0.021260    0.045409   -0.071571
H    -1.019185   -0.156839   -0.207007   -0.007563    0.069177   -0.078903
H    -0.202878   -1.498301   -0.982860    0.056785    0.134588   -0.096205
H     0.637187    1.421818   -1.244706    0.196570    0.202046    0.435869
H     1.503859    0.050785   -1.917325    0.025894    0.238267   -0.011307
