15
* (null), Energy   -1000.0000000
C     2.116297    0.205983    0.870051    0.116451   -0.052016   -0.094051
C     0.813175    0.423680    0.195649    0.017762    0.027289    0.150070
C    -0.033420   -0.753629   -0.160966    0.000969   -0.005351    0.002219
C    -2.184280    0.692228    0.180292    0.000187    0.000142    0.000319
C    -1.477580   -0.425203   -0.447955    0.001068    0.000989    0.001189
O    -1.733662    0.769733   -1.163094    0.000206   -0.000005   -0.000373
H     1.040890    0.636423    1.446202   -1.747924    0.303522   -0.877955
H     2.881365    0.963670    0.815129    0.017882    0.040290    0.099900
H     2.382873   -0.791929    1.183621    0.007409   -0.005453    0.101767
H     0.682156    1.343333   -0.357517    0.073345   -0.044541   -0.016172
H     0.386147   -1.251281   -1.046583    0.018183    0.049986    0.004378
H     0.000083   -1.498540    0.640480   -0.000275   -0.004536   -0.011772
H    -3.260080    0.644378    0.301581    0.001048    0.000623    0.001153
H    -1.649848    1.326620    0.877512   -0.003723    0.001752   -0.000532
H    -2.078108   -1.266450   -0.782351    0.005037    0.003367   -0.006770
15
* Frequency(6) -1795.0887
C     2.129531    0.200071    0.859363    0.116451   -0.052016   -0.094051
C     0.815193    0.426782    0.212703    0.017762    0.027289    0.150070
C    -0.033310   -0.754237   -0.160714    0.000969   -0.005351    0.002219
C    -2.184259    0.692244    0.180328    0.000187    0.000142    0.000319
C    -1.477459   -0.425091   -0.447820    0.001068    0.000989    0.001189
O    -1.733638    0.769732   -1.163136    0.000206   -0.000005   -0.000373
H     0.842248    0.670917    1.346427   -1.747924    0.303522   -0.877955
H     2.883397    0.968249    0.826482    0.017882    0.040290    0.099900
H     2.383715   -0.792549    1.195186    0.007409   -0.005453    0.101767
H     0.690491    1.338271   -0.359355    0.073345   -0.044541   -0.016172
H     0.388214   -1.245600   -1.046086    0.018183    0.049986    0.004378
H     0.000052   -1.499055    0.639142   -0.000275   -0.004536   -0.011772
H    -3.259961    0.644449    0.301712    0.001048    0.000623    0.001153
H    -1.650271    1.326820    0.877452   -0.003723    0.001752   -0.000532
H    -2.077536   -1.266067   -0.783121    0.005037    0.003367   -0.006770
15
* Frequency(6) -1795.0887
C     2.141331    0.194801    0.849833    0.116451   -0.052016   -0.094051
C     0.816993    0.429547    0.227910    0.017762    0.027289    0.150070
C    -0.033211   -0.754780   -0.160489    0.000969   -0.005351    0.002219
C    -2.184240    0.692258    0.180361    0.000187    0.000142    0.000319
C    -1.477350   -0.424990   -0.447700    0.001068    0.000989    0.001189
O    -1.733617    0.769732   -1.163174    0.000206   -0.000005   -0.000373
H     0.665131    0.701673    1.257464   -1.747924    0.303522   -0.877955
H     2.885209    0.972331    0.836605    0.017882    0.040290    0.099900
H     2.384465   -0.793102    1.205498    0.007409   -0.005453    0.101767
H     0.697923    1.333758   -0.360994    0.073345   -0.044541   -0.016172
H     0.390056   -1.240535   -1.045642    0.018183    0.049986    0.004378
H     0.000024   -1.499515    0.637949   -0.000275   -0.004536   -0.011772
H    -3.259855    0.644512    0.301829    0.001048    0.000623    0.001153
H    -1.650648    1.326997    0.877398   -0.003723    0.001752   -0.000532
H    -2.077025   -1.265726   -0.783807    0.005037    0.003367   -0.006770
15
* Frequency(6) -1795.0887
C     2.150418    0.190742    0.842494    0.116451   -0.052016   -0.094051
C     0.818379    0.431676    0.239620    0.017762    0.027289    0.150070
C    -0.033136   -0.755197   -0.160316    0.000969   -0.005351    0.002219
C    -2.184225    0.692269    0.180385    0.000187    0.000142    0.000319
C    -1.477267   -0.424913   -0.447607    0.001068    0.000989    0.001189
O    -1.733601    0.769732   -1.163203    0.000206   -0.000005   -0.000373
H     0.528734    0.725358    1.188954   -1.747924    0.303522   -0.877955
H     2.886604    0.975475    0.844401    0.017882    0.040290    0.099900
H     2.385044   -0.793527    1.213440    0.007409   -0.005453    0.101767
H     0.703647    1.330282   -0.362256    0.073345   -0.044541   -0.016172
H     0.391475   -1.236635   -1.045300    0.018183    0.049986    0.004378
H     0.000003   -1.499869    0.637030   -0.000275   -0.004536   -0.011772
H    -3.259773    0.644561    0.301919    0.001048    0.000623    0.001153
H    -1.650938    1.327134    0.877356   -0.003723    0.001752   -0.000532
H    -2.076632   -1.265463   -0.784335    0.005037    0.003367   -0.006770
15
* Frequency(6) -1795.0887
C     2.155808    0.188334    0.838141    0.116451   -0.052016   -0.094051
C     0.819201    0.432939    0.246566    0.017762    0.027289    0.150070
C    -0.033091   -0.755445   -0.160213    0.000969   -0.005351    0.002219
C    -2.184217    0.692276    0.180400    0.000187    0.000142    0.000319
C    -1.477218   -0.424868   -0.447552    0.001068    0.000989    0.001189
O    -1.733592    0.769731   -1.163220    0.000206   -0.000005   -0.000373
H     0.447837    0.739406    1.148321   -1.747924    0.303522   -0.877955
H     2.887432    0.977340    0.849024    0.017882    0.040290    0.099900
H     2.385386   -0.793779    1.218149    0.007409   -0.005453    0.101767
H     0.707041    1.328221   -0.363005    0.073345   -0.044541   -0.016172
H     0.392317   -1.234321   -1.045098    0.018183    0.049986    0.004378
H    -0.000010   -1.500079    0.636486   -0.000275   -0.004536   -0.011772
H    -3.259724    0.644590    0.301972    0.001048    0.000623    0.001153
H    -1.651111    1.327215    0.877332   -0.003723    0.001752   -0.000532
H    -2.076399   -1.265308   -0.784648    0.005037    0.003367   -0.006770
15
* Frequency(6) -1795.0887
C     2.156916    0.187839    0.837246    0.116451   -0.052016   -0.094051
C     0.819370    0.433199    0.247994    0.017762    0.027289    0.150070
C    -0.033082   -0.755496   -0.160192    0.000969   -0.005351    0.002219
C    -2.184215    0.692277    0.180403    0.000187    0.000142    0.000319
C    -1.477207   -0.424858   -0.447541    0.001068    0.000989    0.001189
O    -1.733590    0.769731   -1.163224    0.000206   -0.000005   -0.000373
H     0.431206    0.742293    1.139968   -1.747924    0.303522   -0.877955
H     2.887602    0.977723    0.849975    0.017882    0.040290    0.099900
H     2.385457   -0.793831    1.219118    0.007409   -0.005453    0.101767
H     0.707739    1.327797   -0.363158    0.073345   -0.044541   -0.016172
H     0.392490   -1.233846   -1.045056    0.018183    0.049986    0.004378
H    -0.000013   -1.500122    0.636374   -0.000275   -0.004536   -0.011772
H    -3.259714    0.644595    0.301983    0.001048    0.000623    0.001153
H    -1.651146    1.327231    0.877327   -0.003723    0.001752   -0.000532
H    -2.076351   -1.265276   -0.784713    0.005037    0.003367   -0.006770
15
* Frequency(6) -1795.0887
C     2.153622    0.189311    0.839906    0.116451   -0.052016   -0.094051
C     0.818868    0.432427    0.243749    0.017762    0.027289    0.150070
C    -0.033109   -0.755344   -0.160255    0.000969   -0.005351    0.002219
C    -2.184220    0.692273    0.180394    0.000187    0.000142    0.000319
C    -1.477238   -0.424886   -0.447574    0.001068    0.000989    0.001189
O    -1.733596    0.769731   -1.163213    0.000206   -0.000005   -0.000373
H     0.480644    0.733709    1.164800   -1.747924    0.303522   -0.877955
H     2.887096    0.976584    0.847149    0.017882    0.040290    0.099900
H     2.385247   -0.793677    1.216239    0.007409   -0.005453    0.101767
H     0.705665    1.329057   -0.362701    0.073345   -0.044541   -0.016172
H     0.391976   -1.235259   -1.045180    0.018183    0.049986    0.004378
H    -0.000005   -1.499994    0.636706   -0.000275   -0.004536   -0.011772
H    -3.259744    0.644578    0.301950    0.001048    0.000623    0.001153
H    -1.651041    1.327182    0.877342   -0.003723    0.001752   -0.000532
H    -2.076494   -1.265371   -0.784521    0.005037    0.003367   -0.006770
15
* Frequency(6) -1795.0887
C     2.146284    0.192588    0.845833    0.116451   -0.052016   -0.094051
C     0.817749    0.430707    0.234292    0.017762    0.027289    0.150070
C    -0.033170   -0.755007   -0.160394    0.000969   -0.005351    0.002219
C    -2.184232    0.692264    0.180374    0.000187    0.000142    0.000319
C    -1.477305   -0.424948   -0.447649    0.001068    0.000989    0.001189
O    -1.733609    0.769732   -1.163190    0.000206   -0.000005   -0.000373
H     0.590794    0.714581    1.220126   -1.747924    0.303522   -0.877955
H     2.885970    0.974045    0.840854    0.017882    0.040290    0.099900
H     2.384781   -0.793333    1.209826    0.007409   -0.005453    0.101767
H     0.701043    1.331864   -0.361682    0.073345   -0.044541   -0.016172
H     0.390830   -1.238409   -1.045456    0.018183    0.049986    0.004378
H     0.000012   -1.499708    0.637448   -0.000275   -0.004536   -0.011772
H    -3.259810    0.644539    0.301878    0.001048    0.000623    0.001153
H    -1.650806    1.327072    0.877375   -0.003723    0.001752   -0.000532
H    -2.076811   -1.265583   -0.784095    0.005037    0.003367   -0.006770
15
* Frequency(6) -1795.0887
C     2.135696    0.197318    0.854384    0.116451   -0.052016   -0.094051
C     0.816134    0.428226    0.220648    0.017762    0.027289    0.150070
C    -0.033258   -0.754521   -0.160596    0.000969   -0.005351    0.002219
C    -2.184249    0.692251    0.180345    0.000187    0.000142    0.000319
C    -1.477402   -0.425038   -0.447757    0.001068    0.000989    0.001189
O    -1.733627    0.769732   -1.163156    0.000206   -0.000005   -0.000373
H     0.749718    0.686985    1.299951   -1.747924    0.303522   -0.877955
H     2.884344    0.970382    0.831771    0.017882    0.040290    0.099900
H     2.384107   -0.792838    1.200574    0.007409   -0.005453    0.101767
H     0.694374    1.335913   -0.360211    0.073345   -0.044541   -0.016172
H     0.389176   -1.242954   -1.045854    0.018183    0.049986    0.004378
H     0.000037   -1.499296    0.638519   -0.000275   -0.004536   -0.011772
H    -3.259905    0.644482    0.301773    0.001048    0.000623    0.001153
H    -1.650468    1.326912    0.877423   -0.003723    0.001752   -0.000532
H    -2.077269   -1.265889   -0.783479    0.005037    0.003367   -0.006770
15
* Frequency(6) -1795.0887
C     2.123006    0.202986    0.864633    0.116451   -0.052016   -0.094051
C     0.814198    0.425252    0.204294    0.017762    0.027289    0.150070
C    -0.033364   -0.753937   -0.160838    0.000969   -0.005351    0.002219
C    -2.184269    0.692236    0.180310    0.000187    0.000142    0.000319
C    -1.477518   -0.425146   -0.447887    0.001068    0.000989    0.001189
O    -1.733650    0.769733   -1.163115    0.000206   -0.000005   -0.000373
H     0.940195    0.653909    1.395625   -1.747924    0.303522   -0.877955
H     2.882395    0.965991    0.820884    0.017882    0.040290    0.099900
H     2.383300   -0.792244    1.189484    0.007409   -0.005453    0.101767
H     0.686381    1.340767   -0.358449    0.073345   -0.044541   -0.016172
H     0.387195   -1.248401   -1.046331    0.018183    0.049986    0.004378
H     0.000067   -1.498801    0.639801   -0.000275   -0.004536   -0.011772
H    -3.260020    0.644414    0.301647    0.001048    0.000623    0.001153
H    -1.650062    1.326721    0.877481   -0.003723    0.001752   -0.000532
H    -2.077818   -1.266256   -0.782741    0.005037    0.003367   -0.006770
15
* Frequency(6) -1795.0887
C     2.109589    0.208979    0.875470    0.116451   -0.052016   -0.094051
C     0.812152    0.422108    0.187003    0.017762    0.027289    0.150070
C    -0.033476   -0.753321   -0.161094    0.000969   -0.005351    0.002219
C    -2.184291    0.692220    0.180274    0.000187    0.000142    0.000319
C    -1.477642   -0.425260   -0.448024    0.001068    0.000989    0.001189
O    -1.733673    0.769733   -1.163072    0.000206   -0.000005   -0.000373
H     1.141585    0.618938    1.496780   -1.747924    0.303522   -0.877955
H     2.880335    0.961349    0.809374    0.017882    0.040290    0.099900
H     2.382446   -0.791615    1.177759    0.007409   -0.005453    0.101767
H     0.677931    1.345899   -0.356586    0.073345   -0.044541   -0.016172
H     0.385100   -1.254160   -1.046835    0.018183    0.049986    0.004378
H     0.000099   -1.498279    0.641158   -0.000275   -0.004536   -0.011772
H    -3.260140    0.644342    0.301514    0.001048    0.000623    0.001153
H    -1.649633    1.326520    0.877543   -0.003723    0.001752   -0.000532
H    -2.078398   -1.266644   -0.781961    0.005037    0.003367   -0.006770
15
* Frequency(6) -1795.0887
C     2.096899    0.214648    0.885719    0.116451   -0.052016   -0.094051
C     0.810216    0.419134    0.170650    0.017762    0.027289    0.150070
C    -0.033581   -0.752738   -0.161336    0.000969   -0.005351    0.002219
C    -2.184311    0.692204    0.180239    0.000187    0.000142    0.000319
C    -1.477758   -0.425368   -0.448153    0.001068    0.000989    0.001189
O    -1.733696    0.769734   -1.163032    0.000206   -0.000005   -0.000373
H     1.332062    0.585862    1.592453   -1.747924    0.303522   -0.877955
H     2.878386    0.956959    0.798488    0.017882    0.040290    0.099900
H     2.381638   -0.791021    1.166669    0.007409   -0.005453    0.101767
H     0.669938    1.350753   -0.354823    0.073345   -0.044541   -0.016172
H     0.383118   -1.259608   -1.047312    0.018183    0.049986    0.004378
H     0.000129   -1.497784    0.642441   -0.000275   -0.004536   -0.011772
H    -3.260255    0.644274    0.301389    0.001048    0.000623    0.001153
H    -1.649227    1.326329    0.877601   -0.003723    0.001752   -0.000532
H    -2.078947   -1.267011   -0.781224    0.005037    0.003367   -0.006770
15
* Frequency(6) -1795.0887
C     2.086311    0.219377    0.894270    0.116451   -0.052016   -0.094051
C     0.808601    0.416653    0.157005    0.017762    0.027289    0.150070
C    -0.033669   -0.752251   -0.161537    0.000969   -0.005351    0.002219
C    -2.184328    0.692191    0.180210    0.000187    0.000142    0.000319
C    -1.477855   -0.425458   -0.448261    0.001068    0.000989    0.001189
O    -1.733715    0.769734   -1.162998    0.000206   -0.000005   -0.000373
H     1.490986    0.558265    1.672279   -1.747924    0.303522   -0.877955
H     2.876760    0.953295    0.789405    0.017882    0.040290    0.099900
H     2.380965   -0.790525    1.157416    0.007409   -0.005453    0.101767
H     0.663269    1.354803   -0.353353    0.073345   -0.044541   -0.016172
H     0.381465   -1.264152   -1.047710    0.018183    0.049986    0.004378
H     0.000154   -1.497372    0.643511   -0.000275   -0.004536   -0.011772
H    -3.260350    0.644218    0.301284    0.001048    0.000623    0.001153
H    -1.648889    1.326169    0.877649   -0.003723    0.001752   -0.000532
H    -2.079405   -1.267317   -0.780608    0.005037    0.003367   -0.006770
15
* Frequency(6) -1795.0887
C     2.078972    0.222655    0.900197    0.116451   -0.052016   -0.094051
C     0.807482    0.414933    0.147548    0.017762    0.027289    0.150070
C    -0.033730   -0.751914   -0.161677    0.000969   -0.005351    0.002219
C    -2.184340    0.692182    0.180190    0.000187    0.000142    0.000319
C    -1.477922   -0.425520   -0.448336    0.001068    0.000989    0.001189
O    -1.733728    0.769735   -1.162975    0.000206   -0.000005   -0.000373
H     1.601136    0.539138    1.727605   -1.747924    0.303522   -0.877955
H     2.875633    0.950757    0.783109    0.017882    0.040290    0.099900
H     2.380498   -0.790182    1.151003    0.007409   -0.005453    0.101767
H     0.658647    1.357610   -0.352334    0.073345   -0.044541   -0.016172
H     0.380319   -1.267302   -1.047986    0.018183    0.049986    0.004378
H     0.000171   -1.497086    0.644253   -0.000275   -0.004536   -0.011772
H    -3.260416    0.644178    0.301211    0.001048    0.000623    0.001153
H    -1.648654    1.326059    0.877682   -0.003723    0.001752   -0.000532
H    -2.079722   -1.267529   -0.780182    0.005037    0.003367   -0.006770
15
* Frequency(6) -1795.0887
C     2.075679    0.224126    0.902857    0.116451   -0.052016   -0.094051
C     0.806979    0.414162    0.143303    0.017762    0.027289    0.150070
C    -0.033758   -0.751763   -0.161740    0.000969   -0.005351    0.002219
C    -2.184345    0.692178    0.180181    0.000187    0.000142    0.000319
C    -1.477953   -0.425548   -0.448370    0.001068    0.000989    0.001189
O    -1.733733    0.769735   -1.162964    0.000206   -0.000005   -0.000373
H     1.650574    0.530554    1.752437   -1.747924    0.303522   -0.877955
H     2.875127    0.949617    0.780284    0.017882    0.040290    0.099900
H     2.380288   -0.790027    1.148124    0.007409   -0.005453    0.101767
H     0.656573    1.358869   -0.351876    0.073345   -0.044541   -0.016172
H     0.379805   -1.268716   -1.048110    0.018183    0.049986    0.004378
H     0.000179   -1.496958    0.644586   -0.000275   -0.004536   -0.011772
H    -3.260446    0.644161    0.301179    0.001048    0.000623    0.001153
H    -1.648549    1.326009    0.877697   -0.003723    0.001752   -0.000532
H    -2.079865   -1.267624   -0.779990    0.005037    0.003367   -0.006770
15
* Frequency(6) -1795.0887
C     2.076786    0.223631    0.901962    0.116451   -0.052016   -0.094051
C     0.807148    0.414421    0.144731    0.017762    0.027289    0.150070
C    -0.033749   -0.751813   -0.161719    0.000969   -0.005351    0.002219
C    -2.184344    0.692179    0.180184    0.000187    0.000142    0.000319
C    -1.477942   -0.425538   -0.448359    0.001068    0.000989    0.001189
O    -1.733731    0.769735   -1.162968    0.000206   -0.000005   -0.000373
H     1.633943    0.533441    1.744084   -1.747924    0.303522   -0.877955
H     2.875298    0.950000    0.781234    0.017882    0.040290    0.099900
H     2.380359   -0.790079    1.149093    0.007409   -0.005453    0.101767
H     0.657271    1.358446   -0.352030    0.073345   -0.044541   -0.016172
H     0.379978   -1.268240   -1.048069    0.018183    0.049986    0.004378
H     0.000177   -1.497001    0.644474   -0.000275   -0.004536   -0.011772
H    -3.260436    0.644167    0.301190    0.001048    0.000623    0.001153
H    -1.648584    1.326026    0.877692   -0.003723    0.001752   -0.000532
H    -2.079817   -1.267592   -0.780055    0.005037    0.003367   -0.006770
15
* Frequency(6) -1795.0887
C     2.082176    0.221224    0.897609    0.116451   -0.052016   -0.094051
C     0.807970    0.415684    0.151677    0.017762    0.027289    0.150070
C    -0.033704   -0.752061   -0.161616    0.000969   -0.005351    0.002219
C    -2.184335    0.692186    0.180199    0.000187    0.000142    0.000319
C    -1.477893   -0.425493   -0.448304    0.001068    0.000989    0.001189
O    -1.733722    0.769735   -1.162985    0.000206   -0.000005   -0.000373
H     1.553046    0.547489    1.703450   -1.747924    0.303522   -0.877955
H     2.876125    0.951865    0.785858    0.017882    0.040290    0.099900
H     2.380702   -0.790332    1.153803    0.007409   -0.005453    0.101767
H     0.660665    1.356384   -0.352779    0.073345   -0.044541   -0.016172
H     0.380820   -1.265927   -1.047866    0.018183    0.049986    0.004378
H     0.000164   -1.497211    0.643929   -0.000275   -0.004536   -0.011772
H    -3.260387    0.644196    0.301243    0.001048    0.000623    0.001153
H    -1.648757    1.326107    0.877668   -0.003723    0.001752   -0.000532
H    -2.079584   -1.267436   -0.780368    0.005037    0.003367   -0.006770
15
* Frequency(6) -1795.0887
C     2.091263    0.217165    0.890270    0.116451   -0.052016   -0.094051
C     0.809356    0.417814    0.163387    0.017762    0.027289    0.150070
C    -0.033628   -0.752479   -0.161443    0.000969   -0.005351    0.002219
C    -2.184320    0.692197    0.180223    0.000187    0.000142    0.000319
C    -1.477810   -0.425416   -0.448211    0.001068    0.000989    0.001189
O    -1.733706    0.769734   -1.163014    0.000206   -0.000005   -0.000373
H     1.416649    0.571174    1.634940   -1.747924    0.303522   -0.877955
H     2.877521    0.955009    0.793653    0.017882    0.040290    0.099900
H     2.381280   -0.790757    1.161744    0.007409   -0.005453    0.101767
H     0.666389    1.352908   -0.354041    0.073345   -0.044541   -0.016172
H     0.382239   -1.262026   -1.047524    0.018183    0.049986    0.004378
H     0.000142   -1.497565    0.643010   -0.000275   -0.004536   -0.011772
H    -3.260305    0.644244    0.301333    0.001048    0.000623    0.001153
H    -1.649047    1.326244    0.877626   -0.003723    0.001752   -0.000532
H    -2.079191   -1.267174   -0.780896    0.005037    0.003367   -0.006770
15
* Frequency(6) -1795.0887
C     2.103063    0.211894    0.880740    0.116451   -0.052016   -0.094051
C     0.811156    0.420579    0.178594    0.017762    0.027289    0.150070
C    -0.033530   -0.753021   -0.161218    0.000969   -0.005351    0.002219
C    -2.184301    0.692212    0.180256    0.000187    0.000142    0.000319
C    -1.477701   -0.425315   -0.448090    0.001068    0.000989    0.001189
O    -1.733685    0.769734   -1.163052    0.000206   -0.000005   -0.000373
H     1.239533    0.601930    1.545977   -1.747924    0.303522   -0.877955
H     2.879333    0.959091    0.803776    0.017882    0.040290    0.099900
H     2.382031   -0.791310    1.172056    0.007409   -0.005453    0.101767
H     0.673821    1.348395   -0.355680    0.073345   -0.044541   -0.016172
H     0.384081   -1.256961   -1.047081    0.018183    0.049986    0.004378
H     0.000115   -1.498025    0.641817   -0.000275   -0.004536   -0.011772
H    -3.260199    0.644307    0.301450    0.001048    0.000623    0.001153
H    -1.649424    1.326421    0.877572   -0.003723    0.001752   -0.000532
H    -2.078680   -1.266832   -0.781582    0.005037    0.003367   -0.006770
15
* Frequency(6) -1795.0887
C     2.116297    0.205983    0.870051    0.116451   -0.052016   -0.094051
C     0.813175    0.423680    0.195649    0.017762    0.027289    0.150070
C    -0.033420   -0.753629   -0.160966    0.000969   -0.005351    0.002219
C    -2.184280    0.692228    0.180292    0.000187    0.000142    0.000319
C    -1.477580   -0.425203   -0.447955    0.001068    0.000989    0.001189
O    -1.733662    0.769733   -1.163094    0.000206   -0.000005   -0.000373
H     1.040890    0.636423    1.446202   -1.747924    0.303522   -0.877955
H     2.881365    0.963670    0.815129    0.017882    0.040290    0.099900
H     2.382873   -0.791929    1.183621    0.007409   -0.005453    0.101767
H     0.682156    1.343333   -0.357517    0.073345   -0.044541   -0.016172
H     0.386147   -1.251281   -1.046583    0.018183    0.049986    0.004378
H     0.000083   -1.498540    0.640480   -0.000275   -0.004536   -0.011772
H    -3.260080    0.644378    0.301581    0.001048    0.000623    0.001153
H    -1.649848    1.326620    0.877512   -0.003723    0.001752   -0.000532
H    -2.078108   -1.266450   -0.782351    0.005037    0.003367   -0.006770
