17
Coordinates from ORCA-job freq E -421.415938326607
  C           0.60979659704095     -1.00197671479991     -1.02882488351531
  C          -0.49881435198303     -0.01408247411755     -1.16858851777467
  C           2.01254854893139     -0.53878370867999     -0.85158596630874
  C          -2.00968613829409      1.09945808412650      0.63072944193284
  C          -1.47823977062232     -0.10027180278850     -0.02047668930409
  O           1.85875974125720      0.02219301332285      1.36317393740762
  O          -0.98641372325107      0.32572805224122      1.24247359991011
  O           2.12585925799168      0.53480760083041      0.06800914585980
  H           0.39119090179608     -2.06021398333291     -1.06295606169188
  H          -0.08570803922616      0.99595348501646     -1.19688811996345
  H          -1.05697422113008     -0.17518452590097     -2.09775869321891
  H           2.66643051387538     -1.35729558543487     -0.54514704688470
  H           2.41179870561330     -0.10531319052488     -1.77771702066885
  H          -1.69281456874694      2.07110437737141      0.27090136970200
  H          -2.96575791948835      1.06458879239110      1.13790265573275
  H          -2.06396304463657     -1.01273491154807      0.03692609896819
  H           0.91476751087263      0.22640449182772      1.46973174981730
