15
Coordinates from ORCA-job freq E -271.012472059331
  C       2.776997     -0.096408      0.929590
  C      -1.173457     -0.145899     -2.410775
  C      -0.471671     -0.450274     -1.094622
  C       0.855500      0.315171     -0.976411
  C       1.508830      0.048447      0.313971
  O       1.164262      0.339417      1.541808
  H       3.266956      0.746288      1.396087
  H       3.213292     -1.069788      1.120141
  H      -2.108277     -0.696886     -2.477693
  H      -1.395235      0.916125     -2.490767
  H      -0.546638     -0.429861     -3.253555
  H      -1.113362     -0.170349     -0.257475
  H      -0.274645     -1.521678     -1.021160
  H       0.640609      1.388625     -1.071536
  H       1.533865      0.025214     -1.780931
15
Coordinates from ORCA-job freq E -271.013685330853
  C       2.784551     -0.065981      0.966637
  C      -1.184410     -0.123046     -2.410049
  C      -0.484277     -0.460884     -1.100994
  C       0.859657      0.261474     -0.976615
  C       1.529721      0.001509      0.312487
  O       1.141590      0.271603      1.518765
  H       3.225632      0.826191      1.392031
  H       3.300356     -1.004014      1.144325
  H      -2.139610     -0.639181     -2.492009
  H      -1.373788      0.948538     -2.483154
  H      -0.571572     -0.411543     -3.265027
  H      -1.112266     -0.179879     -0.253937
  H      -0.318093     -1.537249     -1.027332
  H       0.687314      1.342583     -1.074068
  H       1.532220     -0.031975     -1.784388
15
Coordinates from ORCA-job freq E -271.013846201648
  C       2.787045     -0.028240      0.979131
  C      -1.193301     -0.100054     -2.402766
  C      -0.487259     -0.462130     -1.103588
  C       0.877890      0.218254     -0.990588
  C       1.540771     -0.047937      0.302766
  O       1.110988      0.177453      1.502926
  H       3.152125      0.891471      1.418935
  H       3.370569     -0.927052      1.150926
  H      -2.161727     -0.592677     -2.477579
  H      -1.358174      0.976300     -2.468568
  H      -0.597602     -0.398135     -3.266927
  H      -1.096759     -0.167532     -0.247598
  H      -0.351902     -1.543153     -1.034027
  H       0.743188      1.304019     -1.100424
  H       1.541173     -0.102442     -1.795947
15
Coordinates from ORCA-job freq E -271.013904634121
  C       2.784897      0.005741      0.988372
  C      -1.198922     -0.081620     -2.395023
  C      -0.488315     -0.459201     -1.102875
  C       0.894735      0.183584     -1.004492
  C       1.552975     -0.090862      0.290718
  O       1.087450      0.077093      1.485037
  H       3.075732      0.942125      1.447414
  H       3.429983     -0.851540      1.150847
  H      -2.179232     -0.551843     -2.460233
  H      -1.339989      0.998245     -2.460487
  H      -0.619287     -0.393619     -3.265346
  H      -1.080247     -0.147808     -0.240545
  H      -0.381659     -1.543334     -1.031683
  H       0.793048      1.271998     -1.124796
  H       1.545855     -0.160816     -1.810236
15
Coordinates from ORCA-job freq E -271.013902316529
  C       2.784630      0.002461      0.988559
  C      -1.198470     -0.085022     -2.395857
  C      -0.487813     -0.456851     -1.102083
  C       0.893703      0.189634     -1.004547
  C       1.553164     -0.084825      0.290056
  O       1.088316      0.078192      1.485778
  H       3.080161      0.934916      1.452640
  H       3.426428     -0.858316      1.146126
  H      -2.178170     -0.556756     -2.459439
  H      -1.340994      0.994393     -2.465487
  H      -0.618239     -0.399576     -3.264844
  H      -1.081007     -0.144456     -0.241021
  H      -0.378653     -1.540514     -1.027543
  H       0.789567      1.277712     -1.124147
  H       1.544402     -0.152849     -1.811521
15
Coordinates from ORCA-job freq E -271.013904889730
  C       2.784568      0.001855      0.988651
  C      -1.198272     -0.086383     -2.396251
  C      -0.487733     -0.455230     -1.101569
  C       0.893531      0.191970     -1.004743
  C       1.553605     -0.084016      0.289171
  O       1.088604      0.074153      1.485633
  H       3.079460      0.932910      1.455946
  H       3.426979     -0.859029      1.143440
  H      -2.178352     -0.557514     -2.458318
  H      -1.339965      0.992946     -2.468873
  H      -0.618444     -0.403851     -3.264441
  H      -1.081266     -0.141303     -0.241296
  H      -0.378223     -1.538693     -1.024678
  H       0.788674      1.280047     -1.123626
  H       1.543858     -0.149719     -1.812375
15
Coordinates from ORCA-job freq E -271.013858708597
  C       2.784763      0.001924      0.988374
  C      -1.198016     -0.086859     -2.396530
  C      -0.487987     -0.454471     -1.101217
  C       0.893303      0.192675     -1.004536
  C       1.553768     -0.084313      0.288980
  O       1.088737      0.071389      1.485743
  H       3.078616      0.932552      1.457140
  H       3.428102     -0.858516      1.141812
  H      -2.178420     -0.557383     -2.458133
  H      -1.338969      0.992466     -2.470616
  H      -0.618236     -0.405876     -3.264178
  H      -1.081800     -0.139633     -0.241479
  H      -0.378653     -1.537876     -1.023188
  H       0.788492      1.280792     -1.122940
  H       1.543324     -0.148728     -1.812559
