15
* (null), Energy   -1000.0000000
C     2.033254    0.588350    0.692070   -0.093364   -0.036060    0.076821
C    -2.229225    0.017854    0.808475   -0.001253    0.000727    0.001240
C     1.504555   -0.068623   -0.582958   -0.009223   -0.010635    0.000436
C     0.215246   -0.446522    0.093513   -0.040424   -0.048060   -0.096902
C    -1.195775   -0.295468   -0.229646   -0.007538    0.007843    0.004917
O    -0.545845   -1.578923   -0.116758    0.002442   -0.002511   -0.006797
H     0.848267    0.031022    1.240144    1.639077    1.022018    0.450192
H     2.897084    0.146904    1.174242    0.069998    0.058359   -0.099077
H     1.958793    1.666786    0.767911    0.100794    0.001058   -0.082581
H    -2.439147    1.087729    0.820439    0.000888    0.001337    0.000659
H    -3.158898   -0.509874    0.595644   -0.001843    0.001524    0.000038
H    -1.870636   -0.281549    1.791597    0.000950    0.001934    0.000296
H     1.405102    0.585527   -1.447432   -0.010215   -0.000810    0.006119
H     2.070987   -0.953729   -0.867596   -0.000138    0.001169   -0.007754
H    -1.451309   -0.047642   -1.256735   -0.029439   -0.019766    0.000713
15
* Frequency(6) -2037.1437
C     2.022643    0.584252    0.700800   -0.093364   -0.036060    0.076821
C    -2.229367    0.017937    0.808616   -0.001253    0.000727    0.001240
C     1.503507   -0.069831   -0.582909   -0.009223   -0.010635    0.000436
C     0.210652   -0.451984    0.082501   -0.040424   -0.048060   -0.096902
C    -1.196631   -0.294576   -0.229088   -0.007538    0.007843    0.004917
O    -0.545568   -1.579208   -0.117530    0.002442   -0.002511   -0.006797
H     1.034539    0.147169    1.291306    1.639077    1.022018    0.450192
H     2.905039    0.153536    1.162983    0.069998    0.058359   -0.099077
H     1.970247    1.666906    0.758526    0.100794    0.001058   -0.082581
H    -2.439046    1.087881    0.820514    0.000888    0.001337    0.000659
H    -3.159108   -0.509701    0.595648   -0.001843    0.001524    0.000038
H    -1.870528   -0.281329    1.791631    0.000950    0.001934    0.000296
H     1.403941    0.585435   -1.446736   -0.010215   -0.000810    0.006119
H     2.070972   -0.953596   -0.868477   -0.000138    0.001169   -0.007754
H    -1.454655   -0.049888   -1.256654   -0.029439   -0.019766    0.000713
15
* Frequency(6) -2037.1437
C     2.013183    0.580598    0.708584   -0.093364   -0.036060    0.076821
C    -2.229494    0.018011    0.808742   -0.001253    0.000727    0.001240
C     1.502573   -0.070909   -0.582865   -0.009223   -0.010635    0.000436
C     0.206556   -0.456854    0.072682   -0.040424   -0.048060   -0.096902
C    -1.197395   -0.293782   -0.228589   -0.007538    0.007843    0.004917
O    -0.545321   -1.579463   -0.118219    0.002442   -0.002511   -0.006797
H     1.200626    0.250730    1.336924    1.639077    1.022018    0.450192
H     2.912132    0.159450    1.152943    0.069998    0.058359   -0.099077
H     1.980461    1.667013    0.750158    0.100794    0.001058   -0.082581
H    -2.438956    1.088017    0.820581    0.000888    0.001337    0.000659
H    -3.159294   -0.509547    0.595652   -0.001843    0.001524    0.000038
H    -1.870432   -0.281133    1.791661    0.000950    0.001934    0.000296
H     1.402906    0.585353   -1.446116   -0.010215   -0.000810    0.006119
H     2.070958   -0.953478   -0.869263   -0.000138    0.001169   -0.007754
H    -1.457638   -0.051891   -1.256582   -0.029439   -0.019766    0.000713
15
* Frequency(6) -2037.1437
C     2.005897    0.577784    0.714579   -0.093364   -0.036060    0.076821
C    -2.229592    0.018067    0.808838   -0.001253    0.000727    0.001240
C     1.501853   -0.071739   -0.582831   -0.009223   -0.010635    0.000436
C     0.203402   -0.460604    0.065120   -0.040424   -0.048060   -0.096902
C    -1.197984   -0.293170   -0.228206   -0.007538    0.007843    0.004917
O    -0.545130   -1.579659   -0.118750    0.002442   -0.002511   -0.006797
H     1.328530    0.330482    1.372054    1.639077    1.022018    0.450192
H     2.917594    0.164004    1.145212    0.069998    0.058359   -0.099077
H     1.988326    1.667096    0.743714    0.100794    0.001058   -0.082581
H    -2.438887    1.088121    0.820632    0.000888    0.001337    0.000659
H    -3.159438   -0.509428    0.595655   -0.001843    0.001524    0.000038
H    -1.870358   -0.280983    1.791684    0.000950    0.001934    0.000296
H     1.402109    0.585290   -1.445639   -0.010215   -0.000810    0.006119
H     2.070947   -0.953387   -0.869868   -0.000138    0.001169   -0.007754
H    -1.459935   -0.053434   -1.256526   -0.029439   -0.019766    0.000713
15
* Frequency(6) -2037.1437
C     2.001576    0.576115    0.718134   -0.093364   -0.036060    0.076821
C    -2.229650    0.018101    0.808896   -0.001253    0.000727    0.001240
C     1.501426   -0.072231   -0.582810   -0.009223   -0.010635    0.000436
C     0.201531   -0.462829    0.060635   -0.040424   -0.048060   -0.096902
C    -1.198332   -0.292807   -0.227978   -0.007538    0.007843    0.004917
O    -0.545017   -1.579775   -0.119064    0.002442   -0.002511   -0.006797
H     1.404389    0.377782    1.392890    1.639077    1.022018    0.450192
H     2.920834    0.166705    1.140626    0.069998    0.058359   -0.099077
H     1.992991    1.667145    0.739892    0.100794    0.001058   -0.082581
H    -2.438846    1.088183    0.820663    0.000888    0.001337    0.000659
H    -3.159524   -0.509357    0.595657   -0.001843    0.001524    0.000038
H    -1.870314   -0.280893    1.791698    0.000950    0.001934    0.000296
H     1.401636    0.585253   -1.445356   -0.010215   -0.000810    0.006119
H     2.070941   -0.953332   -0.870227   -0.000138    0.001169   -0.007754
H    -1.461297   -0.054348   -1.256493   -0.029439   -0.019766    0.000713
15
* Frequency(6) -2037.1437
C     2.000688    0.575772    0.718865   -0.093364   -0.036060    0.076821
C    -2.229662    0.018108    0.808908   -0.001253    0.000727    0.001240
C     1.501338   -0.072332   -0.582806   -0.009223   -0.010635    0.000436
C     0.201146   -0.463286    0.059713   -0.040424   -0.048060   -0.096902
C    -1.198404   -0.292732   -0.227931   -0.007538    0.007843    0.004917
O    -0.544994   -1.579799   -0.119129    0.002442   -0.002511   -0.006797
H     1.419984    0.387506    1.397173    1.639077    1.022018    0.450192
H     2.921500    0.167260    1.139684    0.069998    0.058359   -0.099077
H     1.993950    1.667155    0.739106    0.100794    0.001058   -0.082581
H    -2.438837    1.088196    0.820669    0.000888    0.001337    0.000659
H    -3.159541   -0.509343    0.595657   -0.001843    0.001524    0.000038
H    -1.870305   -0.280875    1.791701    0.000950    0.001934    0.000296
H     1.401539    0.585245   -1.445297   -0.010215   -0.000810    0.006119
H     2.070939   -0.953321   -0.870301   -0.000138    0.001169   -0.007754
H    -1.461577   -0.054536   -1.256486   -0.029439   -0.019766    0.000713
15
* Frequency(6) -2037.1437
C     2.003329    0.576792    0.716692   -0.093364   -0.036060    0.076821
C    -2.229627    0.018087    0.808873   -0.001253    0.000727    0.001240
C     1.501599   -0.072031   -0.582819   -0.009223   -0.010635    0.000436
C     0.202290   -0.461927    0.062454   -0.040424   -0.048060   -0.096902
C    -1.198191   -0.292954   -0.228070   -0.007538    0.007843    0.004917
O    -0.545063   -1.579728   -0.118937    0.002442   -0.002511   -0.006797
H     1.373625    0.358600    1.384440    1.639077    1.022018    0.450192
H     2.919520    0.165609    1.142486    0.069998    0.058359   -0.099077
H     1.991099    1.667125    0.741442    0.100794    0.001058   -0.082581
H    -2.438862    1.088158    0.820650    0.000888    0.001337    0.000659
H    -3.159489   -0.509386    0.595656   -0.001843    0.001524    0.000038
H    -1.870332   -0.280929    1.791692    0.000950    0.001934    0.000296
H     1.401828    0.585268   -1.445471   -0.010215   -0.000810    0.006119
H     2.070943   -0.953354   -0.870082   -0.000138    0.001169   -0.007754
H    -1.460745   -0.053977   -1.256506   -0.029439   -0.019766    0.000713
15
* Frequency(6) -2037.1437
C     2.009212    0.579064    0.711851   -0.093364   -0.036060    0.076821
C    -2.229548    0.018042    0.808794   -0.001253    0.000727    0.001240
C     1.502180   -0.071361   -0.582846   -0.009223   -0.010635    0.000436
C     0.204837   -0.458898    0.068561   -0.040424   -0.048060   -0.096902
C    -1.197716   -0.293448   -0.228380   -0.007538    0.007843    0.004917
O    -0.545217   -1.579569   -0.118508    0.002442   -0.002511   -0.006797
H     1.270335    0.294195    1.356070    1.639077    1.022018    0.450192
H     2.915109    0.161932    1.148729    0.069998    0.058359   -0.099077
H     1.984748    1.667058    0.746646    0.100794    0.001058   -0.082581
H    -2.438918    1.088074    0.820609    0.000888    0.001337    0.000659
H    -3.159373   -0.509482    0.595654   -0.001843    0.001524    0.000038
H    -1.870392   -0.281051    1.791674    0.000950    0.001934    0.000296
H     1.402472    0.585319   -1.445856   -0.010215   -0.000810    0.006119
H     2.070952   -0.953428   -0.869593   -0.000138    0.001169   -0.007754
H    -1.458890   -0.052732   -1.256551   -0.029439   -0.019766    0.000713
15
* Frequency(6) -2037.1437
C     2.017701    0.582343    0.704867   -0.093364   -0.036060    0.076821
C    -2.229434    0.017976    0.808682   -0.001253    0.000727    0.001240
C     1.503019   -0.070394   -0.582886   -0.009223   -0.010635    0.000436
C     0.208512   -0.454528    0.077371   -0.040424   -0.048060   -0.096902
C    -1.197030   -0.294161   -0.228827   -0.007538    0.007843    0.004917
O    -0.545439   -1.579341   -0.117890    0.002442   -0.002511   -0.006797
H     1.121307    0.201271    1.315138    1.639077    1.022018    0.450192
H     2.908744    0.156626    1.157738    0.069998    0.058359   -0.099077
H     1.975583    1.666962    0.754154    0.100794    0.001058   -0.082581
H    -2.438999    1.087952    0.820549    0.000888    0.001337    0.000659
H    -3.159205   -0.509620    0.595650   -0.001843    0.001524    0.000038
H    -1.870478   -0.281227    1.791647    0.000950    0.001934    0.000296
H     1.403400    0.585392   -1.446412   -0.010215   -0.000810    0.006119
H     2.070964   -0.953534   -0.868888   -0.000138    0.001169   -0.007754
H    -1.456213   -0.050935   -1.256616   -0.029439   -0.019766    0.000713
15
* Frequency(6) -2037.1437
C     2.027875    0.586272    0.696495   -0.093364   -0.036060    0.076821
C    -2.229297    0.017896    0.808546   -0.001253    0.000727    0.001240
C     1.504024   -0.069235   -0.582933   -0.009223   -0.010635    0.000436
C     0.212918   -0.449291    0.087931   -0.040424   -0.048060   -0.096902
C    -1.196209   -0.295016   -0.229363   -0.007538    0.007843    0.004917
O    -0.545705   -1.579067   -0.117150    0.002442   -0.002511   -0.006797
H     0.942691    0.089899    1.266079    1.639077    1.022018    0.450192
H     2.901117    0.150266    1.168535    0.069998    0.058359   -0.099077
H     1.964599    1.666847    0.763154    0.100794    0.001058   -0.082581
H    -2.439096    1.087807    0.820477    0.000888    0.001337    0.000659
H    -3.159004   -0.509787    0.595646   -0.001843    0.001524    0.000038
H    -1.870582   -0.281438    1.791614    0.000950    0.001934    0.000296
H     1.404513    0.585481   -1.447079   -0.010215   -0.000810    0.006119
H     2.070979   -0.953662   -0.868043   -0.000138    0.001169   -0.007754
H    -1.453005   -0.048781   -1.256694   -0.029439   -0.019766    0.000713
15
* Frequency(6) -2037.1437
C     2.038632    0.590427    0.687644   -0.093364   -0.036060    0.076821
C    -2.229153    0.017813    0.808404   -0.001253    0.000727    0.001240
C     1.505087   -0.068010   -0.582983   -0.009223   -0.010635    0.000436
C     0.217575   -0.443754    0.099095   -0.040424   -0.048060   -0.096902
C    -1.195340   -0.295920   -0.229930   -0.007538    0.007843    0.004917
O    -0.545986   -1.578778   -0.116366    0.002442   -0.002511   -0.006797
H     0.753843   -0.027854    1.214210    1.639077    1.022018    0.450192
H     2.893052    0.143542    1.179950    0.069998    0.058359   -0.099077
H     1.952986    1.666725    0.772668    0.100794    0.001058   -0.082581
H    -2.439198    1.087652    0.820401    0.000888    0.001337    0.000659
H    -3.158792   -0.509962    0.595642   -0.001843    0.001524    0.000038
H    -1.870691   -0.281661    1.791580    0.000950    0.001934    0.000296
H     1.405690    0.585574   -1.447784   -0.010215   -0.000810    0.006119
H     2.070995   -0.953796   -0.867150   -0.000138    0.001169   -0.007754
H    -1.449613   -0.046504   -1.256776   -0.029439   -0.019766    0.000713
15
* Frequency(6) -2037.1437
C     2.048806    0.594357    0.679273   -0.093364   -0.036060    0.076821
C    -2.229016    0.017733    0.808268   -0.001253    0.000727    0.001240
C     1.506092   -0.066851   -0.583031   -0.009223   -0.010635    0.000436
C     0.221980   -0.438516    0.109655   -0.040424   -0.048060   -0.096902
C    -1.194519   -0.296774   -0.230465   -0.007538    0.007843    0.004917
O    -0.546252   -1.578504   -0.115626    0.002442   -0.002511   -0.006797
H     0.575227   -0.139227    1.165151    1.639077    1.022018    0.450192
H     2.885424    0.137183    1.190747    0.069998    0.058359   -0.099077
H     1.942002    1.666610    0.781667    0.100794    0.001058   -0.082581
H    -2.439295    1.087507    0.820329    0.000888    0.001337    0.000659
H    -3.158591   -0.510128    0.595638   -0.001843    0.001524    0.000038
H    -1.870795   -0.281871    1.791548    0.000950    0.001934    0.000296
H     1.406803    0.585662   -1.448451   -0.010215   -0.000810    0.006119
H     2.071010   -0.953924   -0.866305   -0.000138    0.001169   -0.007754
H    -1.446405   -0.044350   -1.256854   -0.029439   -0.019766    0.000713
15
* Frequency(6) -2037.1437
C     2.057295    0.597635    0.672288   -0.093364   -0.036060    0.076821
C    -2.228902    0.017667    0.808156   -0.001253    0.000727    0.001240
C     1.506930   -0.065884   -0.583070   -0.009223   -0.010635    0.000436
C     0.225656   -0.434147    0.118466   -0.040424   -0.048060   -0.096902
C    -1.193834   -0.297487   -0.230912   -0.007538    0.007843    0.004917
O    -0.546474   -1.578276   -0.115008    0.002442   -0.002511   -0.006797
H     0.426199   -0.232151    1.124218    1.639077    1.022018    0.450192
H     2.879059    0.131877    1.199755    0.069998    0.058359   -0.099077
H     1.932838    1.666513    0.789176    0.100794    0.001058   -0.082581
H    -2.439376    1.087385    0.820269    0.000888    0.001337    0.000659
H    -3.158423   -0.510267    0.595634   -0.001843    0.001524    0.000038
H    -1.870881   -0.282047    1.791521    0.000950    0.001934    0.000296
H     1.407732    0.585736   -1.449007   -0.010215   -0.000810    0.006119
H     2.071023   -0.954030   -0.865600   -0.000138    0.001169   -0.007754
H    -1.443728   -0.042552   -1.256918   -0.029439   -0.019766    0.000713
15
* Frequency(6) -2037.1437
C     2.063179    0.599908    0.667447   -0.093364   -0.036060    0.076821
C    -2.228823    0.017622    0.808077   -0.001253    0.000727    0.001240
C     1.507511   -0.065214   -0.583098   -0.009223   -0.010635    0.000436
C     0.228203   -0.431118    0.124572   -0.040424   -0.048060   -0.096902
C    -1.193359   -0.297982   -0.231222   -0.007538    0.007843    0.004917
O    -0.546628   -1.578118   -0.114579    0.002442   -0.002511   -0.006797
H     0.322909   -0.296556    1.095849    1.639077    1.022018    0.450192
H     2.874648    0.128199    1.205998    0.069998    0.058359   -0.099077
H     1.926486    1.666447    0.794380    0.100794    0.001058   -0.082581
H    -2.439432    1.087301    0.820228    0.000888    0.001337    0.000659
H    -3.158307   -0.510363    0.595632   -0.001843    0.001524    0.000038
H    -1.870941   -0.282169    1.791502    0.000950    0.001934    0.000296
H     1.408376    0.585787   -1.449393   -0.010215   -0.000810    0.006119
H     2.071031   -0.954103   -0.865111   -0.000138    0.001169   -0.007754
H    -1.441873   -0.041307   -1.256963   -0.029439   -0.019766    0.000713
15
* Frequency(6) -2037.1437
C     2.065819    0.600928    0.665274   -0.093364   -0.036060    0.076821
C    -2.228788    0.017601    0.808042   -0.001253    0.000727    0.001240
C     1.507772   -0.064913   -0.583110   -0.009223   -0.010635    0.000436
C     0.229346   -0.429759    0.127313   -0.040424   -0.048060   -0.096902
C    -1.193145   -0.298203   -0.231361   -0.007538    0.007843    0.004917
O    -0.546697   -1.578047   -0.114387    0.002442   -0.002511   -0.006797
H     0.276549   -0.325462    1.083115    1.639077    1.022018    0.450192
H     2.872668    0.126548    1.208801    0.069998    0.058359   -0.099077
H     1.923635    1.666417    0.796715    0.100794    0.001058   -0.082581
H    -2.439457    1.087263    0.820209    0.000888    0.001337    0.000659
H    -3.158255   -0.510406    0.595631   -0.001843    0.001524    0.000038
H    -1.870968   -0.282224    1.791494    0.000950    0.001934    0.000296
H     1.408665    0.585810   -1.449566   -0.010215   -0.000810    0.006119
H     2.071035   -0.954137   -0.864892   -0.000138    0.001169   -0.007754
H    -1.441041   -0.040748   -1.256984   -0.029439   -0.019766    0.000713
15
* Frequency(6) -2037.1437
C     2.064931    0.600585    0.666005   -0.093364   -0.036060    0.076821
C    -2.228800    0.017608    0.808054   -0.001253    0.000727    0.001240
C     1.507685   -0.065014   -0.583106   -0.009223   -0.010635    0.000436
C     0.228962   -0.430216    0.126391   -0.040424   -0.048060   -0.096902
C    -1.193217   -0.298129   -0.231315   -0.007538    0.007843    0.004917
O    -0.546674   -1.578071   -0.114452    0.002442   -0.002511   -0.006797
H     0.292144   -0.315738    1.087399    1.639077    1.022018    0.450192
H     2.873334    0.127104    1.207858    0.069998    0.058359   -0.099077
H     1.924594    1.666427    0.795930    0.100794    0.001058   -0.082581
H    -2.439449    1.087276    0.820215    0.000888    0.001337    0.000659
H    -3.158273   -0.510391    0.595631   -0.001843    0.001524    0.000038
H    -1.870959   -0.282205    1.791497    0.000950    0.001934    0.000296
H     1.408568    0.585802   -1.449508   -0.010215   -0.000810    0.006119
H     2.071034   -0.954125   -0.864965   -0.000138    0.001169   -0.007754
H    -1.441321   -0.040936   -1.256977   -0.029439   -0.019766    0.000713
15
* Frequency(6) -2037.1437
C     2.060610    0.598916    0.669561   -0.093364   -0.036060    0.076821
C    -2.228858    0.017642    0.808112   -0.001253    0.000727    0.001240
C     1.507258   -0.065507   -0.583086   -0.009223   -0.010635    0.000436
C     0.227091   -0.432440    0.121906   -0.040424   -0.048060   -0.096902
C    -1.193566   -0.297766   -0.231087   -0.007538    0.007843    0.004917
O    -0.546561   -1.578187   -0.114766    0.002442   -0.002511   -0.006797
H     0.368003   -0.268438    1.108234    1.639077    1.022018    0.450192
H     2.876574    0.129805    1.203273    0.069998    0.058359   -0.099077
H     1.929259    1.666476    0.792108    0.100794    0.001058   -0.082581
H    -2.439407    1.087338    0.820246    0.000888    0.001337    0.000659
H    -3.158358   -0.510321    0.595633   -0.001843    0.001524    0.000038
H    -1.870915   -0.282116    1.791510    0.000950    0.001934    0.000296
H     1.408095    0.585765   -1.449225   -0.010215   -0.000810    0.006119
H     2.071028   -0.954071   -0.865324   -0.000138    0.001169   -0.007754
H    -1.442683   -0.041851   -1.256944   -0.029439   -0.019766    0.000713
15
* Frequency(6) -2037.1437
C     2.053325    0.596102    0.675555   -0.093364   -0.036060    0.076821
C    -2.228955    0.017698    0.808208   -0.001253    0.000727    0.001240
C     1.506538   -0.066337   -0.583052   -0.009223   -0.010635    0.000436
C     0.223936   -0.436191    0.114344   -0.040424   -0.048060   -0.096902
C    -1.194154   -0.297154   -0.230703   -0.007538    0.007843    0.004917
O    -0.546370   -1.578383   -0.115297    0.002442   -0.002511   -0.006797
H     0.495907   -0.188686    1.143365    1.639077    1.022018    0.450192
H     2.882036    0.134359    1.195541    0.069998    0.058359   -0.099077
H     1.937124    1.666558    0.785664    0.100794    0.001058   -0.082581
H    -2.439338    1.087442    0.820297    0.000888    0.001337    0.000659
H    -3.158502   -0.510202    0.595636   -0.001843    0.001524    0.000038
H    -1.870841   -0.281965    1.791534    0.000950    0.001934    0.000296
H     1.407298    0.585702   -1.448747   -0.010215   -0.000810    0.006119
H     2.071017   -0.953980   -0.865929   -0.000138    0.001169   -0.007754
H    -1.444980   -0.043393   -1.256888   -0.029439   -0.019766    0.000713
15
* Frequency(6) -2037.1437
C     2.043864    0.592448    0.683339   -0.093364   -0.036060    0.076821
C    -2.229082    0.017772    0.808334   -0.001253    0.000727    0.001240
C     1.505603   -0.067414   -0.583008   -0.009223   -0.010635    0.000436
C     0.219840   -0.441061    0.104525   -0.040424   -0.048060   -0.096902
C    -1.194918   -0.296359   -0.230205   -0.007538    0.007843    0.004917
O    -0.546123   -1.578637   -0.115985    0.002442   -0.002511   -0.006797
H     0.661994   -0.085125    1.188982    1.639077    1.022018    0.450192
H     2.889129    0.140272    1.185502    0.069998    0.058359   -0.099077
H     1.947338    1.666666    0.777296    0.100794    0.001058   -0.082581
H    -2.439248    1.087578    0.820364    0.000888    0.001337    0.000659
H    -3.158689   -0.510048    0.595640   -0.001843    0.001524    0.000038
H    -1.870744   -0.281769    1.791564    0.000950    0.001934    0.000296
H     1.406263    0.585619   -1.448127   -0.010215   -0.000810    0.006119
H     2.071003   -0.953862   -0.866715   -0.000138    0.001169   -0.007754
H    -1.447963   -0.045396   -1.256816   -0.029439   -0.019766    0.000713
15
* Frequency(6) -2037.1437
C     2.033254    0.588350    0.692070   -0.093364   -0.036060    0.076821
C    -2.229225    0.017854    0.808475   -0.001253    0.000727    0.001240
C     1.504555   -0.068623   -0.582958   -0.009223   -0.010635    0.000436
C     0.215246   -0.446522    0.093513   -0.040424   -0.048060   -0.096902
C    -1.195775   -0.295468   -0.229646   -0.007538    0.007843    0.004917
O    -0.545845   -1.578923   -0.116758    0.002442   -0.002511   -0.006797
H     0.848267    0.031022    1.240144    1.639077    1.022018    0.450192
H     2.897084    0.146904    1.174242    0.069998    0.058359   -0.099077
H     1.958793    1.666786    0.767911    0.100794    0.001058   -0.082581
H    -2.439147    1.087729    0.820439    0.000888    0.001337    0.000659
H    -3.158898   -0.509874    0.595644   -0.001843    0.001524    0.000038
H    -1.870636   -0.281549    1.791597    0.000950    0.001934    0.000296
H     1.405102    0.585527   -1.447432   -0.010215   -0.000810    0.006119
H     2.070987   -0.953729   -0.867596   -0.000138    0.001169   -0.007754
H    -1.451309   -0.047642   -1.256735   -0.029439   -0.019766    0.000713
