17
Coordinates from ORCA-job freq E -421.377732005114
  C          -1.05668810156179      1.33735321247189     -0.84479984812168
  C          -0.05710635773663     -0.38696974543955      0.80375029296130
  C           2.31426755154042      0.24899396875768      0.04650846863408
  C          -1.29839054055330      0.20482908141206      0.12707595441492
  C           1.12076675985275     -0.61557160436793     -0.05598908674931
  O          -1.77263111319571     -1.93998455826336      0.33520690749508
  O           2.30039668264910     -1.04904909500498      0.59568021376261
  O          -1.81818927533269     -0.90858918097163     -0.59378955086304
  H          -0.72493041543030     -1.53454267696085      0.88474224697666
  H          -0.37577843814517      1.02718195423444     -1.63626354678269
  H          -1.99573216771366      1.65592190490127     -1.29450564976067
  H          -0.61859141631098      2.18642558266975     -0.32061924512146
  H           0.18763626057123     -0.03262189590713      1.80174077159692
  H           2.94284583469241      0.38183746793509     -0.82636669822772
  H           2.31677861537360      1.05814424606753      0.76833593657398
  H          -2.01293011693894      0.49170278941346      0.90341456738641
  H           0.92897323823966     -1.09410945094776     -1.01184773417539
