17
Coordinates from ORCA-job freq E -421.432419046401
  C          -2.81589214110237     -0.13105327647801      0.17064585260802
  C           1.51740329699669     -1.35946218988012      0.47245376471923
  C          -1.45775991585060     -0.56455094570004     -0.24407096589843
  C          -0.33834438563297      0.35546924846439     -0.31518511310993
  C           1.05975215318966     -0.01436769228459      0.00209654695100
  O           3.10520842239799      0.95627089791408     -0.11889005111709
  O           0.66851785019233      0.11807017965394     -1.33184698413724
  O           1.81094513311742      1.06016852866959      0.46483450188035
  H          -3.17065127910168     -0.69289556753164      1.03913615013358
  H          -2.83554990999837      0.92758380741374      0.42707339691132
  H          -3.54877985519409     -0.29780763150676     -0.62470029760189
  H           0.88230797388431     -2.14082759531960      0.06458216600613
  H           1.48692954588839     -1.39709552834477      1.55994092692436
  H           2.54167715827030     -1.52502226829636      0.14391018046174
  H          -1.29008184582554     -1.59193632699169     -0.53478434164296
  H          -0.56898852766738      1.40833925583389     -0.18469717802341
  H           2.95330432643589      1.34529910438399     -0.99049855506481
