15
Coordinates from ORCA-job freq E -271.052305675886
  C           2.36880734498344     -0.19171960323267      0.52185687900655
  C          -2.16393743024123     -0.44135270461820     -0.42050423806284
  C           0.89476848448571     -0.24492147463751      0.91444761591409
  C           0.09124941985013      0.73115376670498      0.13325041811344
  C          -1.25519227861079      0.75215334861210     -0.40411363199382
  O          -0.05915687193004      0.64257256055481     -1.22155770500138
  H           2.78541428420576      0.79380090512724      0.72709077031981
  H           2.94509701968470     -0.93168825771657      1.07501049592594
  H           2.48459833956975     -0.39168646453921     -0.54272965220817
  H          -2.85579422474896     -0.39572328545056      0.42114801064706
  H          -2.75050620334443     -0.46332126668343     -1.33928950558287
  H          -1.59168885750978     -1.36466110325032     -0.35278441370482
  H           0.50199353088345     -1.25500445035937      0.74116463304080
  H           0.76927829637264     -0.03152081797074      1.97639033402478
  H          -1.74110385365038      1.71804284745946     -0.49823601043856
