17
Coordinates from ORCA-job freq E -421.379192966216
  C           1.78911015181211      0.36011420369085      0.21862968913399
  C          -0.17234700424547     -0.63999848158421     -1.03168352066662
  C           1.03536077332101      0.24651427318856     -1.10496123302180
  C          -1.56271284620574      1.06362569401732      0.46641944966910
  C          -1.34201557674725     -0.23128351579036     -0.17077198442270
  O          -0.67002221796713     -2.11802038380965      0.72657959578645
  O          -2.32956404033687      0.59151904460703     -0.65606405830579
  O          -1.83380128912673     -1.40529900707610      0.42262821164921
  H          -0.00583725234118     -1.68322230918516     -0.23724818852930
  H           1.13741257076171      0.70263612484457      1.02181278316421
  H           2.18886839177390     -0.60984123492161      0.51390640598981
  H           2.61939413459418      1.05912084013132      0.13203861370828
  H          -0.50770565780237     -1.07668454140493     -1.97149982708144
  H           0.70650806376763      1.24137854974370     -1.43354233068496
  H           1.70351868086756     -0.11874001538383     -1.88488761916563
  H          -2.10465704622480      1.08406790547774      1.40316598242490
  H          -0.91334883590055      1.90411085345473      0.25167303035230
