17
Coordinates from ORCA-job freq E -421.389073066913
  C          -1.61187628127989      0.91256288666882     -0.12355446798172
  C           0.15838741917575     -0.73046922028786     -1.01910049978865
  C          -1.30896929647790     -0.41889605872307     -0.81153509004650
  C           1.00303147063952     -1.14383894088410      0.14089767894472
  C           1.70975687879522     -0.07597893987559      0.86236776695532
  O           1.59014457631711      1.27234929926259     -0.95297880370779
  O           0.62499053227101     -0.72067444220820      1.45104534211199
  O           1.42490264852151      1.21184975128129      0.42416186860832
  H           0.78018227015788      0.40454183601819     -1.28496418258585
  H          -1.23299504648691      0.92919592390640      0.89434992266078
  H          -1.15026838996254      1.73797935931230     -0.66584309350502
  H          -2.68848117186042      1.07725745787390     -0.09839125012958
  H           0.36798085092059     -1.34375161861465     -1.89290253424777
  H          -1.74707548964928     -1.23469574508790     -0.22568659601597
  H          -1.79584704969116     -0.43800730456647     -1.78687088955010
  H           1.46748272347463     -2.12353861975165      0.10548848851054
  H           2.67546935513488     -0.19835662432395      1.33742533976730
