17
Coordinates from ORCA-job freq E -421.372352068038
  C           0.81248440522562      0.57671107084649      0.08992127824608
  C          -0.22115968462720     -0.50815788231487     -0.02141204808406
  C           2.23304014548184      0.12918023891530      0.41400649765219
  C          -2.80831953271815     -0.41832630364977     -0.19612315896969
  C          -1.48441169003325     -0.01225555243800     -0.66782632400900
  O           2.30077957596309      0.52297241207477     -1.74541471607630
  O          -2.27632312534539      0.85630011332341      0.12407015267235
  O           2.68373464986380     -0.43246617417496     -0.80894399828418
  H           1.25902263514510      0.84311347719776     -1.13942207638505
  H           0.46208736846516      1.49786719873018      0.54751757097598
  H           0.18826148433218     -1.34815726666382     -0.58837108935605
  H          -0.46213116172916     -0.87539343461128      0.98374726888278
  H           2.85376788690847      0.98158786421829      0.69633801792316
  H           2.29777999143649     -0.65708132395707      1.16820617597820
  H          -3.64959804482397     -0.40870003635646     -0.87830766860773
  H          -2.87917090693767     -1.10959747200461      0.63621514971534
  H          -1.38720399660698      0.30298207086465     -1.70316103227397
