17
Coordinates from ORCA-job freq E -421.310683193814
  C          -1.56315922972974      0.85578940569147     -1.20817739603103
  C          -0.31800076997749     -0.75758118123380      0.33197718155954
  C           2.54969552990871     -0.25757196354588      0.63648035506763
  C          -1.17309415225393      0.51037389765315      0.21353421350128
  C           1.38926243361255      0.09947406621856     -0.15725638661800
  O          -1.87938401963760     -1.35812400360284      0.75685310618565
  O           1.83404928648803      0.98691462236630      0.77392854360939
  O          -2.28268437216402      0.00914293182678      0.94058392711378
  H          -0.15618327666378     -1.42833793692379     -0.50398510713870
  H          -1.98427674754696     -0.02357359309368     -1.69545619761216
  H          -2.31944294717476      1.63914735992029     -1.19438238925103
  H          -0.71167983345142      1.21701166406268     -1.78545398772246
  H           0.14137484927639     -0.99761879112172      1.28209142331498
  H           3.55009044191017     -0.15523903039335      0.23570902360779
  H           2.42748238931763     -0.94184479100492      1.46721346773817
  H          -0.74135446350709      1.36425019435290      0.73940424678843
  H           1.35843488159335      0.38389314882785     -1.20416602411326
