17
Coordinates from ORCA-job freq E -421.374105424681
  C          -1.83990850600672      0.69023667077611      0.62811685874853
  C          -1.29329460708634     -0.36934617206846     -0.32235152806043
  C           1.88191054923758      0.67141644684768     -1.22742381152857
  C           1.24451254459995      0.08550337360842     -0.06198002647544
  C           0.07227629916810     -0.89897410939590      0.06899641007588
  O           1.43542286458862     -1.40010686222953      1.74516411187085
  O           1.10465258109016      1.42225375248557     -0.27201788224524
  O           0.09515722984388     -1.22992818645644      1.44191435365934
  H           1.81662363953948     -0.47052071468674      1.01512254160060
  H          -2.80169969016210      1.05393660497201      0.26917161828111
  H          -1.16208490197584      1.53874251817565      0.70236525893343
  H          -1.98061506288162      0.27841918741198      1.62508725548108
  H          -1.20617041415943      0.03299350299800     -1.33498845102133
  H          -1.98061014896942     -1.21485887057593     -0.38148432955536
  H           2.94373168021816      0.87797584488120     -1.21312049428417
  H           1.41608319222304      0.58337724488632     -2.20222664981120
  H           0.35547975073246     -1.77568923162994     -0.52320623566908
