17
Coordinates from ORCA-job freq E -421.419445605697
  C           2.83867506602111      0.44783215614721     -0.06390339402423
  C          -1.91593967312300     -1.31104185430454      0.14645848672414
  C           1.42910152352260      0.81438661244524      0.23801865126704
  C           0.54053879852397     -0.39874971444164      0.27685915224767
  C          -0.79823917788299     -0.42860572537560     -0.31754947467727
  O          -1.73925957595413      1.60481913915062     -0.01021851337949
  O           0.26178250589398     -1.02470734000826     -0.98613872042405
  O          -1.21584692812023      0.72517519014308     -0.99997255472760
  H           3.04483676930029     -0.30978217175438     -0.80549921361723
  H           3.65643660498358      1.05650584714229      0.28900287179053
  H          -2.49589973426698     -1.64327257630817     -0.71463815516150
  H          -1.51224939456059     -2.18145488901749      0.65876732255581
  H          -2.56687661336715     -0.76852046532731      0.82969432511069
  H           1.35870899735320      1.32901999514646      1.19894248955254
  H           1.02997358228584      1.50269276692794     -0.51595132617203
  H           0.74907534123677     -1.11561816313946      1.06657934242064
  H          -2.65435409184625      1.69322119257398     -0.29955428948565
