8
Coordinates from ORCA-job freq E -191.799168883837
  C          -1.12092791095503     -0.07122517151725     -0.01822395501068
  C           0.33173081479440      0.04241019747980      0.01344498763890
  C           1.56679226720540     -0.20006884791249     -0.07757564268795
  O           1.18856361722520      1.16351542446471      0.40555093406893
  H          -1.42212314034781     -1.05666097806903     -0.36459831574607
  H          -1.52130366095343      0.10296281371468      0.98133437663403
  H          -1.53104456390236      0.69062390897224     -0.68243543200863
  H           2.50831357693364     -0.67155734713267     -0.25749695288854
