17
Coordinates from ORCA-job freq E -421.375650328395
  C          -1.81355666960777      1.21909955611700     -0.15948787454753
  C          -1.26137143112843     -0.16431678048719     -0.27898603365265
  C           2.55179346931468      0.17652152465824     -0.04628654041269
  C           0.08750159536481     -0.46728841037346      0.36820771275378
  C           1.26585293564872     -0.30909641109952     -0.54846096743671
  O          -1.28730857975069     -1.90388344243336      1.31548230541320
  O           1.66786025732383      1.03241618923876     -0.75036168170485
  O          -0.02136687690601     -1.83151340596004      0.73855131765689
  H          -1.79293890802783     -1.05300387586877      0.54589016049687
  H          -2.82216711642840      1.28580818819902     -0.56366849335230
  H          -1.82573339778973      1.54844586707583      0.87983216994605
  H          -1.18344684240062      1.92085414111127     -0.71639183034308
  H          -1.38017223826234     -0.63888335435765     -1.25363011799763
  H           3.45958898989803     -0.08352387370176     -0.57603979266808
  H           2.65502368038875      0.38899672452752      1.01129033317746
  H           0.21352072828935      0.16434187191550      1.25545057111348
  H           1.24713440407365     -0.92533750856143     -1.44209423844221
