17
Coordinates from ORCA-job freq E -421.371091843027
  C          -1.66562149773936     -1.07394574279895     -0.97216836563165
  C          -2.02320732884811     -0.25546641549114      0.25249091500713
  C          -0.74473083849840     -0.22142318339345      1.11465425860269
  C           0.35869510556569     -0.13218126767517      0.09947395527334
  C           1.79231014265797     -0.00874185000893      0.22004590938974
  O           3.74682011645620      0.13970877729865     -0.87709770133916
  O           0.98597141828737      1.07895251378902     -0.21388920082989
  O           2.55083946011930     -0.61867528780050     -0.74769177868737
  H          -0.32275587818476     -0.74463936749971     -0.90215941997439
  H          -1.65590123785731     -2.15214413403178     -0.83418762144881
  H          -2.07041358535078     -0.76845035912040     -1.93001240627405
  H          -2.87023613831104     -0.66310769945481      0.80516227946315
  H          -2.28272930053886      0.76080380368984     -0.04519164880363
  H          -0.71619521333890      0.60209949865197      1.82764178611681
  H          -0.63625813579190     -1.15968520013304      1.66247477891567
  H           2.31649289080142      0.15959643761494      1.15442920471826
  H           3.49501802057146      0.78737347636347     -1.54810194449781
