17
Coordinates from ORCA-job freq E -421.368966646688
  C      -1.671799     -1.054559     -0.993296
  C      -2.052442     -0.348218      0.285877
  C      -0.751092     -0.153913      1.094365
  C       0.317592      0.007482      0.042478
  C       1.763842      0.031081      0.204178
  O       3.804598     -0.017477     -0.854008
  O       1.030774      1.179094     -0.167414
  O       2.507420     -0.586176     -0.767949
  H      -0.352285     -0.560576     -0.934186
  H      -1.554224     -2.126200     -0.920042
  H      -2.163892     -0.731632     -1.896961
  H      -2.787086     -0.909512      0.866893
  H      -2.476834      0.628574      0.052906
  H      -0.804801      0.704629      1.763437
  H      -0.531584     -1.046720      1.682547
  H       2.236988      0.086684      1.182873
  H       3.742923      0.627512     -1.575825
17
Coordinates from ORCA-job freq E -421.370729772810
  C      -1.661538     -1.059200     -0.984293
  C      -2.047522     -0.313028      0.276240
  C      -0.750961     -0.171304      1.103489
  C       0.335788     -0.041908      0.070580
  C       1.773875      0.003238      0.203324
  O       3.768761      0.050397     -0.839244
  O       1.022758      1.147361     -0.177082
  O       2.509105     -0.604071     -0.781835
  H      -0.346079     -0.630270     -0.933841
  H      -1.573469     -2.137298     -0.887225
  H      -2.112480     -0.749243     -1.918822
  H      -2.825293     -0.823255      0.845332
  H      -2.422715      0.678033      0.020771
  H      -0.766801      0.678725      1.784691
  H      -0.569471     -1.077080      1.685319
  H       2.290221      0.094380      1.152922
  H       3.633918      0.684596     -1.554452
17
Coordinates from ORCA-job freq E -421.371030366169
  C      -1.663339     -1.067614     -0.978333
  C      -2.035551     -0.281891      0.262841
  C      -0.747890     -0.197761      1.109327
  C       0.348635     -0.086617      0.087064
  C       1.784901     -0.001808      0.213742
  O       3.760214      0.090289     -0.866727
  O       1.004479      1.113218     -0.198583
  O       2.530404     -0.616191     -0.760681
  H      -0.331538     -0.691651     -0.915351
  H      -1.619254     -2.146737     -0.858369
  H      -2.090401     -0.759894     -1.925358
  H      -2.851546     -0.739066      0.823481
  H      -2.350306      0.724124     -0.015398
  H      -0.741288      0.636558      1.809963
  H      -0.603185     -1.123327      1.670244
  H       2.306994      0.133244      1.154846
  H       3.556770      0.745198     -1.546835
17
Coordinates from ORCA-job freq E -421.371102499242
  C      -1.667070     -1.076390     -0.969941
  C      -2.022845     -0.252389      0.251296
  C      -0.744527     -0.223173      1.113275
  C       0.358277     -0.129569      0.097761
  C       1.791768     -0.009359      0.218506
  O       3.746674      0.141250     -0.874062
  O       0.986200      1.081478     -0.211938
  O       2.549905     -0.616274     -0.751319
  H      -0.324653     -0.742656     -0.903602
  H      -1.653063     -2.153701     -0.825220
  H      -2.076203     -0.778236     -1.928249
  H      -2.872733     -0.653427      0.804444
  H      -2.276170      0.764432     -0.050150
  H      -0.715051      0.596166      1.831016
  H      -0.636381     -1.165047      1.655050
  H       2.316538      0.155926      1.153113
  H       3.497432      0.791043     -1.544109
17
Coordinates from ORCA-job freq E -421.371093895626
  C      -1.665597     -1.071513     -0.974108
  C      -2.021754     -0.256500      0.253547
  C      -0.743091     -0.223032      1.116452
  C       0.361553     -0.141014      0.102334
  C       1.794262     -0.007458      0.222839
  O       3.745104      0.146363     -0.879496
  O       0.981697      1.069765     -0.225944
  O       2.558383     -0.624155     -0.736249
  H      -0.319185     -0.760857     -0.894602
  H      -1.674912     -2.150914     -0.846549
  H      -2.055553     -0.750499     -1.933009
  H      -2.868237     -0.666242      0.805385
  H      -2.282319      0.760319     -0.040948
  H      -0.713024      0.603275      1.826242
  H      -0.637387     -1.159311      1.668067
  H       2.315978      0.175836      1.155797
  H       3.482179      0.786011     -1.553884
17
Coordinates from ORCA-job freq E -421.371082913469
  C      -1.665681     -1.073841     -0.972149
  C      -2.023343     -0.255721      0.252684
  C      -0.744710     -0.221340      1.114637
  C       0.358640     -0.131896      0.099431
  C       1.792208     -0.008343      0.219791
  O       3.747290      0.138546     -0.877146
  O       0.985533      1.079179     -0.214498
  O       2.550533     -0.618655     -0.747861
  H      -0.322729     -0.745003     -0.901879
  H      -1.656253     -2.152093     -0.834635
  H      -2.070108     -0.767823     -1.929981
  H      -2.870128     -0.663758      0.805434
  H      -2.283311      0.760478     -0.044817
  H      -0.716266      0.602121      1.827713
  H      -0.635983     -1.159604      1.662410
  H       2.316547      0.160533      1.153983
  H       3.495858      0.787294     -1.547244
17
Coordinates from ORCA-job freq E -421.371093813910
  C      -1.665668     -1.073941     -0.972154
  C      -2.023233     -0.255514      0.252553
  C      -0.744710     -0.221441      1.114647
  C       0.358661     -0.132134      0.099416
  C       1.792258     -0.008582      0.219948
  O       3.746952      0.139457     -0.876982
  O       0.985837      1.079015     -0.214106
  O       2.550782     -0.618640     -0.747714
  H      -0.322798     -0.744697     -0.902148
  H      -1.656017     -2.152149     -0.834265
  H      -2.070435     -0.768336     -1.929973
  H      -2.870226     -0.663195      0.805249
  H      -2.282804      0.760746     -0.045102
  H      -0.716181      0.602030      1.827696
  H      -0.636124     -1.159740      1.662392
  H       2.316455      0.159894      1.154303
  H       3.495348      0.787301     -1.547886
17
Coordinates from ORCA-job freq E -421.371091843027
  C      -1.665621     -1.073946     -0.972168
  C      -2.023207     -0.255466      0.252491
  C      -0.744731     -0.221423      1.114654
  C       0.358695     -0.132181      0.099474
  C       1.792310     -0.008742      0.220046
  O       3.746820      0.139709     -0.877098
  O       0.985971      1.078953     -0.213889
  O       2.550839     -0.618675     -0.747692
  H      -0.322756     -0.744639     -0.902159
  H      -1.655901     -2.152144     -0.834188
  H      -2.070414     -0.768450     -1.930012
  H      -2.870236     -0.663108      0.805162
  H      -2.282729      0.760804     -0.045192
  H      -0.716195      0.602099      1.827642
  H      -0.636258     -1.159685      1.662475
  H       2.316493      0.159596      1.154429
  H       3.495018      0.787373     -1.548102
