17
* (null), Energy   -1000.0000000
C    -2.385663   -0.955062   -0.795914    0.126599    0.021104   -0.008623
C    -2.743249   -0.136583    0.428745   -0.015177   -0.001535    0.008225
C    -1.464772   -0.102540    1.290909   -0.006406   -0.004446   -0.016373
C    -0.361346   -0.013298    0.275728    0.061582    0.061271    0.083438
C     1.072269    0.110142    0.396300    0.013099   -0.010718    0.003062
O     3.026779    0.258592   -0.700843    0.000073   -0.000216    0.000355
O     0.265930    1.197836   -0.037635   -0.015007   -0.007122   -0.001514
O     1.830798   -0.499792   -0.571437    0.000121   -0.000613   -0.000758
H    -1.042797   -0.625756   -0.725905   -1.652911   -0.671646   -0.849564
H    -2.375943   -2.033261   -0.657933   -0.184927    0.008121    0.016618
H    -2.790455   -0.649567   -1.753758   -0.133198   -0.047469    0.063235
H    -3.590278   -0.544224    0.981417   -0.008072    0.022925    0.013555
H    -3.002771    0.879687    0.131063    0.002315    0.002338    0.004373
H    -1.436237    0.720983    2.003896    0.011869    0.005010   -0.013302
H    -1.356300   -1.040802    1.838729    0.016816   -0.000268   -0.015842
H     1.596451    0.278480    1.330684    0.038522    0.028002   -0.015295
H     2.774977    0.906257   -1.371848    0.003503   -0.003405   -0.004221
17
* Frequency(6) -1835.6664
C    -2.371276   -0.952664   -0.796894    0.126599    0.021104   -0.008623
C    -2.744973   -0.136757    0.429680   -0.015177   -0.001535    0.008225
C    -1.465500   -0.103045    1.289048   -0.006406   -0.004446   -0.016373
C    -0.354348   -0.006335    0.285211    0.061582    0.061271    0.083438
C     1.073757    0.108924    0.396648    0.013099   -0.010718    0.003062
O     3.026787    0.258568   -0.700803    0.000073   -0.000216    0.000355
O     0.264225    1.197027   -0.037807   -0.015007   -0.007122   -0.001514
O     1.830812   -0.499861   -0.571523    0.000121   -0.000613   -0.000758
H    -1.230642   -0.702085   -0.822453   -1.652911   -0.671646   -0.849564
H    -2.396959   -2.032338   -0.656045   -0.184927    0.008121    0.016618
H    -2.805592   -0.654961   -1.746572   -0.133198   -0.047469    0.063235
H    -3.591195   -0.541619    0.982957   -0.008072    0.022925    0.013555
H    -3.002508    0.879953    0.131560    0.002315    0.002338    0.004373
H    -1.434888    0.721552    2.002384    0.011869    0.005010   -0.013302
H    -1.354388   -1.040832    1.836929    0.016816   -0.000268   -0.015842
H     1.600829    0.281662    1.328945    0.038522    0.028002   -0.015295
H     2.775375    0.905870   -1.372327    0.003503   -0.003405   -0.004221
17
* Frequency(6) -1835.6664
C    -2.358447   -0.950525   -0.797768    0.126599    0.021104   -0.008623
C    -2.746511   -0.136913    0.430514   -0.015177   -0.001535    0.008225
C    -1.466149   -0.103495    1.287389   -0.006406   -0.004446   -0.016373
C    -0.348108   -0.000126    0.293665    0.061582    0.061271    0.083438
C     1.075085    0.107837    0.396959    0.013099   -0.010718    0.003062
O     3.026794    0.258546   -0.700767    0.000073   -0.000216    0.000355
O     0.262704    1.196305   -0.037960   -0.015007   -0.007122   -0.001514
O     1.830824   -0.499923   -0.571600    0.000121   -0.000613   -0.000758
H    -1.398131   -0.770143   -0.908539   -1.652911   -0.671646   -0.849564
H    -2.415697   -2.031515   -0.654361   -0.184927    0.008121    0.016618
H    -2.819089   -0.659771   -1.740164   -0.133198   -0.047469    0.063235
H    -3.592013   -0.539296    0.984331   -0.008072    0.022925    0.013555
H    -3.002273    0.880190    0.132003    0.002315    0.002338    0.004373
H    -1.433685    0.722060    2.001037    0.011869    0.005010   -0.013302
H    -1.352684   -1.040859    1.835324    0.016816   -0.000268   -0.015842
H     1.604733    0.284500    1.327396    0.038522    0.028002   -0.015295
H     2.775730    0.905525   -1.372755    0.003503   -0.003405   -0.004221
17
* Frequency(6) -1835.6664
C    -2.348568   -0.948879   -0.798441    0.126599    0.021104   -0.008623
C    -2.747696   -0.137033    0.431155   -0.015177   -0.001535    0.008225
C    -1.466649   -0.103842    1.286111   -0.006406   -0.004446   -0.016373
C    -0.343302    0.004655    0.300176    0.061582    0.061271    0.083438
C     1.076107    0.107001    0.397197    0.013099   -0.010718    0.003062
O     3.026800    0.258529   -0.700739    0.000073   -0.000216    0.000355
O     0.261533    1.195749   -0.038078   -0.015007   -0.007122   -0.001514
O     1.830833   -0.499971   -0.571659    0.000121   -0.000613   -0.000758
H    -1.527114   -0.822554   -0.974834   -1.652911   -0.671646   -0.849564
H    -2.430128   -2.030881   -0.653064   -0.184927    0.008121    0.016618
H    -2.829483   -0.663476   -1.735230   -0.133198   -0.047469    0.063235
H    -3.592643   -0.537507    0.985389   -0.008072    0.022925    0.013555
H    -3.002092    0.880372    0.132344    0.002315    0.002338    0.004373
H    -1.432759    0.722451    1.999999    0.011869    0.005010   -0.013302
H    -1.351372   -1.040880    1.834087    0.016816   -0.000268   -0.015842
H     1.607739    0.286685    1.326202    0.038522    0.028002   -0.015295
H     2.776003    0.905259   -1.373084    0.003503   -0.003405   -0.004221
17
* Frequency(6) -1835.6664
C    -2.342709   -0.947902   -0.798840    0.126599    0.021104   -0.008623
C    -2.748398   -0.137104    0.431536   -0.015177   -0.001535    0.008225
C    -1.466946   -0.104048    1.285354   -0.006406   -0.004446   -0.016373
C    -0.340452    0.007491    0.304038    0.061582    0.061271    0.083438
C     1.076713    0.106505    0.397339    0.013099   -0.010718    0.003062
O     3.026803    0.258519   -0.700723    0.000073   -0.000216    0.000355
O     0.260838    1.195420   -0.038148   -0.015007   -0.007122   -0.001514
O     1.830839   -0.500000   -0.571695    0.000121   -0.000613   -0.000758
H    -1.603614   -0.853639   -1.014154   -1.652911   -0.671646   -0.849564
H    -2.438687   -2.030505   -0.652295   -0.184927    0.008121    0.016618
H    -2.835648   -0.665672   -1.732303   -0.133198   -0.047469    0.063235
H    -3.593016   -0.536446    0.986016   -0.008072    0.022925    0.013555
H    -3.001985    0.880481    0.132546    0.002315    0.002338    0.004373
H    -1.432209    0.722683    1.999383    0.011869    0.005010   -0.013302
H    -1.350594   -1.040893    1.833354    0.016816   -0.000268   -0.015842
H     1.609521    0.287981    1.325494    0.038522    0.028002   -0.015295
H     2.776165    0.905102   -1.373280    0.003503   -0.003405   -0.004221
17
* Frequency(6) -1835.6664
C    -2.341505   -0.947701   -0.798922    0.126599    0.021104   -0.008623
C    -2.748542   -0.137118    0.431614   -0.015177   -0.001535    0.008225
C    -1.467007   -0.104090    1.285198   -0.006406   -0.004446   -0.016373
C    -0.339866    0.008074    0.304832    0.061582    0.061271    0.083438
C     1.076838    0.106403    0.397368    0.013099   -0.010718    0.003062
O     3.026804    0.258517   -0.700719    0.000073   -0.000216    0.000355
O     0.260695    1.195352   -0.038163   -0.015007   -0.007122   -0.001514
O     1.830840   -0.500005   -0.571702    0.000121   -0.000613   -0.000758
H    -1.619340   -0.860029   -1.022237   -1.652911   -0.671646   -0.849564
H    -2.440446   -2.030428   -0.652137   -0.184927    0.008121    0.016618
H    -2.836915   -0.666124   -1.731701   -0.133198   -0.047469    0.063235
H    -3.593093   -0.536228    0.986145   -0.008072    0.022925    0.013555
H    -3.001963    0.880503    0.132588    0.002315    0.002338    0.004373
H    -1.432097    0.722731    1.999256    0.011869    0.005010   -0.013302
H    -1.350434   -1.040895    1.833204    0.016816   -0.000268   -0.015842
H     1.609888    0.288247    1.325349    0.038522    0.028002   -0.015295
H     2.776198    0.905069   -1.373320    0.003503   -0.003405   -0.004221
17
* Frequency(6) -1835.6664
C    -2.345085   -0.948298   -0.798678    0.126599    0.021104   -0.008623
C    -2.748113   -0.137075    0.431382   -0.015177   -0.001535    0.008225
C    -1.466825   -0.103965    1.285661   -0.006406   -0.004446   -0.016373
C    -0.341608    0.006341    0.302472    0.061582    0.061271    0.083438
C     1.076467    0.106706    0.397282    0.013099   -0.010718    0.003062
O     3.026802    0.258523   -0.700729    0.000073   -0.000216    0.000355
O     0.261120    1.195553   -0.038120   -0.015007   -0.007122   -0.001514
O     1.830837   -0.499988   -0.571680    0.000121   -0.000613   -0.000758
H    -1.572589   -0.841032   -0.998208   -1.652911   -0.671646   -0.849564
H    -2.435216   -2.030658   -0.652607   -0.184927    0.008121    0.016618
H    -2.833148   -0.664782   -1.733490   -0.133198   -0.047469    0.063235
H    -3.592865   -0.536876    0.985762   -0.008072    0.022925    0.013555
H    -3.002029    0.880437    0.132464    0.002315    0.002338    0.004373
H    -1.432432    0.722589    1.999633    0.011869    0.005010   -0.013302
H    -1.350910   -1.040888    1.833652    0.016816   -0.000268   -0.015842
H     1.608798    0.287455    1.325781    0.038522    0.028002   -0.015295
H     2.776099    0.905166   -1.373200    0.003503   -0.003405   -0.004221
17
* Frequency(6) -1835.6664
C    -2.353063   -0.949628   -0.798134    0.126599    0.021104   -0.008623
C    -2.747157   -0.136978    0.430863   -0.015177   -0.001535    0.008225
C    -1.466422   -0.103684    1.286693   -0.006406   -0.004446   -0.016373
C    -0.345489    0.002480    0.297214    0.061582    0.061271    0.083438
C     1.075642    0.107382    0.397089    0.013099   -0.010718    0.003062
O     3.026797    0.258537   -0.700752    0.000073   -0.000216    0.000355
O     0.262066    1.196002   -0.038025   -0.015007   -0.007122   -0.001514
O     1.830829   -0.499950   -0.571633    0.000121   -0.000613   -0.000758
H    -1.468427   -0.798707   -0.944671   -1.652911   -0.671646   -0.849564
H    -2.423562   -2.031169   -0.653654   -0.184927    0.008121    0.016618
H    -2.824754   -0.661790   -1.737475   -0.133198   -0.047469    0.063235
H    -3.592356   -0.538321    0.984907   -0.008072    0.022925    0.013555
H    -3.002175    0.880289    0.132189    0.002315    0.002338    0.004373
H    -1.433180    0.722273    2.000471    0.011869    0.005010   -0.013302
H    -1.351969   -1.040871    1.834650    0.016816   -0.000268   -0.015842
H     1.606371    0.285690    1.326745    0.038522    0.028002   -0.015295
H     2.775879    0.905380   -1.372934    0.003503   -0.003405   -0.004221
17
* Frequency(6) -1835.6664
C    -2.364574   -0.951547   -0.797350    0.126599    0.021104   -0.008623
C    -2.745777   -0.136839    0.430116   -0.015177   -0.001535    0.008225
C    -1.465839   -0.103280    1.288181   -0.006406   -0.004446   -0.016373
C    -0.351088   -0.003091    0.289628    0.061582    0.061271    0.083438
C     1.074451    0.108356    0.396810    0.013099   -0.010718    0.003062
O     3.026791    0.258556   -0.700784    0.000073   -0.000216    0.000355
O     0.263430    1.196650   -0.037887   -0.015007   -0.007122   -0.001514
O     1.830818   -0.499894   -0.571564    0.000121   -0.000613   -0.000758
H    -1.318142   -0.737640   -0.867427   -1.652911   -0.671646   -0.849564
H    -2.406748   -2.031908   -0.655165   -0.184927    0.008121    0.016618
H    -2.812643   -0.657474   -1.743224   -0.133198   -0.047469    0.063235
H    -3.591622   -0.540405    0.983675   -0.008072    0.022925    0.013555
H    -3.002385    0.880077    0.131791    0.002315    0.002338    0.004373
H    -1.434259    0.721818    2.001680    0.011869    0.005010   -0.013302
H    -1.353498   -1.040846    1.836090    0.016816   -0.000268   -0.015842
H     1.602868    0.283145    1.328136    0.038522    0.028002   -0.015295
H     2.775560    0.905690   -1.372551    0.003503   -0.003405   -0.004221
17
* Frequency(6) -1835.6664
C    -2.378370   -0.953846   -0.796411    0.126599    0.021104   -0.008623
C    -2.744123   -0.136671    0.429219   -0.015177   -0.001535    0.008225
C    -1.465141   -0.102796    1.289966   -0.006406   -0.004446   -0.016373
C    -0.357799   -0.009768    0.280535    0.061582    0.061271    0.083438
C     1.073023    0.109524    0.396477    0.013099   -0.010718    0.003062
O     3.026783    0.258580   -0.700823    0.000073   -0.000216    0.000355
O     0.265065    1.197426   -0.037722   -0.015007   -0.007122   -0.001514
O     1.830805   -0.499827   -0.571481    0.000121   -0.000613   -0.000758
H    -1.138018   -0.664448   -0.774847   -1.652911   -0.671646   -0.849564
H    -2.386596   -2.032793   -0.656976   -0.184927    0.008121    0.016618
H    -2.798128   -0.652301   -1.750115   -0.133198   -0.047469    0.063235
H    -3.590743   -0.542904    0.982198   -0.008072    0.022925    0.013555
H    -3.002637    0.879822    0.131315    0.002315    0.002338    0.004373
H    -1.435553    0.721272    2.003130    0.011869    0.005010   -0.013302
H    -1.355331   -1.040817    1.837817    0.016816   -0.000268   -0.015842
H     1.598671    0.280093    1.329803    0.038522    0.028002   -0.015295
H     2.775178    0.906061   -1.372091    0.003503   -0.003405   -0.004221
17
* Frequency(6) -1835.6664
C    -2.392956   -0.956278   -0.795417    0.126599    0.021104   -0.008623
C    -2.742374   -0.136494    0.428272   -0.015177   -0.001535    0.008225
C    -1.464403   -0.102284    1.291852   -0.006406   -0.004446   -0.016373
C    -0.364894   -0.016827    0.270922    0.061582    0.061271    0.083438
C     1.071514    0.110759    0.396124    0.013099   -0.010718    0.003062
O     3.026775    0.258605   -0.700864    0.000073   -0.000216    0.000355
O     0.266795    1.198246   -0.037548   -0.015007   -0.007122   -0.001514
O     1.830791   -0.499756   -0.571394    0.000121   -0.000613   -0.000758
H    -0.947576   -0.587064   -0.676963   -1.652911   -0.671646   -0.849564
H    -2.365289   -2.033728   -0.658890   -0.184927    0.008121    0.016618
H    -2.782782   -0.646832   -1.757401   -0.133198   -0.047469    0.063235
H    -3.589812   -0.545545    0.980636   -0.008072    0.022925    0.013555
H    -3.002904    0.879553    0.130811    0.002315    0.002338    0.004373
H    -1.436920    0.720694    2.004663    0.011869    0.005010   -0.013302
H    -1.357268   -1.040786    1.839642    0.016816   -0.000268   -0.015842
H     1.594232    0.276867    1.331565    0.038522    0.028002   -0.015295
H     2.774775    0.906453   -1.371604    0.003503   -0.003405   -0.004221
17
* Frequency(6) -1835.6664
C    -2.406752   -0.958578   -0.794477    0.126599    0.021104   -0.008623
C    -2.740721   -0.136327    0.427375   -0.015177   -0.001535    0.008225
C    -1.463705   -0.101799    1.293636   -0.006406   -0.004446   -0.016373
C    -0.371605   -0.023504    0.261829    0.061582    0.061271    0.083438
C     1.070087    0.111927    0.395790    0.013099   -0.010718    0.003062
O     3.026767    0.258628   -0.700902    0.000073   -0.000216    0.000355
O     0.268430    1.199022   -0.037383   -0.015007   -0.007122   -0.001514
O     1.830778   -0.499690   -0.571311    0.000121   -0.000613   -0.000758
H    -0.767453   -0.513872   -0.584383   -1.652911   -0.671646   -0.849564
H    -2.345137   -2.034613   -0.660701   -0.184927    0.008121    0.016618
H    -2.768267   -0.641659   -1.764292   -0.133198   -0.047469    0.063235
H    -3.588933   -0.548043    0.979159   -0.008072    0.022925    0.013555
H    -3.003156    0.879298    0.130334    0.002315    0.002338    0.004373
H    -1.438214    0.720148    2.006112    0.011869    0.005010   -0.013302
H    -1.359101   -1.040757    1.841368    0.016816   -0.000268   -0.015842
H     1.590035    0.273815    1.333231    0.038522    0.028002   -0.015295
H     2.774393    0.906824   -1.371144    0.003503   -0.003405   -0.004221
17
* Frequency(6) -1835.6664
C    -2.418263   -0.960497   -0.793693    0.126599    0.021104   -0.008623
C    -2.739341   -0.136188    0.426627   -0.015177   -0.001535    0.008225
C    -1.463123   -0.101395    1.295125   -0.006406   -0.004446   -0.016373
C    -0.377204   -0.029075    0.254243    0.061582    0.061271    0.083438
C     1.068896    0.112902    0.395512    0.013099   -0.010718    0.003062
O     3.026760    0.258648   -0.700935    0.000073   -0.000216    0.000355
O     0.269794    1.199670   -0.037245   -0.015007   -0.007122   -0.001514
O     1.830767   -0.499634   -0.571242    0.000121   -0.000613   -0.000758
H    -0.617167   -0.452805   -0.507139   -1.652911   -0.671646   -0.849564
H    -2.328323   -2.035352   -0.662212   -0.184927    0.008121    0.016618
H    -2.756156   -0.637343   -1.770041   -0.133198   -0.047469    0.063235
H    -3.588199   -0.550127    0.977926   -0.008072    0.022925    0.013555
H    -3.003367    0.879085    0.129937    0.002315    0.002338    0.004373
H    -1.439293    0.719693    2.007322    0.011869    0.005010   -0.013302
H    -1.360630   -1.040733    1.842809    0.016816   -0.000268   -0.015842
H     1.586532    0.271269    1.334622    0.038522    0.028002   -0.015295
H     2.774075    0.907134   -1.370761    0.003503   -0.003405   -0.004221
17
* Frequency(6) -1835.6664
C    -2.426241   -0.961827   -0.793150    0.126599    0.021104   -0.008623
C    -2.738384   -0.136091    0.426109   -0.015177   -0.001535    0.008225
C    -1.462719   -0.101115    1.296156   -0.006406   -0.004446   -0.016373
C    -0.381085   -0.032936    0.248985    0.061582    0.061271    0.083438
C     1.068070    0.113577    0.395319    0.013099   -0.010718    0.003062
O     3.026755    0.258662   -0.700957    0.000073   -0.000216    0.000355
O     0.270740    1.200119   -0.037149   -0.015007   -0.007122   -0.001514
O     1.830759   -0.499595   -0.571194    0.000121   -0.000613   -0.000758
H    -0.513005   -0.410479   -0.453602   -1.652911   -0.671646   -0.849564
H    -2.316670   -2.035864   -0.663259   -0.184927    0.008121    0.016618
H    -2.747762   -0.634352   -1.774026   -0.133198   -0.047469    0.063235
H    -3.587690   -0.551572    0.977072   -0.008072    0.022925    0.013555
H    -3.003513    0.878938    0.129661    0.002315    0.002338    0.004373
H    -1.440041    0.719377    2.008160    0.011869    0.005010   -0.013302
H    -1.361690   -1.040716    1.843807    0.016816   -0.000268   -0.015842
H     1.584105    0.269505    1.335586    0.038522    0.028002   -0.015295
H     2.773854    0.907348   -1.370495    0.003503   -0.003405   -0.004221
17
* Frequency(6) -1835.6664
C    -2.429821   -0.962423   -0.792906    0.126599    0.021104   -0.008623
C    -2.737955   -0.136048    0.425876   -0.015177   -0.001535    0.008225
C    -1.462538   -0.100989    1.296620   -0.006406   -0.004446   -0.016373
C    -0.382826   -0.034669    0.246625    0.061582    0.061271    0.083438
C     1.067700    0.113880    0.395232    0.013099   -0.010718    0.003062
O     3.026753    0.258668   -0.700967    0.000073   -0.000216    0.000355
O     0.271165    1.200320   -0.037107   -0.015007   -0.007122   -0.001514
O     1.830756   -0.499578   -0.571173    0.000121   -0.000613   -0.000758
H    -0.466254   -0.391483   -0.429573   -1.652911   -0.671646   -0.849564
H    -2.311439   -2.036093   -0.663729   -0.184927    0.008121    0.016618
H    -2.743995   -0.633010   -1.775815   -0.133198   -0.047469    0.063235
H    -3.587462   -0.552220    0.976689   -0.008072    0.022925    0.013555
H    -3.003578    0.878872    0.129538    0.002315    0.002338    0.004373
H    -1.440377    0.719235    2.008536    0.011869    0.005010   -0.013302
H    -1.362165   -1.040708    1.844255    0.016816   -0.000268   -0.015842
H     1.583015    0.268713    1.336019    0.038522    0.028002   -0.015295
H     2.773755    0.907445   -1.370375    0.003503   -0.003405   -0.004221
17
* Frequency(6) -1835.6664
C    -2.428617   -0.962223   -0.792988    0.126599    0.021104   -0.008623
C    -2.738099   -0.136062    0.425955   -0.015177   -0.001535    0.008225
C    -1.462599   -0.101031    1.296464   -0.006406   -0.004446   -0.016373
C    -0.382241   -0.034086    0.247419    0.061582    0.061271    0.083438
C     1.067825    0.113778    0.395262    0.013099   -0.010718    0.003062
O     3.026754    0.258666   -0.700964    0.000073   -0.000216    0.000355
O     0.271022    1.200252   -0.037121   -0.015007   -0.007122   -0.001514
O     1.830757   -0.499584   -0.571180    0.000121   -0.000613   -0.000758
H    -0.481981   -0.397873   -0.437656   -1.652911   -0.671646   -0.849564
H    -2.313199   -2.036016   -0.663571   -0.184927    0.008121    0.016618
H    -2.745262   -0.633461   -1.775213   -0.133198   -0.047469    0.063235
H    -3.587539   -0.552002    0.976817   -0.008072    0.022925    0.013555
H    -3.003556    0.878894    0.129579    0.002315    0.002338    0.004373
H    -1.440264    0.719283    2.008410    0.011869    0.005010   -0.013302
H    -1.362005   -1.040711    1.844104    0.016816   -0.000268   -0.015842
H     1.583382    0.268979    1.335873    0.038522    0.028002   -0.015295
H     2.773788    0.907412   -1.370415    0.003503   -0.003405   -0.004221
17
* Frequency(6) -1835.6664
C    -2.422757   -0.961246   -0.793387    0.126599    0.021104   -0.008623
C    -2.738802   -0.136133    0.426335   -0.015177   -0.001535    0.008225
C    -1.462895   -0.101237    1.295706   -0.006406   -0.004446   -0.016373
C    -0.379390   -0.031251    0.251280    0.061582    0.061271    0.083438
C     1.068431    0.113282    0.395403    0.013099   -0.010718    0.003062
O     3.026757    0.258656   -0.700947    0.000073   -0.000216    0.000355
O     0.270327    1.199923   -0.037191   -0.015007   -0.007122   -0.001514
O     1.830763   -0.499612   -0.571215    0.000121   -0.000613   -0.000758
H    -0.558481   -0.428958   -0.476976   -1.652911   -0.671646   -0.849564
H    -2.321757   -2.035640   -0.662802   -0.184927    0.008121    0.016618
H    -2.751427   -0.635658   -1.772286   -0.133198   -0.047469    0.063235
H    -3.587912   -0.550941    0.977445   -0.008072    0.022925    0.013555
H    -3.003449    0.879002    0.129782    0.002315    0.002338    0.004373
H    -1.439714    0.719515    2.007794    0.011869    0.005010   -0.013302
H    -1.361227   -1.040723    1.843371    0.016816   -0.000268   -0.015842
H     1.585164    0.270275    1.335165    0.038522    0.028002   -0.015295
H     2.773950    0.907255   -1.370611    0.003503   -0.003405   -0.004221
17
* Frequency(6) -1835.6664
C    -2.412878   -0.959599   -0.794060    0.126599    0.021104   -0.008623
C    -2.739986   -0.136253    0.426977   -0.015177   -0.001535    0.008225
C    -1.463395   -0.101584    1.294428   -0.006406   -0.004446   -0.016373
C    -0.374585   -0.026469    0.257791    0.061582    0.061271    0.083438
C     1.069453    0.112446    0.395642    0.013099   -0.010718    0.003062
O     3.026763    0.258639   -0.700920    0.000073   -0.000216    0.000355
O     0.269156    1.199367   -0.037309   -0.015007   -0.007122   -0.001514
O     1.830772   -0.499660   -0.571274    0.000121   -0.000613   -0.000758
H    -0.687464   -0.481369   -0.543270   -1.652911   -0.671646   -0.849564
H    -2.336188   -2.035006   -0.661506   -0.184927    0.008121    0.016618
H    -2.761821   -0.639362   -1.767352   -0.133198   -0.047469    0.063235
H    -3.588542   -0.549152    0.978503   -0.008072    0.022925    0.013555
H    -3.003268    0.879185    0.130123    0.002315    0.002338    0.004373
H    -1.438788    0.719906    2.006756    0.011869    0.005010   -0.013302
H    -1.359915   -1.040744    1.842135    0.016816   -0.000268   -0.015842
H     1.588170    0.272460    1.333972    0.038522    0.028002   -0.015295
H     2.774224    0.906989   -1.370940    0.003503   -0.003405   -0.004221
17
* Frequency(6) -1835.6664
C    -2.400050   -0.957461   -0.794934    0.126599    0.021104   -0.008623
C    -2.741524   -0.136408    0.427811   -0.015177   -0.001535    0.008225
C    -1.464044   -0.102034    1.292769   -0.006406   -0.004446   -0.016373
C    -0.368345   -0.020261    0.266246    0.061582    0.061271    0.083438
C     1.070780    0.111360    0.395952    0.013099   -0.010718    0.003062
O     3.026770    0.258617   -0.700884    0.000073   -0.000216    0.000355
O     0.267636    1.198645   -0.037463   -0.015007   -0.007122   -0.001514
O     1.830784   -0.499722   -0.571351    0.000121   -0.000613   -0.000758
H    -0.854953   -0.549427   -0.629356   -1.652911   -0.671646   -0.849564
H    -2.354927   -2.034184   -0.659822   -0.184927    0.008121    0.016618
H    -2.775318   -0.644172   -1.760944   -0.133198   -0.047469    0.063235
H    -3.589360   -0.546829    0.979876   -0.008072    0.022925    0.013555
H    -3.003034    0.879422    0.130566    0.002315    0.002338    0.004373
H    -1.437586    0.720414    2.005408    0.011869    0.005010   -0.013302
H    -1.358211   -1.040771    1.840530    0.016816   -0.000268   -0.015842
H     1.592074    0.275298    1.332422    0.038522    0.028002   -0.015295
H     2.774579    0.906644   -1.371368    0.003503   -0.003405   -0.004221
17
* Frequency(6) -1835.6664
C    -2.385663   -0.955062   -0.795914    0.126599    0.021104   -0.008623
C    -2.743249   -0.136583    0.428745   -0.015177   -0.001535    0.008225
C    -1.464772   -0.102540    1.290909   -0.006406   -0.004446   -0.016373
C    -0.361346   -0.013298    0.275728    0.061582    0.061271    0.083438
C     1.072269    0.110142    0.396300    0.013099   -0.010718    0.003062
O     3.026779    0.258592   -0.700843    0.000073   -0.000216    0.000355
O     0.265930    1.197836   -0.037635   -0.015007   -0.007122   -0.001514
O     1.830798   -0.499792   -0.571437    0.000121   -0.000613   -0.000758
H    -1.042797   -0.625756   -0.725905   -1.652911   -0.671646   -0.849564
H    -2.375943   -2.033261   -0.657933   -0.184927    0.008121    0.016618
H    -2.790455   -0.649567   -1.753758   -0.133198   -0.047469    0.063235
H    -3.590278   -0.544224    0.981417   -0.008072    0.022925    0.013555
H    -3.002771    0.879687    0.131063    0.002315    0.002338    0.004373
H    -1.436237    0.720983    2.003896    0.011869    0.005010   -0.013302
H    -1.356300   -1.040802    1.838729    0.016816   -0.000268   -0.015842
H     1.596451    0.278480    1.330684    0.038522    0.028002   -0.015295
H     2.774977    0.906257   -1.371848    0.003503   -0.003405   -0.004221
