15
Coordinates from ORCA-job freq E -270.991790133796
  C           2.23561401122604     -0.50006519327205      0.47810281616085
  C          -2.37765020855752     -0.14662207526681      0.40066624621326
  C           1.42027289221382      0.26513839258636     -0.49056967252535
  C          -0.89047525064217     -0.24768676678409      0.55402639646602
  C           0.03842796082088      0.65058042926742     -0.16236737998358
  O          -0.25138289914684      0.82908486061311      1.22130299023774
  H           2.33795747514753      0.78111234097470      0.23476189642823
  H           3.09034417605929     -1.05974870694470      0.13538766071131
  H           1.85122108849753     -0.64572174002958      1.47514108634520
  H          -2.87554972210112     -0.36261507434867      1.34654821300340
  H          -2.73458186316971     -0.85984159477997     -0.34250804222103
  H          -2.65741330495697      0.85870594886950      0.08796276148461
  H           1.71960795153659      0.25824512159330     -1.52825421551638
  H          -0.49653300298144     -1.22151211134240      0.83364598162416
  H          -0.40985930394587      1.40094616886390     -0.80705473842844
