15
* (null), Energy   -1000.0000000
C     2.235614   -0.500065    0.478103   -0.032567   -0.161338    0.010191
C    -2.377650   -0.146622    0.400666    0.000212    0.000257   -0.000766
C     1.420273    0.265138   -0.490570    0.119540    0.073662    0.080372
C    -0.890475   -0.247687    0.554026    0.004196   -0.001038   -0.005692
C     0.038428    0.650580   -0.162367   -0.012652   -0.001686    0.015105
O    -0.251383    0.829085    1.221303    0.000923    0.000775   -0.005549
H     2.337957    0.781112    0.234762   -1.094251    1.072927   -1.245497
H     3.090344   -1.059749    0.135388    0.086808    0.032769    0.040508
H     1.851221   -0.645722    1.475141    0.075261    0.075956    0.070986
H    -2.875550   -0.362615    1.346548    0.004905   -0.001210   -0.000432
H    -2.734582   -0.859842   -0.342508   -0.001444   -0.001027    0.001155
H    -2.657413    0.858706    0.087963   -0.001129    0.000182   -0.000447
H     1.719608    0.258245   -1.528254   -0.037297   -0.131107    0.020076
H    -0.496533   -1.221512    0.833646    0.004908    0.000471    0.001800
H    -0.409859    1.400946   -0.807055    0.009474    0.012848    0.017772
15
* Frequency(6) -1795.0957
C     2.231913   -0.518400    0.479261   -0.032567   -0.161338    0.010191
C    -2.377626   -0.146593    0.400579    0.000212    0.000257   -0.000766
C     1.433858    0.273510   -0.481436    0.119540    0.073662    0.080372
C    -0.889998   -0.247805    0.553380    0.004196   -0.001038   -0.005692
C     0.036990    0.650389   -0.160651   -0.012652   -0.001686    0.015105
O    -0.251278    0.829173    1.220672    0.000923    0.000775   -0.005549
H     2.213602    0.903045    0.093218   -1.094251    1.072927   -1.245497
H     3.100209   -1.056025    0.139991    0.086808    0.032769    0.040508
H     1.859774   -0.637090    1.483208    0.075261    0.075956    0.070986
H    -2.874992   -0.362753    1.346499    0.004905   -0.001210   -0.000432
H    -2.734746   -0.859958   -0.342377   -0.001444   -0.001027    0.001155
H    -2.657542    0.858727    0.087912   -0.001129    0.000182   -0.000447
H     1.715369    0.243345   -1.525973   -0.037297   -0.131107    0.020076
H    -0.495975   -1.221459    0.833850    0.004908    0.000471    0.001800
H    -0.408783    1.402406   -0.805035    0.009474    0.012848    0.017772
15
* Frequency(6) -1795.0957
C     2.228613   -0.534749    0.480294   -0.032567   -0.161338    0.010191
C    -2.377605   -0.146567    0.400502    0.000212    0.000257   -0.000766
C     1.445971    0.280974   -0.473292    0.119540    0.073662    0.080372
C    -0.889573   -0.247910    0.552803    0.004196   -0.001038   -0.005692
C     0.035708    0.650218   -0.159120   -0.012652   -0.001686    0.015105
O    -0.251184    0.829252    1.220110    0.000923    0.000775   -0.005549
H     2.102721    1.011764   -0.032988   -1.094251    1.072927   -1.245497
H     3.109006   -1.052704    0.144096    0.086808    0.032769    0.040508
H     1.867400   -0.629393    1.490401    0.075261    0.075956    0.070986
H    -2.874495   -0.362875    1.346455    0.004905   -0.001210   -0.000432
H    -2.734892   -0.860062   -0.342260   -0.001444   -0.001027    0.001155
H    -2.657656    0.858745    0.087867   -0.001129    0.000182   -0.000447
H     1.711590    0.230060   -1.523938   -0.037297   -0.131107    0.020076
H    -0.495478   -1.221411    0.834033    0.004908    0.000471    0.001800
H    -0.407823    1.403708   -0.803234    0.009474    0.012848    0.017772
15
* Frequency(6) -1795.0957
C     2.226072   -0.547338    0.481089   -0.032567   -0.161338    0.010191
C    -2.377588   -0.146547    0.400442    0.000212    0.000257   -0.000766
C     1.455299    0.286722   -0.467020    0.119540    0.073662    0.080372
C    -0.889246   -0.247991    0.552359    0.004196   -0.001038   -0.005692
C     0.034721    0.650087   -0.157942   -0.012652   -0.001686    0.015105
O    -0.251112    0.829312    1.219677    0.000923    0.000775   -0.005549
H     2.017333    1.095489   -0.130179   -1.094251    1.072927   -1.245497
H     3.115780   -1.050147    0.147257    0.086808    0.032769    0.040508
H     1.873273   -0.623466    1.495941    0.075261    0.075956    0.070986
H    -2.874112   -0.362969    1.346422    0.004905   -0.001210   -0.000432
H    -2.735005   -0.860143   -0.342170   -0.001444   -0.001027    0.001155
H    -2.657744    0.858759    0.087832   -0.001129    0.000182   -0.000447
H     1.708680    0.219830   -1.522372   -0.037297   -0.131107    0.020076
H    -0.495095   -1.221374    0.834173    0.004908    0.000471    0.001800
H    -0.407083    1.404711   -0.801847    0.009474    0.012848    0.017772
15
* Frequency(6) -1795.0957
C     2.224565   -0.554805    0.481561   -0.032567   -0.161338    0.010191
C    -2.377578   -0.146535    0.400406    0.000212    0.000257   -0.000766
C     1.460832    0.290131   -0.463300    0.119540    0.073662    0.080372
C    -0.889052   -0.248039    0.552095    0.004196   -0.001038   -0.005692
C     0.034135    0.650009   -0.157243   -0.012652   -0.001686    0.015105
O    -0.251070    0.829348    1.219420    0.000923    0.000775   -0.005549
H     1.966689    1.145146   -0.187823   -1.094251    1.072927   -1.245497
H     3.119797   -1.048630    0.149132    0.086808    0.032769    0.040508
H     1.876756   -0.619951    1.499226    0.075261    0.075956    0.070986
H    -2.873885   -0.363025    1.346402    0.004905   -0.001210   -0.000432
H    -2.735072   -0.860190   -0.342116   -0.001444   -0.001027    0.001155
H    -2.657796    0.858768    0.087811   -0.001129    0.000182   -0.000447
H     1.706953    0.213762   -1.521443   -0.037297   -0.131107    0.020076
H    -0.494868   -1.221352    0.834257    0.004908    0.000471    0.001800
H    -0.406645    1.405305   -0.801025    0.009474    0.012848    0.017772
15
* Frequency(6) -1795.0957
C     2.224255   -0.556341    0.481658   -0.032567   -0.161338    0.010191
C    -2.377576   -0.146533    0.400399    0.000212    0.000257   -0.000766
C     1.461969    0.290832   -0.462535    0.119540    0.073662    0.080372
C    -0.889012   -0.248049    0.552041    0.004196   -0.001038   -0.005692
C     0.034015    0.649993   -0.157099   -0.012652   -0.001686    0.015105
O    -0.251061    0.829355    1.219368    0.000923    0.000775   -0.005549
H     1.956278    1.155354   -0.199673   -1.094251    1.072927   -1.245497
H     3.120623   -1.048319    0.149517    0.086808    0.032769    0.040508
H     1.877472   -0.619228    1.499901    0.075261    0.075956    0.070986
H    -2.873839   -0.363037    1.346398    0.004905   -0.001210   -0.000432
H    -2.735085   -0.860200   -0.342105   -0.001444   -0.001027    0.001155
H    -2.657807    0.858769    0.087807   -0.001129    0.000182   -0.000447
H     1.706599    0.212514   -1.521252   -0.037297   -0.131107    0.020076
H    -0.494821   -1.221348    0.834274    0.004908    0.000471    0.001800
H    -0.406555    1.405427   -0.800856    0.009474    0.012848    0.017772
15
* Frequency(6) -1795.0957
C     2.225176   -0.551777    0.481369   -0.032567   -0.161338    0.010191
C    -2.377582   -0.146540    0.400421    0.000212    0.000257   -0.000766
C     1.458588    0.288749   -0.464809    0.119540    0.073662    0.080372
C    -0.889130   -0.248020    0.552202    0.004196   -0.001038   -0.005692
C     0.034373    0.650040   -0.157526   -0.012652   -0.001686    0.015105
O    -0.251087    0.829333    1.219524    0.000923    0.000775   -0.005549
H     1.987227    1.125008   -0.164445   -1.094251    1.072927   -1.245497
H     3.118168   -1.049245    0.148371    0.086808    0.032769    0.040508
H     1.875344   -0.621376    1.497894    0.075261    0.075956    0.070986
H    -2.873978   -0.363003    1.346410    0.004905   -0.001210   -0.000432
H    -2.735045   -0.860171   -0.342138   -0.001444   -0.001027    0.001155
H    -2.657775    0.858764    0.087819   -0.001129    0.000182   -0.000447
H     1.707653    0.216223   -1.521819   -0.037297   -0.131107    0.020076
H    -0.494960   -1.221361    0.834223    0.004908    0.000471    0.001800
H    -0.406823    1.405064   -0.801358    0.009474    0.012848    0.017772
15
* Frequency(6) -1795.0957
C     2.227228   -0.541610    0.480727   -0.032567   -0.161338    0.010191
C    -2.377596   -0.146556    0.400469    0.000212    0.000257   -0.000766
C     1.451055    0.284107   -0.469874    0.119540    0.073662    0.080372
C    -0.889395   -0.247954    0.552561    0.004196   -0.001038   -0.005692
C     0.035170    0.650146   -0.158478   -0.012652   -0.001686    0.015105
O    -0.251145    0.829284    1.219874    0.000923    0.000775   -0.005549
H     2.056184    1.057395   -0.085958   -1.094251    1.072927   -1.245497
H     3.112697   -1.051310    0.145819    0.086808    0.032769    0.040508
H     1.870601   -0.626163    1.493420    0.075261    0.075956    0.070986
H    -2.874287   -0.362927    1.346437    0.004905   -0.001210   -0.000432
H    -2.734954   -0.860106   -0.342211   -0.001444   -0.001027    0.001155
H    -2.657704    0.858753    0.087848   -0.001129    0.000182   -0.000447
H     1.710004    0.224485   -1.523085   -0.037297   -0.131107    0.020076
H    -0.495269   -1.221391    0.834109    0.004908    0.000471    0.001800
H    -0.407420    1.404254   -0.802478    0.009474    0.012848    0.017772
15
* Frequency(6) -1795.0957
C     2.230189   -0.526941    0.479800   -0.032567   -0.161338    0.010191
C    -2.377615   -0.146579    0.400539    0.000212    0.000257   -0.000766
C     1.440186    0.277409   -0.477181    0.119540    0.073662    0.080372
C    -0.889776   -0.247860    0.553078    0.004196   -0.001038   -0.005692
C     0.036320    0.650300   -0.159851   -0.012652   -0.001686    0.015105
O    -0.251229    0.829214    1.220379    0.000923    0.000775   -0.005549
H     2.155675    0.959842    0.027285   -1.094251    1.072927   -1.245497
H     3.104805   -1.054290    0.142136    0.086808    0.032769    0.040508
H     1.863758   -0.633069    1.486966    0.075261    0.075956    0.070986
H    -2.874733   -0.362817    1.346476    0.004905   -0.001210   -0.000432
H    -2.734822   -0.860013   -0.342316   -0.001444   -0.001027    0.001155
H    -2.657601    0.858736    0.087888   -0.001129    0.000182   -0.000447
H     1.713395    0.236405   -1.524910   -0.037297   -0.131107    0.020076
H    -0.495715   -1.221434    0.833946    0.004908    0.000471    0.001800
H    -0.408281    1.403086   -0.804094    0.009474    0.012848    0.017772
15
* Frequency(6) -1795.0957
C     2.233738   -0.509360    0.478690   -0.032567   -0.161338    0.010191
C    -2.377638   -0.146607    0.400622    0.000212    0.000257   -0.000766
C     1.427159    0.269382   -0.485940    0.119540    0.073662    0.080372
C    -0.890234   -0.247747    0.553698    0.004196   -0.001038   -0.005692
C     0.037699    0.650483   -0.161497   -0.012652   -0.001686    0.015105
O    -0.251330    0.829130    1.220983    0.000923    0.000775   -0.005549
H     2.274920    0.842922    0.163011   -1.094251    1.072927   -1.245497
H     3.095345   -1.057861    0.137721    0.086808    0.032769    0.040508
H     1.855557   -0.641346    1.479230    0.075261    0.075956    0.070986
H    -2.875267   -0.362685    1.346523    0.004905   -0.001210   -0.000432
H    -2.734665   -0.859901   -0.342441   -0.001444   -0.001027    0.001155
H    -2.657478    0.858716    0.087937   -0.001129    0.000182   -0.000447
H     1.717459    0.250692   -1.527098   -0.037297   -0.131107    0.020076
H    -0.496250   -1.221485    0.833750    0.004908    0.000471    0.001800
H    -0.409314    1.401686   -0.806031    0.009474    0.012848    0.017772
15
* Frequency(6) -1795.0957
C     2.237490   -0.490771    0.477516   -0.032567   -0.161338    0.010191
C    -2.377662   -0.146637    0.400710    0.000212    0.000257   -0.000766
C     1.413386    0.260895   -0.495200    0.119540    0.073662    0.080372
C    -0.890717   -0.247627    0.554354    0.004196   -0.001038   -0.005692
C     0.039157    0.650678   -0.163238   -0.012652   -0.001686    0.015105
O    -0.251436    0.829040    1.221623    0.000923    0.000775   -0.005549
H     2.400995    0.719303    0.306513   -1.094251    1.072927   -1.245497
H     3.085343   -1.061636    0.133054    0.086808    0.032769    0.040508
H     1.846885   -0.650097    1.471052    0.075261    0.075956    0.070986
H    -2.875832   -0.362545    1.346573    0.004905   -0.001210   -0.000432
H    -2.734499   -0.859782   -0.342575   -0.001444   -0.001027    0.001155
H    -2.657348    0.858695    0.087989   -0.001129    0.000182   -0.000447
H     1.721757    0.265798   -1.529411   -0.037297   -0.131107    0.020076
H    -0.496816   -1.221539    0.833542    0.004908    0.000471    0.001800
H    -0.410405    1.400206   -0.808079    0.009474    0.012848    0.017772
15
* Frequency(6) -1795.0957
C     2.241039   -0.473189    0.476405   -0.032567   -0.161338    0.010191
C    -2.377685   -0.146665    0.400794    0.000212    0.000257   -0.000766
C     1.400360    0.252868   -0.503958    0.119540    0.073662    0.080372
C    -0.891174   -0.247514    0.554975    0.004196   -0.001038   -0.005692
C     0.040536    0.650861   -0.164884   -0.012652   -0.001686    0.015105
O    -0.251537    0.828956    1.222227    0.000923    0.000775   -0.005549
H     2.520240    0.602382    0.442239   -1.094251    1.072927   -1.245497
H     3.075884   -1.065207    0.128640    0.086808    0.032769    0.040508
H     1.838684   -0.658375    1.463316    0.075261    0.075956    0.070986
H    -2.876367   -0.362414    1.346620    0.004905   -0.001210   -0.000432
H    -2.734341   -0.859670   -0.342700   -0.001444   -0.001027    0.001155
H    -2.657225    0.858676    0.088037   -0.001129    0.000182   -0.000447
H     1.725821    0.280085   -1.531599   -0.037297   -0.131107    0.020076
H    -0.497351   -1.221591    0.833346    0.004908    0.000471    0.001800
H    -0.411438    1.398806   -0.810015    0.009474    0.012848    0.017772
15
* Frequency(6) -1795.0957
C     2.244000   -0.458520    0.475479   -0.032567   -0.161338    0.010191
C    -2.377705   -0.146688    0.400864    0.000212    0.000257   -0.000766
C     1.389491    0.246170   -0.511266    0.119540    0.073662    0.080372
C    -0.891556   -0.247419    0.555492    0.004196   -0.001038   -0.005692
C     0.041686    0.651014   -0.166257   -0.012652   -0.001686    0.015105
O    -0.251621    0.828885    1.222732    0.000923    0.000775   -0.005549
H     2.619731    0.504830    0.555481   -1.094251    1.072927   -1.245497
H     3.067991   -1.068187    0.124957    0.086808    0.032769    0.040508
H     1.831841   -0.665281    1.456862    0.075261    0.075956    0.070986
H    -2.876813   -0.362304    1.346659    0.004905   -0.001210   -0.000432
H    -2.734210   -0.859577   -0.342805   -0.001444   -0.001027    0.001155
H    -2.657123    0.858659    0.088078   -0.001129    0.000182   -0.000447
H     1.729212    0.292006   -1.533424   -0.037297   -0.131107    0.020076
H    -0.497797   -1.221633    0.833183    0.004908    0.000471    0.001800
H    -0.412299    1.397638   -0.811631    0.009474    0.012848    0.017772
15
* Frequency(6) -1795.0957
C     2.246052   -0.448353    0.474836   -0.032567   -0.161338    0.010191
C    -2.377718   -0.146704    0.400912    0.000212    0.000257   -0.000766
C     1.381958    0.241528   -0.516331    0.119540    0.073662    0.080372
C    -0.891820   -0.247354    0.555851    0.004196   -0.001038   -0.005692
C     0.042483    0.651121   -0.167209   -0.012652   -0.001686    0.015105
O    -0.251679    0.828836    1.223082    0.000923    0.000775   -0.005549
H     2.688688    0.437217    0.633969   -1.094251    1.072927   -1.245497
H     3.062520   -1.070252    0.122404    0.086808    0.032769    0.040508
H     1.827098   -0.670067    1.452389    0.075261    0.075956    0.070986
H    -2.877122   -0.362227    1.346687    0.004905   -0.001210   -0.000432
H    -2.734119   -0.859512   -0.342878   -0.001444   -0.001027    0.001155
H    -2.657052    0.858648    0.088106   -0.001129    0.000182   -0.000447
H     1.731562    0.300268   -1.534689   -0.037297   -0.131107    0.020076
H    -0.498106   -1.221663    0.833069    0.004908    0.000471    0.001800
H    -0.412896    1.396828   -0.812751    0.009474    0.012848    0.017772
15
* Frequency(6) -1795.0957
C     2.246973   -0.443790    0.474548   -0.032567   -0.161338    0.010191
C    -2.377724   -0.146712    0.400933    0.000212    0.000257   -0.000766
C     1.378577    0.239445   -0.518604    0.119540    0.073662    0.080372
C    -0.891939   -0.247325    0.556012    0.004196   -0.001038   -0.005692
C     0.042841    0.651168   -0.167636   -0.012652   -0.001686    0.015105
O    -0.251705    0.828814    1.223238    0.000923    0.000775   -0.005549
H     2.719637    0.406871    0.669197   -1.094251    1.072927   -1.245497
H     3.060065   -1.071179    0.121258    0.086808    0.032769    0.040508
H     1.824970   -0.672216    1.450381    0.075261    0.075956    0.070986
H    -2.877261   -0.362193    1.346699    0.004905   -0.001210   -0.000432
H    -2.734078   -0.859483   -0.342911   -0.001444   -0.001027    0.001155
H    -2.657020    0.858643    0.088119   -0.001129    0.000182   -0.000447
H     1.732617    0.303976   -1.535257   -0.037297   -0.131107    0.020076
H    -0.498245   -1.221676    0.833018    0.004908    0.000471    0.001800
H    -0.413164    1.396465   -0.813254    0.009474    0.012848    0.017772
15
* Frequency(6) -1795.0957
C     2.246664   -0.445325    0.474645   -0.032567   -0.161338    0.010191
C    -2.377722   -0.146709    0.400926    0.000212    0.000257   -0.000766
C     1.379714    0.240146   -0.517839    0.119540    0.073662    0.080372
C    -0.891899   -0.247334    0.555958    0.004196   -0.001038   -0.005692
C     0.042721    0.651152   -0.167492   -0.012652   -0.001686    0.015105
O    -0.251696    0.828822    1.223186    0.000923    0.000775   -0.005549
H     2.709226    0.417079    0.657347   -1.094251    1.072927   -1.245497
H     3.060891   -1.070867    0.121644    0.086808    0.032769    0.040508
H     1.825686   -0.671493    1.451056    0.075261    0.075956    0.070986
H    -2.877214   -0.362205    1.346695    0.004905   -0.001210   -0.000432
H    -2.734092   -0.859493   -0.342900   -0.001444   -0.001027    0.001155
H    -2.657030    0.858644    0.088114   -0.001129    0.000182   -0.000447
H     1.732262    0.302728   -1.535066   -0.037297   -0.131107    0.020076
H    -0.498198   -1.221672    0.833035    0.004908    0.000471    0.001800
H    -0.413074    1.396587   -0.813085    0.009474    0.012848    0.017772
15
* Frequency(6) -1795.0957
C     2.245156   -0.452792    0.475117   -0.032567   -0.161338    0.010191
C    -2.377712   -0.146697    0.400891    0.000212    0.000257   -0.000766
C     1.385247    0.243555   -0.514119    0.119540    0.073662    0.080372
C    -0.891705   -0.247383    0.555694    0.004196   -0.001038   -0.005692
C     0.042135    0.651074   -0.166793   -0.012652   -0.001686    0.015105
O    -0.251653    0.828858    1.222929    0.000923    0.000775   -0.005549
H     2.658582    0.466736    0.599703   -1.094251    1.072927   -1.245497
H     3.064909   -1.069350    0.123518    0.086808    0.032769    0.040508
H     1.829169   -0.667978    1.454342    0.075261    0.075956    0.070986
H    -2.876987   -0.362261    1.346675    0.004905   -0.001210   -0.000432
H    -2.734159   -0.859541   -0.342847   -0.001444   -0.001027    0.001155
H    -2.657083    0.858653    0.088094   -0.001129    0.000182   -0.000447
H     1.730536    0.296661   -1.534137   -0.037297   -0.131107    0.020076
H    -0.497971   -1.221650    0.833119    0.004908    0.000471    0.001800
H    -0.412635    1.397182   -0.812262    0.009474    0.012848    0.017772
15
* Frequency(6) -1795.0957
C     2.242615   -0.465382    0.475912   -0.032567   -0.161338    0.010191
C    -2.377696   -0.146677    0.400831    0.000212    0.000257   -0.000766
C     1.394575    0.249303   -0.507848    0.119540    0.073662    0.080372
C    -0.891377   -0.247464    0.555250    0.004196   -0.001038   -0.005692
C     0.041148    0.650943   -0.165614   -0.012652   -0.001686    0.015105
O    -0.251581    0.828918    1.222496    0.000923    0.000775   -0.005549
H     2.573193    0.550460    0.502512   -1.094251    1.072927   -1.245497
H     3.071683   -1.066793    0.126679    0.086808    0.032769    0.040508
H     1.835042   -0.662050    1.459881    0.075261    0.075956    0.070986
H    -2.876604   -0.362355    1.346641    0.004905   -0.001210   -0.000432
H    -2.734272   -0.859621   -0.342756   -0.001444   -0.001027    0.001155
H    -2.657171    0.858667    0.088059   -0.001129    0.000182   -0.000447
H     1.727626    0.286430   -1.532570   -0.037297   -0.131107    0.020076
H    -0.497588   -1.221613    0.833259    0.004908    0.000471    0.001800
H    -0.411896    1.398184   -0.810875    0.009474    0.012848    0.017772
15
* Frequency(6) -1795.0957
C     2.239315   -0.481730    0.476945   -0.032567   -0.161338    0.010191
C    -2.377674   -0.146651    0.400753    0.000212    0.000257   -0.000766
C     1.406688    0.256767   -0.499704    0.119540    0.073662    0.080372
C    -0.890952   -0.247569    0.554673    0.004196   -0.001038   -0.005692
C     0.039866    0.650772   -0.164084   -0.012652   -0.001686    0.015105
O    -0.251488    0.828997    1.221934    0.000923    0.000775   -0.005549
H     2.462313    0.659180    0.376306   -1.094251    1.072927   -1.245497
H     3.080479   -1.063473    0.130784    0.086808    0.032769    0.040508
H     1.842668   -0.654354    1.467074    0.075261    0.075956    0.070986
H    -2.876107   -0.362478    1.346597    0.004905   -0.001210   -0.000432
H    -2.734418   -0.859725   -0.342639   -0.001444   -0.001027    0.001155
H    -2.657285    0.858685    0.088014   -0.001129    0.000182   -0.000447
H     1.723847    0.273145   -1.530536   -0.037297   -0.131107    0.020076
H    -0.497091   -1.221566    0.833441    0.004908    0.000471    0.001800
H    -0.410936    1.399486   -0.809074    0.009474    0.012848    0.017772
15
* Frequency(6) -1795.0957
C     2.235614   -0.500065    0.478103   -0.032567   -0.161338    0.010191
C    -2.377650   -0.146622    0.400666    0.000212    0.000257   -0.000766
C     1.420273    0.265138   -0.490570    0.119540    0.073662    0.080372
C    -0.890475   -0.247687    0.554026    0.004196   -0.001038   -0.005692
C     0.038428    0.650580   -0.162367   -0.012652   -0.001686    0.015105
O    -0.251383    0.829085    1.221303    0.000923    0.000775   -0.005549
H     2.337957    0.781112    0.234762   -1.094251    1.072927   -1.245497
H     3.090344   -1.059749    0.135388    0.086808    0.032769    0.040508
H     1.851221   -0.645722    1.475141    0.075261    0.075956    0.070986
H    -2.875550   -0.362615    1.346548    0.004905   -0.001210   -0.000432
H    -2.734582   -0.859842   -0.342508   -0.001444   -0.001027    0.001155
H    -2.657413    0.858706    0.087963   -0.001129    0.000182   -0.000447
H     1.719608    0.258245   -1.528254   -0.037297   -0.131107    0.020076
H    -0.496533   -1.221512    0.833646    0.004908    0.000471    0.001800
H    -0.409859    1.400946   -0.807055    0.009474    0.012848    0.017772
