17
Coordinates from ORCA-job freq E -421.387709159512
  C          -1.81663630989753     -0.73124788873180      0.95505967720935
  C           2.47035506074667     -0.01806419032017     -0.18728800441336
  C          -1.46929906323230      0.31180733952195     -0.05721901560631
  C           1.05629992892421     -0.50218181494060     -0.25258254029167
  C          -0.05231999673169      0.40101555320799     -0.56397127481836
  O          -0.41984164482471      2.38708086705411      0.28311447352554
  O           0.41379937495512     -0.43634536779465     -1.54860695749545
  O           0.18430340684691      1.76359202295488     -0.81323001369977
  H          -1.31945171489407      1.53125368457637      0.42659933160438
  H          -2.84436245155432     -0.62447962501655      1.29686262341174
  H          -1.72195285392469     -1.72868160536251      0.51165536734927
  H          -1.15020377203777     -0.68642739845353      1.81599328545297
  H           2.77037448889898      0.10709359585057      0.85307620197056
  H           2.56563953816131      0.93732844870344     -0.69786152843483
  H           3.13948197610721     -0.74083015430452     -0.65317925402277
  H          -2.19204412146460      0.45790966355454     -0.85940597399160
  H           0.82614815392126     -1.41977913049948      0.28051360225030
