17
Coordinates from ORCA-job freq E -421.311305661874
  C          -1.47900331706469      1.23987745861476     -0.53276368301176
  C          -0.32805573100059     -0.69833622589542      0.65993024702905
  C           2.51442590514585     -0.08587072638988      0.48155587777125
  C          -1.31370515593877     -0.26019429703261     -0.43049846785319
  C           1.31422791422438     -0.22935373280776     -0.31904856203290
  O          -1.83984573964740     -1.04559988346092      1.41452531155016
  O           1.79196724618810      1.02473012012524     -0.08638588064062
  O          -2.45827511192499     -0.88186448805712      0.12770356444693
  H           0.02167711290406     -0.00472481546360      1.41559222289021
  H          -2.30826500602549      1.47087275503176     -1.19971999789250
  H          -1.70127046808778      1.64848218308067      0.45300748633945
  H          -0.57492107368593      1.71239227306529     -0.91722951060568
  H           0.04032290085255     -1.71676832473158      0.68375995450671
  H           3.49396738295096     -0.24998015958551      0.05149362860115
  H           2.43555173561103     -0.17079691816098      1.55893077590139
  H          -1.09734219758634     -0.70772969828182     -1.40438167914377
  H           1.22220760308506     -0.59530552005054     -1.33789228785592
