17
Coordinates from ORCA-job freq E -421.410024753081
  C          -2.84631640782391     -0.90414625669549     -0.30692849001002
  C           0.29181393688601      0.21123607132108     -0.40163254158448
  C           1.66989093647908      0.07487704793773      0.22050318416419
  C          -2.06031719328131     -0.10557016083121      0.66242249086804
  C          -0.74067071813145      0.49269375669907      0.65284873658606
  O           3.87104030377678     -0.23038740407921     -0.28796768097835
  O           2.56888819841500     -0.16302588918892     -0.84478814972204
  O          -1.10848056776965     -0.64573170388823      1.47826046355425
  H          -2.19118369994510     -1.50405498943197     -0.94756902577792
  H          -3.44717407926264     -0.25133802605599     -0.93666465221615
  H          -3.51138077850623     -1.58450792733132      0.22383465845221
  H           0.03928939944893     -0.70574389737527     -0.93453708948881
  H           0.30156828849353      1.02916902896057     -1.12496938518614
  H           1.95876332158771      0.99006102792221      0.74424099161194
  H           1.69290386167911     -0.75857303681867      0.92814396728075
  H          -0.59217572569973      1.40199052259584      1.22819340825924
  H           4.06079192365386     -1.17396516374023     -0.34345088581280
