17
Coordinates from ORCA-job freq E -421.369676200426
  C          -1.96907950540248     -1.23591139577488     -0.53357841310664
  C           0.26902094074989     -0.71725260187765      0.50825736306361
  C           1.48746541301359     -0.38414785460534     -0.29653299877061
  C          -2.01453739569701      0.07889685009953      0.17148113121895
  C          -0.70585424494142      0.38782771297284      0.78173384110075
  O           3.48807654044766      0.72524963564865     -0.20174599110792
  O           2.32062706796390      0.41007543396378      0.54179804941399
  O          -1.14347889730002      1.04157800124313     -0.39859532085405
  H          -0.62381573232065     -1.39643617925788     -0.26801698963164
  H          -2.46441812940311     -2.06265618558648     -0.03326015721590
  H          -2.10777236319710     -1.21666891473093     -1.60939004218124
  H           0.45235960926882     -1.36996888050110      1.35908842003134
  H           1.21216961464478      0.18647535351680     -1.18702300604858
  H           2.03150381769011     -1.28259001023557     -0.59444555246521
  H          -2.94135851660455      0.47425440443758      0.57053371915714
  H          -0.60177064819305      1.02460399234033      1.65179432089096
  H           3.31866442928063      1.63973263834718     -0.45653937349497
