17
* (null), Energy   -1000.0000000
C    -2.290727   -1.306993   -0.585445   -0.132239    0.031257   -0.013639
C    -0.052626   -0.788334    0.456391   -0.072651   -0.078026   -0.075636
C     1.165818   -0.455230   -0.348400    0.010781    0.011189    0.010817
C    -2.336185    0.007815    0.119614    0.012762   -0.008872   -0.003730
C    -1.027502    0.316746    0.729867    0.004864    0.012125    0.009750
O     3.166429    0.654168   -0.253613   -0.001362   -0.000258    0.001054
O     1.998980    0.338994    0.489931   -0.000215   -0.001043   -0.002647
O    -1.465126    0.970496   -0.450462   -0.000993   -0.000519   -0.000296
H    -0.945463   -1.467518   -0.319884    1.740453    0.399098    0.821117
H    -2.786065   -2.133738   -0.085127    0.133525   -0.080352    0.033135
H    -2.429420   -1.287751   -1.661257    0.188895   -0.044464   -0.041976
H     0.130712   -1.441051    1.307222    0.092463    0.143132    0.075026
H     0.890522    0.115394   -1.238890    0.005035   -0.001212    0.002433
H     1.709857   -1.353672   -0.646312   -0.004290    0.002752    0.002286
H    -3.263006    0.403173    0.518667   -0.001540   -0.023952    0.005928
H    -0.923418    0.953522    1.599928   -0.011151    0.019263   -0.006380
H     2.997017    1.568651   -0.508406    0.000306   -0.000191    0.001556
17
* Frequency(6) -1739.7550
C    -2.305755   -1.303441   -0.586995   -0.132239    0.031257   -0.013639
C    -0.060883   -0.797201    0.447795   -0.072651   -0.078026   -0.075636
C     1.167043   -0.453958   -0.347171    0.010781    0.011189    0.010817
C    -2.334734    0.006807    0.119190    0.012762   -0.008872   -0.003730
C    -1.026949    0.318124    0.730975    0.004864    0.012125    0.009750
O     3.166274    0.654139   -0.253493   -0.001362   -0.000258    0.001054
O     1.998955    0.338875    0.489630   -0.000215   -0.001043   -0.002647
O    -1.465239    0.970437   -0.450496   -0.000993   -0.000519   -0.000296
H    -0.747670   -1.422162   -0.226568    1.740453    0.399098    0.821117
H    -2.770891   -2.142869   -0.081361    0.133525   -0.080352    0.033135
H    -2.407953   -1.292804   -1.666027    0.188895   -0.044464   -0.041976
H     0.141220   -1.424784    1.315748    0.092463    0.143132    0.075026
H     0.891094    0.115256   -1.238613    0.005035   -0.001212    0.002433
H     1.709369   -1.353359   -0.646053   -0.004290    0.002752    0.002286
H    -3.263181    0.400451    0.519341   -0.001540   -0.023952    0.005928
H    -0.924685    0.955711    1.599203   -0.011151    0.019263   -0.006380
H     2.997052    1.568629   -0.508229    0.000306   -0.000191    0.001556
17
* Frequency(6) -1739.7550
C    -2.319155   -1.300274   -0.588377   -0.132239    0.031257   -0.013639
C    -0.068244   -0.805108    0.440131   -0.072651   -0.078026   -0.075636
C     1.168136   -0.452824   -0.346074    0.010781    0.011189    0.010817
C    -2.333441    0.005908    0.118812    0.012762   -0.008872   -0.003730
C    -1.026456    0.319353    0.731963    0.004864    0.012125    0.009750
O     3.166136    0.654113   -0.253386   -0.001362   -0.000258    0.001054
O     1.998934    0.338770    0.489362   -0.000215   -0.001043   -0.002647
O    -1.465340    0.970385   -0.450526   -0.000993   -0.000519   -0.000296
H    -0.571310   -1.381722   -0.143365    1.740453    0.399098    0.821117
H    -2.757361   -2.151011   -0.078004    0.133525   -0.080352    0.033135
H    -2.388812   -1.297309   -1.670281    0.188895   -0.044464   -0.041976
H     0.150590   -1.410281    1.323350    0.092463    0.143132    0.075026
H     0.891605    0.115133   -1.238367    0.005035   -0.001212    0.002433
H     1.708934   -1.353080   -0.645821   -0.004290    0.002752    0.002286
H    -3.263337    0.398024    0.519941   -0.001540   -0.023952    0.005928
H    -0.925815    0.957663    1.598556   -0.011151    0.019263   -0.006380
H     2.997083    1.568610   -0.508072    0.000306   -0.000191    0.001556
17
* Frequency(6) -1739.7550
C    -2.329474   -1.297835   -0.589442   -0.132239    0.031257   -0.013639
C    -0.073914   -0.811196    0.434229   -0.072651   -0.078026   -0.075636
C     1.168977   -0.451951   -0.345230    0.010781    0.011189    0.010817
C    -2.332445    0.005215    0.118521    0.012762   -0.008872   -0.003730
C    -1.026076    0.320299    0.732724    0.004864    0.012125    0.009750
O     3.166030    0.654092   -0.253304   -0.001362   -0.000258    0.001054
O     1.998917    0.338688    0.489156   -0.000215   -0.001043   -0.002647
O    -1.465417    0.970344   -0.450549   -0.000993   -0.000519   -0.000296
H    -0.435496   -1.350579   -0.079290    1.740453    0.399098    0.821117
H    -2.746941   -2.157282   -0.075418    0.133525   -0.080352    0.033135
H    -2.374072   -1.300779   -1.673556    0.188895   -0.044464   -0.041976
H     0.157805   -1.399112    1.329205    0.092463    0.143132    0.075026
H     0.891997    0.115039   -1.238177    0.005035   -0.001212    0.002433
H     1.708599   -1.352865   -0.645642   -0.004290    0.002752    0.002286
H    -3.263457    0.396155    0.520404   -0.001540   -0.023952    0.005928
H    -0.926685    0.959167    1.598058   -0.011151    0.019263   -0.006380
H     2.997107    1.568595   -0.507950    0.000306   -0.000191    0.001556
17
* Frequency(6) -1739.7550
C    -2.335594   -1.296388   -0.590073   -0.132239    0.031257   -0.013639
C    -0.077276   -0.814808    0.430728   -0.072651   -0.078026   -0.075636
C     1.169476   -0.451433   -0.344730    0.010781    0.011189    0.010817
C    -2.331855    0.004805    0.118349    0.012762   -0.008872   -0.003730
C    -1.025851    0.320860    0.733175    0.004864    0.012125    0.009750
O     3.165967    0.654081   -0.253255   -0.001362   -0.000258    0.001054
O     1.998907    0.338640    0.489033   -0.000215   -0.001043   -0.002647
O    -1.465463    0.970320   -0.450562   -0.000993   -0.000519   -0.000296
H    -0.354945   -1.332108   -0.041287    1.740453    0.399098    0.821117
H    -2.740762   -2.161000   -0.073885    0.133525   -0.080352    0.033135
H    -2.365329   -1.302837   -1.675499    0.188895   -0.044464   -0.041976
H     0.162084   -1.392487    1.332677    0.092463    0.143132    0.075026
H     0.892231    0.114983   -1.238064    0.005035   -0.001212    0.002433
H     1.708401   -1.352738   -0.645537   -0.004290    0.002752    0.002286
H    -3.263528    0.395046    0.520678   -0.001540   -0.023952    0.005928
H    -0.927201    0.960058    1.597763   -0.011151    0.019263   -0.006380
H     2.997121    1.568586   -0.507878    0.000306   -0.000191    0.001556
17
* Frequency(6) -1739.7550
C    -2.336852   -1.296091   -0.590203   -0.132239    0.031257   -0.013639
C    -0.077967   -0.815550    0.430008   -0.072651   -0.078026   -0.075636
C     1.169579   -0.451327   -0.344627    0.010781    0.011189    0.010817
C    -2.331733    0.004720    0.118313    0.012762   -0.008872   -0.003730
C    -1.025805    0.320975    0.733268    0.004864    0.012125    0.009750
O     3.165954    0.654078   -0.253245   -0.001362   -0.000258    0.001054
O     1.998905    0.338630    0.489008   -0.000215   -0.001043   -0.002647
O    -1.465472    0.970315   -0.450565   -0.000993   -0.000519   -0.000296
H    -0.338385   -1.328311   -0.033474    1.740453    0.399098    0.821117
H    -2.739491   -2.161765   -0.073569    0.133525   -0.080352    0.033135
H    -2.363532   -1.303260   -1.675898    0.188895   -0.044464   -0.041976
H     0.162964   -1.391125    1.333391    0.092463    0.143132    0.075026
H     0.892278    0.114971   -1.238041    0.005035   -0.001212    0.002433
H     1.708360   -1.352712   -0.645515   -0.004290    0.002752    0.002286
H    -3.263543    0.394818    0.520735   -0.001540   -0.023952    0.005928
H    -0.927307    0.960241    1.597702   -0.011151    0.019263   -0.006380
H     2.997124    1.568585   -0.507863    0.000306   -0.000191    0.001556
17
* Frequency(6) -1739.7550
C    -2.333112   -1.296975   -0.589817   -0.132239    0.031257   -0.013639
C    -0.075912   -0.813343    0.432148   -0.072651   -0.078026   -0.075636
C     1.169274   -0.451643   -0.344933    0.010781    0.011189    0.010817
C    -2.332094    0.004971    0.118419    0.012762   -0.008872   -0.003730
C    -1.025942    0.320632    0.732992    0.004864    0.012125    0.009750
O     3.165993    0.654085   -0.253275   -0.001362   -0.000258    0.001054
O     1.998911    0.338660    0.489083   -0.000215   -0.001043   -0.002647
O    -1.465444    0.970330   -0.450557   -0.000993   -0.000519   -0.000296
H    -0.387612   -1.339599   -0.056699    1.740453    0.399098    0.821117
H    -2.743268   -2.159492   -0.074507    0.133525   -0.080352    0.033135
H    -2.368875   -1.302002   -1.674711    0.188895   -0.044464   -0.041976
H     0.160349   -1.395174    1.331269    0.092463    0.143132    0.075026
H     0.892136    0.115005   -1.238110    0.005035   -0.001212    0.002433
H     1.708481   -1.352790   -0.645580   -0.004290    0.002752    0.002286
H    -3.263499    0.395496    0.520567   -0.001540   -0.023952    0.005928
H    -0.926992    0.959696    1.597883   -0.011151    0.019263   -0.006380
H     2.997115    1.568590   -0.507907    0.000306   -0.000191    0.001556
17
* Frequency(6) -1739.7550
C    -2.324779   -1.298944   -0.588957   -0.132239    0.031257   -0.013639
C    -0.071334   -0.808426    0.436914   -0.072651   -0.078026   -0.075636
C     1.168594   -0.452348   -0.345614    0.010781    0.011189    0.010817
C    -2.332898    0.005531    0.118654    0.012762   -0.008872   -0.003730
C    -1.026249    0.319868    0.732378    0.004864    0.012125    0.009750
O     3.166079    0.654102   -0.253341   -0.001362   -0.000258    0.001054
O     1.998924    0.338725    0.489250   -0.000215   -0.001043   -0.002647
O    -1.465382    0.970363   -0.450538   -0.000993   -0.000519   -0.000296
H    -0.497291   -1.364749   -0.108443    1.740453    0.399098    0.821117
H    -2.751682   -2.154429   -0.076595    0.133525   -0.080352    0.033135
H    -2.380779   -1.299200   -1.672066    0.188895   -0.044464   -0.041976
H     0.154522   -1.404194    1.326541    0.092463    0.143132    0.075026
H     0.891819    0.115082   -1.238263    0.005035   -0.001212    0.002433
H     1.708752   -1.352963   -0.645724   -0.004290    0.002752    0.002286
H    -3.263402    0.397005    0.520193   -0.001540   -0.023952    0.005928
H    -0.926289    0.958483    1.598285   -0.011151    0.019263   -0.006380
H     2.997096    1.568602   -0.508005    0.000306   -0.000191    0.001556
17
* Frequency(6) -1739.7550
C    -2.312755   -1.301786   -0.587717   -0.132239    0.031257   -0.013639
C    -0.064729   -0.801332    0.443791   -0.072651   -0.078026   -0.075636
C     1.167614   -0.453366   -0.346598    0.010781    0.011189    0.010817
C    -2.334059    0.006337    0.118993    0.012762   -0.008872   -0.003730
C    -1.026691    0.318766    0.731491    0.004864    0.012125    0.009750
O     3.166202    0.654125   -0.253437   -0.001362   -0.000258    0.001054
O     1.998944    0.338820    0.489490   -0.000215   -0.001043   -0.002647
O    -1.465292    0.970410   -0.450511   -0.000993   -0.000519   -0.000296
H    -0.655536   -1.401036   -0.183101    1.740453    0.399098    0.821117
H    -2.763823   -2.147123   -0.079607    0.133525   -0.080352    0.033135
H    -2.397953   -1.295157   -1.668249    0.188895   -0.044464   -0.041976
H     0.146115   -1.417207    1.319720    0.092463    0.143132    0.075026
H     0.891361    0.115192   -1.238484    0.005035   -0.001212    0.002433
H     1.709142   -1.353213   -0.645932   -0.004290    0.002752    0.002286
H    -3.263262    0.399183    0.519654   -0.001540   -0.023952    0.005928
H    -0.925275    0.956731    1.598865   -0.011151    0.019263   -0.006380
H     2.997068    1.568619   -0.508147    0.000306   -0.000191    0.001556
17
* Frequency(6) -1739.7550
C    -2.298345   -1.305192   -0.586231   -0.132239    0.031257   -0.013639
C    -0.056812   -0.792829    0.452033   -0.072651   -0.078026   -0.075636
C     1.166439   -0.454585   -0.347777    0.010781    0.011189    0.010817
C    -2.335449    0.007304    0.119399    0.012762   -0.008872   -0.003730
C    -1.027221    0.317445    0.730429    0.004864    0.012125    0.009750
O     3.166351    0.654153   -0.253552   -0.001362   -0.000258    0.001054
O     1.998967    0.338934    0.489779   -0.000215   -0.001043   -0.002647
O    -1.465183    0.970466   -0.450479   -0.000993   -0.000519   -0.000296
H    -0.845199   -1.444527   -0.272581    1.740453    0.399098    0.821117
H    -2.778373   -2.138367   -0.083218    0.133525   -0.080352    0.033135
H    -2.418538   -1.290312   -1.663675    0.188895   -0.044464   -0.041976
H     0.136039   -1.432805    1.311544    0.092463    0.143132    0.075026
H     0.890812    0.115324   -1.238750    0.005035   -0.001212    0.002433
H     1.709609   -1.353513   -0.646181   -0.004290    0.002752    0.002286
H    -3.263094    0.401793    0.519008   -0.001540   -0.023952    0.005928
H    -0.924060    0.954632    1.599560   -0.011151    0.019263   -0.006380
H     2.997035    1.568640   -0.508317    0.000306   -0.000191    0.001556
17
* Frequency(6) -1739.7550
C    -2.283109   -1.308794   -0.584659   -0.132239    0.031257   -0.013639
C    -0.048441   -0.783839    0.460748   -0.072651   -0.078026   -0.075636
C     1.165197   -0.455874   -0.349023    0.010781    0.011189    0.010817
C    -2.336920    0.008326    0.119829    0.012762   -0.008872   -0.003730
C    -1.027782    0.316048    0.729305    0.004864    0.012125    0.009750
O     3.166508    0.654183   -0.253674   -0.001362   -0.000258    0.001054
O     1.998992    0.339054    0.490084   -0.000215   -0.001043   -0.002647
O    -1.465069    0.970526   -0.450445   -0.000993   -0.000519   -0.000296
H    -1.045727   -1.490509   -0.367187    1.740453    0.399098    0.821117
H    -2.793758   -2.129109   -0.087036    0.133525   -0.080352    0.033135
H    -2.440302   -1.285189   -1.658839    0.188895   -0.044464   -0.041976
H     0.125386   -1.449296    1.302900    0.092463    0.143132    0.075026
H     0.890232    0.115463   -1.239030    0.005035   -0.001212    0.002433
H     1.710104   -1.353830   -0.646444   -0.004290    0.002752    0.002286
H    -3.262917    0.404553    0.518325   -0.001540   -0.023952    0.005928
H    -0.922776    0.952413    1.600295   -0.011151    0.019263   -0.006380
H     2.997000    1.568662   -0.508496    0.000306   -0.000191    0.001556
17
* Frequency(6) -1739.7550
C    -2.268698   -1.312200   -0.583173   -0.132239    0.031257   -0.013639
C    -0.040524   -0.775337    0.468990   -0.072651   -0.078026   -0.075636
C     1.164022   -0.457093   -0.350202    0.010781    0.011189    0.010817
C    -2.338311    0.009293    0.120236    0.012762   -0.008872   -0.003730
C    -1.028312    0.314726    0.728243    0.004864    0.012125    0.009750
O     3.166656    0.654211   -0.253788   -0.001362   -0.000258    0.001054
O     1.999016    0.339167    0.490372   -0.000215   -0.001043   -0.002647
O    -1.464961    0.970583   -0.450413   -0.000993   -0.000519   -0.000296
H    -1.235390   -1.534000   -0.456667    1.740453    0.399098    0.821117
H    -2.808308   -2.120353   -0.090647    0.133525   -0.080352    0.033135
H    -2.460886   -1.280344   -1.654264    0.188895   -0.044464   -0.041976
H     0.115310   -1.464894    1.294724    0.092463    0.143132    0.075026
H     0.889684    0.115596   -1.239295    0.005035   -0.001212    0.002433
H     1.710571   -1.354130   -0.646693   -0.004290    0.002752    0.002286
H    -3.262749    0.407163    0.517679   -0.001540   -0.023952    0.005928
H    -0.921560    0.950313    1.600990   -0.011151    0.019263   -0.006380
H     2.996966    1.568683   -0.508665    0.000306   -0.000191    0.001556
17
* Frequency(6) -1739.7550
C    -2.256675   -1.315042   -0.581933   -0.132239    0.031257   -0.013639
C    -0.033919   -0.768242    0.475867   -0.072651   -0.078026   -0.075636
C     1.163042   -0.458111   -0.351185    0.010781    0.011189    0.010817
C    -2.339471    0.010100    0.120575    0.012762   -0.008872   -0.003730
C    -1.028754    0.313624    0.727356    0.004864    0.012125    0.009750
O     3.166780    0.654234   -0.253884   -0.001362   -0.000258    0.001054
O     1.999035    0.339262    0.490613   -0.000215   -0.001043   -0.002647
O    -1.464871    0.970630   -0.450386   -0.000993   -0.000519   -0.000296
H    -1.393635   -1.570287   -0.531324    1.740453    0.399098    0.821117
H    -2.820449   -2.113047   -0.093659    0.133525   -0.080352    0.033135
H    -2.478061   -1.276301   -1.650448    0.188895   -0.044464   -0.041976
H     0.106903   -1.477907    1.287902    0.092463    0.143132    0.075026
H     0.889226    0.115706   -1.239516    0.005035   -0.001212    0.002433
H     1.710961   -1.354380   -0.646901   -0.004290    0.002752    0.002286
H    -3.262609    0.409340    0.517141   -0.001540   -0.023952    0.005928
H    -0.920547    0.948562    1.601570   -0.011151    0.019263   -0.006380
H     2.996938    1.568700   -0.508807    0.000306   -0.000191    0.001556
17
* Frequency(6) -1739.7550
C    -2.248341   -1.317011   -0.581074   -0.132239    0.031257   -0.013639
C    -0.029340   -0.763325    0.480633   -0.072651   -0.078026   -0.075636
C     1.162363   -0.458816   -0.351867    0.010781    0.011189    0.010817
C    -2.340275    0.010659    0.120810    0.012762   -0.008872   -0.003730
C    -1.029061    0.312860    0.726742    0.004864    0.012125    0.009750
O     3.166866    0.654251   -0.253951   -0.001362   -0.000258    0.001054
O     1.999049    0.339328    0.490780   -0.000215   -0.001043   -0.002647
O    -1.464808    0.970663   -0.450367   -0.000993   -0.000519   -0.000296
H    -1.503314   -1.595437   -0.583069    1.740453    0.399098    0.821117
H    -2.828863   -2.107983   -0.095747    0.133525   -0.080352    0.033135
H    -2.489964   -1.273499   -1.647803    0.188895   -0.044464   -0.041976
H     0.101076   -1.486927    1.283174    0.092463    0.143132    0.075026
H     0.888909    0.115782   -1.239670    0.005035   -0.001212    0.002433
H     1.711232   -1.354554   -0.647045   -0.004290    0.002752    0.002286
H    -3.262512    0.410850    0.516767   -0.001540   -0.023952    0.005928
H    -0.919844    0.947348    1.601972   -0.011151    0.019263   -0.006380
H     2.996919    1.568712   -0.508905    0.000306   -0.000191    0.001556
17
* Frequency(6) -1739.7550
C    -2.244601   -1.317895   -0.580688   -0.132239    0.031257   -0.013639
C    -0.027285   -0.761119    0.482773   -0.072651   -0.078026   -0.075636
C     1.162058   -0.459132   -0.352173    0.010781    0.011189    0.010817
C    -2.340636    0.010910    0.120915    0.012762   -0.008872   -0.003730
C    -1.029198    0.312517    0.726466    0.004864    0.012125    0.009750
O     3.166904    0.654258   -0.253981   -0.001362   -0.000258    0.001054
O     1.999055    0.339357    0.490854   -0.000215   -0.001043   -0.002647
O    -1.464780    0.970677   -0.450359   -0.000993   -0.000519   -0.000296
H    -1.552541   -1.606725   -0.606293    1.740453    0.399098    0.821117
H    -2.832640   -2.105711   -0.096685    0.133525   -0.080352    0.033135
H    -2.495307   -1.272241   -1.646615    0.188895   -0.044464   -0.041976
H     0.098461   -1.490976    1.281052    0.092463    0.143132    0.075026
H     0.888766    0.115816   -1.239739    0.005035   -0.001212    0.002433
H     1.711353   -1.354631   -0.647110   -0.004290    0.002752    0.002286
H    -3.262469    0.411527    0.516599   -0.001540   -0.023952    0.005928
H    -0.919528    0.946803    1.602153   -0.011151    0.019263   -0.006380
H     2.996910    1.568717   -0.508949    0.000306   -0.000191    0.001556
17
* Frequency(6) -1739.7550
C    -2.245859   -1.317598   -0.580818   -0.132239    0.031257   -0.013639
C    -0.027977   -0.761861    0.482053   -0.072651   -0.078026   -0.075636
C     1.162160   -0.459026   -0.352070    0.010781    0.011189    0.010817
C    -2.340515    0.010826    0.120880    0.012762   -0.008872   -0.003730
C    -1.029152    0.312632    0.726559    0.004864    0.012125    0.009750
O     3.166891    0.654255   -0.253970   -0.001362   -0.000258    0.001054
O     1.999053    0.339347    0.490829   -0.000215   -0.001043   -0.002647
O    -1.464789    0.970672   -0.450362   -0.000993   -0.000519   -0.000296
H    -1.535981   -1.602928   -0.598481    1.740453    0.399098    0.821117
H    -2.831369   -2.106475   -0.096369    0.133525   -0.080352    0.033135
H    -2.493510   -1.272664   -1.647015    0.188895   -0.044464   -0.041976
H     0.099340   -1.489614    1.281766    0.092463    0.143132    0.075026
H     0.888814    0.115805   -1.239715    0.005035   -0.001212    0.002433
H     1.711312   -1.354605   -0.647088   -0.004290    0.002752    0.002286
H    -3.262483    0.411299    0.516656   -0.001540   -0.023952    0.005928
H    -0.919635    0.946987    1.602092   -0.011151    0.019263   -0.006380
H     2.996913    1.568716   -0.508934    0.000306   -0.000191    0.001556
17
* Frequency(6) -1739.7550
C    -2.251980   -1.316151   -0.581449   -0.132239    0.031257   -0.013639
C    -0.031339   -0.765472    0.478553   -0.072651   -0.078026   -0.075636
C     1.162659   -0.458508   -0.351569    0.010781    0.011189    0.010817
C    -2.339924    0.010415    0.120707    0.012762   -0.008872   -0.003730
C    -1.028927    0.313193    0.727010    0.004864    0.012125    0.009750
O     3.166828    0.654243   -0.253922   -0.001362   -0.000258    0.001054
O     1.999043    0.339299    0.490707   -0.000215   -0.001043   -0.002647
O    -1.464835    0.970648   -0.450375   -0.000993   -0.000519   -0.000296
H    -1.455430   -1.584457   -0.560478    1.740453    0.399098    0.821117
H    -2.825189   -2.110194   -0.094836    0.133525   -0.080352    0.033135
H    -2.484767   -1.274722   -1.648958    0.188895   -0.044464   -0.041976
H     0.103620   -1.482989    1.285238    0.092463    0.143132    0.075026
H     0.889047    0.115749   -1.239603    0.005035   -0.001212    0.002433
H     1.711114   -1.354478   -0.646982   -0.004290    0.002752    0.002286
H    -3.262555    0.410191    0.516930   -0.001540   -0.023952    0.005928
H    -0.920151    0.947878    1.601797   -0.011151    0.019263   -0.006380
H     2.996928    1.568707   -0.508862    0.000306   -0.000191    0.001556
17
* Frequency(6) -1739.7550
C    -2.262299   -1.313712   -0.582513   -0.132239    0.031257   -0.013639
C    -0.037008   -0.771561    0.472650   -0.072651   -0.078026   -0.075636
C     1.163500   -0.457635   -0.350725    0.010781    0.011189    0.010817
C    -2.338928    0.009723    0.120416    0.012762   -0.008872   -0.003730
C    -1.028547    0.314139    0.727771    0.004864    0.012125    0.009750
O     3.166722    0.654223   -0.253839   -0.001362   -0.000258    0.001054
O     1.999026    0.339218    0.490500   -0.000215   -0.001043   -0.002647
O    -1.464913    0.970608   -0.450399   -0.000993   -0.000519   -0.000296
H    -1.319616   -1.553314   -0.496403    1.740453    0.399098    0.821117
H    -2.814770   -2.116464   -0.092250    0.133525   -0.080352    0.033135
H    -2.470027   -1.278192   -1.652233    0.188895   -0.044464   -0.041976
H     0.110835   -1.471820    1.291093    0.092463    0.143132    0.075026
H     0.889440    0.115654   -1.239413    0.005035   -0.001212    0.002433
H     1.710779   -1.354263   -0.646804   -0.004290    0.002752    0.002286
H    -3.262675    0.408322    0.517393   -0.001540   -0.023952    0.005928
H    -0.921021    0.949381    1.601299   -0.011151    0.019263   -0.006380
H     2.996951    1.568692   -0.508741    0.000306   -0.000191    0.001556
17
* Frequency(6) -1739.7550
C    -2.275699   -1.310545   -0.583895   -0.132239    0.031257   -0.013639
C    -0.044370   -0.779467    0.464986   -0.072651   -0.078026   -0.075636
C     1.164593   -0.456501   -0.349629    0.010781    0.011189    0.010817
C    -2.337635    0.008823    0.120038    0.012762   -0.008872   -0.003730
C    -1.028054    0.315368    0.728759    0.004864    0.012125    0.009750
O     3.166584    0.654197   -0.253733   -0.001362   -0.000258    0.001054
O     1.999004    0.339112    0.490232   -0.000215   -0.001043   -0.002647
O    -1.465013    0.970555   -0.450428   -0.000993   -0.000519   -0.000296
H    -1.143256   -1.512873   -0.413200    1.740453    0.399098    0.821117
H    -2.801240   -2.124606   -0.088893    0.133525   -0.080352    0.033135
H    -2.450887   -1.282698   -1.656486    0.188895   -0.044464   -0.041976
H     0.120204   -1.457317    1.298695    0.092463    0.143132    0.075026
H     0.889950    0.115531   -1.239166    0.005035   -0.001212    0.002433
H     1.710344   -1.353984   -0.646572   -0.004290    0.002752    0.002286
H    -3.262831    0.405895    0.517993   -0.001540   -0.023952    0.005928
H    -0.922151    0.951333    1.600653   -0.011151    0.019263   -0.006380
H     2.996982    1.568673   -0.508583    0.000306   -0.000191    0.001556
17
* Frequency(6) -1739.7550
C    -2.290727   -1.306993   -0.585445   -0.132239    0.031257   -0.013639
C    -0.052626   -0.788334    0.456391   -0.072651   -0.078026   -0.075636
C     1.165818   -0.455230   -0.348400    0.010781    0.011189    0.010817
C    -2.336185    0.007815    0.119614    0.012762   -0.008872   -0.003730
C    -1.027502    0.316746    0.729867    0.004864    0.012125    0.009750
O     3.166429    0.654168   -0.253613   -0.001362   -0.000258    0.001054
O     1.998980    0.338994    0.489931   -0.000215   -0.001043   -0.002647
O    -1.465126    0.970496   -0.450462   -0.000993   -0.000519   -0.000296
H    -0.945463   -1.467518   -0.319884    1.740453    0.399098    0.821117
H    -2.786065   -2.133738   -0.085127    0.133525   -0.080352    0.033135
H    -2.429420   -1.287751   -1.661257    0.188895   -0.044464   -0.041976
H     0.130712   -1.441051    1.307222    0.092463    0.143132    0.075026
H     0.890522    0.115394   -1.238890    0.005035   -0.001212    0.002433
H     1.709857   -1.353672   -0.646312   -0.004290    0.002752    0.002286
H    -3.263006    0.403173    0.518667   -0.001540   -0.023952    0.005928
H    -0.923418    0.953522    1.599928   -0.011151    0.019263   -0.006380
H     2.997017    1.568651   -0.508406    0.000306   -0.000191    0.001556
