17
Coordinates from ORCA-job freq E -421.367450279164
  C      -1.985118     -1.305716     -0.486223
  C       0.261945     -0.674385      0.471732
  C       1.458223     -0.317390     -0.367110
  C      -2.052758      0.044283      0.152108
  C      -0.741727      0.424581      0.714540
  O       3.582177      0.627459     -0.180369
  O       2.400904      0.275484      0.517043
  O      -1.244644      1.015193     -0.451330
  H      -0.613536     -1.401433     -0.208350
  H      -2.493248     -2.091943      0.052351
  H      -2.124653     -1.333708     -1.556477
  H       0.527996     -1.219478      1.371943
  H       1.173923      0.391791     -1.155681
  H       1.903458     -1.211051     -0.824187
  H      -2.984319      0.402024      0.579211
  H      -0.632764      1.081906      1.569503
  H       3.571942      1.595446     -0.193144
17
Coordinates from ORCA-job freq E -421.369367564500
  C      -1.970728     -1.283181     -0.499784
  C       0.264041     -0.665272      0.488065
  C       1.465427     -0.321527     -0.339322
  C      -2.048308      0.049624      0.168544
  C      -0.740606      0.417164      0.747324
  O       3.550562      0.615384     -0.210626
  O       2.376791      0.333607      0.535447
  O      -1.220216      1.024231     -0.438723
  H      -0.620844     -1.396927     -0.242310
  H      -2.442983     -2.107769      0.024201
  H      -2.116880     -1.294434     -1.574255
  H       0.491529     -1.274958      1.359680
  H       1.189965      0.347934     -1.157938
  H       1.943520     -1.216318     -0.745024
  H      -2.981107      0.421909      0.575931
  H      -0.643293      1.077959      1.600371
  H       3.510932      1.575634     -0.286024
17
Coordinates from ORCA-job freq E -421.369589803815
  C      -1.971167     -1.259004     -0.519946
  C       0.266089     -0.685927      0.494562
  C       1.476325     -0.343366     -0.317939
  C      -2.036193      0.060228      0.175402
  C      -0.727925      0.401306      0.769327
  O       3.537308      0.655387     -0.170532
  O       2.331364      0.407974      0.537580
  O      -1.192462      1.037978     -0.409593
  H      -0.620037     -1.390470     -0.266092
  H      -2.449987     -2.089597     -0.009881
  H      -2.118838     -1.250384     -1.594604
  H       0.470027     -1.326473      1.350013
  H       1.197989      0.259539     -1.186103
  H       2.002714     -1.240505     -0.650026
  H      -2.966723      0.437644      0.583175
  H      -0.628953      1.045572      1.634616
  H       3.438272      1.583159     -0.414401
17
Coordinates from ORCA-job freq E -421.369668889885
  C      -1.970207     -1.238701     -0.531700
  C       0.268071     -0.713048      0.506314
  C       1.486157     -0.377362     -0.297185
  C      -2.017779      0.077357      0.170780
  C      -0.709681      0.389051      0.781293
  O       3.493628      0.715503     -0.203480
  O       2.324730      0.410206      0.542415
  O      -1.147693      1.040471     -0.400262
  H      -0.621490     -1.390813     -0.273217
  H      -2.455197     -2.067043     -0.023712
  H      -2.117848     -1.225246     -1.606376
  H       0.449978     -1.371083      1.353299
  H       1.211202      0.195489     -1.186308
  H       2.027789     -1.276150     -0.598351
  H      -2.945363      0.471975      0.568756
  H      -0.607126      1.027272      1.650461
  H       3.338632      1.635184     -0.447169
17
Coordinates from ORCA-job freq E -421.369680414500
  C      -1.968009     -1.233417     -0.535754
  C       0.268920     -0.719012      0.510157
  C       1.487153     -0.386209     -0.295029
  C      -2.013684      0.079736      0.172276
  C      -0.705399      0.386335      0.784758
  O       3.485503      0.728105     -0.202721
  O       2.315257      0.418108      0.538619
  O      -1.141288      1.043156     -0.394427
  H      -0.623732     -1.396705     -0.267370
  H      -2.466202     -2.060939     -0.039502
  H      -2.102673     -1.211138     -1.611995
  H       0.451659     -1.372799      1.360291
  H       1.210904      0.176410     -1.190308
  H       2.035380     -1.284602     -0.585185
  H      -2.940724      0.474650      0.571211
  H      -0.601727      1.021102      1.656316
  H       3.316465      1.640282     -0.465776
17
Coordinates from ORCA-job freq E -421.369673501633
  C      -1.969324     -1.235695     -0.533586
  C       0.268944     -0.717406      0.508008
  C       1.487565     -0.384346     -0.296569
  C      -2.014621      0.078897      0.171862
  C      -0.705776      0.387699      0.781810
  O       3.487871      0.725593     -0.201652
  O       2.319571      0.411676      0.541141
  O      -1.143662      1.041549     -0.398369
  H      -0.623948     -1.396253     -0.268312
  H      -2.464492     -2.062715     -0.033544
  H      -2.108152     -1.216030     -1.609371
  H       0.451905     -1.370643      1.358514
  H       1.212428      0.184594     -1.188180
  H       2.032475     -1.282808     -0.592811
  H      -2.941357      0.474227      0.571128
  H      -0.601432      1.024419      1.651873
  H       3.319807      1.640303     -0.456384
17
Coordinates from ORCA-job freq E -421.369677839749
  C      -1.968960     -1.235831     -0.533691
  C       0.269016     -0.717276      0.508440
  C       1.487396     -0.384195     -0.296450
  C      -2.014503      0.078901      0.171502
  C      -0.705880      0.387790      0.781901
  O       3.487988      0.725250     -0.201936
  O       2.320517      0.410284      0.541670
  O      -1.143395      1.041633     -0.398420
  H      -0.623762     -1.396443     -0.267889
  H      -2.464465     -2.062621     -0.033624
  H      -2.107368     -1.216388     -1.609533
  H       0.452391     -1.369969      1.359280
  H       1.211977      0.186201     -1.187048
  H       2.031510     -1.282649     -0.594206
  H      -2.941363      0.474218      0.570499
  H      -0.601886      1.024484      1.652023
  H       3.318588      1.639671     -0.456958
17
Coordinates from ORCA-job freq E -421.369676200426
  C      -1.969080     -1.235911     -0.533578
  C       0.269021     -0.717253      0.508257
  C       1.487465     -0.384148     -0.296533
  C      -2.014537      0.078897      0.171481
  C      -0.705854      0.387828      0.781734
  O       3.488077      0.725250     -0.201746
  O       2.320627      0.410075      0.541798
  O      -1.143479      1.041578     -0.398595
  H      -0.623816     -1.396436     -0.268017
  H      -2.464418     -2.062656     -0.033260
  H      -2.107772     -1.216669     -1.609390
  H       0.452360     -1.369969      1.359088
  H       1.212170      0.186475     -1.187023
  H       2.031504     -1.282590     -0.594446
  H      -2.941359      0.474254      0.570534
  H      -0.601771      1.024604      1.651794
  H       3.318664      1.639733     -0.456539
