17
Coordinates from ORCA-job freq E -421.416047048327
  C          -2.66627840262917     -0.39769969302088     -0.59141416067038
  C          -1.85014574655949     -0.71923350481817      0.60640743646415
  C           1.79958582380628      0.47451605887200     -0.06081009556618
  C          -0.56581448143578     -0.07948413970735      0.84820323501821
  C           0.31206311939362      0.38371361138852     -0.25137533379338
  O           3.74075444577590     -0.63888859824983     -0.47506334595405
  O           2.32931203632861     -0.77364589664238     -0.45961920019787
  O          -0.44321002272928      1.30905498379070      0.49158988794834
  H          -2.42409802175515     -1.05567026710852     -1.43516909250633
  H          -2.49194989908157      0.62955292974854     -0.91345541873653
  H          -3.73015103103931     -0.52038332017938     -0.39097107377217
  H          -2.14355541739894     -1.52217132145502      1.26600567546725
  H           2.22348780789375      1.26737514654552     -0.68178968081465
  H           2.02818456342014      0.68277187286553      0.98876771504783
  H          -0.06850367356183     -0.32623818873817      1.78045900806719
  H          -0.02677042188006      0.22626903995705     -1.27136401159909
  H           3.99743932145226     -1.18161171324818      0.27917145559769
