15
Coordinates from ORCA-job scan E -19.193584273530
  C       1.866314     -0.289614      0.695428
  C      -2.389032     -0.823447      0.341938
  C       1.124888      0.584907     -0.271385
  C      -0.324145      0.740577      0.103831
  C      -1.104183     -0.552505     -0.177188
  O      -1.275090     -1.162681      1.071876
  H      -2.560637     -1.395607     -0.527733
  H       2.931646     -0.287993      0.480888
  H       1.516467     -1.315938      0.640650
  H       1.731643      0.056472      1.716165
  H      -2.997217     -0.007440      0.567061
  H       1.596457      1.571683     -0.312748
  H       1.198420      0.168552     -1.280288
  H      -0.424736      0.980293      1.160044
  H      -0.782125      1.546878     -0.465357
15
Coordinates from ORCA-job scan E -19.204544697200
  C       1.889382     -0.291613      0.704767
  C      -2.423663     -0.835994      0.332261
  C       1.148477      0.597110     -0.276960
  C      -0.322611      0.760282      0.089094
  C      -1.120836     -0.528738     -0.155069
  O      -1.307961     -1.245371      1.034924
  H      -2.563820     -1.382582     -0.534159
  H       2.955940     -0.308765      0.486063
  H       1.519207     -1.313222      0.659483
  H       1.761145      0.065282      1.724746
  H      -3.081579     -0.043069      0.646402
  H       1.625661      1.582478     -0.313974
  H       1.225072      0.177936     -1.284052
  H      -0.423318      1.023856      1.143484
  H      -0.772426      1.556547     -0.513829
15
Coordinates from ORCA-job scan E -19.210676582640
  C       1.889963     -0.295903      0.712037
  C      -2.436544     -0.830423      0.323078
  C       1.161029      0.603045     -0.282574
  C      -0.319058      0.778740      0.077802
  C      -1.123067     -0.485783     -0.124188
  O      -1.309455     -1.295782      0.992314
  H      -2.534886     -1.368767     -0.550884
  H       2.954344     -0.335155      0.488479
  H       1.492783     -1.307551      0.675822
  H       1.767435      0.076505      1.727343
  H      -3.142464     -0.106034      0.728143
  H       1.643572      1.583431     -0.314460
  H       1.234224      0.176038     -1.284807
  H      -0.411821      1.063725      1.130207
  H      -0.757384      1.558051     -0.555132
15
Coordinates from ORCA-job scan E -19.213699697760
  C       1.876412     -0.300713      0.719137
  C      -2.437381     -0.821064      0.317734
  C       1.167498      0.606059     -0.285227
  C      -0.315746      0.798177      0.066399
  C      -1.122085     -0.448025     -0.098675
  O      -1.290099     -1.334174      0.946027
  H      -2.507165     -1.349727     -0.571381
  H       2.936217     -0.372040      0.486710
  H       1.444554     -1.297757      0.697518
  H       1.768325      0.092746      1.727626
  H      -3.170522     -0.187898      0.808331
  H       1.657361      1.581141     -0.310190
  H       1.239179      0.171719     -1.283618
  H      -0.396875      1.113790      1.114025
  H      -0.741003      1.561903     -0.591235
15
Coordinates from ORCA-job scan E -19.214838997410
  C       1.858228     -0.305586      0.725254
  C      -2.431132     -0.818558      0.316469
  C       1.170294      0.609040     -0.283793
  C      -0.313739      0.815701      0.054439
  C      -1.121249     -0.427179     -0.087168
  O      -1.261353     -1.360669      0.909147
  H      -2.496111     -1.330493     -0.585907
  H       2.911443     -0.416074      0.480306
  H       1.390281     -1.286014      0.722911
  H       1.775374      0.108186      1.727762
  H      -3.167780     -0.261695      0.870234
  H       1.667450      1.580313     -0.298793
  H       1.246742      0.174592     -1.281862
  H      -0.389187      1.164933      1.093847
  H      -0.730592      1.567639     -0.619666
15
Coordinates from ORCA-job scan E -19.215245313020
  C       1.843744     -0.309246      0.730364
  C      -2.422813     -0.821367      0.315193
  C       1.170656      0.610783     -0.280859
  C      -0.313173      0.827989      0.045063
  C      -1.121613     -0.416377     -0.085844
  O      -1.234565     -1.376020      0.883597
  H      -2.495598     -1.314352     -0.596495
  H       2.889655     -0.455229      0.472598
  H       1.347327     -1.275292      0.748582
  H       1.788784      0.120661      1.728097
  H      -3.153558     -0.313095      0.912267
  H       1.673192      1.579873     -0.287996
  H       1.253871      0.179679     -1.280162
  H      -0.389750      1.203143      1.076123
  H      -0.727488      1.572987     -0.637346
15
Coordinates from ORCA-job scan E -19.215356267890
  C       1.837096     -0.310225      0.734433
  C      -2.417448     -0.825192      0.312833
  C       1.170079      0.610567     -0.278883
  C      -0.313293      0.833503      0.040270
  C      -1.123866     -0.410502     -0.090252
  O      -1.218894     -1.383829      0.866463
  H      -2.500124     -1.303326     -0.603806
  H       2.877667     -0.478232      0.467744
  H       1.325532     -1.267910      0.769053
  H       1.802020      0.130415      1.728537
  H      -3.141135     -0.338502      0.936378
  H       1.675390      1.578748     -0.283985
  H       1.257343      0.181076     -1.278708
  H      -0.393965      1.220229      1.066898
  H      -0.727733      1.577317     -0.643794
15
Coordinates from ORCA-job scan E -19.215386302550
  C       1.835315     -0.309209      0.737655
  C      -2.415366     -0.827989      0.311061
  C       1.169583      0.609395     -0.278320
  C      -0.313370      0.835000      0.038461
  C      -1.126896     -0.406820     -0.096098
  O      -1.212248     -1.389053      0.853364
  H      -2.505967     -1.295843     -0.608701
  H       2.873195     -0.487539      0.466645
  H       1.317834     -1.263347      0.782633
  H       1.810193      0.138235      1.729108
  H      -3.132369     -0.348424      0.950297
  H       1.676139      1.577159     -0.285462
  H       1.257733      0.178550     -1.277501
  H      -0.397513      1.223188      1.064353
  H      -0.727594      1.580836     -0.644315
15
Coordinates from ORCA-job scan E -19.215399684730
  C       1.834409     -0.307375      0.740900
  C      -2.414216     -0.830265      0.310580
  C       1.169247      0.607973     -0.278481
  C      -0.313346      0.835531      0.037167
  C      -1.130017     -0.403413     -0.102576
  O      -1.207708     -1.394801      0.839263
  H      -2.512605     -1.288441     -0.612613
  H       2.870860     -0.491637      0.468103
  H       1.313840     -1.259533      0.793180
  H       1.814331      0.145667      1.729966
  H      -3.123491     -0.354409      0.962974
  H       1.676759      1.575261     -0.289211
  H       1.256999      0.173847     -1.276243
  H      -0.400124      1.221354      1.063858
  H      -0.726267      1.584379     -0.643685
15
Coordinates from ORCA-job scan E -19.215406807270
  C       1.833234     -0.305388      0.744254
  C      -2.413191     -0.832134      0.311530
  C       1.169048      0.606560     -0.278950
  C      -0.313362      0.836053      0.035551
  C      -1.132851     -0.400097     -0.109123
  O      -1.202938     -1.401384      0.823627
  H      -2.519813     -1.280298     -0.615623
  H       2.869001     -0.493411      0.471394
  H       1.310540     -1.256130      0.801530
  H       1.815152      0.152485      1.731146
  H      -3.113846     -0.359931      0.976382
  H       1.677476      1.573257     -0.293519
  H       1.256169      0.168219     -1.274889
  H      -0.401929      1.218479      1.063489
  H      -0.724019      1.587858     -0.643618
15
Coordinates from ORCA-job scan E -19.215410436450
  C       1.831788     -0.303840      0.747242
  C      -2.412145     -0.833437      0.313424
  C       1.168949      0.605375     -0.279376
  C      -0.313515      0.836721      0.033614
  C      -1.135004     -0.397410     -0.114706
  O      -1.197900     -1.407627      0.808985
  H      -2.526608     -1.272450     -0.617405
  H       2.867377     -0.494001      0.475332
  H       1.307626     -1.253598      0.807284
  H       1.813767      0.157617      1.732466
  H      -3.104908     -0.365261      0.988954
  H       1.678133      1.571538     -0.296926
  H       1.255885      0.163241     -1.273635
  H      -0.403101      1.216598      1.062505
  H      -0.721674      1.590670     -0.644576
15
Coordinates from ORCA-job scan E -19.215412151270
  C       1.830452     -0.302952      0.749467
  C      -2.411159     -0.834150      0.315455
  C       1.168900      0.604515     -0.279587
  C      -0.313761      0.837343      0.031733
  C      -1.136415     -0.395675     -0.118801
  O      -1.193407     -1.412416      0.797717
  H      -2.532108     -1.266185     -0.618015
  H       2.866161     -0.493989      0.478799
  H       1.305539     -1.252204      0.810552
  H       1.811612      0.160616      1.733686
  H      -3.098086     -0.369596      0.998837
  H       1.678568      1.570346     -0.298855
  H       1.256241      0.159863     -1.272684
  H      -0.403957      1.216136      1.061022
  H      -0.719912      1.592485     -0.646143
15
Coordinates from ORCA-job scan E -19.215412881800
  C       1.829524     -0.302620      0.750794
  C      -2.410368     -0.834398      0.317015
  C       1.168883      0.603993     -0.279614
  C      -0.313976      0.837736      0.030289
  C      -1.137226     -0.394803     -0.121379
  O      -1.190234     -1.415283      0.790825
  H      -2.535806     -1.262249     -0.617839
  H       2.865486     -0.493681      0.481197
  H       1.304526     -1.251808      0.811889
  H       1.809698      0.161771      1.734610
  H      -3.093925     -0.372297      1.005139
  H       1.678776      1.569700     -0.299522
  H       1.256927      0.158190     -1.272134
  H      -0.404686      1.216514      1.059558
  H      -0.718929      1.593373     -0.647647
15
Coordinates from ORCA-job scan E -19.215413249170
  C       1.828906     -0.302559      0.751554
  C      -2.409727     -0.834422      0.318134
  C       1.168894      0.603689     -0.279572
  C      -0.314101      0.837943      0.029225
  C      -1.137752     -0.394330     -0.123086
  O      -1.188130     -1.416867      0.786772
  H      -2.538244     -1.259958     -0.617325
  H       2.865160     -0.493271      0.482829
  H       1.304185     -1.251918      0.812259
  H       1.808155      0.161969      1.735290
  H      -3.091445     -0.373868      1.009104
  H       1.678901      1.569366     -0.299587
  H       1.257652      0.157503     -1.271858
  H      -0.405397      1.217072      1.058325
  H      -0.718387      1.593787     -0.648880
15
Coordinates from ORCA-job scan E -19.213990433920
  C       1.828043     -0.302894      0.751354
  C      -2.407650     -0.833648      0.318019
  C       1.167660      0.603144     -0.279719
  C      -0.315281      0.837270      0.029434
  C      -1.138774     -0.395152     -0.122529
  O      -1.187947     -1.417379      0.787634
  H      -2.530032     -1.255368     -0.616604
  H       2.864249     -0.493524      0.482384
  H       1.303446     -1.252304      0.812321
  H       1.807495      0.161762      1.735035
  H      -3.090184     -0.372936      1.008078
  H       1.677553      1.568875     -0.299994
  H       1.256210      0.156837     -1.271969
  H      -0.406356      1.216531      1.058505
  H      -0.719762      1.592923     -0.648768
15
Coordinates from ORCA-job scan E -19.214003988070
  C       1.828617     -0.302732      0.751314
  C      -2.409284     -0.834417      0.319046
  C       1.168038      0.603079     -0.279829
  C      -0.314909      0.837157      0.029404
  C      -1.139038     -0.395150     -0.122269
  O      -1.188273     -1.417100      0.788697
  H      -2.530001     -1.254243     -0.619120
  H       2.864846     -0.493232      0.482302
  H       1.304225     -1.252239      0.812491
  H       1.808085      0.162021      1.734944
  H      -3.092616     -0.374045      1.008966
  H       1.677926      1.568828     -0.300309
  H       1.256565      0.156683     -1.272040
  H      -0.406027      1.216701      1.058373
  H      -0.719483      1.592827     -0.648789
15
Coordinates from ORCA-job scan E -19.214006801260
  C       1.828634     -0.302808      0.751238
  C      -2.410243     -0.834932      0.319864
  C       1.168300      0.603169     -0.279897
  C      -0.314556      0.837393      0.029186
  C      -1.138980     -0.394774     -0.122361
  O      -1.188256     -1.416638      0.788986
  H      -2.529592     -1.254275     -0.619488
  H       2.864907     -0.493335      0.482385
  H       1.304210     -1.252315      0.812250
  H       1.807969      0.161799      1.734935
  H      -3.093939     -0.375056      1.009483
  H       1.678305      1.568855     -0.300222
  H       1.256917      0.156902     -1.272164
  H      -0.405899      1.217088      1.058069
  H      -0.719106      1.593063     -0.649082
15
Coordinates from ORCA-job scan E -19.214007046140
  C       1.828454     -0.302911      0.751242
  C      -2.410263     -0.834999      0.320144
  C       1.168313      0.603206     -0.279894
  C      -0.314521      0.837560      0.029027
  C      -1.138920     -0.394549     -0.122572
  O      -1.187970     -1.416502      0.788631
  H      -2.529408     -1.254588     -0.619116
  H       2.864759     -0.493465      0.482526
  H       1.303986     -1.252404      0.812099
  H       1.807669      0.161589      1.734989
  H      -3.093815     -0.375198      1.009781
  H       1.678397      1.568855     -0.300075
  H       1.257028      0.157032     -1.272198
  H      -0.406046      1.217271      1.057892
  H      -0.718993      1.593240     -0.649294
15
Coordinates from ORCA-job scan E -19.212560446310
  C       1.827593     -0.303245      0.751042
  C      -2.408197     -0.834235      0.320026
  C       1.167081      0.602661     -0.280042
  C      -0.315700      0.836888      0.029234
  C      -1.139939     -0.395371     -0.122017
  O      -1.187790     -1.417021      0.789489
  H      -2.521195     -1.249990     -0.618372
  H       2.863849     -0.493717      0.482083
  H       1.303248     -1.252789      0.812160
  H       1.807010      0.161382      1.734734
  H      -3.092558     -0.374267      1.008751
  H       1.677050      1.568366     -0.300482
  H       1.255589      0.156367     -1.272310
  H      -0.407004      1.216730      1.058070
  H      -0.720367      1.592377     -0.649184
15
Coordinates from ORCA-job scan E -19.212574515020
  C       1.828095     -0.303053      0.751048
  C      -2.409832     -0.835121      0.321043
  C       1.167404      0.602581     -0.280154
  C      -0.315391      0.836849      0.029242
  C      -1.140155     -0.395354     -0.121763
  O      -1.187952     -1.416873      0.790242
  H      -2.521100     -1.248851     -0.620907
  H       2.864311     -0.493574      0.481971
  H       1.303773     -1.252579      0.812517
  H       1.807658      0.161833      1.734615
  H      -3.094675     -0.375285      1.009627
  H       1.677391      1.568281     -0.300897
  H       1.255812      0.156064     -1.272332
  H      -0.406600      1.216821      1.058040
  H      -0.720069      1.592400     -0.649112
15
Coordinates from ORCA-job scan E -19.212577803630
  C       1.828122     -0.303060      0.751039
  C      -2.410904     -0.835778      0.321828
  C       1.167619      0.602629     -0.280229
  C      -0.315100      0.837117      0.029095
  C      -1.140077     -0.394984     -0.121870
  O      -1.187866     -1.416586      0.790187
  H      -2.520671     -1.248794     -0.621451
  H       2.864310     -0.493786      0.481998
  H       1.303612     -1.252484      0.812567
  H       1.807737      0.161893      1.734577
  H      -3.095794     -0.376175      1.010183
  H       1.677722      1.568260     -0.300978
  H       1.256021      0.156075     -1.272397
  H      -0.406381      1.217067      1.057881
  H      -0.719681      1.592745     -0.649250
15
Coordinates from ORCA-job scan E -19.212578120590
  C       1.827963     -0.303119      0.751080
  C      -2.410970     -0.835884      0.322041
  C       1.167605      0.602639     -0.280228
  C      -0.315098      0.837270      0.028986
  C      -1.140010     -0.394782     -0.122091
  O      -1.187599     -1.416549      0.789667
  H      -2.520496     -1.249057     -0.621175
  H       2.864147     -0.493950      0.482100
  H       1.303353     -1.252489      0.812581
  H       1.807565      0.161836      1.734618
  H      -3.095541     -0.376217      1.010499
  H       1.677772      1.568238     -0.300923
  H       1.256055      0.156097     -1.272399
  H      -0.406491      1.217157      1.057790
  H      -0.719585      1.592948     -0.649366
15
Coordinates from ORCA-job scan E -19.211109791470
  C       1.827103     -0.303452      0.750880
  C      -2.408917     -0.835130      0.321920
  C       1.166375      0.602095     -0.280376
  C      -0.316275      0.836598      0.029191
  C      -1.141027     -0.395604     -0.121539
  O      -1.187424     -1.417074      0.790520
  H      -2.512282     -1.244452     -0.620407
  H       2.863239     -0.494200      0.481657
  H       1.302617     -1.252874      0.812641
  H       1.806906      0.161630      1.734362
  H      -3.094286     -0.375284      1.009464
  H       1.676427      1.567750     -0.301330
  H       1.254619      0.155434     -1.272511
  H      -0.407448      1.216616      1.057966
  H      -0.720957      1.592085     -0.649257
15
Coordinates from ORCA-job scan E -19.211123772860
  C       1.827617     -0.303236      0.750902
  C      -2.410574     -0.836030      0.322875
  C       1.166687      0.602005     -0.280487
  C      -0.315981      0.836538      0.029223
  C      -1.141234     -0.395615     -0.121295
  O      -1.187619     -1.416978      0.791212
  H      -2.512205     -1.243268     -0.622968
  H       2.863698     -0.494067      0.481528
  H       1.303135     -1.252627      0.813071
  H       1.807616      0.162149      1.734240
  H      -3.096315     -0.376242      1.010346
  H       1.676744      1.567661     -0.301779
  H       1.254816      0.155092     -1.272519
  H      -0.407037      1.216655      1.057972
  H      -0.720677      1.592102     -0.649141
15
Coordinates from ORCA-job scan E -19.211127113010
  C       1.827661     -0.303215      0.750910
  C      -2.411682     -0.836711      0.323598
  C       1.166890      0.602044     -0.280562
  C      -0.315706      0.836778      0.029108
  C      -1.141141     -0.395285     -0.121396
  O      -1.187577     -1.416752      0.791111
  H      -2.511788     -1.243157     -0.623585
  H       2.863694     -0.494292      0.481526
  H       1.302967     -1.252484      0.813209
  H       1.807777      0.162290      1.734193
  H      -3.097336     -0.377046      1.010908
  H       1.677045      1.567638     -0.301903
  H       1.254992      0.155059     -1.272569
  H      -0.406806      1.216842      1.057858
  H      -0.720320      1.592429     -0.649225
15
Coordinates from ORCA-job scan E -19.211127459490
  C       1.827512     -0.303260      0.750955
  C      -2.411773     -0.836830      0.323778
  C       1.166870      0.602052     -0.280560
  C      -0.315711      0.836916      0.029018
  C      -1.141064     -0.395105     -0.121604
  O      -1.187342     -1.416738      0.790586
  H      -2.511605     -1.243406     -0.623356
  H       2.863530     -0.494466      0.481607
  H       1.302702     -1.252466      0.813262
  H       1.807651      0.162271      1.734229
  H      -3.097038     -0.377038      1.011218
  H       1.677079      1.567618     -0.301865
  H       1.255010      0.155066     -1.272566
  H      -0.406908      1.216906      1.057791
  H      -0.720243      1.592617     -0.649312
15
Coordinates from ORCA-job scan E -19.209638163420
  C       1.826654     -0.303592      0.750754
  C      -2.409732     -0.836087      0.323654
  C       1.165642      0.601510     -0.280708
  C      -0.316886      0.836244      0.029220
  C      -1.142078     -0.395927     -0.121055
  O      -1.187172     -1.417271      0.791434
  H      -2.503391     -1.238795     -0.622562
  H       2.862624     -0.494714      0.481165
  H       1.301969     -1.252849      0.813321
  H       1.806992      0.162065      1.733972
  H      -3.095785     -0.376102      1.010179
  H       1.675735      1.567132     -0.302272
  H       1.253578      0.154404     -1.272679
  H      -0.407865      1.216365      1.057964
  H      -0.721614      1.591754     -0.649206
15
Coordinates from ORCA-job scan E -19.209652133150
  C       1.827171     -0.303371      0.750778
  C      -2.411404     -0.836998      0.324576
  C       1.165952      0.601421     -0.280818
  C      -0.316596      0.836173      0.029259
  C      -1.142273     -0.395959     -0.120808
  O      -1.187389     -1.417188      0.792129
  H      -2.503313     -1.237593     -0.625119
  H       2.863082     -0.494585      0.481028
  H       1.302484     -1.252593      0.813762
  H       1.807717      0.162595      1.733848
  H      -3.097775     -0.377023      1.011052
  H       1.676042      1.567048     -0.302719
  H       1.253774      0.154065     -1.272684
  H      -0.407456      1.216387      1.057979
  H      -0.721347      1.591758     -0.649081
15
Coordinates from ORCA-job scan E -19.209655508370
  C       1.827224     -0.303342      0.750784
  C      -2.412531     -0.837695      0.325267
  C       1.166151      0.601462     -0.280891
  C      -0.316327      0.836395      0.029156
  C      -1.142163     -0.395659     -0.120890
  O      -1.187378     -1.416981      0.792048
  H      -2.502889     -1.237463     -0.625763
  H       2.863081     -0.494812      0.481011
  H       1.302318     -1.252438      0.813914
  H       1.807906      0.162754      1.733796
  H      -3.098755     -0.377765      1.011598
  H       1.676327      1.567034     -0.302844
  H       1.253945      0.154034     -1.272733
  H      -0.407225      1.216553      1.057879
  H      -0.721013      1.592060     -0.649150
15
Coordinates from ORCA-job scan E -19.209655873810
  C       1.827082     -0.303383      0.750826
  C      -2.412638     -0.837823      0.325429
  C       1.166129      0.601472     -0.280888
  C      -0.316336      0.836522      0.029076
  C      -1.142076     -0.395497     -0.121079
  O      -1.187168     -1.416973      0.791546
  H      -2.502696     -1.237711     -0.625556
  H       2.862920     -0.494986      0.481079
  H       1.302059     -1.252414      0.813972
  H       1.807799      0.162741      1.733827
  H      -3.098440     -0.377714      1.011889
  H       1.676353      1.567019     -0.302807
  H       1.253958      0.154044     -1.272729
  H      -0.407325      1.216607      1.057822
  H      -0.720952      1.592232     -0.649226
15
Coordinates from ORCA-job scan E -19.208146446000
  C       1.826225     -0.303713      0.750625
  C      -2.410610     -0.837090      0.325302
  C       1.164904      0.600931     -0.281037
  C      -0.317510      0.835850      0.029276
  C      -1.143088     -0.396320     -0.120534
  O      -1.187003     -1.417512      0.792388
  H      -2.494481     -1.233094     -0.624737
  H       2.862017     -0.495232      0.480637
  H       1.301328     -1.252797      0.814029
  H       1.807141      0.162536      1.733570
  H      -3.097189     -0.376775      1.010847
  H       1.675010      1.566535     -0.303213
  H       1.252530      0.153384     -1.272843
  H      -0.408282      1.216065      1.057993
  H      -0.722321      1.591369     -0.649121
15
Coordinates from ORCA-job scan E -19.208160427290
  C       1.826744     -0.303491      0.750647
  C      -2.412294     -0.838012      0.326202
  C       1.165213      0.600846     -0.281146
  C      -0.317222      0.835771      0.029317
  C      -1.143271     -0.396368     -0.120282
  O      -1.187237     -1.417437      0.793094
  H      -2.494400     -1.231877     -0.627281
  H       2.862476     -0.495101      0.480497
  H       1.301846     -1.252540      0.814468
  H       1.807869      0.163066      1.733445
  H      -3.099155     -0.377668      1.011709
  H       1.675310      1.566457     -0.303654
  H       1.252730      0.153052     -1.272849
  H      -0.407877      1.216078      1.058010
  H      -0.722064      1.591361     -0.648996
15
Coordinates from ORCA-job scan E -19.208163835000
  C       1.826803     -0.303459      0.750650
  C      -2.413435     -0.838725      0.326873
  C       1.165410      0.600890     -0.281217
  C      -0.316958      0.835979      0.029221
  C      -1.143144     -0.396094     -0.120346
  O      -1.187249     -1.417240      0.793039
  H      -2.493971     -1.231732     -0.627938
  H       2.862480     -0.495323      0.480470
  H       1.301688     -1.252383      0.814619
  H       1.808069      0.163226      1.733390
  H      -3.100109     -0.378353      1.012235
  H       1.675583      1.566450     -0.303774
  H       1.252900      0.153030     -1.272899
  H      -0.407650      1.216231      1.057916
  H      -0.721747      1.591640     -0.649059
15
Coordinates from ORCA-job scan E -19.208164215050
  C       1.826668     -0.303498      0.750688
  C      -2.413553     -0.838860      0.327024
  C       1.165386      0.600901     -0.281213
  C      -0.316969      0.836097      0.029149
  C      -1.143048     -0.395948     -0.120517
  O      -1.187060     -1.417236      0.792560
  H      -2.493768     -1.231979     -0.627746
  H       2.862324     -0.495493      0.480528
  H       1.301438     -1.252358      0.814675
  H       1.807973      0.163214      1.733418
  H      -3.099785     -0.378265      1.012506
  H       1.675600      1.566441     -0.303734
  H       1.252911      0.153046     -1.272896
  H      -0.407748      1.216278      1.057867
  H      -0.721699      1.591796     -0.649129
15
Coordinates from ORCA-job scan E -19.206635551650
  C       1.825812     -0.303827      0.750486
  C      -2.411538     -0.838139      0.326894
  C       1.164163      0.600362     -0.281363
  C      -0.318141      0.835425      0.029347
  C      -1.144057     -0.396771     -0.119977
  O      -1.186900     -1.417783      0.793398
  H      -2.485552     -1.227356     -0.626901
  H       2.861423     -0.495737      0.480087
  H       1.300709     -1.252740      0.814730
  H       1.807314      0.163010      1.733161
  H      -3.098536     -0.377322      1.011460
  H       1.674259      1.565958     -0.304139
  H       1.251487      0.152388     -1.273011
  H      -0.408705      1.215735      1.058035
  H      -0.723067      1.590934     -0.649026
15
Coordinates from ORCA-job scan E -19.206649554590
  C       1.826333     -0.303605      0.750507
  C      -2.413232     -0.839071      0.327775
  C       1.164473      0.600278     -0.281470
  C      -0.317855      0.835338      0.029387
  C      -1.144229     -0.396834     -0.119722
  O      -1.187147     -1.417714      0.794113
  H      -2.485471     -1.226123     -0.629429
  H       2.861884     -0.495602      0.479946
  H       1.301230     -1.252483      0.815164
  H       1.808042      0.163537      1.733035
  H      -3.100481     -0.378189      1.012314
  H       1.674554      1.565886     -0.304572
  H       1.251693      0.152064     -1.273018
  H      -0.408305      1.215740      1.058052
  H      -0.722817      1.590914     -0.648901
15
Coordinates from ORCA-job scan E -19.206652995920
  C       1.826397     -0.303570      0.750506
  C      -2.414385     -0.839800      0.328433
  C       1.164667      0.600325     -0.281540
  C      -0.317596      0.835534      0.029297
  C      -1.144087     -0.396583     -0.119769
  O      -1.187176     -1.417529      0.794080
  H      -2.485040     -1.225960     -0.630095
  H       2.861892     -0.495817      0.479913
  H       1.301082     -1.252326      0.815310
  H       1.808247      0.163696      1.732979
  H      -3.101412     -0.378824      1.012824
  H       1.674815      1.565886     -0.304686
  H       1.251865      0.152050     -1.273069
  H      -0.408083      1.215882      1.057962
  H      -0.722516      1.591173     -0.648963
15
Coordinates from ORCA-job scan E -19.206653389520
  C       1.826266     -0.303607      0.750541
  C      -2.414512     -0.839944      0.328577
  C       1.164642      0.600338     -0.281535
  C      -0.317610      0.835643      0.029230
  C      -1.143983     -0.396453     -0.119925
  O      -1.187004     -1.417528      0.793620
  H      -2.484832     -1.226202     -0.629916
  H       2.861742     -0.495980      0.479965
  H       1.300840     -1.252302      0.815362
  H       1.808158      0.163683      1.733004
  H      -3.101078     -0.378700      1.013078
  H       1.674825      1.565882     -0.304643
  H       1.251875      0.152072     -1.273067
  H      -0.408182      1.215924      1.057917
  H      -0.722479      1.591313     -0.649028
15
Coordinates from ORCA-job scan E -19.205106451680
  C       1.825413     -0.303935      0.750339
  C      -2.412511     -0.839234      0.328443
  C       1.163421      0.599800     -0.281686
  C      -0.318780      0.834971      0.029425
  C      -1.144989     -0.397275     -0.119389
  O      -1.186850     -1.418083      0.794452
  H      -2.476614     -1.221575     -0.629043
  H       2.860843     -0.496222      0.479524
  H       1.300114     -1.252683      0.815415
  H       1.807499      0.163479      1.732746
  H      -3.099830     -0.377753      1.012028
  H       1.673485      1.565400     -0.305048
  H       1.250455      0.151416     -1.273182
  H      -0.409139      1.215380      1.058084
  H      -0.723846      1.590452     -0.648927
15
Coordinates from ORCA-job scan E -19.205120480150
  C       1.825933     -0.303713      0.750359
  C      -2.414213     -0.840177      0.329308
  C       1.163731      0.599719     -0.281792
  C      -0.318496      0.834878      0.029465
  C      -1.145151     -0.397352     -0.119133
  O      -1.187107     -1.418021      0.795173
  H      -2.476534     -1.220323     -0.631556
  H       2.861305     -0.496084      0.479385
  H       1.300637     -1.252426      0.815844
  H       1.808223      0.164002      1.732621
  H      -3.101753     -0.378598      1.012877
  H       1.673776      1.565333     -0.305473
  H       1.250666      0.151100     -1.273190
  H      -0.408744      1.215378      1.058099
  H      -0.723601      1.590422     -0.648806
15
Coordinates from ORCA-job scan E -19.205123957960
  C       1.826001     -0.303675      0.750356
  C      -2.415377     -0.840923      0.329955
  C       1.163924      0.599767     -0.281861
  C      -0.318241      0.835061      0.029377
  C      -1.144994     -0.397124     -0.119166
  O      -1.187150     -1.417850      0.795156
  H      -2.476104     -1.220137     -0.632232
  H       2.861318     -0.496290      0.479349
  H       1.300498     -1.252270      0.815985
  H       1.808430      0.164161      1.732564
  H      -3.102657     -0.379184      1.013376
  H       1.674026      1.565340     -0.305580
  H       1.250841      0.151093     -1.273242
  H      -0.408527      1.215509      1.058011
  H      -0.723316      1.590660     -0.648867
15
Coordinates from ORCA-job scan E -19.205124365640
  C       1.825876     -0.303711      0.750389
  C      -2.415513     -0.841077      0.330093
  C       1.163897      0.599782     -0.281855
  C      -0.318258      0.835161      0.029315
  C      -1.144882     -0.397008     -0.119308
  O      -1.186992     -1.417856      0.794712
  H      -2.475894     -1.220372     -0.632064
  H       2.861173     -0.496447      0.479395
  H       1.300266     -1.252246      0.816035
  H       1.808346      0.164147      1.732588
  H      -3.102311     -0.379026      1.013617
  H       1.674029      1.565340     -0.305535
  H       1.250850      0.151119     -1.273240
  H      -0.408628      1.215545      1.057970
  H      -0.723290      1.590785     -0.648930
15
Coordinates from ORCA-job scan E -19.203560176460
  C       1.825024     -0.304038      0.750186
  C      -2.413525     -0.840378      0.329956
  C       1.162679      0.599245     -0.282007
  C      -0.319426      0.834490      0.029507
  C      -1.145886     -0.397830     -0.118777
  O      -1.186845     -1.418419      0.795539
  H      -2.467675     -1.215741     -0.631164
  H       2.860275     -0.496687      0.478955
  H       1.299542     -1.252627      0.816085
  H       1.807686      0.163944      1.732329
  H      -3.101065     -0.378074      1.012564
  H       1.672691      1.564860     -0.305939
  H       1.249434      0.150466     -1.273356
  H      -0.409585      1.215001      1.058133
  H      -0.724654      1.589926     -0.648830
15
Coordinates from ORCA-job scan E -19.203574231410
  C       1.825543     -0.303815      0.750205
  C      -2.415234     -0.841332      0.330806
  C       1.162989      0.599166     -0.282112
  C      -0.319144      0.834390      0.029545
  C      -1.146037     -0.397920     -0.118520
  O      -1.187111     -1.418366      0.796262
  H      -2.467598     -1.214469     -0.633661
  H       2.860738     -0.496545      0.478818
  H       1.300066     -1.252371      0.816509
  H       1.808406      0.164464      1.732205
  H      -3.102963     -0.378897      1.013411
  H       1.672976      1.564798     -0.306357
  H       1.249652      0.150156     -1.273365
  H      -0.409197      1.214992      1.058146
  H      -0.724415      1.589886     -0.648713
15
Coordinates from ORCA-job scan E -19.203577749380
  C       1.825615     -0.303774      0.750201
  C      -2.416409     -0.842096      0.331444
  C       1.163179      0.599216     -0.282179
  C      -0.318894      0.834561      0.029459
  C      -1.145866     -0.397714     -0.118541
  O      -1.187166     -1.418210      0.796258
  H      -2.467171     -1.214256     -0.634347
  H       2.860756     -0.496742      0.478780
  H       1.299935     -1.252215      0.816647
  H       1.808614      0.164622      1.732148
  H      -3.103838     -0.379437      1.013903
  H       1.673216      1.564811     -0.306459
  H       1.249830      0.150155     -1.273417
  H      -0.408987      1.215112      1.058059
  H      -0.724144      1.590103     -0.648776
15
Coordinates from ORCA-job scan E -19.203578172430
  C       1.825494     -0.303808      0.750232
  C      -2.416553     -0.842261      0.331577
  C       1.163152      0.599231     -0.282173
  C      -0.318914      0.834653      0.029401
  C      -1.145747     -0.397611     -0.118669
  O      -1.187021     -1.418224      0.795825
  H      -2.466961     -1.214480     -0.634191
  H       2.860616     -0.496892      0.478823
  H       1.299713     -1.252192      0.816694
  H       1.808534      0.164609      1.732171
  H      -3.103479     -0.379245      1.014133
  H       1.673213      1.564815     -0.306411
  H       1.249839      0.150185     -1.273416
  H      -0.409089      1.215144      1.058021
  H      -0.724128      1.590214     -0.648836
15
Coordinates from ORCA-job scan E -19.201997819400
  C       1.824643     -0.304134      0.750028
  C      -2.414579     -0.841574      0.331437
  C       1.161936      0.598696     -0.282325
  C      -0.320080      0.833982      0.029591
  C      -1.146748     -0.398434     -0.118144
  O      -1.186881     -1.418795      0.796646
  H      -2.458739     -1.209846     -0.633263
  H       2.859720     -0.497130      0.478384
  H       1.298991     -1.252572      0.816742
  H       1.807874      0.164406      1.731912
  H      -3.102233     -0.378288      1.013078
  H       1.671876      1.564337     -0.306814
  H       1.248427      0.149535     -1.273533
  H      -0.410046      1.214598      1.058182
  H      -0.725491      1.589356     -0.648739
15
Coordinates from ORCA-job scan E -19.202011900430
  C       1.825162     -0.303910      0.750048
  C      -2.416295     -0.842539      0.332272
  C       1.162245      0.598619     -0.282429
  C      -0.319801      0.833876      0.029626
  C      -1.146889     -0.398536     -0.117887
  O      -1.187154     -1.418752      0.797369
  H      -2.458666     -1.208551     -0.635744
  H       2.860183     -0.496985      0.478250
  H       1.299515     -1.252317      0.817162
  H       1.808587      0.164924      1.731789
  H      -3.104103     -0.379091      1.013926
  H       1.672156      1.564278     -0.307225
  H       1.248651      0.149231     -1.273542
  H      -0.409664      1.214583      1.058192
  H      -0.725258      1.589306     -0.648627
15
Coordinates from ORCA-job scan E -19.202015462770
  C       1.825236     -0.303867      0.750044
  C      -2.417480     -0.843322      0.332902
  C       1.162434      0.598670     -0.282496
  C      -0.319555      0.834033      0.029542
  C      -1.146704     -0.398352     -0.117895
  O      -1.187220     -1.418614      0.797374
  H      -2.458245     -1.208307     -0.636443
  H       2.860204     -0.497172      0.478212
  H       1.299394     -1.252161      0.817298
  H       1.808795      0.165083      1.731732
  H      -3.104947     -0.379584      1.014415
  H       1.672386      1.564297     -0.307322
  H       1.248832      0.149235     -1.273595
  H      -0.409462      1.214693      1.058104
  H      -0.725000      1.589503     -0.648691
15
Coordinates from ORCA-job scan E -19.202015902940
  C       1.825120     -0.303898      0.750073
  C      -2.417632     -0.843499      0.333031
  C       1.162406      0.598686     -0.282488
  C      -0.319578      0.834117      0.029487
  C      -1.146577     -0.398263     -0.118011
  O      -1.187088     -1.418638      0.796951
  H      -2.458035     -1.208519     -0.636299
  H       2.860070     -0.497314      0.478251
  H       1.299180     -1.252138      0.817343
  H       1.808720      0.165070      1.731754
  H      -3.104571     -0.379359      1.014636
  H       1.672375      1.564305     -0.307272
  H       1.248842      0.149268     -1.273594
  H      -0.409567      1.214719      1.058068
  H      -0.724994      1.589600     -0.648750
15
Coordinates from ORCA-job scan E -19.200420536090
  C       1.824271     -0.304223      0.749868
  C      -2.415674     -0.842823      0.332887
  C       1.161191      0.598152     -0.282641
  C      -0.320742      0.833446      0.029674
  C      -1.147576     -0.399085     -0.117491
  O      -1.186954     -1.419217      0.797765
  H      -2.449811     -1.203882     -0.635342
  H       2.859175     -0.497550      0.477813
  H       1.298460     -1.252517      0.817388
  H       1.808059      0.164867      1.731495
  H      -3.103325     -0.378396      1.013578
  H       1.671040      1.563829     -0.307673
  H       1.247435      0.148621     -1.273712
  H      -0.410524      1.214173      1.058227
  H      -0.726355      1.588742     -0.648654
15
Coordinates from ORCA-job scan E -19.200434642310
  C       1.824787     -0.303999      0.749889
  C      -2.417394     -0.843799      0.333707
  C       1.161501      0.598077     -0.282744
  C      -0.320465      0.833334      0.029706
  C      -1.147706     -0.399200     -0.117235
  O      -1.187235     -1.419185      0.798488
  H      -2.449742     -1.202563     -0.637808
  H       2.859638     -0.497401      0.477684
  H       1.298985     -1.252263      0.817804
  H       1.808765      0.165382      1.731374
  H      -3.105166     -0.379179      1.014430
  H       1.671315      1.563775     -0.308077
  H       1.247664      0.148323     -1.273721
  H      -0.410149      1.214152      1.058233
  H      -0.726128      1.588683     -0.648548
15
Coordinates from ORCA-job scan E -19.200438253770
  C       1.824865     -0.303952      0.749884
  C      -2.418590     -0.844603      0.334331
  C       1.161688      0.598128     -0.282810
  C      -0.320224      0.833479      0.029623
  C      -1.147507     -0.399038     -0.117229
  O      -1.187311     -1.419067      0.798500
  H      -2.449327     -1.202284     -0.638522
  H       2.859664     -0.497578      0.477645
  H       1.298873     -1.252107      0.817939
  H       1.808973      0.165543      1.731317
  H      -3.105976     -0.379625      1.014918
  H       1.671534      1.563799     -0.308170
  H       1.247849      0.148331     -1.273775
  H      -0.409955      1.214251      1.058145
  H      -0.725885      1.588859     -0.648615
15
Coordinates from ORCA-job scan E -19.200438713180
  C       1.824753     -0.303981      0.749912
  C      -2.418752     -0.844793      0.334457
  C       1.161658      0.598145     -0.282802
  C      -0.320250      0.833554      0.029571
  C      -1.147373     -0.398963     -0.117333
  O      -1.187191     -1.419102      0.798085
  H      -2.449119     -1.202481     -0.638390
  H       2.859534     -0.497714      0.477683
  H       1.298668     -1.252085      0.817981
  H       1.808900      0.165531      1.731339
  H      -3.105582     -0.379367      1.015133
  H       1.671516      1.563811     -0.308117
  H       1.247859      0.148368     -1.273774
  H      -0.410062      1.214273      1.058111
  H      -0.725888      1.588940     -0.648674
15
Coordinates from ORCA-job scan E -19.198829556010
  C       1.823905     -0.304305      0.749707
  C      -2.416808     -0.844129      0.334309
  C       1.160446      0.597614     -0.282956
  C      -0.321413      0.832883      0.029754
  C      -1.148370     -0.399785     -0.116819
  O      -1.187064     -1.419689      0.798892
  H      -2.440893     -1.197843     -0.637404
  H       2.858641     -0.497947      0.477246
  H       1.297950     -1.252463      0.818023
  H       1.808238      0.165327      1.731079
  H      -3.104336     -0.378397      1.014073
  H       1.670182      1.563337     -0.308517
  H       1.246457      0.147723     -1.273893
  H      -0.411019      1.213726      1.058266
  H      -0.727247      1.588084     -0.648580
15
Coordinates from ORCA-job scan E -19.198843683300
  C       1.824419     -0.304080      0.749729
  C      -2.418533     -0.845115      0.335114
  C       1.160755      0.597540     -0.283057
  C      -0.321139      0.832765      0.029784
  C      -1.148489     -0.399912     -0.116562
  O      -1.187351     -1.419669      0.799612
  H      -2.440827     -1.196498     -0.639856
  H       2.859103     -0.497795      0.477121
  H       1.298475     -1.252210      0.818437
  H       1.808938      0.165841      1.730960
  H      -3.106145     -0.379160      1.014928
  H       1.670452      1.563286     -0.308915
  H       1.246692      0.147430     -1.273902
  H      -0.410652      1.213699      1.058269
  H      -0.727026      1.588015     -0.648480
15
Coordinates from ORCA-job scan E -19.198847347800
  C       1.824500     -0.304030      0.749724
  C      -2.419740     -0.845940      0.335731
  C       1.160939      0.597591     -0.283122
  C      -0.320903      0.832896      0.029702
  C      -1.148276     -0.399772     -0.116543
  O      -1.187438     -1.419572      0.799631
  H      -2.440418     -1.196182     -0.640587
  H       2.859133     -0.497962      0.477082
  H       1.298372     -1.252053      0.818571
  H       1.809146      0.166004      1.730903
  H      -3.106919     -0.379559      1.015418
  H       1.670659      1.563315     -0.309004
  H       1.246879      0.147442     -1.273955
  H      -0.410466      1.213789      1.058180
  H      -0.726798      1.588169     -0.648549
15
Coordinates from ORCA-job scan E -19.198847828630
  C       1.824393     -0.304057      0.749751
  C      -2.419912     -0.846143      0.335853
  C       1.160909      0.597609     -0.283113
  C      -0.320932      0.832962      0.029654
  C      -1.148135     -0.399712     -0.116634
  O      -1.187332     -1.419619      0.799223
  H      -2.440213     -1.196362     -0.640469
  H       2.859008     -0.498089      0.477117
  H       1.298177     -1.252031      0.818611
  H       1.809077      0.165994      1.730925
  H      -3.106507     -0.379267      1.015625
  H       1.670634      1.563331     -0.308950
  H       1.246890      0.147480     -1.273954
  H      -0.410575      1.213806      1.058148
  H      -0.726812      1.588235     -0.648607
15
Coordinates from ORCA-job scan E -19.197226164490
  C       1.823546     -0.304379      0.749545
  C      -2.417984     -0.845493      0.335701
  C       1.159699      0.597079     -0.283268
  C      -0.322093      0.832292      0.029834
  C      -1.149128     -0.400533     -0.116126
  O      -1.187212     -1.420215      0.800024
  H      -2.431984     -1.191723     -0.639453
  H       2.858118     -0.498320      0.476681
  H       1.297461     -1.252409      0.818650
  H       1.808413      0.165790      1.730665
  H      -3.105259     -0.378290      1.014563
  H       1.669302      1.562860     -0.309348
  H       1.245492      0.146839     -1.274075
  H      -0.411533      1.213258      1.058301
  H      -0.728169      1.587381     -0.648515
15
Coordinates from ORCA-job scan E -19.197240314150
  C       1.824058     -0.304154      0.749568
  C      -2.419712     -0.846488      0.336491
  C       1.160007      0.597006     -0.283368
  C      -0.321822      0.832168      0.029860
  C      -1.149237     -0.400673     -0.115869
  O      -1.187506     -1.420207      0.800741
  H      -2.431921     -1.190352     -0.641890
  H       2.858578     -0.498164      0.476561
  H       1.297985     -1.252156      0.819061
  H       1.809105      0.166301      1.730547
  H      -3.107036     -0.379033      1.015424
  H       1.669567      1.562812     -0.309738
  H       1.245733      0.146551     -1.274084
  H      -0.411173      1.213225      1.058300
  H      -0.727954      1.587301     -0.648421
15
Coordinates from ORCA-job scan E -19.197244038490
  C       1.824142     -0.304100      0.749564
  C      -2.420931     -0.847335      0.337101
  C       1.160189      0.597058     -0.283432
  C      -0.321592      0.832285      0.029780
  C      -1.149010     -0.400555     -0.115835
  O      -1.187605     -1.420132      0.800766
  H      -2.431519     -1.189996     -0.642642
  H       2.858613     -0.498320      0.476524
  H       1.297891     -1.251999      0.819194
  H       1.809314      0.166467      1.730491
  H      -3.107772     -0.379385      1.015916
  H       1.669762      1.562847     -0.309824
  H       1.245923      0.146565     -1.274137
  H      -0.410995      1.213305      1.058210
  H      -0.727741      1.587433     -0.648493
15
Coordinates from ORCA-job scan E -19.197244543370
  C       1.824040     -0.304124      0.749590
  C      -2.421114     -0.847554      0.337219
  C       1.160157      0.597076     -0.283423
  C      -0.321624      0.832341      0.029735
  C      -1.148860     -0.400510     -0.115911
  O      -1.187511     -1.420192      0.800365
  H      -2.431316     -1.190157     -0.642537
  H       2.858494     -0.498439      0.476556
  H       1.297706     -1.251977      0.819234
  H       1.809248      0.166458      1.730513
  H      -3.107341     -0.379057      1.016115
  H       1.669730      1.562866     -0.309769
  H       1.245934      0.146606     -1.274136
  H      -0.411106      1.213317      1.058180
  H      -0.727766      1.587482     -0.648550
15
Coordinates from ORCA-job scan E -19.195611730470
  C       1.823194     -0.304445      0.749383
  C      -2.419202     -0.846916      0.337064
  C       1.158950      0.596548     -0.283578
  C      -0.322783      0.831672      0.029912
  C      -1.149851     -0.401330     -0.115409
  O      -1.187400     -1.420797      0.801160
  H      -2.423083     -1.185519     -0.641490
  H       2.857605     -0.498668      0.476121
  H       1.296992     -1.252354      0.819270
  H       1.808583      0.166254      1.730252
  H      -3.106091     -0.378072      1.015051
  H       1.668400      1.562397     -0.310165
  H       1.244541      0.145969     -1.274258
  H      -0.412065      1.212768      1.058330
  H      -0.729121      1.586630     -0.648461
15
Coordinates from ORCA-job scan E -19.195625900970
  C       1.823702     -0.304220      0.749407
  C      -2.420933     -0.847920      0.337837
  C       1.159257      0.596477     -0.283677
  C      -0.322516      0.831541      0.029935
  C      -1.149948     -0.401483     -0.115151
  O      -1.187701     -1.420802      0.801874
  H      -2.423023     -1.184121     -0.643915
  H       2.858064     -0.498509      0.476005
  H       1.297515     -1.252103      0.819676
  H       1.809267      0.166763      1.730136
  H      -3.107833     -0.378795      1.015919
  H       1.668658      1.562353     -0.310549
  H       1.244787      0.145686     -1.274268
  H      -0.411713      1.212730      1.058325
  H      -0.728913      1.586539     -0.648373
15
Coordinates from ORCA-job scan E -19.195629691450
  C       1.823791     -0.304162      0.749403
  C      -2.422165     -0.848790      0.338441
  C       1.159436      0.596528     -0.283741
  C      -0.322291      0.831644      0.029857
  C      -1.149706     -0.401389     -0.115101
  O      -1.187812     -1.420751      0.801906
  H      -2.422626     -1.183721     -0.644689
  H       2.858104     -0.498654      0.475968
  H       1.297432     -1.251945      0.819810
  H       1.809476      0.166933      1.730081
  H      -3.108532     -0.379097      1.016412
  H       1.668842      1.562392     -0.310632
  H       1.244980      0.145702     -1.274320
  H      -0.411542      1.212800      1.058235
  H      -0.728716      1.586647     -0.648448
15
Coordinates from ORCA-job scan E -19.195630223330
  C       1.823693     -0.304182      0.749428
  C      -2.422359     -0.849025      0.338555
  C       1.159403      0.596546     -0.283730
  C      -0.322327      0.831690      0.029816
  C      -1.149548     -0.401359     -0.115162
  O      -1.187733     -1.420824      0.801513
  H      -2.422425     -1.183863     -0.644599
  H       2.857990     -0.498763      0.475998
  H       1.297258     -1.251924      0.819848
  H       1.809414      0.166925      1.730102
  H      -3.108080     -0.378732      1.016603
  H       1.668801      1.562415     -0.310575
  H       1.244991      0.145746     -1.274319
  H      -0.411656      1.212808      1.058207
  H      -0.728752      1.586679     -0.648504
15
Coordinates from ORCA-job scan E -19.193987688810
  C       1.822848     -0.304503      0.749220
  C      -2.420464     -0.848400      0.338396
  C       1.158199      0.596021     -0.283886
  C      -0.323484      0.831022      0.029989
  C      -1.150536     -0.402179     -0.114667
  O      -1.187630     -1.421438      0.802300
  H      -2.414189     -1.179226     -0.643521
  H       2.857103     -0.498990      0.475565
  H       1.296545     -1.252300      0.819880
  H       1.808748      0.166721      1.729841
  H      -3.106828     -0.377739      1.015538
  H       1.667473      1.561949     -0.310969
  H       1.243604      0.145112     -1.274442
  H      -0.412614      1.212258      1.058354
  H      -0.730105      1.585829     -0.648416
15
Coordinates from ORCA-job scan E -19.194001878500
  C       1.823354     -0.304277      0.749245
  C      -2.422197     -0.849414      0.339153
  C       1.158504      0.595951     -0.283985
  C      -0.323220      0.830885      0.030009
  C      -1.150622     -0.402344     -0.114407
  O      -1.187938     -1.421456      0.803011
  H      -2.414130     -1.177800     -0.645933
  H       2.857560     -0.498828      0.475453
  H       1.297067     -1.252050      0.820284
  H       1.809423      0.167227      1.729727
  H      -3.108535     -0.378441      1.016412
  H       1.667725      1.561909     -0.311347
  H       1.243854      0.144833     -1.274452
  H      -0.412270      1.212215      1.058345
  H      -0.729905      1.585727     -0.648336
15
Coordinates from ORCA-job scan E -19.194005742060
  C       1.823446     -0.304215      0.749241
  C      -2.423443     -0.850308      0.339750
  C       1.158680      0.596002     -0.284047
  C      -0.323002      0.830973      0.029933
  C      -1.150364     -0.402275     -0.114338
  O      -1.188062     -1.421429      0.803052
  H      -2.413738     -1.177355     -0.646732
  H       2.857605     -0.498961      0.475417
  H       1.296995     -1.251892      0.820417
  H       1.809633      0.167400      1.729672
  H      -3.109194     -0.378693      1.016907
  H       1.667896      1.561953     -0.311427
  H       1.244049      0.144852     -1.274505
  H      -0.412107      1.212274      1.058254
  H      -0.729724      1.585810     -0.648413
15
Coordinates from ORCA-job scan E -19.194006310160
  C       1.823354     -0.304232      0.749266
  C      -2.423651     -0.850561      0.339860
  C       1.158645      0.596021     -0.284036
  C      -0.323041      0.831008      0.029896
  C      -1.150196     -0.402262     -0.114382
  O      -1.187999     -1.421517      0.802667
  H      -2.413538     -1.177475     -0.646659
  H       2.857498     -0.499061      0.475444
  H       1.296832     -1.251870      0.820454
  H       1.809576      0.167395      1.729693
  H      -3.108722     -0.378289      1.017089
  H       1.667847      1.561980     -0.311368
  H       1.244060      0.144897     -1.274504
  H      -0.412223      1.212278      1.058229
  H      -0.729773      1.585824     -0.648468
15
Coordinates from ORCA-job scan E -19.192355550000
  C       1.822510     -0.304551      0.749057
  C      -2.421773     -0.849949      0.339696
  C       1.157444      0.595498     -0.284193
  C      -0.324196      0.830341      0.030065
  C      -1.151182     -0.403080     -0.113895
  O      -1.187906     -1.422139      0.803447
  H      -2.405298     -1.172840     -0.645547
  H       2.856613     -0.499286      0.475011
  H       1.296121     -1.252246      0.820483
  H       1.808908      0.167190      1.729431
  H      -3.107467     -0.377287      1.016023
  H       1.666521      1.561517     -0.311760
  H       1.242678      0.144268     -1.274627
  H      -0.413182      1.211727      1.058372
  H      -0.731123      1.584976     -0.648382
15
Coordinates from ORCA-job scan E -19.192369757050
  C       1.823012     -0.304326      0.749082
  C      -2.423507     -0.850970      0.340438
  C       1.157748      0.595428     -0.284290
  C      -0.323936      0.830197      0.030083
  C      -1.151256     -0.403258     -0.113631
  O      -1.188221     -1.422172      0.804156
  H      -2.405240     -1.171387     -0.647948
  H       2.857067     -0.499120      0.474905
  H       1.296642     -1.251997      0.820882
  H       1.809574      0.167693      1.729319
  H      -3.109136     -0.377968      1.016903
  H       1.666767      1.561480     -0.312131
  H       1.242932      0.143994     -1.274638
  H      -0.412846      1.211680      1.058359
  H      -0.730931      1.584862     -0.648309
15
Coordinates from ORCA-job scan E -19.192373701350
  C       1.823109     -0.304259      0.749079
  C      -2.424768     -0.851890      0.341027
  C       1.157921      0.595479     -0.284352
  C      -0.323724      0.830269      0.030010
  C      -1.150982     -0.403215     -0.113542
  O      -1.188360     -1.422170      0.804206
  H      -2.404851     -1.170893     -0.648776
  H       2.857119     -0.499240      0.474868
  H       1.296582     -1.251839      0.821016
  H       1.809785      0.167871      1.729265
  H      -3.109756     -0.378168      1.017399
  H       1.666924      1.561529     -0.312209
  H       1.243129      0.144014     -1.274691
  H      -0.412690      1.211729      1.058268
  H      -0.730768      1.584918     -0.648388
15
Coordinates from ORCA-job scan E -19.192374304030
  C       1.823023     -0.304273      0.749102
  C      -2.424990     -0.852161      0.341133
  C       1.157885      0.595498     -0.284340
  C      -0.323767      0.830293      0.029977
  C      -1.150804     -0.403219     -0.113568
  O      -1.188315     -1.422273      0.803831
  H      -2.404652     -1.170989     -0.648718
  H       2.857018     -0.499329      0.474892
  H       1.296432     -1.251818      0.821051
  H       1.809733      0.167867      1.729285
  H      -3.109263     -0.377723      1.017571
  H       1.666866      1.561560     -0.312149
  H       1.243141      0.144062     -1.274689
  H      -0.412807      1.211728      1.058246
  H      -0.730830      1.584913     -0.648442
15
Coordinates from ORCA-job scan E -19.190716896920
  C       1.822180     -0.304591      0.748892
  C      -2.423130     -0.851563      0.340964
  C       1.156686      0.594978     -0.284497
  C      -0.324920      0.829627      0.030143
  C      -1.151787     -0.404036     -0.113089
  O      -1.188231     -1.422904      0.804603
  H      -2.396407     -1.166359     -0.647573
  H       2.856134     -0.499552      0.474461
  H       1.295722     -1.252193      0.821076
  H       1.809063      0.167661      1.729023
  H      -3.108004     -0.376712      1.016505
  H       1.665542      1.561100     -0.312539
  H       1.241765      0.143437     -1.274814
  H      -0.413767      1.211176      1.058386
  H      -0.732177      1.584068     -0.648359
15
Coordinates from ORCA-job scan E -19.190731119310
  C       1.822678     -0.304365      0.748919
  C      -2.424864     -0.852592      0.341689
  C       1.156987      0.594909     -0.284594
  C      -0.324664      0.829476      0.030159
  C      -1.151848     -0.404227     -0.112821
  O      -1.188553     -1.422950      0.805311
  H      -2.396348     -1.164877     -0.649963
  H       2.856586     -0.499383      0.474359
  H       1.296241     -1.251945      0.821472
  H       1.809720      0.168162      1.728913
  H      -3.109635     -0.377371      1.017390
  H       1.665781      1.561066     -0.312904
  H       1.242022      0.143168     -1.274825
  H      -0.413439      1.211124      1.058369
  H      -0.731994      1.583942     -0.648292
15
Coordinates from ORCA-job scan E -19.190735152810
  C       1.822780     -0.304294      0.748915
  C      -2.426142     -0.853537      0.342270
  C       1.157157      0.594959     -0.284655
  C      -0.324459      0.829532      0.030088
  C      -1.151558     -0.404210     -0.112708
  O      -1.188710     -1.422974      0.805372
  H      -2.395961     -1.164332     -0.650822
  H       2.856644     -0.499490      0.474321
  H       1.296195     -1.251787      0.821606
  H       1.809933      0.168343      1.728858
  H      -3.110214     -0.377516      1.017887
  H       1.665924      1.561120     -0.312979
  H       1.242221      0.143189     -1.274878
  H      -0.413290      1.211164      1.058278
  H      -0.731850      1.583970     -0.648374
15
Coordinates from ORCA-job scan E -19.190735794300
  C       1.822701     -0.304304      0.748937
  C      -2.426380     -0.853829      0.342372
  C       1.157119      0.594978     -0.284642
  C      -0.324505      0.829544      0.030061
  C      -1.151369     -0.404233     -0.112715
  O      -1.188683     -1.423093      0.805008
  H      -2.395763     -1.164403     -0.650782
  H       2.856551     -0.499568      0.474342
  H       1.296058     -1.251766      0.821639
  H       1.809886      0.168342      1.728877
  H      -3.109699     -0.377027      1.018046
  H       1.665856      1.561156     -0.312918
  H       1.242232      0.143240     -1.274876
  H      -0.413409      1.211157      1.058260
  H      -0.731925      1.583943     -0.648426
15
Coordinates from ORCA-job scan E -19.189073385820
  C       1.821858     -0.304621      0.748726
  C      -2.424538     -0.853244      0.342198
  C       1.155924      0.594461     -0.284800
  C      -0.325656      0.828879      0.030222
  C      -1.152349     -0.405048     -0.112244
  O      -1.188609     -1.423734      0.805772
  H      -2.387512     -1.159778     -0.649603
  H       2.855669     -0.499789      0.473912
  H       1.295350     -1.252140      0.821659
  H       1.809214      0.168135      1.728615
  H      -3.108436     -0.376007      1.016980
  H       1.664535      1.560698     -0.313305
  H       1.240862      0.142620     -1.275003
  H      -0.414370      1.210605      1.058396
  H      -0.733270      1.583101     -0.648345
15
Coordinates from ORCA-job scan E -19.189087621320
  C       1.822352     -0.304396      0.748753
  C      -2.426271     -0.854280      0.342905
  C       1.156222      0.594393     -0.284896
  C      -0.325405      0.828722      0.030236
  C      -1.152398     -0.405253     -0.111971
  O      -1.188940     -1.423794      0.806479
  H      -2.387451     -1.158266     -0.651982
  H       2.856118     -0.499616      0.473814
  H       1.295866     -1.251895      0.822051
  H       1.809861      0.168633      1.728507
  H      -3.110027     -0.376644      1.017872
  H       1.664766      1.560668     -0.313663
  H       1.241123      0.142354     -1.275014
  H      -0.414049      1.210549      1.058375
  H      -0.733096      1.582962     -0.648285
15
Coordinates from ORCA-job scan E -19.189091753370
  C       1.822460     -0.304319      0.748750
  C      -2.427567     -0.855252      0.343479
  C       1.156389      0.594443     -0.284956
  C      -0.325207      0.828759      0.030169
  C      -1.152090     -0.405265     -0.111833
  O      -1.189116     -1.423844      0.806554
  H      -2.387064     -1.157668     -0.652876
  H       2.856183     -0.499709      0.473775
  H       1.295835     -1.251736      0.822186
  H       1.810077      0.168818      1.728452
  H      -3.110567     -0.376733      1.018368
  H       1.664894      1.560727     -0.313737
  H       1.241322      0.142377     -1.275067
  H      -0.413907      1.210579      1.058285
  H      -0.732973      1.582960     -0.648368
15
Coordinates from ORCA-job scan E -19.189092438440
  C       1.822388     -0.304326      0.748769
  C      -2.427823     -0.855566      0.343576
  C       1.156349      0.594462     -0.284943
  C      -0.325257      0.828759      0.030148
  C      -1.151889     -0.405307     -0.111818
  O      -1.189110     -1.423979      0.806202
  H      -2.386865     -1.157712     -0.652855
  H       2.856098     -0.499776      0.473792
  H       1.295713     -1.251716      0.822216
  H       1.810035      0.168819      1.728470
  H      -3.110029     -0.376197      1.018512
  H       1.664817      1.560768     -0.313674
  H       1.241333      0.142431     -1.275065
  H      -0.414027      1.210567      1.058270
  H      -0.733063      1.582911     -0.648418
15
Coordinates from ORCA-job scan E -19.187426746430
  C       1.821546     -0.304642      0.748557
  C      -2.426001     -0.854995      0.343396
  C       1.155157      0.593948     -0.285101
  C      -0.326406      0.828095      0.030305
  C      -1.152866     -0.406121     -0.111356
  O      -1.189047     -1.424629      0.806957
  H      -2.378609     -1.153094     -0.651639
  H       2.855217     -0.499994      0.473363
  H       1.295005     -1.252090      0.822232
  H       1.809361      0.168611      1.728208
  H      -3.108761     -0.375167      1.017447
  H       1.663498      1.560313     -0.314058
  H       1.239969      0.141816     -1.275193
  H      -0.414989      1.210014      1.058403
  H      -0.734405      1.582072     -0.648340
15
Coordinates from ORCA-job scan E -19.187440986890
  C       1.822035     -0.304417      0.748585
  C      -2.427731     -0.856036      0.344086
  C       1.155452      0.593880     -0.285196
  C      -0.326160      0.827931      0.030317
  C      -1.152902     -0.406339     -0.111076
  O      -1.189387     -1.424703      0.807665
  H      -2.378545     -1.151553     -0.654008
  H       2.855663     -0.499818      0.473269
  H       1.295520     -1.251846      0.822619
  H       1.809999      0.169105      1.728102
  H      -3.110312     -0.375781      1.018344
  H       1.663721      1.560286     -0.314410
  H       1.240232      0.141555     -1.275205
  H      -0.414675      1.209955      1.058378
  H      -0.734241      1.581920     -0.648287
15
Coordinates from ORCA-job scan E -19.187445227790
  C       1.822149     -0.304335      0.748581
  C      -2.429047     -0.857037      0.344651
  C       1.155615      0.593929     -0.285256
  C      -0.325969      0.827950      0.030255
  C      -1.152575     -0.406380     -0.110911
  O      -1.189584     -1.424781      0.807757
  H      -2.378155     -1.150898     -0.654940
  H       2.855736     -0.499896      0.473228
  H       1.295504     -1.251688      0.822754
  H       1.810218      0.169295      1.728046
  H      -3.110810     -0.375811      1.018838
  H       1.663833      1.560351     -0.314483
  H       1.240432      0.141579     -1.275257
  H      -0.414540      1.209974      1.058289
  H      -0.734139      1.581886     -0.648372
15
Coordinates from ORCA-job scan E -19.187445961860
  C       1.822085     -0.304338      0.748598
  C      -2.429322     -0.857374      0.344742
  C       1.155574      0.593949     -0.285241
  C      -0.326024      0.827936      0.030240
  C      -1.152362     -0.406444     -0.110872
  O      -1.189600     -1.424934      0.807418
  H      -2.377955     -1.150913     -0.654939
  H       2.855660     -0.499950      0.473240
  H       1.295398     -1.251668      0.822781
  H       1.810183      0.169298      1.728063
  H      -3.110250     -0.375226      1.018966
  H       1.663745      1.560397     -0.314418
  H       1.240443      0.141635     -1.275256
  H      -0.414661      1.209957      1.058278
  H      -0.734244      1.581813     -0.648420
15
Coordinates from ORCA-job scan E -19.185778759980
  C       1.821244     -0.304653      0.748385
  C      -2.427520     -0.856817      0.344558
  C       1.154385      0.593437     -0.285401
  C      -0.327170      0.827274      0.030393
  C      -1.153336     -0.407255     -0.110420
  O      -1.189548     -1.425593      0.808165
  H      -2.369693     -1.146303     -0.653685
  H       2.854780     -0.500166      0.472813
  H       1.294692     -1.252041      0.822792
  H       1.809506      0.169088      1.727801
  H      -3.108976     -0.374186      1.017902
  H       1.662429      1.559945     -0.314800
  H       1.239085      0.141026     -1.275385
  H      -0.415624      1.209403      1.058407
  H      -0.735583      1.580978     -0.648344
15
Coordinates from ORCA-job scan E -19.185793008650
  C       1.821728     -0.304428      0.748413
  C      -2.429247     -0.857863      0.345229
  C       1.154676      0.593371     -0.285495
  C      -0.326929      0.827103      0.030403
  C      -1.153358     -0.407488     -0.110131
  O      -1.189898     -1.425681      0.808873
  H      -2.369623     -1.144732     -0.656046
  H       2.855223     -0.499987      0.472723
  H       1.295204     -1.251800      0.823175
  H       1.810133      0.169579      1.727696
  H      -3.110485     -0.374777      1.018803
  H       1.662643      1.559921     -0.315145
  H       1.239350      0.140769     -1.275398
  H      -0.415318      1.209340      1.058378
  H      -0.735431      1.580811     -0.648298
15
Coordinates from ORCA-job scan E -19.185797369940
  C       1.821850     -0.304341      0.748408
  C      -2.430585     -0.858892      0.345786
  C       1.154835      0.593418     -0.285554
  C      -0.326746      0.827102      0.030347
  C      -1.153012     -0.407560     -0.109935
  O      -1.190119     -1.425787      0.808985
  H      -2.369228     -1.144018     -0.657019
  H       2.855305     -0.500048      0.472680
  H       1.295206     -1.251642      0.823309
  H       1.810357      0.169774      1.727640
  H      -3.110941     -0.374745      1.019293
  H       1.662739      1.559991     -0.315216
  H       1.239549      0.140794     -1.275450
  H      -0.415189      1.209349      1.058291
  H      -0.735352      1.580744     -0.648383
15
Coordinates from ORCA-job scan E -19.185798159020
  C       1.821794     -0.304340      0.748423
  C      -2.430881     -0.859255      0.345871
  C       1.154792      0.593438     -0.285538
  C      -0.326805      0.827073      0.030338
  C      -1.152785     -0.407647     -0.109871
  O      -1.190160     -1.425957      0.808662
  H      -2.369026     -1.144002     -0.657038
  H       2.855238     -0.500089      0.472686
  H       1.295117     -1.251624      0.823333
  H       1.810328      0.169778      1.727655
  H      -3.110358     -0.374108      1.019402
  H       1.662640      1.560043     -0.315150
  H       1.239560      0.140853     -1.275449
  H      -0.415311      1.209327      1.058285
  H      -0.735474      1.580645     -0.648429
15
Coordinates from ORCA-job scan E -19.184131284280
  C       1.820953     -0.304654      0.748209
  C      -2.429100     -0.858711      0.345680
  C       1.153607      0.592930     -0.285698
  C      -0.327949      0.826414      0.030486
  C      -1.153757     -0.408455     -0.109429
  O      -1.190120     -1.426625      0.809399
  H      -2.360757     -1.139403     -0.655746
  H       2.854359     -0.500303      0.472260
  H       1.294411     -1.251996      0.823339
  H       1.809648      0.169567      1.727393
  H      -3.109078     -0.373057      1.018341
  H       1.661327      1.559595     -0.315528
  H       1.238208      0.140250     -1.275580
  H      -0.416274      1.208772      1.058410
  H      -0.736809      1.579814     -0.648355
15
Coordinates from ORCA-job scan E -19.184145538180
  C       1.821432     -0.304430      0.748237
  C      -2.430822     -0.859761      0.346333
  C       1.153894      0.592864     -0.285791
  C      -0.327714      0.826234      0.030495
  C      -1.153764     -0.408703     -0.109131
  O      -1.190480     -1.426727      0.810110
  H      -2.360680     -1.137801     -0.658099
  H       2.854799     -0.500120      0.472174
  H       1.294922     -1.251757      0.823717
  H       1.810266      0.170053      1.727290
  H      -3.110544     -0.373624      1.019245
  H       1.661531      1.559574     -0.315867
  H       1.238475      0.139997     -1.275593
  H      -0.415977      1.208706      1.058378
  H      -0.736668      1.579632     -0.648316
15
Coordinates from ORCA-job scan E -19.184150032530
  C       1.821562     -0.304338      0.748231
  C      -2.432184     -0.860820      0.346880
  C       1.154048      0.592910     -0.285850
  C      -0.327539      0.826213      0.030446
  C      -1.153398     -0.408807     -0.108901
  O      -1.190728     -1.426862      0.810244
  H      -2.360278     -1.137024     -0.659117
  H       2.854891     -0.500164      0.472127
  H       1.294943     -1.251600      0.823851
  H       1.810494      0.170253      1.727233
  H      -3.110959     -0.373528      1.019730
  H       1.661610      1.559649     -0.315938
  H       1.238674      0.140023     -1.275646
  H      -0.415853      1.208704      1.058293
  H      -0.736613      1.579529     -0.648402
15
Coordinates from ORCA-job scan E -19.184150883450
  C       1.821516     -0.304332      0.748243
  C      -2.432503     -0.861209      0.346959
  C       1.154004      0.592931     -0.285833
  C      -0.327603      0.826168      0.030445
  C      -1.153156     -0.408919     -0.108809
  O      -1.190796     -1.427050      0.809940
  H      -2.360072     -1.136976     -0.659158
  H       2.854834     -0.500190      0.472128
  H       1.294873     -1.251582      0.823871
  H       1.810473      0.170259      1.727246
  H      -3.110352     -0.372834      1.019817
  H       1.661498      1.559706     -0.315870
  H       1.238684      0.140086     -1.275645
  H      -0.415975      1.208676      1.058292
  H      -0.736754      1.579402     -0.648444
15
Coordinates from ORCA-job scan E -19.182486221910
  C       1.820675     -0.304645      0.748028
  C      -2.430743     -0.860679      0.346761
  C       1.152821      0.592426     -0.285994
  C      -0.328744      0.825511      0.030588
  C      -1.154125     -0.409724     -0.108378
  O      -1.190769     -1.427728      0.810667
  H      -2.351796     -1.132389     -0.657825
  H       2.853956     -0.500403      0.471704
  H       1.294167     -1.251954      0.823871
  H       1.809789      0.170046      1.726984
  H      -3.109065     -0.371773      1.018758
  H       1.660188      1.559262     -0.316244
  H       1.237339      0.139489     -1.275777
  H      -0.416940      1.208120      1.058412
  H      -0.738085      1.578576     -0.648374
15
Coordinates from ORCA-job scan E -19.182500477790
  C       1.821149     -0.304422      0.748056
  C      -2.432460     -0.861732      0.347395
  C       1.153104      0.592361     -0.286086
  C      -0.328516      0.825324      0.030596
  C      -1.154117     -0.409987     -0.108069
  O      -1.191140     -1.427844      0.811380
  H      -2.351710     -1.130756     -0.660170
  H       2.854393     -0.500215      0.471621
  H       1.294676     -1.251718      0.824243
  H       1.810397      0.170528      1.726882
  H      -3.110487     -0.372315      1.019665
  H       1.660383      1.559244     -0.316577
  H       1.237605      0.139241     -1.275791
  H      -0.416650      1.208051      1.058377
  H      -0.737957      1.578378     -0.648342
15
Coordinates from ORCA-job scan E -19.182505119200
  C       1.821288     -0.304323      0.748048
  C      -2.433848     -0.862821      0.347932
  C       1.153254      0.592405     -0.286144
  C      -0.328349      0.825280      0.030554
  C      -1.153730     -0.410126     -0.107803
  O      -1.191417     -1.428008      0.811540
  H      -2.351298     -1.129914     -0.661237
  H       2.854495     -0.500241      0.471570
  H       1.294718     -1.251562      0.824376
  H       1.810631      0.170732      1.726824
  H      -3.110860     -0.372152      1.020143
  H       1.660443      1.559325     -0.316646
  H       1.237804      0.139267     -1.275844
  H      -0.416531      1.208038      1.058295
  H      -0.737928      1.578237     -0.648427
15
Coordinates from ORCA-job scan E -19.182506039640
  C       1.821251     -0.304313      0.748056
  C      -2.434192     -0.863240      0.348004
  C       1.153207      0.592427     -0.286127
  C      -0.328418      0.825219      0.030562
  C      -1.153472     -0.410264     -0.107680
  O      -1.191516     -1.428215      0.811257
  H      -2.351087     -1.129830     -0.661300
  H       2.854449     -0.500251      0.471563
  H       1.294668     -1.251546      0.824391
  H       1.810617      0.170740      1.726836
  H      -3.110228     -0.371398      1.020204
  H       1.660318      1.559389     -0.316576
  H       1.237813      0.139335     -1.275843
  H      -0.416654      1.208004      1.058300
  H      -0.738088      1.578080     -0.648466
15
Coordinates from ORCA-job scan E -19.180845509050
  C       1.820411     -0.304626      0.747840
  C      -2.432455     -0.862724      0.347800
  C       1.152029      0.591926     -0.286288
  C      -0.329556      0.824565      0.030700
  C      -1.154438     -0.411065     -0.107260
  O      -1.191502     -1.428901      0.811973
  H      -2.342803     -1.125258     -0.659926
  H       2.853573     -0.500462      0.471141
  H       1.293963     -1.251917      0.824385
  H       1.809931      0.170525      1.726573
  H      -3.108933     -0.370327      1.019149
  H       1.659012      1.558948     -0.316947
  H       1.236475      0.138744     -1.275978
  H      -0.417620      1.207448      1.058416
  H      -0.739416      1.577260     -0.648398
15
Coordinates from ORCA-job scan E -19.180859763440
  C       1.820880     -0.304403      0.747868
  C      -2.434165     -0.863777      0.348413
  C       1.152306      0.591861     -0.286379
  C      -0.329335      0.824369      0.030708
  C      -1.154415     -0.411344     -0.106940
  O      -1.191885     -1.429032      0.812691
  H      -2.342706     -1.123594     -0.662264
  H       2.854006     -0.500270      0.471061
  H       1.294470     -1.251684      0.824752
  H       1.810527      0.171002      1.726473
  H      -3.110311     -0.370843      1.020058
  H       1.659196      1.558933     -0.317273
  H       1.236741      0.138500     -1.275992
  H      -0.417338      1.207376      1.058378
  H      -0.739301      1.577044     -0.648373
15
Coordinates from ORCA-job scan E -19.180864567360
  C       1.821028     -0.304299      0.747858
  C      -2.435580     -0.864898      0.348940
  C       1.152452      0.591903     -0.286437
  C      -0.329177      0.824302      0.030674
  C      -1.154006     -0.411519     -0.106633
  O      -1.192195     -1.429226      0.812880
  H      -2.342282     -1.122683     -0.663382
  H       2.854119     -0.500277      0.471004
  H       1.294534     -1.251529      0.824883
  H       1.810768      0.171211      1.726412
  H      -3.110642     -0.370610      1.020526
  H       1.659237      1.559020     -0.317342
  H       1.236938      0.138527     -1.276045
  H      -0.417224      1.207351      1.058300
  H      -0.739300      1.576863     -0.648457
15
Coordinates from ORCA-job scan E -19.180865565960
  C       1.821003     -0.304283      0.747862
  C      -2.435953     -0.865347      0.349005
  C       1.152403      0.591925     -0.286418
  C      -0.329250      0.824223      0.030691
  C      -1.153730     -0.411686     -0.106477
  O      -1.192326     -1.429452      0.812622
  H      -2.342063     -1.122562     -0.663470
  H       2.854085     -0.500269      0.470990
  H       1.294507     -1.251515      0.824893
  H       1.810763      0.171219      1.726422
  H      -3.109985     -0.369792      1.020559
  H       1.659097      1.559091     -0.317270
  H       1.236946      0.138599     -1.276046
  H      -0.417346      1.207310      1.058310
  H      -0.739480      1.576674     -0.648492
15
Coordinates from ORCA-job scan E -19.179211103390
  C       1.820162     -0.304595      0.747644
  C      -2.434239     -0.864845      0.348793
  C       1.151228      0.591428     -0.286581
  C      -0.330386      0.823572      0.030824
  C      -1.154694     -0.412483     -0.106069
  O      -1.192326     -1.430147      0.813327
  H      -2.333771     -1.118006     -0.662052
  H       2.853210     -0.500479      0.470570
  H       1.293801     -1.251885      0.824881
  H       1.810073      0.171002      1.726160
  H      -3.108682     -0.368711      1.019508
  H       1.657795      1.558655     -0.317636
  H       1.235616      0.138016     -1.276182
  H      -0.418313      1.206754      1.058422
  H      -0.740804      1.575860     -0.648427
15
Coordinates from ORCA-job scan E -19.179225352530
  C       1.820626     -0.304374      0.747672
  C      -2.435941     -0.865898      0.349386
  C       1.151500      0.591363     -0.286671
  C      -0.330172      0.823368      0.030831
  C      -1.154656     -0.412777     -0.105736
  O      -1.192722     -1.430292      0.814050
  H      -2.333662     -1.116311     -0.664383
  H       2.853639     -0.500282      0.470492
  H       1.294308     -1.251657      0.825241
  H       1.810659      0.171474      1.726060
  H      -3.110015     -0.369200      1.020417
  H       1.657967      1.558642     -0.317956
  H       1.235881      0.137776     -1.276197
  H      -0.418039      1.206678      1.058381
  H      -0.740704      1.575626     -0.648408
15
Coordinates from ORCA-job scan E -19.179230336450
  C       1.820786     -0.304263      0.747659
  C      -2.437388     -0.867051      0.349902
  C       1.151640      0.591404     -0.286727
  C      -0.330024      0.823275      0.030808
  C      -1.154224     -0.412993     -0.105385
  O      -1.193071     -1.430515      0.814275
  H      -2.333220     -1.115329     -0.665558
  H       2.853766     -0.500267      0.470428
  H       1.294398     -1.251503      0.825370
  H       1.810909      0.171688      1.725998
  H      -3.110307     -0.368891      1.020870
  H       1.657987      1.558736     -0.318025
  H       1.236076      0.137805     -1.276251
  H      -0.417929      1.206641      1.058308
  H      -0.740732      1.575401     -0.648491
15
Coordinates from ORCA-job scan E -19.179231422490
  C       1.820772     -0.304243      0.747658
  C      -2.437790     -0.867532      0.349958
  C       1.151589      0.591427     -0.286708
  C      -0.330102      0.823177      0.030835
  C      -1.153928     -0.413190     -0.105193
  O      -1.193236     -1.430761      0.814044
  H      -2.332992     -1.115169     -0.665671
  H       2.853745     -0.500241      0.470405
  H       1.294394     -1.251491      0.825372
  H       1.810913      0.171696      1.726005
  H      -3.109623     -0.368004      1.020871
  H       1.657832      1.558814     -0.317949
  H       1.236082      0.137882     -1.276252
  H      -0.418051      1.206593      1.058325
  H      -0.740935      1.575178     -0.648520
15
Coordinates from ORCA-job scan E -19.177584961060
  C       1.819931     -0.304554      0.747439
  C      -2.436100     -0.867043      0.349739
  C       1.150418      0.590935     -0.286871
  C      -0.331235      0.822529      0.030962
  C      -1.154889     -0.413982     -0.104797
  O      -1.193252     -1.431464      0.814737
  H      -2.324690     -1.110632     -0.664206
  H       2.852870     -0.500449      0.469987
  H       1.293688     -1.251861      0.825353
  H       1.810218      0.171477      1.725742
  H      -3.108311     -0.366914      1.019826
  H       1.656534      1.558382     -0.318311
  H       1.234760      0.137306     -1.276390
  H      -0.419019      1.206037      1.058432
  H      -0.742253      1.574370     -0.648459
15
Coordinates from ORCA-job scan E -19.177599201430
  C       1.820390     -0.304334      0.747466
  C      -2.437793     -0.868094      0.350311
  C       1.150685      0.590869     -0.286960
  C      -0.331029      0.822316      0.030970
  C      -1.154836     -0.414293     -0.104449
  O      -1.193662     -1.431623      0.815468
  H      -2.324567     -1.108906     -0.666531
  H       2.853297     -0.500248      0.469911
  H       1.294194     -1.251636      0.825707
  H       1.810793      0.171943      1.725644
  H      -3.109599     -0.367376      1.020733
  H       1.656695      1.558373     -0.318625
  H       1.235024      0.137070     -1.276406
  H      -0.418752      1.205958      1.058388
  H      -0.742168      1.574118     -0.648447
15
Coordinates from ORCA-job scan E -19.177604383670
  C       1.820562     -0.304216      0.747449
  C      -2.439273     -0.869280      0.350816
  C       1.150819      0.590908     -0.287016
  C      -0.330890      0.822196      0.030957
  C      -1.154380     -0.414550     -0.104052
  O      -1.194051     -1.431876      0.815730
  H      -2.324105     -1.107848     -0.667767
  H       2.853437     -0.500210      0.469839
  H       1.294311     -1.251484      0.825833
  H       1.811052      0.172162      1.725579
  H      -3.109848     -0.366990      1.021172
  H       1.656693      1.558473     -0.318693
  H       1.235215      0.137100     -1.276460
  H      -0.418647      1.205908      1.058321
  H      -0.742227      1.573847     -0.648526
15
Coordinates from ORCA-job scan E -19.177605568120
  C       1.820561     -0.304191      0.747444
  C      -2.439707     -0.869796      0.350864
  C       1.150765      0.590932     -0.286996
  C      -0.330975      0.822077      0.030996
  C      -1.154064     -0.414779     -0.103821
  O      -1.194255     -1.432142      0.815529
  H      -2.323866     -1.107646     -0.667907
  H       2.853431     -0.500164      0.469807
  H       1.294334     -1.251475      0.825828
  H       1.811066      0.172171      1.725583
  H      -3.109138     -0.366031      1.021136
  H       1.656521      1.558559     -0.318616
  H       1.235220      0.137183     -1.276462
  H      -0.418768      1.205852      1.058346
  H      -0.742455      1.573587     -0.648551
15
Coordinates from ORCA-job scan E -19.175969025000
  C       1.819719     -0.304502      0.747223
  C      -2.438043     -0.869319      0.350635
  C       1.149599      0.590444     -0.287160
  C      -0.332104      0.821433      0.031116
  C      -1.155022     -0.415566     -0.103439
  O      -1.194286     -1.432854      0.816210
  H      -2.315555     -1.103130     -0.666394
  H       2.852556     -0.500371      0.469391
  H       1.293626     -1.251844      0.825803
  H       1.810367      0.171949      1.725321
  H      -3.107816     -0.364931      1.020097
  H       1.655228      1.558131     -0.318973
  H       1.233905      0.136615     -1.276602
  H      -0.419737      1.205296      1.058447
  H      -0.743768      1.572786     -0.648493
15
Coordinates from ORCA-job scan E -19.175983246460
  C       1.820173     -0.304282      0.747249
  C      -2.439725     -0.870368      0.351186
  C       1.149859      0.590378     -0.287248
  C      -0.331906      0.821211      0.031125
  C      -1.154953     -0.415894     -0.103076
  O      -1.194712     -1.433026      0.816948
  H      -2.315416     -1.101373     -0.668713
  H       2.852980     -0.500165      0.469317
  H       1.294132     -1.251624      0.826149
  H       1.810931      0.172409      1.725224
  H      -3.109059     -0.365365      1.021001
  H       1.655376      1.558124     -0.319280
  H       1.234167      0.136383     -1.276619
  H      -0.419478      1.205213      1.058402
  H      -0.743699      1.572515     -0.648486
15
Coordinates from ORCA-job scan E -19.175988652960
  C       1.820359     -0.304158      0.747228
  C      -2.441241     -0.871587      0.351679
  C       1.149988      0.590415     -0.287304
  C      -0.331778      0.821063      0.031124
  C      -1.154472     -0.416194     -0.102627
  O      -1.195146     -1.433310      0.817253
  H      -2.314928     -1.100237     -0.670014
  H       2.853136     -0.500103      0.469236
  H       1.294279     -1.251475      0.826272
  H       1.811201      0.172632      1.725156
  H      -3.109267     -0.364899      1.021422
  H       1.655350      1.558231     -0.319349
  H       1.234355      0.136414     -1.276674
  H      -0.419375      1.205150      1.058341
  H      -0.743791      1.572195     -0.648562
15
Coordinates from ORCA-job scan E -19.175989947890
  C       1.820371     -0.304128      0.747217
  C      -2.441712     -0.872138      0.351717
  C       1.149931      0.590440     -0.287282
  C      -0.331868      0.820922      0.031176
  C      -1.154134     -0.416459     -0.102354
  O      -1.195393     -1.433596      0.817087
  H      -2.314675     -1.099991     -0.670182
  H       2.853145     -0.500035      0.469193
  H       1.294331     -1.251469      0.826258
  H       1.811226      0.172641      1.725156
  H      -3.108530     -0.363860      1.021345
  H       1.655161      1.558326     -0.319268
  H       1.234358      0.136504     -1.276677
  H      -0.419496      1.205084      1.058375
  H      -0.744044      1.571895     -0.648580
15
Coordinates from ORCA-job scan E -19.174365221160
  C       1.819529     -0.304437      0.746995
  C      -2.440073     -0.871674      0.351480
  C       1.148769      0.589956     -0.287447
  C      -0.332995      0.820282      0.031289
  C      -1.155090     -0.417240     -0.101987
  O      -1.195440     -1.434315      0.817754
  H      -2.306354     -1.095499     -0.668618
  H       2.852271     -0.500241      0.468779
  H       1.293622     -1.251837      0.826225
  H       1.810522      0.172416      1.724894
  H      -3.107198     -0.362752      1.020313
  H       1.653873      1.557902     -0.319620
  H       1.233052      0.135944     -1.276820
  H      -0.420465      1.204529      1.058470
  H      -0.745352      1.571103     -0.648526
15
Coordinates from ORCA-job scan E -19.174379424400
  C       1.819978     -0.304219      0.747020
  C      -2.441744     -0.872717      0.352010
  C       1.149022      0.589891     -0.287534
  C      -0.332805      0.820050      0.031300
  C      -1.155006     -0.417586     -0.101607
  O      -1.195882     -1.434500      0.818502
  H      -2.306197     -1.093710     -0.670930
  H       2.852691     -0.500029      0.468706
  H       1.294128     -1.251622      0.826564
  H       1.811076      0.172870      1.724798
  H      -3.108396     -0.363157      1.021212
  H       1.654007      1.557899     -0.319921
  H       1.233311      0.135715     -1.276837
  H      -0.420214      1.204443      1.058424
  H      -0.745300      1.570811     -0.648525
15
Coordinates from ORCA-job scan E -19.174385071080
  C       1.820178     -0.304088      0.746994
  C      -2.443299     -0.873970      0.352490
  C       1.149145      0.589925     -0.287589
  C      -0.332687      0.819873      0.031312
  C      -1.154499     -0.417932     -0.101103
  O      -1.196365     -1.434816      0.818855
  H      -2.305678     -1.092494     -0.672302
  H       2.852863     -0.499941      0.468615
  H       1.294307     -1.251475      0.826683
  H       1.811357      0.173097      1.724726
  H      -3.108563     -0.362606      1.021610
  H       1.653957      1.558013     -0.319990
  H       1.233495      0.135747     -1.276893
  H      -0.420114      1.204364      1.058370
  H      -0.745426      1.570440     -0.648596
15
Coordinates from ORCA-job scan E -19.174386488850
  C       1.820206     -0.304052      0.746975
  C      -2.443808     -0.874558      0.352518
  C       1.149085      0.589951     -0.287566
  C      -0.332784      0.819707      0.031378
  C      -1.154138     -0.418235     -0.100785
  O      -1.196658     -1.435121      0.818728
  H      -2.305409     -1.092202     -0.672498
  H       2.852890     -0.499850      0.468558
  H       1.294390     -1.251473      0.826658
  H       1.811395      0.173106      1.724723
  H      -3.107799     -0.361484      1.021487
  H       1.653749      1.558117     -0.319905
  H       1.233494      0.135845     -1.276898
  H      -0.420234      1.204289      1.058414
  H      -0.745708      1.570098     -0.648606
15
Coordinates from ORCA-job scan E -19.172775490310
  C       1.819363     -0.304361      0.746752
  C      -2.442195     -0.874107      0.352270
  C       1.147927      0.589472     -0.287732
  C      -0.333907      0.819073      0.031484
  C      -1.155091     -0.419008     -0.100433
  O      -1.196723     -1.435848      0.819382
  H      -2.297077     -1.087737     -0.670882
  H       2.852016     -0.500055      0.468147
  H       1.293679     -1.251840      0.826617
  H       1.810685      0.172877      1.724460
  H      -3.106457     -0.360369      1.020464
  H       1.652466      1.557698     -0.320253
  H       1.232198      0.135294     -1.277043
  H      -0.421204      1.203735      1.058504
  H      -0.747009      1.569314     -0.648556
15
Coordinates from ORCA-job scan E -19.172789672080
  C       1.819807     -0.304145      0.746775
  C      -2.443853     -0.875143      0.352778
  C       1.148173      0.589406     -0.287818
  C      -0.333726      0.818830      0.031497
  C      -1.154991     -0.419373     -0.100034
  O      -1.197183     -1.436045      0.820141
  H      -2.296900     -1.085917     -0.673188
  H       2.852433     -0.499837      0.468075
  H       1.294186     -1.251631      0.826949
  H       1.811229      0.173325      1.724365
  H      -3.107610     -0.360744      1.021354
  H       1.652586      1.557697     -0.320548
  H       1.232452      0.135069     -1.277061
  H      -0.420960      1.203644      1.058456
  H      -0.746974      1.569001     -0.648560
15
Coordinates from ORCA-job scan E -19.172795583350
  C       1.820024     -0.304006      0.746743
  C      -2.445450     -0.876429      0.353245
  C       1.148289      0.589438     -0.287873
  C      -0.333620      0.818621      0.031525
  C      -1.154457     -0.419768     -0.099472
  O      -1.197721     -1.436391      0.820548
  H      -2.296345     -1.084617     -0.674634
  H       2.852623     -0.499722      0.467970
  H       1.294401     -1.251487      0.827062
  H       1.811524      0.173557      1.724289
  H      -3.107738     -0.360103      1.021726
  H       1.652509      1.557818     -0.320617
  H       1.232630      0.135103     -1.277119
  H      -0.420862      1.203549      1.058411
  H      -0.747138      1.568575     -0.648624
15
Coordinates from ORCA-job scan E -19.172797137720
  C       1.820068     -0.303965      0.746717
  C      -2.446001     -0.877056      0.353262
  C       1.148226      0.589465     -0.287848
  C      -0.333723      0.818429      0.031605
  C      -1.154071     -0.420111     -0.099105
  O      -1.198064     -1.436714      0.820466
  H      -2.296055     -1.084279     -0.674862
  H       2.852668     -0.499605      0.467900
  H       1.294517     -1.251489      0.827025
  H       1.811574      0.173563      1.724281
  H      -3.106948     -0.358893      1.021551
  H       1.652281      1.557932     -0.320528
  H       1.232627      0.135208     -1.277125
  H      -0.420980      1.203463      1.058467
  H      -0.747449      1.568188     -0.648626
15
Coordinates from ORCA-job scan E -19.171201878060
  C       1.819224     -0.304273      0.746492
  C      -2.444416     -0.876616      0.353004
  C       1.147074      0.588992     -0.288015
  C      -0.334842      0.817801      0.031704
  C      -1.155022     -0.420876     -0.098769
  O      -1.198147     -1.437448      0.821104
  H      -2.287712     -1.079843     -0.673189
  H       2.851794     -0.499810      0.467492
  H       1.293804     -1.251856      0.826977
  H       1.810860      0.173332      1.724019
  H      -3.105595     -0.357772      1.020536
  H       1.651004      1.557518     -0.320870
  H       1.231339      0.134666     -1.277273
  H      -0.421951      1.202910      1.058550
  H      -0.748744      1.567414     -0.648580
15
Coordinates from ORCA-job scan E -19.171216033920
  C       1.819664     -0.304059      0.746513
  C      -2.446059     -0.877643      0.353489
  C       1.147311      0.588924     -0.288100
  C      -0.334671      0.817547      0.031720
  C      -1.154907     -0.421259     -0.098352
  O      -1.198625     -1.437656      0.821877
  H      -2.287512     -1.077993     -0.675490
  H       2.852209     -0.499586      0.467419
  H       1.294313     -1.251652      0.827300
  H       1.811394      0.173772      1.723924
  H      -3.106703     -0.358117      1.021416
  H       1.651109      1.557519     -0.321159
  H       1.231589      0.134446     -1.277292
  H      -0.421715      1.202815      1.058503
  H      -0.748727      1.567079     -0.648587
15
Coordinates from ORCA-job scan E -19.171222235850
  C       1.819898     -0.303913      0.746474
  C      -2.447701     -0.878964      0.353943
  C       1.147420      0.588954     -0.288154
  C      -0.334576      0.817304      0.031765
  C      -1.154344     -0.421706     -0.097725
  O      -1.199223     -1.438031      0.822344
  H      -2.286912     -1.076607     -0.677016
  H       2.852418     -0.499441      0.467299
  H       1.294566     -1.251513      0.827407
  H       1.811704      0.174007      1.723842
  H      -3.106794     -0.357382      1.021755
  H       1.651004      1.557648     -0.321229
  H       1.231760      0.134481     -1.277351
  H      -0.421618      1.202703      1.058469
  H      -0.748931      1.566597     -0.648643
15
Coordinates from ORCA-job scan E -19.171223941190
  C       1.819960     -0.303865      0.746439
  C      -2.448296     -0.879629      0.353948
  C       1.147353      0.588982     -0.288128
  C      -0.334688      0.817086      0.031863
  C      -1.153932     -0.422093     -0.097305
  O      -1.199620     -1.438372      0.822313
  H      -2.286598     -1.076221     -0.677275
  H       2.852483     -0.499298      0.467213
  H       1.294718     -1.251520      0.827357
  H       1.811769      0.174012      1.723829
  H      -3.105978     -0.356078      1.021522
  H       1.650754      1.557773     -0.321137
  H       1.231752      0.134595     -1.277359
  H      -0.421733      1.202603      1.058537
  H      -0.749273      1.566162     -0.648634
15
Coordinates from ORCA-job scan E -19.169646668700
  C       1.819114     -0.304174      0.746212
  C      -2.446740     -0.879200      0.353679
  C       1.146206      0.588514     -0.288297
  C      -0.335802      0.816464      0.031954
  C      -1.154880     -0.422849     -0.096987
  O      -1.199723     -1.439113      0.822935
  H      -2.278243     -1.071817     -0.675544
  H       2.851609     -0.499503      0.466807
  H       1.294002     -1.251886      0.827299
  H       1.811049      0.173777      1.723568
  H      -3.104615     -0.354954      1.020517
  H       1.649483      1.557363     -0.321473
  H       1.230474      0.134063     -1.277509
  H      -0.422705      1.202053      1.058613
  H      -0.750560      1.565398     -0.648593
15
Coordinates from ORCA-job scan E -19.169660794160
  C       1.819549     -0.303961      0.746231
  C      -2.448366     -0.880217      0.354141
  C       1.146434      0.588446     -0.288381
  C      -0.335640      0.816199      0.031974
  C      -1.154749     -0.423250     -0.096549
  O      -1.200219     -1.439330      0.823723
  H      -2.278017     -1.069939     -0.677838
  H       2.852020     -0.499272      0.466732
  H       1.294512     -1.251689      0.827614
  H       1.811573      0.174209      1.723473
  H      -3.105680     -0.355267      1.021382
  H       1.649573      1.557367     -0.321756
  H       1.230717      0.133846     -1.277529
  H      -0.422476      1.201953      1.058567
  H      -0.750563      1.565042     -0.648603
15
Coordinates from ORCA-job scan E -19.169667314520
  C       1.819802     -0.303807      0.746184
  C      -2.450056     -0.881570      0.354580
  C       1.146534      0.588472     -0.288434
  C      -0.335559      0.815922      0.032039
  C      -1.154156     -0.423752     -0.095853
  O      -1.200882     -1.439732      0.824260
  H      -2.277363     -1.068466     -0.679450
  H       2.852251     -0.499097      0.466595
  H       1.294807     -1.251553      0.827714
  H       1.811901      0.174448      1.723384
  H      -3.105736     -0.354434      1.021682
  H       1.649438      1.557504     -0.321827
  H       1.230878      0.133882     -1.277590
  H      -0.422379      1.201823      1.058546
  H      -0.750809      1.564499     -0.648647
15
Coordinates from ORCA-job scan E -19.169669185430
  C       1.819884     -0.303754      0.746138
  C      -2.450698     -0.882275      0.354571
  C       1.146463      0.588502     -0.288406
  C      -0.335678      0.815674      0.032155
  C      -1.153716     -0.424183     -0.095377
  O      -1.201339     -1.440089      0.824285
  H      -2.277019     -1.068033     -0.679742
  H       2.852336     -0.498925      0.466490
  H       1.294998     -1.251567      0.827649
  H       1.811983      0.174450      1.723366
  H      -3.104897     -0.353032      1.021382
  H       1.649164      1.557639     -0.321731
  H       1.230865      0.134006     -1.277600
  H      -0.422491      1.201709      1.058629
  H      -0.751185      1.564015     -0.648626
15
Coordinates from ORCA-job scan E -19.168112545600
  C       1.819037     -0.304062      0.745909
  C      -2.449171     -0.881856      0.354290
  C       1.145321      0.588040     -0.288576
  C      -0.336788      0.815059      0.032238
  C      -1.154662     -0.424929     -0.095076
  O      -1.201462     -1.440835      0.824891
  H      -2.268652     -1.063664     -0.677950
  H       2.851462     -0.499131      0.466087
  H       1.294279     -1.251931      0.827582
  H       1.811256      0.174210      1.723104
  H      -3.103523     -0.351905      1.020388
  H       1.647902      1.557235     -0.322061
  H       1.229597      0.133484     -1.277753
  H      -0.423463      1.201161      1.058699
  H      -0.752464      1.563263     -0.648590
15
Coordinates from ORCA-job scan E -19.168126636580
  C       1.819465     -0.303853      0.745925
  C      -2.450777     -0.882860      0.354730
  C       1.145540      0.587970     -0.288659
  C      -0.336636      0.814785      0.032262
  C      -1.154514     -0.425349     -0.094617
  O      -1.201974     -1.441059      0.825697
  H      -2.268394     -1.061758     -0.680237
  H       2.851869     -0.498895      0.466010
  H       1.294789     -1.251742      0.827888
  H       1.811770      0.174634      1.723009
  H      -3.104546     -0.352188      1.021235
  H       1.647975      1.557240     -0.322339
  H       1.229831      0.133270     -1.277775
  H      -0.423241      1.201057      1.058654
  H      -0.752487      1.562884     -0.648602
15
Coordinates from ORCA-job scan E -19.168133504620
  C       1.819739     -0.303691      0.745868
  C      -2.452519     -0.884247      0.355153
  C       1.145630      0.587993     -0.288712
  C      -0.336569      0.814470      0.032350
  C      -1.153890     -0.425907     -0.093847
  O      -1.202709     -1.441486      0.826312
  H      -2.267675     -1.060199     -0.681942
  H       2.852121     -0.498687      0.465851
  H       1.295128     -1.251612      0.827979
  H       1.812118      0.174876      1.722912
  H      -3.104570     -0.351251      1.021486
  H       1.647807      1.557384     -0.322413
  H       1.229979      0.133308     -1.277837
  H      -0.423143      1.200907      1.058650
  H      -0.752778      1.562279     -0.648631
15
Coordinates from ORCA-job scan E -19.168135555270
  C       1.819842     -0.303632      0.745811
  C      -2.453210     -0.884991      0.355129
  C       1.145554      0.588024     -0.288682
  C      -0.336695      0.814193      0.032487
  C      -1.153422     -0.426386     -0.093310
  O      -1.203230     -1.441856      0.826401
  H      -2.267296     -1.059720     -0.682267
  H       2.852230     -0.498486      0.465725
  H       1.295362     -1.251631      0.827897
  H       1.812219      0.174874      1.722887
  H      -3.103711     -0.349746      1.021111
  H       1.647510      1.557531     -0.322312
  H       1.229959      0.133442     -1.277850
  H      -0.423251      1.200778      1.058749
  H      -0.753190      1.561743     -0.648594
15
Coordinates from ORCA-job scan E -19.168137541080
  C       1.820008     -0.303543      0.745708
  C      -2.453962     -0.886014      0.354800
  C       1.145347      0.588068     -0.288582
  C      -0.337019      0.813618      0.032783
  C      -1.152731     -0.427358     -0.092426
  O      -1.204133     -1.442499      0.826535
  H      -2.266928     -1.059131     -0.682448
  H       2.852443     -0.497994      0.465526
  H       1.295887     -1.251761      0.827638
  H       1.812286      0.174767      1.722880
  H      -3.101782     -0.346771      1.020174
  H       1.646892      1.557791     -0.322062
  H       1.229839      0.133701     -1.277836
  H      -0.423476      1.200558      1.058970
  H      -0.754001      1.560706     -0.648479
15
Coordinates from ORCA-job scan E -19.168138023600
  C       1.820108     -0.303513      0.745637
  C      -2.454085     -0.886315      0.354510
  C       1.145239      0.588091     -0.288516
  C      -0.337192      0.813292      0.032951
  C      -1.152520     -0.427904     -0.092036
  O      -1.204589     -1.442721      0.826833
  H      -2.266918     -1.058945     -0.682462
  H       2.852599     -0.497647      0.465441
  H       1.296255     -1.251897      0.827393
  H       1.812249      0.174625      1.722892
  H      -3.100878     -0.345344      1.019590
  H       1.646582      1.557919     -0.321900
  H       1.229759      0.133855     -1.277826
  H      -0.423540      1.200476      1.059075
  H      -0.754398      1.560163     -0.648403
15
Coordinates from ORCA-job scan E -19.166597804830
  C       1.819288     -0.303859      0.745402
  C      -2.451917     -0.884970      0.354129
  C       1.144173      0.587627     -0.288692
  C      -0.338265      0.812585      0.032915
  C      -1.153400     -0.428747     -0.091987
  O      -1.204514     -1.443037      0.827259
  H      -2.259030     -1.054739     -0.679771
  H       2.851784     -0.497824      0.465108
  H       1.295599     -1.252329      0.827213
  H       1.811443      0.174284      1.722655
  H      -3.100279     -0.344936      1.018446
  H       1.645352      1.557538     -0.322130
  H       1.228673      0.133400     -1.278007
  H      -0.424579      1.199761      1.059045
  H      -0.755659      1.559383     -0.648404
15
Coordinates from ORCA-job scan E -19.166616878730
  C       1.819734     -0.303750      0.745257
  C      -2.453667     -0.885683      0.354733
  C       1.144549      0.587695     -0.288819
  C      -0.337879      0.812707      0.032966
  C      -1.153546     -0.428647     -0.091684
  O      -1.205272     -1.442870      0.828764
  H      -2.258091     -1.054284     -0.681880
  H       2.852180     -0.497814      0.464841
  H       1.295975     -1.252162      0.827249
  H       1.812051      0.174489      1.722456
  H      -3.102856     -0.346055      1.019040
  H       1.645809      1.557565     -0.322378
  H       1.228930      0.133400     -1.278123
  H      -0.424001      1.199937      1.059061
  H      -0.755246      1.559608     -0.648303
15
Coordinates from ORCA-job scan E -19.166623612120
  C       1.819856     -0.303778      0.745072
  C      -2.455087     -0.886524      0.355328
  C       1.144721      0.587772     -0.288945
  C      -0.337594      0.812896      0.033024
  C      -1.153226     -0.428426     -0.091056
  O      -1.205595     -1.442377      0.830319
  H      -2.256654     -1.053720     -0.683702
  H       2.852223     -0.498086      0.464528
  H       1.295869     -1.252056      0.827200
  H       1.812398      0.174506      1.722248
  H      -3.104552     -0.346953      1.019236
  H       1.646037      1.557598     -0.322505
  H       1.228996      0.133510     -1.278284
  H      -0.423619      1.200114      1.059043
  H      -0.755104      1.559661     -0.648326
15
Coordinates from ORCA-job scan E -19.166624573170
  C       1.819917     -0.303768      0.745031
  C      -2.455410     -0.886829      0.355274
  C       1.144683      0.587753     -0.288956
  C      -0.337628      0.812858      0.033125
  C      -1.153040     -0.428495     -0.090715
  O      -1.205764     -1.442343      0.830528
  H      -2.256311     -1.053480     -0.683978
  H       2.852246     -0.498120      0.464386
  H       1.295911     -1.252025      0.827273
  H       1.812577      0.174563      1.722186
  H      -3.104518     -0.346697      1.018982
  H       1.645951      1.557606     -0.322553
  H       1.228923      0.133494     -1.278301
  H      -0.423617      1.200081      1.059153
  H      -0.755249      1.559539     -0.648254
15
Coordinates from ORCA-job scan E -19.165101351040
  C       1.819102     -0.304113      0.744794
  C      -2.453258     -0.885490      0.354896
  C       1.143623      0.587291     -0.289135
  C      -0.338693      0.812155      0.033085
  C      -1.153915     -0.429332     -0.090670
  O      -1.205696     -1.442660      0.830948
  H      -2.248430     -1.049269     -0.681242
  H       2.851436     -0.498297      0.464052
  H       1.295258     -1.252455      0.827091
  H       1.811776      0.174223      1.721946
  H      -3.103956     -0.346315      1.017828
  H       1.644729      1.557226     -0.322786
  H       1.227844      0.133040     -1.278485
  H      -0.424649      1.199371      1.059119
  H      -0.756501      1.558764     -0.648259
15
Coordinates from ORCA-job scan E -19.165121644870
  C       1.819543     -0.303965      0.744688
  C      -2.455091     -0.886353      0.355416
  C       1.143937      0.587316     -0.289259
  C      -0.338368      0.812245      0.033183
  C      -1.153932     -0.429282     -0.090254
  O      -1.206474     -1.442677      0.832125
  H      -2.247440     -1.048607     -0.683330
  H       2.851786     -0.498335      0.463745
  H       1.295585     -1.252213      0.827324
  H       1.812498      0.174579      1.721734
  H      -3.106148     -0.347151      1.018365
  H       1.645088      1.557230     -0.323114
  H       1.228017      0.132938     -1.278569
  H      -0.424146      1.199468      1.059217
  H      -0.756185      1.558944     -0.648091
15
Coordinates from ORCA-job scan E -19.165132586450
  C       1.819762     -0.303886      0.744539
  C      -2.457050     -0.887668      0.355958
  C       1.144065      0.587336     -0.289397
  C      -0.338126      0.812349      0.033363
  C      -1.153420     -0.429212     -0.089302
  O      -1.207060     -1.442541      0.833485
  H      -2.245721     -1.047485     -0.685688
  H       2.851854     -0.498629      0.463306
  H       1.295524     -1.251949      0.827602
  H       1.813166      0.174900      1.721468
  H      -3.107563     -0.347617      1.018587
  H       1.645204      1.557238     -0.323426
  H       1.227963      0.132870     -1.278690
  H      -0.423750      1.199560      1.059343
  H      -0.756178      1.558870     -0.647966
15
Coordinates from ORCA-job scan E -19.165135589190
  C       1.819882     -0.303815      0.744510
  C      -2.457695     -0.888308      0.355840
  C       1.143986      0.587292     -0.289404
  C      -0.338208      0.812210      0.033552
  C      -1.153093     -0.429446     -0.088710
  O      -1.207428     -1.442733      0.833665
  H      -2.245226     -1.046841     -0.686315
  H       2.851909     -0.498622      0.463095
  H       1.295637     -1.251856      0.827805
  H       1.813494      0.175093      1.721383
  H      -3.107194     -0.346928      1.018294
  H       1.645008      1.557254     -0.323548
  H       1.227813      0.132784     -1.278685
  H      -0.423744      1.199488      1.059527
  H      -0.756471      1.558565     -0.647827
15
Coordinates from ORCA-job scan E -19.165143775950
  C       1.820374     -0.303464      0.744446
  C      -2.459703     -0.890671      0.354882
  C       1.143563      0.587119     -0.289329
  C      -0.338721      0.811335      0.034375
  C      -1.151900     -0.430894     -0.086478
  O      -1.209104     -1.444001      0.833867
  H      -2.244109     -1.044370     -0.687965
  H       2.852244     -0.498142      0.462404
  H       1.296430     -1.251623      0.828423
  H       1.814546      0.175774      1.721165
  H      -3.104389     -0.342890      1.016758
  H       1.643966      1.557391     -0.323873
  H       1.227155      0.132488     -1.278567
  H      -0.423818      1.199123      1.060286
  H      -0.757863      1.556964     -0.647215
15
Coordinates from ORCA-job scan E -19.165146736860
  C       1.820647     -0.303257      0.744411
  C      -2.460398     -0.891793      0.354164
  C       1.143301      0.587085     -0.289206
  C      -0.339092      0.810600      0.034812
  C      -1.151350     -0.432108     -0.085459
  O      -1.210201     -1.445000      0.833940
  H      -2.244155     -1.043156     -0.688334
  H       2.852565     -0.497445      0.462211
  H       1.297184     -1.251694      0.828364
  H       1.814746      0.175894      1.721173
  H      -3.102006     -0.339730      1.015735
  H       1.643244      1.557584     -0.323804
  H       1.226866      0.132513     -1.278469
  H      -0.423909      1.198911      1.060596
  H      -0.758772      1.555735     -0.646952
15
Coordinates from ORCA-job scan E -19.165147890850
  C       1.820761     -0.303198      0.744349
  C      -2.460408     -0.892177      0.353853
  C       1.143186      0.587164     -0.289086
  C      -0.339317      0.810036      0.034944
  C      -1.151151     -0.433026     -0.085195
  O      -1.210840     -1.445579      0.834267
  H      -2.244635     -1.042770     -0.688158
  H       2.852854     -0.496716      0.462313
  H       1.297828     -1.251977      0.827791
  H       1.814382      0.175564      1.721296
  H      -3.100326     -0.337447      1.015129
  H       1.642808      1.557825     -0.323445
  H       1.226898      0.132824     -1.278444
  H      -0.424032      1.198802      1.060566
  H      -0.759338      1.554812     -0.646999
15
Coordinates from ORCA-job scan E -19.165148180740
  C       1.820756     -0.303254      0.744273
  C      -2.460205     -0.892145      0.353969
  C       1.143194      0.587267     -0.289031
  C      -0.339373      0.809800      0.034866
  C      -1.151136     -0.433393     -0.085328
  O      -1.210989     -1.445608      0.834716
  H      -2.244945     -1.042909     -0.687932
  H       2.853004     -0.496311      0.462478
  H       1.298134     -1.252249      0.827192
  H       1.813919      0.175131      1.721399
  H      -3.099791     -0.336522      1.014941
  H       1.642687      1.557998     -0.323080
  H       1.227101      0.133177     -1.278490
  H      -0.424158      1.198740      1.060397
  H      -0.759527      1.554415     -0.647190
15
Coordinates from ORCA-job scan E -19.163664471840
  C       1.819947     -0.303597      0.744029
  C      -2.458067     -0.890822      0.353594
  C       1.142143      0.586811     -0.289214
  C      -0.340429      0.809109      0.034825
  C      -1.152005     -0.434213     -0.085286
  O      -1.210942     -1.445939      0.835137
  H      -2.237043     -1.038730     -0.685129
  H       2.852199     -0.496491      0.462134
  H       1.297484     -1.252676      0.827002
  H       1.813128      0.174791      1.721153
  H      -3.099307     -0.336152      1.013766
  H       1.641478      1.557622     -0.323316
  H       1.226027      0.132730     -1.278680
  H      -0.425177      1.198040      1.060361
  H      -0.760766      1.553655     -0.647194
15
Coordinates from ORCA-job scan E -19.163685767920
  C       1.820321     -0.303526      0.743886
  C      -2.459766     -0.891524      0.354412
  C       1.142525      0.586900     -0.289345
  C      -0.340047      0.809232      0.034766
  C      -1.152101     -0.434091     -0.085139
  O      -1.211552     -1.445737      0.836591
  H      -2.236081     -1.038319     -0.687183
  H       2.852552     -0.496485      0.461956
  H       1.297788     -1.252554      0.826935
  H       1.813561      0.174895      1.720986
  H      -3.101760     -0.337168      1.014516
  H       1.641932      1.557682     -0.323461
  H       1.226397      0.132822     -1.278822
  H      -0.424743      1.198117      1.060287
  H      -0.760355      1.553892     -0.647204
15
Coordinates from ORCA-job scan E -19.163693628450
  C       1.820385     -0.303580      0.743717
  C      -2.461162     -0.892363      0.355331
  C       1.142711      0.586991     -0.289475
  C      -0.339770      0.809395      0.034676
  C      -1.151774     -0.433867     -0.084739
  O      -1.211707     -1.445236      0.838037
  H      -2.234672     -1.037765     -0.689056
  H       2.852575     -0.496718      0.461764
  H       1.297646     -1.252495      0.826791
  H       1.813715      0.174827      1.720823
  H      -3.103303     -0.337895      1.014985
  H       1.642152      1.557747     -0.323478
  H       1.226618      0.133016     -1.279007
  H      -0.424556      1.198111      1.060159
  H      -0.760186      1.553970     -0.647347
15
Coordinates from ORCA-job scan E -19.163694548180
  C       1.820420     -0.303567      0.743702
  C      -2.461416     -0.892647      0.355378
  C       1.142672      0.586968     -0.289481
  C      -0.339821      0.809333      0.034713
  C      -1.151621     -0.433957     -0.084526
  O      -1.211785     -1.445246      0.838091
  H      -2.234464     -1.037508     -0.689288
  H       2.852591     -0.496715      0.461693
  H       1.297685     -1.252477      0.826855
  H       1.813809      0.174875      1.720792
  H      -3.103098     -0.337541      1.014858
  H       1.642052      1.557760     -0.323493
  H       1.226596      0.133007     -1.279018
  H      -0.424644      1.197992      1.060225
  H      -0.760306      1.553860     -0.647320
15
Coordinates from ORCA-job scan E -19.162237279430
  C       1.819616     -0.303909      0.743455
  C      -2.459298     -0.891333      0.355005
  C       1.141629      0.586514     -0.289667
  C      -0.340868      0.808646      0.034668
  C      -1.152484     -0.434773     -0.084488
  O      -1.211745     -1.445578      0.838507
  H      -2.226569     -1.033323     -0.686443
  H       2.851791     -0.496895      0.461349
  H       1.297039     -1.252901      0.826662
  H       1.813022      0.174537      1.720544
  H      -3.102651     -0.337194      1.013674
  H       1.640852      1.557385     -0.323731
  H       1.225530      0.132561     -1.279210
  H      -0.425656      1.197296      1.060185
  H      -0.761537      1.553104     -0.647329
15
Coordinates from ORCA-job scan E -19.162257781030
  C       1.820012     -0.303768      0.743365
  C      -2.461065     -0.892193      0.355575
  C       1.141925      0.586540     -0.289786
  C      -0.340565      0.808726      0.034723
  C      -1.152496     -0.434742     -0.084156
  O      -1.212452     -1.445633      0.839599
  H      -2.225595     -1.032644     -0.688509
  H       2.852107     -0.496927      0.461089
  H       1.297325     -1.252670      0.826881
  H       1.813663      0.174874      1.720353
  H      -3.104654     -0.337926      1.014309
  H       1.641189      1.557394     -0.324026
  H       1.225719      0.132472     -1.279292
  H      -0.425222      1.197340      1.060250
  H      -0.761221      1.553293     -0.647196
15
Coordinates from ORCA-job scan E -19.162269476250
  C       1.820198     -0.303684      0.743245
  C      -2.463014     -0.893541      0.356247
  C       1.142033      0.586549     -0.289920
  C      -0.340357      0.808797      0.034845
  C      -1.152001     -0.434703     -0.083304
  O      -1.212978     -1.445561      0.840869
  H      -2.223857     -1.031410     -0.691035
  H       2.852154     -0.497193      0.460709
  H       1.297248     -1.252412      0.827175
  H       1.814258      0.175205      1.720114
  H      -3.105827     -0.338244      1.014735
  H       1.641269      1.557400     -0.324319
  H       1.225690      0.132393     -1.279406
  H      -0.424932      1.197322      1.060334
  H      -0.761214      1.553220     -0.647108
15
Coordinates from ORCA-job scan E -19.162272519280
  C       1.820299     -0.303607      0.743238
  C      -2.463616     -0.894176      0.356179
  C       1.141945      0.586495     -0.289924
  C      -0.340460      0.808634      0.035000
  C      -1.151702     -0.434956     -0.082772
  O      -1.213303     -1.445795      0.840953
  H      -2.223424     -1.030691     -0.691693
  H       2.852200     -0.497161      0.460544
  H       1.297360     -1.252322      0.827392
  H       1.814538      0.175409      1.720047
  H      -3.105288     -0.337495      1.014546
  H       1.641055      1.557409     -0.324434
  H       1.225556      0.132290     -1.279392
  H      -0.424986      1.197194      1.060493
  H      -0.761505      1.552909     -0.646996
15
Coordinates from ORCA-job scan E -19.162281422160
  C       1.820763     -0.303204      0.743264
  C      -2.465653     -0.896712      0.355357
  C       1.141478      0.586268     -0.289837
  C      -0.341056      0.807630      0.035732
  C      -1.150531     -0.436542     -0.080635
  O      -1.214910     -1.447302      0.840768
  H      -2.222545     -1.027676     -0.693513
  H       2.852532     -0.496561      0.459999
  H       1.298198     -1.252076      0.828118
  H       1.815480      0.176192      1.719895
  H      -3.101722     -0.333118      1.013335
  H       1.639901      1.557526     -0.324772
  H       1.224938      0.131896     -1.279233
  H      -0.425266      1.196627      1.061182
  H      -0.762938      1.551189     -0.646480
15
Coordinates from ORCA-job scan E -19.162284763180
  C       1.821042     -0.302961      0.743277
  C      -2.466456     -0.898003      0.354653
  C       1.141205      0.586208     -0.289706
  C      -0.341457      0.806816      0.036133
  C      -1.149947     -0.437860     -0.079630
  O      -1.216006     -1.448454      0.840615
  H      -2.222791     -1.026072     -0.693866
  H       2.852876     -0.495777      0.459886
  H       1.299012     -1.252140      0.828110
  H       1.815636      0.176370      1.719941
  H      -3.098930     -0.329784      1.012426
  H       1.639120      1.557716     -0.324711
  H       1.224676      0.131869     -1.279112
  H      -0.425430      1.196360      1.061448
  H      -0.763878      1.549848     -0.646282
15
Coordinates from ORCA-job scan E -19.162286029900
  C       1.821163     -0.302893      0.743235
  C      -2.466548     -0.898466      0.354325
  C       1.141106      0.586284     -0.289582
  C      -0.341670      0.806239      0.036244
  C      -1.149712     -0.438808     -0.079397
  O      -1.216629     -1.449071      0.840831
  H      -2.223432     -1.025511     -0.693545
  H       2.853188     -0.495002      0.460040
  H       1.299694     -1.252434      0.827525
  H       1.815232      0.176038      1.720089
  H      -3.097169     -0.327538      1.011851
  H       1.638686      1.557958     -0.324345
  H       1.224742      0.132170     -1.279079
  H      -0.425548      1.196297      1.061375
  H      -0.764434      1.548875     -0.646385
15
Coordinates from ORCA-job scan E -19.162286281440
  C       1.821156     -0.302956      0.743161
  C      -2.466374     -0.898424      0.354438
  C       1.141129      0.586386     -0.289530
  C      -0.341705      0.806034      0.036160
  C      -1.149684     -0.439135     -0.079558
  O      -1.216739     -1.449059      0.841247
  H      -2.223774     -1.025660     -0.693228
  H       2.853338     -0.494610      0.460219
  H       1.299991     -1.252711      0.826919
  H       1.814759      0.175593      1.720196
  H      -3.096744     -0.326764      1.011678
  H       1.638597      1.558122     -0.323986
  H       1.224955      0.132517     -1.279126
  H      -0.425644      1.196296      1.061188
  H      -0.764591      1.548508     -0.646595
15
Coordinates from ORCA-job scan E -19.160877158520
  C       1.820357     -0.303296      0.742907
  C      -2.464277     -0.897133      0.354066
  C       1.140094      0.585939     -0.289720
  C      -0.342743      0.805360      0.036113
  C      -1.150541     -0.439934     -0.079524
  O      -1.216724     -1.449407      0.841662
  H      -2.215852     -1.021518     -0.690317
  H       2.852542     -0.494791      0.459865
  H       1.299347     -1.253131      0.826717
  H       1.813981      0.175254      1.719942
  H      -3.096368     -0.326416      1.010474
  H       1.637409      1.557752     -0.324226
  H       1.223894      0.132082     -1.279324
  H      -0.426642      1.195610      1.061148
  H      -0.765809      1.547767     -0.646602
15
Coordinates from ORCA-job scan E -19.160898153770
  C       1.820694     -0.303240      0.742760
  C      -2.465916     -0.897811      0.354874
  C       1.140451      0.586035     -0.289844
  C      -0.342386      0.805479      0.036052
  C      -1.150607     -0.439834     -0.079395
  O      -1.217314     -1.449213      0.843116
  H      -2.214824     -1.021158     -0.692338
  H       2.852866     -0.494780      0.459699
  H       1.299623     -1.253034      0.826606
  H       1.814350      0.175314      1.719784
  H      -3.098684     -0.327316      1.011224
  H       1.637835      1.557820     -0.324338
  H       1.224250      0.132199     -1.279467
  H      -0.426235      1.195686      1.061066
  H      -0.765434      1.547989     -0.646620
15
Coordinates from ORCA-job scan E -19.160906619720
  C       1.820749     -0.303304      0.742575
  C      -2.467332     -0.898633      0.355838
  C       1.140614      0.586126     -0.289974
  C      -0.342136      0.805622      0.035975
  C      -1.150269     -0.439641     -0.078967
  O      -1.217521     -1.448698      0.844681
  H      -2.213219     -1.020647     -0.694406
  H       2.852889     -0.494988      0.459496
  H       1.299498     -1.253001      0.826417
  H       1.814472      0.175210      1.719618
  H      -3.100173     -0.327908      1.011724
  H       1.638026      1.557891     -0.324339
  H       1.224451      0.132412     -1.279661
  H      -0.426065      1.195652      1.060946
  H      -0.765313      1.548043     -0.646743
15
Coordinates from ORCA-job scan E -19.160907533240
  C       1.820787     -0.303290      0.742554
  C      -2.467574     -0.898890      0.355874
  C       1.140563      0.586100     -0.289979
  C      -0.342200      0.805543      0.036026
  C      -1.150123     -0.439752     -0.078723
  O      -1.217635     -1.448707      0.844771
  H      -2.212961     -1.020403     -0.694689
  H       2.852910     -0.494967      0.459416
  H       1.299555     -1.252991      0.826471
  H       1.814565      0.175254      1.719584
  H      -3.099926     -0.327495      1.011576
  H       1.637908      1.557904     -0.324354
  H       1.224413      0.132403     -1.279672
  H      -0.426157      1.195516      1.061026
  H      -0.765456      1.547914     -0.646699
15
Coordinates from ORCA-job scan E -19.159530520570
  C       1.819995     -0.303629      0.742298
  C      -2.465500     -0.897612      0.355504
  C       1.139536      0.585656     -0.290172
  C      -0.343230      0.804873      0.035975
  C      -1.150974     -0.440546     -0.078694
  O      -1.217627     -1.449058      0.845180
  H      -2.205049     -1.016255     -0.691731
  H       2.852119     -0.495148      0.459061
  H       1.298915     -1.253409      0.826267
  H       1.813793      0.174916      1.719327
  H      -3.099586     -0.327169      1.010363
  H       1.636729      1.557535     -0.324597
  H       1.223360      0.131969     -1.279872
  H      -0.427148      1.194835      1.060982
  H      -0.766664      1.547178     -0.646711
15
Coordinates from ORCA-job scan E -19.159551010210
  C       1.820363     -0.303498      0.742199
  C      -2.467217     -0.898443      0.356058
  C       1.139808      0.585688     -0.290286
  C      -0.342950      0.804941      0.036035
  C      -1.150963     -0.440541     -0.078349
  O      -1.218350     -1.449118      0.846311
  H      -2.203973     -1.015618     -0.693805
  H       2.852410     -0.495180      0.458796
  H       1.299178     -1.253193      0.826454
  H       1.814396      0.175223      1.719137
  H      -3.101469     -0.327785      1.010976
  H       1.637034      1.557554     -0.324867
  H       1.223529      0.131904     -1.279957
  H      -0.426739      1.194857      1.061053
  H      -0.766386      1.547347     -0.646573
15
Coordinates from ORCA-job scan E -19.159563609530
  C       1.820559     -0.303416      0.742049
  C      -2.469229     -0.899789      0.356738
  C       1.139884      0.585696     -0.290422
  C      -0.342772      0.804978      0.036198
  C      -1.150448     -0.440554     -0.077386
  O      -1.219016     -1.449034      0.847789
  H      -2.201925     -1.014390     -0.696609
  H       2.852463     -0.495432      0.458356
  H       1.299126     -1.252945      0.826726
  H       1.815022      0.175544      1.718872
  H      -3.102602     -0.327933      1.011363
  H       1.637064      1.557569     -0.325161
  H       1.223453      0.131838     -1.280082
  H      -0.426458      1.194781      1.061180
  H      -0.766451      1.547225     -0.646430
15
Coordinates from ORCA-job scan E -19.159566618920
  C       1.820673     -0.303339      0.742026
  C      -2.469818     -0.900382      0.356639
  C       1.139779      0.585640     -0.290424
  C      -0.342891      0.804790      0.036383
  C      -1.150155     -0.440837     -0.076788
  O      -1.219420     -1.449249      0.847968
  H      -2.201389     -1.013696     -0.697329
  H       2.852520     -0.495382      0.458157
  H       1.299268     -1.252865      0.826925
  H       1.815320      0.175738      1.718793
  H      -3.102041     -0.327111      1.011092
  H       1.636823      1.557581     -0.325277
  H       1.223290      0.131741     -1.280071
  H      -0.426508      1.194630      1.061370
  H      -0.766779      1.546879     -0.646284
15
Coordinates from ORCA-job scan E -19.159575604870
  C       1.821221     -0.302929      0.741971
  C      -2.471928     -0.902832      0.355647
  C       1.139264      0.585407     -0.290337
  C      -0.343528      0.803683      0.037255
  C      -1.148965     -0.442565     -0.074300
  O      -1.221403     -1.450663      0.848232
  H      -2.200099     -1.010682     -0.699352
  H       2.852925     -0.494700      0.457448
  H       1.300263     -1.252649      0.827583
  H       1.816393      0.176499      1.718575
  H      -3.098493     -0.322492      1.009448
  H       1.635565      1.557717     -0.325635
  H       1.222557      0.131369     -1.279930
  H      -0.426734      1.193990      1.062196
  H      -0.768368      1.544984     -0.645621
15
Coordinates from ORCA-job scan E -19.159579208590
  C       1.821583     -0.302671      0.741932
  C      -2.472917     -0.904191      0.354797
  C       1.138979      0.585346     -0.290208
  C      -0.343931      0.802803      0.037755
  C      -1.148299     -0.443993     -0.073036
  O      -1.222755     -1.451763      0.848355
  H      -2.200159     -1.008956     -0.699723
  H       2.853342     -0.493857      0.457219
  H       1.301207     -1.252722      0.827540
  H       1.816670      0.176676      1.718575
  H      -3.095781     -0.319030      1.008185
  H       1.634726      1.557927     -0.325595
  H       1.222238      0.131356     -1.279821
  H      -0.426833      1.193711      1.062547
  H      -0.769400      1.543501     -0.645342
15
Coordinates from ORCA-job scan E -19.159580698660
  C       1.821778     -0.302589      0.741857
  C      -2.473218     -0.904790      0.354353
  C       1.138891      0.585429     -0.290079
  C      -0.344130      0.802172      0.037927
  C      -1.147951     -0.445050     -0.072656
  O      -1.223536     -1.452358      0.848713
  H      -2.200810     -1.008244     -0.699258
  H       2.853732     -0.493008      0.457316
  H       1.302017     -1.253034      0.826904
  H       1.816336      0.176328      1.718705
  H      -3.094085     -0.316668      1.007323
  H       1.634257      1.558195     -0.325223
  H       1.222296      0.131684     -1.279794
  H      -0.426895      1.193671      1.062511
  H      -0.770013      1.542400     -0.645418
15
Coordinates from ORCA-job scan E -19.159580990700
  C       1.821788     -0.302658      0.741775
  C      -2.473114     -0.904786      0.354462
  C       1.138932      0.585538     -0.290026
  C      -0.344146      0.801975      0.037843
  C      -1.147877     -0.445386     -0.072837
  O      -1.223635     -1.452295      0.849145
  H      -2.201211     -1.008391     -0.698810
  H       2.853906     -0.492598      0.457496
  H       1.302346     -1.253326      0.826261
  H       1.815859      0.175856      1.718815
  H      -3.093765     -0.315932      1.007075
  H       1.634184      1.558367     -0.324850
  H       1.222531      0.132050     -1.279846
  H      -0.426969      1.193694      1.062316
  H      -0.770156      1.542027     -0.645638
15
Coordinates from ORCA-job scan E -19.158258103190
  C       1.821001     -0.302994      0.741511
  C      -2.471067     -0.903538      0.354091
  C       1.137914      0.585102     -0.290223
  C      -0.345165      0.801319      0.037790
  C      -1.148722     -0.446161     -0.072814
  O      -1.223655     -1.452665      0.849552
  H      -2.193271     -1.004292     -0.695778
  H       2.853119     -0.492781      0.457133
  H       1.301707     -1.253739      0.826045
  H       1.815094      0.175518      1.718553
  H      -3.093489     -0.315598      1.005844
  H       1.633018      1.558005     -0.325093
  H       1.221484      0.131628     -1.280052
  H      -0.427947      1.193025      1.062271
  H      -0.771351      1.541309     -0.645649
15
Coordinates from ORCA-job scan E -19.158278924650
  C       1.821302     -0.302955      0.741357
  C      -2.472654     -0.904193      0.354908
  C       1.138248      0.585207     -0.290339
  C      -0.344832      0.801432      0.037723
  C      -1.148755     -0.446087     -0.072719
  O      -1.224222     -1.452455      0.851013
  H      -2.192178     -1.004010     -0.697753
  H       2.853418     -0.492763      0.456978
  H       1.301959     -1.253669      0.825883
  H       1.815399      0.175528      1.718405
  H      -3.095683     -0.316366      1.006578
  H       1.633417      1.558085     -0.325164
  H       1.221832      0.131781     -1.280199
  H      -0.427575      1.193081      1.062183
  H      -0.771006      1.541523     -0.645672
15
Coordinates from ORCA-job scan E -19.158288281470
  C       1.821349     -0.303035      0.741146
  C      -2.474111     -0.905000      0.355963
  C       1.138388      0.585305     -0.290468
  C      -0.344612      0.801552      0.037655
  C      -1.148402     -0.445937     -0.072289
  O      -1.224476     -1.451877      0.852745
  H      -2.190328     -1.003606     -0.700040
  H       2.853442     -0.492941      0.456754
  H       1.301855     -1.253673      0.825623
  H       1.815483      0.175364      1.718233
  H      -3.097144     -0.316768      1.007084
  H       1.633572      1.558172     -0.325127
  H       1.222020      0.132038     -1.280406
  H      -0.427437      1.192982      1.062076
  H      -0.770930      1.541561     -0.645769
15
Coordinates from ORCA-job scan E -19.158289188400
  C       1.821388     -0.303022      0.741117
  C      -2.474330     -0.905224      0.356005
  C       1.138322      0.585277     -0.290470
  C      -0.344694      0.801452      0.037719
  C      -1.148265     -0.446076     -0.072023
  O      -1.224623     -1.451871      0.852879
  H      -2.190007     -1.003406     -0.700381
  H       2.853466     -0.492901      0.456660
  H       1.301930     -1.253674      0.825661
  H       1.815573      0.175398      1.718195
  H      -3.096844     -0.316265      1.006899
  H       1.633430      1.558188     -0.325137
  H       1.221964      0.132034     -1.280418
  H      -0.427543      1.192810      1.062176
  H      -0.771097      1.541417     -0.645701
15
Coordinates from ORCA-job scan E -19.157002858090
  C       1.820607     -0.303357      0.740851
  C      -2.472309     -0.903990      0.355636
  C       1.137312      0.584843     -0.290669
  C      -0.345705      0.800800      0.037661
  C      -1.149103     -0.446845     -0.072007
  O      -1.224651     -1.452244      0.853279
  H      -2.182079     -0.999301     -0.697298
  H       2.852686     -0.493084      0.456295
  H       1.301296     -1.254085      0.825443
  H       1.814814      0.175061      1.717930
  H      -3.096604     -0.315952      1.005660
  H       1.632274      1.557827     -0.325382
  H       1.220927      0.131615     -1.280627
  H      -0.428514      1.192145      1.062127
  H      -0.772281      1.540704     -0.645717
15
Coordinates from ORCA-job scan E -19.157023297490
  C       1.820947     -0.303238      0.740741
  C      -2.473964     -0.904776      0.356181
  C       1.137556      0.584883     -0.290778
  C      -0.345453      0.800854      0.037727
  C      -1.149079     -0.446873     -0.071655
  O      -1.225397     -1.452303      0.854453
  H      -2.180889     -0.998739     -0.699387
  H       2.852952     -0.493113      0.456022
  H       1.301538     -1.253888      0.825593
  H       1.815378      0.175333      1.717740
  H      -3.098352     -0.316423      1.006242
  H       1.632542      1.557858     -0.325622
  H       1.221073      0.131578     -1.280715
  H      -0.428137      1.192131      1.062207
  H      -0.772044      1.540853     -0.645567
15
Coordinates from ORCA-job scan E -19.157036996860
  C       1.821152     -0.303162      0.740550
  C      -2.476035     -0.906092      0.356901
  C       1.137592      0.584895     -0.290914
  C      -0.345313      0.800848      0.037940
  C      -1.148556     -0.446949     -0.070578
  O      -1.226231     -1.452181      0.856198
  H      -2.178434     -0.997595     -0.702541
  H       2.853007     -0.493350      0.455503
  H       1.301513     -1.253655      0.825825
  H       1.816036      0.175628      1.717444
  H      -3.099444     -0.316335      1.006568
  H       1.632509      1.557890     -0.325906
  H       1.220939      0.131545     -1.280855
  H      -0.427873      1.191966      1.062394
  H      -0.772191      1.540683     -0.645349
15
Coordinates from ORCA-job scan E -19.157039833770
  C       1.821275     -0.303089      0.740505
  C      -2.476584     -0.906614      0.356780
  C       1.137468      0.584839     -0.290914
  C      -0.345451      0.800638      0.038157
  C      -1.148282     -0.447260     -0.069920
  O      -1.226712     -1.452357      0.856488
  H      -2.177771     -0.996977     -0.703321
  H       2.853072     -0.493282      0.455265
  H       1.301682     -1.253591      0.825996
  H       1.816351      0.175803      1.717351
  H      -3.098872     -0.315431      1.006198
  H       1.632237      1.557907     -0.326016
  H       1.220741      0.131460     -1.280848
  H      -0.427925      1.191781      1.062620
  H      -0.772559      1.540310     -0.645159
15
Coordinates from ORCA-job scan E -19.157047987630
  C       1.821872     -0.302707      0.740354
  C      -2.478543     -0.908728      0.355699
  C       1.136921      0.584620     -0.290827
  C      -0.346097      0.799499      0.039136
  C      -1.147182     -0.449014     -0.067236
  O      -1.228960     -1.453525      0.857256
  H      -2.176057     -0.994328     -0.705425
  H       2.853519     -0.492572      0.454397
  H       1.302770     -1.253429      0.826517
  H       1.817501      0.176468      1.717067
  H      -3.095628     -0.310813      1.004122
  H       1.630942      1.558058     -0.326359
  H       1.219912      0.131155     -1.280738
  H      -0.428089      1.191069      1.063566
  H      -0.774209      1.538383     -0.644347
15
Coordinates from ORCA-job scan E -19.157051683690
  C       1.822321     -0.302447      0.740241
  C      -2.479672     -0.910070      0.354718
  C       1.136626      0.584562     -0.290706
  C      -0.346488      0.798584      0.039751
  C      -1.146465     -0.450500     -0.065693
  O      -1.230575     -1.454484      0.857760
  H      -2.175810     -0.992612     -0.705848
  H       2.854001     -0.491711      0.454009
  H       1.303822     -1.253507      0.826436
  H       1.817941      0.176639      1.716999
  H      -3.093194     -0.307336      1.002435
  H       1.630066      1.558279     -0.326353
  H       1.219516      0.131162     -1.280652
  H      -0.428104      1.190764      1.064032
  H      -0.775312      1.536814     -0.643947
15
Coordinates from ORCA-job scan E -19.157053643890
  C       1.822654     -0.302329      0.740104
  C      -2.480338     -0.910929      0.354039
  C       1.136527      0.584643     -0.290572
  C      -0.346690      0.797839      0.040070
  C      -1.145927     -0.451766     -0.064953
  O      -1.231703     -1.455084      0.858407
  H      -2.176345     -0.991604     -0.705305
  H       2.854517     -0.490745      0.453958
  H       1.304852     -1.253825      0.825764
  H       1.817790      0.176309      1.717076
  H      -3.091527     -0.304652      1.001037
  H       1.629500      1.558587     -0.326006
  H       1.219507      0.131505     -1.280632
  H      -0.428074      1.190723      1.064112
  H      -0.776074      1.535467     -0.643918
15
Coordinates from ORCA-job scan E -19.157054092950
  C       1.822715     -0.302392      0.740001
  C      -2.480400     -0.911051      0.354084
  C       1.136588      0.584761     -0.290515
  C      -0.346688      0.797613      0.040016
  C      -1.145756     -0.452173     -0.065081
  O      -1.231871     -1.454987      0.858919
  H      -2.176820     -0.991655     -0.704692
  H       2.854752     -0.490274      0.454118
  H       1.305275     -1.254139      0.825064
  H       1.817336      0.175807      1.717183
  H      -3.091290     -0.303851      1.000599
  H       1.629419      1.558780     -0.325616
  H       1.219758      0.131900     -1.280689
  H      -0.428106      1.190779      1.063926
  H      -0.776240      1.535018     -0.644134
15
Coordinates from ORCA-job scan E -19.155825716730
  C       1.821938     -0.302725      0.739727
  C      -2.478413     -0.909855      0.353712
  C       1.135587      0.584337     -0.290718
  C      -0.347687      0.796977      0.039954
  C      -1.146588     -0.452922     -0.065075
  O      -1.231933     -1.455380      0.859312
  H      -2.168866     -0.987606     -0.701524
  H       2.853975     -0.490459      0.453745
  H       1.304642     -1.254546      0.824833
  H       1.816584      0.175468      1.716912
  H      -3.091102     -0.303525      0.999345
  H       1.628278      1.558427     -0.325860
  H       1.218728      0.131494     -1.280904
  H      -0.429064      1.190125      1.063873
  H      -0.777409      1.534325     -0.644152
15
Coordinates from ORCA-job scan E -19.155846454080
  C       1.822208     -0.302704      0.739566
  C      -2.479963     -0.910485      0.354541
  C       1.135904      0.584451     -0.290829
  C      -0.347374      0.797092      0.039882
  C      -1.146590     -0.452865     -0.065021
  O      -1.232476     -1.455134      0.860784
  H      -2.167699     -0.987423     -0.703449
  H       2.854248     -0.490440      0.453597
  H       1.304868     -1.254501      0.824621
  H       1.816831      0.175428      1.716772
  H      -3.093205     -0.304188      1.000057
  H       1.628657      1.558519     -0.325892
  H       1.219068      0.131681     -1.281055
  H      -0.428719      1.190165      1.063783
  H      -0.777087      1.534542     -0.644176
15
Coordinates from ORCA-job scan E -19.155857027650
  C       1.822241     -0.302807      0.739319
  C      -2.481486     -0.911274      0.355723
  C       1.136020      0.584561     -0.290956
  C      -0.347180      0.797201      0.039827
  C      -1.146221     -0.452745     -0.064601
  O      -1.232781     -1.454444      0.862726
  H      -2.165519     -0.987199     -0.706003
  H       2.854269     -0.490600      0.453342
  H       1.304775     -1.254546      0.824275
  H       1.816877      0.175192      1.716589
  H      -3.094689     -0.304407      1.000566
  H       1.628782      1.558623     -0.325813
  H       1.219240      0.131994     -1.281281
  H      -0.428608      1.189997      1.063699
  H      -0.777049      1.534590     -0.644232
15
Coordinates from ORCA-job scan E -19.155857933200
  C       1.822278     -0.302798      0.739279
  C      -2.481673     -0.911451      0.355779
  C       1.135933      0.584530     -0.290956
  C      -0.347285      0.797085      0.039909
  C      -1.146101     -0.452904     -0.064312
  O      -1.232958     -1.454408      0.862916
  H      -2.165098     -0.987076     -0.706427
  H       2.854290     -0.490548      0.453226
  H       1.304861     -1.254557      0.824300
  H       1.816966      0.175214      1.716544
  H      -3.094341     -0.303808      1.000341
  H       1.628613      1.558639     -0.325820
  H       1.219156      0.131995     -1.281294
  H      -0.428729      1.189783      1.063825
  H      -0.777243      1.534440     -0.644130
15
Coordinates from ORCA-job scan E -19.154670141230
  C       1.821508     -0.303129      0.739003
  C      -2.479717     -0.910272      0.355409
  C       1.134943      0.584109     -0.291163
  C      -0.348275      0.796453      0.039841
  C      -1.146925     -0.453646     -0.064313
  O      -1.233029     -1.454804      0.863300
  H      -2.157158     -0.983020     -0.703204
  H       2.853519     -0.490732      0.452853
  H       1.304232     -1.254961      0.824066
  H       1.816220      0.174876      1.716271
  H      -3.094189     -0.303503      0.999080
  H       1.627483      1.558287     -0.326066
  H       1.218136      0.131592     -1.281512
  H      -0.429679      1.189134      1.063768
  H      -0.778399      1.533753     -0.644153
15
Coordinates from ORCA-job scan E -19.154690536900
  C       1.821818     -0.303022      0.738880
  C      -2.481295     -0.910988      0.355950
  C       1.135153      0.584155     -0.291264
  C      -0.348055      0.796492      0.039920
  C      -1.146899     -0.453704     -0.063954
  O      -1.233806     -1.454852      0.864525
  H      -2.155821     -0.982575     -0.705329
  H       2.853758     -0.490760      0.452564
  H       1.304451     -1.254784      0.824180
  H       1.816749      0.175113      1.716080
  H      -3.095799     -0.303818      0.999622
  H       1.627708      1.558329     -0.326277
  H       1.218249      0.131584     -1.281603
  H      -0.429335      1.189078      1.063868
  H      -0.778206      1.533889     -0.643979
15
Coordinates from ORCA-job scan E -19.154705727670
  C       1.822028     -0.302957      0.738633
  C      -2.483417     -0.912224      0.356746
  C       1.135135      0.584175     -0.291401
  C      -0.347961      0.796451      0.040204
  C      -1.146390     -0.453838     -0.062738
  O      -1.234857     -1.454659      0.866622
  H      -2.152779     -0.981622     -0.708969
  H       2.853804     -0.490997      0.451932
  H       1.304441     -1.254567      0.824364
  H       1.817459      0.175376      1.715737
  H      -3.096887     -0.303459      0.999871
  H       1.627601      1.558377     -0.326553
  H       1.218025      0.131591     -1.281762
  H      -0.429083      1.188803      1.064142
  H      -0.778447      1.533687     -0.643647
15
Coordinates from ORCA-job scan E -19.154708236370
  C       1.822157     -0.302894      0.738561
  C      -2.483893     -0.912635      0.356609
  C       1.134985      0.584119     -0.291398
  C      -0.348118      0.796227      0.040461
  C      -1.146150     -0.454159     -0.062015
  O      -1.235417     -1.454775      0.867041
  H      -2.151941     -0.981145     -0.709825
  H       2.853870     -0.490925      0.451640
  H       1.304628     -1.254518      0.824504
  H       1.817798      0.175527      1.715624
  H      -3.096346     -0.302490      0.999381
  H       1.627301      1.558397     -0.326661
  H       1.217780      0.131520     -1.281760
  H      -0.429131      1.188586      1.064416
  H      -0.778853      1.533302     -0.643399
15
Coordinates from ORCA-job scan E -19.154714285590
  C       1.822727     -0.302592      0.738321
  C      -2.485382     -0.914086      0.355568
  C       1.134461      0.583939     -0.291323
  C      -0.348694      0.795221      0.041459
  C      -1.145306     -0.455684     -0.059430
  O      -1.237660     -1.455540      0.868230
  H      -2.149909     -0.979316     -0.711786
  H       2.854288     -0.490309      0.450680
  H       1.305649     -1.254421      0.824843
  H       1.818925      0.176023      1.715293
  H      -3.093917     -0.298470      0.997073
  H       1.626131      1.558535     -0.326967
  H       1.216912      0.131307     -1.281693
  H      -0.429191      1.187910      1.065403
  H      -0.780364      1.531620     -0.642490
15
Coordinates from ORCA-job scan E -19.154717500500
  C       1.823232     -0.302361      0.738119
  C      -2.486472     -0.915192      0.354526
  C       1.134173      0.583890     -0.291225
  C      -0.349034      0.794375      0.042175
  C      -1.144637     -0.457055     -0.057680
  O      -1.239442     -1.456225      0.869178
  H      -2.149222     -0.977913     -0.712282
  H       2.854784     -0.489542      0.450104
  H       1.306703     -1.254491      0.824730
  H       1.819543      0.176168      1.715134
  H      -3.092155     -0.295345      0.995008
  H       1.625302      1.558743     -0.327014
  H       1.216426      0.131333     -1.281643
  H      -0.429087      1.187613      1.065990
  H      -0.781443      1.530141     -0.641942
15
Coordinates from ORCA-job scan E -19.154720065890
  C       1.823792     -0.302189      0.737849
  C      -2.487622     -0.916341      0.353441
  C       1.134023      0.583961     -0.291090
  C      -0.349257      0.793466      0.042800
  C      -1.143856     -0.458603     -0.056209
  O      -1.241228     -1.456780      0.870464
  H      -2.149237     -0.976601     -0.711857
  H       2.855475     -0.488464      0.449706
  H       1.308046     -1.254791      0.824051
  H       1.819798      0.175904      1.715074
  H      -3.090686     -0.292173      0.992634
  H       1.624566      1.559092     -0.326762
  H       1.216213      0.131676     -1.281640
  H      -0.428882      1.187536      1.066351
  H      -0.782477      1.528445     -0.641629
15
Coordinates from ORCA-job scan E -19.154720901390
  C       1.823998     -0.302220      0.737677
  C      -2.488067     -0.916759      0.353232
  C       1.134080      0.584088     -0.291022
  C      -0.349255      0.793119      0.042898
  C      -1.143470     -0.459241     -0.055997
  O      -1.241749     -1.456674      0.871297
  H      -2.149649     -0.976386     -0.711094
  H       2.855855     -0.487847      0.449725
  H       1.308719     -1.255131      0.823267
  H       1.819506      0.175388      1.715134
  H      -3.090489     -0.290992      0.991609
  H       1.624391      1.559337     -0.326373
  H       1.216409      0.132113     -1.281706
  H      -0.428809      1.187608      1.066277
  H      -0.782801      1.527734     -0.641741
15
Coordinates from ORCA-job scan E -19.153593353730
  C       1.823232     -0.302549      0.737393
  C      -2.486152     -0.915623      0.352855
  C       1.133101      0.583677     -0.291234
  C      -0.350231      0.792505      0.042824
  C      -1.144287     -0.459961     -0.056013
  O      -1.241857     -1.457089      0.871670
  H      -2.141692     -0.972388     -0.707768
  H       2.855087     -0.488034      0.449344
  H       1.308089     -1.255531      0.823019
  H       1.818765      0.175047      1.714855
  H      -3.090377     -0.290677      0.990334
  H       1.623277      1.558993     -0.326618
  H       1.215401      0.131725     -1.281930
  H      -0.429746      1.186972      1.066215
  H      -0.783939      1.527069     -0.641767
15
Coordinates from ORCA-job scan E -19.153614190990
  C       1.823475     -0.302547      0.737221
  C      -2.487688     -0.916234      0.353696
  C       1.133403      0.583801     -0.291338
  C      -0.349932      0.792630      0.042752
  C      -1.144259     -0.459909     -0.056011
  O      -1.242384     -1.456780      0.873167
  H      -2.140436     -0.972337     -0.709639
  H       2.855339     -0.488022      0.449195
  H       1.308290     -1.255510      0.822760
  H       1.818968      0.174958      1.714720
  H      -3.092436     -0.291262      0.991012
  H       1.623644      1.559096     -0.326615
  H       1.215732      0.131947     -1.282086
  H      -0.429417      1.186999      1.066130
  H      -0.783630      1.527306     -0.641783
15
Coordinates from ORCA-job scan E -19.153626527790
  C       1.823493     -0.302683      0.736925
  C      -2.489325     -0.917005      0.355045
  C       1.133495      0.583929     -0.291466
  C      -0.349761      0.792748      0.042720
  C      -1.143871     -0.459798     -0.055623
  O      -1.242753     -1.455901      0.875393
  H      -2.137798     -0.972409     -0.712526
  H       2.855348     -0.488181      0.448885
  H       1.308194     -1.255599      0.822311
  H       1.818985      0.174631      1.714515
  H      -3.094019     -0.291302      0.991512
  H       1.623748      1.559220     -0.326486
  H       1.215876      0.132332     -1.282337
  H      -0.429321      1.186752      1.066084
  H      -0.783621      1.527403     -0.641772
15
Coordinates from ORCA-job scan E -19.153627520820
  C       1.823523     -0.302681      0.736867
  C      -2.489478     -0.917125      0.355140
  C       1.133379      0.583896     -0.291465
  C      -0.349894      0.792619      0.042827
  C      -1.143774     -0.459971     -0.055301
  O      -1.242968     -1.455808      0.875675
  H      -2.137196     -0.972420     -0.713095
  H       2.855358     -0.488125      0.448732
  H       1.308282     -1.255622      0.822317
  H       1.819079      0.174637      1.714457
  H      -3.093631     -0.290582      0.991236
  H       1.623546      1.559236     -0.326489
  H       1.215749      0.132342     -1.282355
  H      -0.429459      1.186480      1.066252
  H      -0.783847      1.527261     -0.641618
15
Coordinates from ORCA-job scan E -19.152545328860
  C       1.822764     -0.303009      0.736581
  C      -2.487598     -0.916008      0.354764
  C       1.132411      0.583489     -0.291679
  C      -0.350861      0.792010      0.042747
  C      -1.144583     -0.460685     -0.055325
  O      -1.243085     -1.456226      0.876037
  H      -2.129258     -0.968412     -0.709709
  H       2.854598     -0.488312      0.448352
  H       1.307657     -1.256019      0.822066
  H       1.818343      0.174297      1.714177
  H      -3.093557     -0.290289      0.989956
  H       1.622445      1.558894     -0.326735
  H       1.214753      0.131957     -1.282582
  H      -0.430387      1.185849      1.066183
  H      -0.784972      1.526602     -0.641651
15
Coordinates from ORCA-job scan E -19.152565810310
  C       1.823041     -0.302917      0.736441
  C      -2.489071     -0.916621      0.355309
  C       1.132577      0.583540     -0.291772
  C      -0.350681      0.792035      0.042848
  C      -1.144571     -0.460771     -0.054953
  O      -1.243908     -1.456251      0.877323
  H      -2.127718     -0.968147     -0.711900
  H       2.854803     -0.488343      0.448034
  H       1.307850     -1.255862      0.822143
  H       1.818843      0.174495      1.713979
  H      -3.095020     -0.290420      0.990439
  H       1.622618      1.558945     -0.326918
  H       1.214814      0.131978     -1.282676
  H      -0.430077      1.185744      1.066317
  H      -0.784829      1.526732     -0.641436
15
Coordinates from ORCA-job scan E -19.152583692230
  C       1.823256     -0.302871      0.736102
  C      -2.491257     -0.917709      0.356249
  C       1.132474      0.583573     -0.291911
  C      -0.350650      0.791960      0.043251
  C      -1.144103     -0.460959     -0.053524
  O      -1.245291     -1.455932      0.879964
  H      -2.123711     -0.967577     -0.716318
  H       2.854825     -0.488605      0.447209
  H       1.307842     -1.255662      0.822265
  H       1.819655      0.174716      1.713556
  H      -3.096189     -0.289691      0.990562
  H       1.622410      1.559015     -0.327193
  H       1.214435      0.132042     -1.282863
  H      -0.429829      1.185318      1.066739
  H      -0.785196      1.526518     -0.640910
15
Coordinates from ORCA-job scan E -19.152585867790
  C       1.823390     -0.302822      0.735989
  C      -2.491628     -0.917965      0.356111
  C       1.132289      0.583519     -0.291907
  C      -0.350829      0.791731      0.043571
  C      -1.143913     -0.461275     -0.052697
  O      -1.245962     -1.455965      0.880574
  H      -2.122572     -0.967322     -0.717325
  H       2.854883     -0.488547      0.446832
  H       1.308036     -1.255627      0.822372
  H       1.820041      0.174838      1.713409
  H      -3.095741     -0.288655      0.989911
  H       1.622078      1.559034     -0.327305
  H       1.214113      0.131988     -1.282870
  H      -0.429863      1.185067      1.067087
  H      -0.785652      1.526137     -0.640571
15
Coordinates from ORCA-job scan E -19.152589172170
  C       1.823843     -0.302639      0.735704
  C      -2.492425     -0.918593      0.355280
  C       1.131866      0.583404     -0.291857
  C      -0.351245      0.791029      0.044448
  C      -1.143435     -0.462318     -0.050575
  O      -1.247851     -1.456293      0.881930
  H      -2.120517     -0.966564     -0.718882
  H       2.855193     -0.488145      0.445919
  H       1.308808     -1.255586      0.822517
  H       1.821000      0.175122      1.713077
  H      -3.094510     -0.285826      0.987747
  H       1.621215      1.559133     -0.327552
  H       1.213323      0.131881     -1.282850
  H      -0.429797      1.184567      1.067970
  H      -0.786797      1.524964     -0.639695
15
Coordinates from ORCA-job scan E -19.152591068800
  C       1.824302     -0.302487      0.735440
  C      -2.493156     -0.919173      0.354362
  C       1.131635      0.583382     -0.291797
  C      -0.351463      0.790428      0.045149
  C      -1.142976     -0.463288     -0.048939
  O      -1.249480     -1.456596      0.883164
  H      -2.119482     -0.965868     -0.719341
  H       2.855603     -0.487628      0.445249
  H       1.309653     -1.255640      0.822373
  H       1.821681      0.175198      1.712851
  H      -3.093854     -0.283659      0.985655
  H       1.620602      1.559289     -0.327642
  H       1.212819      0.131931     -1.282845
  H      -0.429566      1.184372      1.068581
  H      -0.787647      1.523878     -0.639077
15
Coordinates from ORCA-job scan E -19.152593379280
  C       1.825076     -0.302310      0.734967
  C      -2.494460     -0.920173      0.352886
  C       1.131429      0.583447     -0.291692
  C      -0.351653      0.789524      0.046159
  C      -1.142127     -0.464829     -0.046623
  O      -1.251962     -1.456856      0.885403
  H      -2.118431     -0.964848     -0.719231
  H       2.856393     -0.486659      0.444321
  H       1.311150     -1.255879      0.821729
  H       1.822515      0.175004      1.712556
  H      -3.093408     -0.280579      0.982133
  H       1.619802      1.559632     -0.327575
  H       1.212276      0.132253     -1.282889
  H      -0.429069      1.184305      1.069347
  H      -0.788861      1.522105     -0.638310
15
Coordinates from ORCA-job scan E -19.152594605470
  C       1.825596     -0.302280      0.734590
  C      -2.495456     -0.920896      0.352062
  C       1.131414      0.583575     -0.291619
  C      -0.351673      0.788973      0.046712
  C      -1.141441     -0.465825     -0.045403
  O      -1.253424     -1.456660      0.887191
  H      -2.118090     -0.964423     -0.718563
  H       2.857014     -0.485892      0.443831
  H       1.312254     -1.256211      0.820883
  H       1.822785      0.174536      1.712417
  H      -3.093607     -0.278739      0.979664
  H       1.619407      1.559943     -0.327301
  H       1.212165      0.132719     -1.282981
  H      -0.428710      1.184375      1.069685
  H      -0.789564      1.520942     -0.637988
15
Coordinates from ORCA-job scan E -19.151574882750
  C       1.824842     -0.302606      0.734296
  C      -2.493625     -0.919826      0.351679
  C       1.130461      0.583178     -0.291838
  C      -0.352623      0.788381      0.046621
  C      -1.142241     -0.466515     -0.045447
  O      -1.253579     -1.457093      0.887535
  H      -2.110157     -0.960457     -0.715049
  H       2.856259     -0.486083      0.443446
  H       1.311628     -1.256604      0.820616
  H       1.822054      0.174193      1.712132
  H      -3.093571     -0.278452      0.978371
  H       1.618327      1.559608     -0.327546
  H       1.211184      0.132349     -1.283215
  H      -0.429624      1.183756      1.069608
  H      -0.790666      1.520306     -0.638028
15
Coordinates from ORCA-job scan E -19.151596196020
  C       1.825073     -0.302618      0.734106
  C      -2.495192     -0.920426      0.352497
  C       1.130747      0.583311     -0.291938
  C      -0.352332      0.788527      0.046575
  C      -1.142177     -0.466459     -0.045467
  O      -1.254141     -1.456708      0.889091
  H      -2.108746     -0.960570     -0.716888
  H       2.856492     -0.486094      0.443263
  H       1.311805     -1.256592      0.820332
  H       1.822264      0.174076      1.711986
  H      -3.095636     -0.278980      0.978971
  H       1.618684      1.559718     -0.327526
  H       1.211484      0.132596     -1.283374
  H      -0.429284      1.183782      1.069555
  H      -0.790370      1.520574     -0.638003
15
Coordinates from ORCA-job scan E -19.151611573620
  C       1.825093     -0.302793      0.733725
  C      -2.497070     -0.921197      0.354009
  C       1.130803      0.583468     -0.292071
  C      -0.352180      0.788677      0.046627
  C      -1.141752     -0.466337     -0.045039
  O      -1.254710     -1.455552      0.891800
  H      -2.105304     -0.961111     -0.720297
  H       2.856484     -0.486295      0.442803
  H       1.311694     -1.256712      0.819780
  H       1.822339      0.173660      1.711720
  H      -3.097470     -0.278819      0.979368
  H       1.618764      1.559866     -0.327367
  H       1.211539      0.133067     -1.283659
  H      -0.429148      1.183458      1.069618
  H      -0.790412      1.520755     -0.637836
15
Coordinates from ORCA-job scan E -19.151613068890
  C       1.825116     -0.302805      0.733623
  C      -2.497220     -0.921247      0.354170
  C       1.130639      0.583435     -0.292070
  C      -0.352354      0.788535      0.046798
  C      -1.141679     -0.466521     -0.044612
  O      -1.255036     -1.455347      0.892309
  H      -2.104274     -0.961362     -0.721185
  H       2.856474     -0.486253      0.442558
  H       1.311777     -1.256749      0.819755
  H       1.822473      0.173638      1.711623
  H      -3.097087     -0.277906      0.978984
  H       1.618509      1.559886     -0.327371
  H       1.211328      0.133100     -1.283691
  H      -0.429293      1.183108      1.069868
  H      -0.790702      1.520625     -0.637577
15
Coordinates from ORCA-job scan E -19.151614225690
  C       1.825251     -0.302750      0.733466
  C      -2.497348     -0.921294      0.354051
  C       1.130361      0.583376     -0.292043
  C      -0.352641      0.788190      0.047166
  C      -1.141599     -0.467024     -0.043761
  O      -1.255815     -1.455304      0.893003
  H      -2.103008     -0.961604     -0.722209
  H       2.856553     -0.486043      0.442115
  H       1.312092     -1.256780      0.819765
  H       1.822808      0.173703      1.711464
  H      -3.096270     -0.276166      0.978001
  H       1.618023      1.559934     -0.327425
  H       1.210913      0.133101     -1.283698
  H      -0.429449      1.182541      1.070351
  H      -0.791201      1.520256     -0.637065
15
Coordinates from ORCA-job scan E -19.150653246010
  C       1.824507     -0.303074      0.733170
  C      -2.495565     -0.920252      0.353667
  C       1.129422      0.582983     -0.292267
  C      -0.353578      0.787605      0.047066
  C      -1.142386     -0.467706     -0.043819
  O      -1.255981     -1.455740      0.893330
  H      -2.095104     -0.957622     -0.718613
  H       2.855807     -0.486233      0.441732
  H       1.311474     -1.257170      0.819494
  H       1.822084      0.173361      1.711176
  H      -3.096281     -0.275908      0.976706
  H       1.616959      1.559602     -0.327671
  H       1.209950      0.132736     -1.283937
  H      -0.430351      1.181929      1.070265
  H      -0.792285      1.519629     -0.637116
15
Coordinates from ORCA-job scan E -19.150672832570
  C       1.824800     -0.302997      0.732991
  C      -2.497056     -0.920793      0.354156
  C       1.129626      0.583083     -0.292355
  C      -0.353334      0.787664      0.047186
  C      -1.142366     -0.467789     -0.043464
  O      -1.256946     -1.455758      0.894854
  H      -2.093465     -0.957480     -0.720701
  H       2.856036     -0.486264      0.441387
  H       1.311681     -1.257035      0.819452
  H       1.822578      0.173479      1.710971
  H      -3.098048     -0.276189      0.977101
  H       1.617186      1.559690     -0.327812
  H       1.210023      0.132837     -1.284046
  H      -0.429934      1.181947      1.070372
  H      -0.792111      1.519741     -0.636912
15
Coordinates from ORCA-job scan E -19.150692737400
  C       1.825065     -0.303022      0.732488
  C      -2.499354     -0.921627      0.355186
  C       1.129547      0.583211     -0.292499
  C      -0.353212      0.787673      0.047734
  C      -1.141903     -0.467900     -0.041861
  O      -1.258811     -1.455190      0.898446
  H      -2.088395     -0.957478     -0.725603
  H       2.856090     -0.486597      0.440329
  H       1.311692     -1.256897      0.819290
  H       1.823499      0.173489      1.710448
  H      -3.100151     -0.275672      0.976934
  H       1.617048      1.559827     -0.328019
  H       1.209560      0.133096     -1.284298
  H      -0.429467      1.181709      1.070866
  H      -0.792539      1.519517     -0.636259
15
Coordinates from ORCA-job scan E -19.150695462440
  C       1.825201     -0.303015      0.732274
  C      -2.499653     -0.921662      0.355153
  C       1.129301      0.583166     -0.292507
  C      -0.353418      0.787471      0.048183
  C      -1.141754     -0.468150     -0.040791
  O      -1.259715     -1.455013      0.899538
  H      -2.086413     -0.957667     -0.727108
  H       2.856117     -0.486615      0.439754
  H       1.311856     -1.256884      0.819321
  H       1.823993      0.173544      1.710212
  H      -3.100064     -0.274573      0.976027
  H       1.616676      1.559846     -0.328148
  H       1.209092      0.133089     -1.284340
  H      -0.429449      1.181432      1.071355
  H      -0.793098      1.519167     -0.635742
15
Coordinates from ORCA-job scan E -19.150697380140
  C       1.825523     -0.302946      0.731935
  C      -2.499890     -0.921608      0.354636
  C       1.128928      0.583095     -0.292493
  C      -0.353723      0.787057      0.048982
  C      -1.141572     -0.468727     -0.038993
  O      -1.261309     -1.454938      0.901060
  H      -2.083967     -0.957948     -0.728624
  H       2.856287     -0.486452      0.438836
  H       1.312347     -1.256881      0.819333
  H       1.824826      0.173660      1.709850
  H      -3.099910     -0.272689      0.974044
  H       1.616056      1.559895     -0.328373
  H       1.208317      0.133055     -1.284371
  H      -0.429283      1.181068      1.072192
  H      -0.793961      1.518497     -0.634833
15
Coordinates from ORCA-job scan E -19.149808447600
  C       1.824790     -0.303269      0.731634
  C      -2.498166     -0.920604      0.354249
  C       1.128009      0.582707     -0.292723
  C      -0.354641      0.786483      0.048870
  C      -1.142344     -0.469394     -0.039068
  O      -1.261496     -1.455379      0.901364
  H      -2.076103     -0.953954     -0.724908
  H       2.855554     -0.486644      0.438452
  H       1.311736     -1.257268      0.819054
  H       1.824111      0.173319      1.709559
  H      -3.099982     -0.272471      0.972742
  H       1.615016      1.559567     -0.328622
  H       1.207376      0.132696     -1.284616
  H      -0.430169      1.180466      1.072093
  H      -0.795020      1.517883     -0.634897
15
Coordinates from ORCA-job scan E -19.149827755770
  C       1.825126     -0.303205      0.731382
  C      -2.499626     -0.921047      0.354630
  C       1.128177      0.582819     -0.292810
  C      -0.354406      0.786529      0.049114
  C      -1.142294     -0.469519     -0.038494
  O      -1.262706     -1.455326      0.903177
  H      -2.074111     -0.954033     -0.727002
  H       2.855813     -0.486654      0.437970
  H       1.312015     -1.257162      0.818929
  H       1.824692      0.173384      1.709300
  H      -3.101958     -0.272625      0.972741
  H       1.615195      1.559670     -0.328771
  H       1.207342      0.132835     -1.284741
  H      -0.429657      1.180528      1.072312
  H      -0.794933      1.517942     -0.634557
15
Coordinates from ORCA-job scan E -19.149853656270
  C       1.825623     -0.303277      0.730518
  C      -2.502337     -0.921681      0.355574
  C       1.128005      0.583023     -0.292985
  C      -0.354263      0.786516      0.050176
  C      -1.141709     -0.469754     -0.035880
  O      -1.265814     -1.454374      0.908568
  H      -2.066757     -0.954869     -0.733037
  H       2.856017     -0.486981      0.436226
  H       1.312302     -1.257094      0.818434
  H       1.826119      0.173208      1.708479
  H      -3.105469     -0.271697      0.971297
  H       1.614935      1.559892     -0.329047
  H       1.206468      0.133290     -1.285106
  H      -0.428765      1.180379      1.073275
  H      -0.795685      1.517557     -0.633311
15
Coordinates from ORCA-job scan E -19.149858719290
  C       1.825881     -0.303314      0.730066
  C      -2.502778     -0.921510      0.355536
  C       1.127652      0.583011     -0.293010
  C      -0.354505      0.786285      0.050969
  C      -1.141508     -0.470057     -0.034099
  O      -1.267478     -1.453884      0.910829
  H      -2.063139     -0.955672     -0.735421
  H       2.856098     -0.487031      0.435177
  H       1.312599     -1.257128      0.818275
  H       1.826947      0.173145      1.708038
  H      -3.106150     -0.270230      0.969548
  H       1.614436      1.559954     -0.329223
  H       1.205687      0.133398     -1.285221
  H      -0.428558      1.180070      1.074102
  H      -0.796514      1.517100     -0.632384
15
Coordinates from ORCA-job scan E -19.149862474840
  C       1.826383     -0.303313      0.729365
  C      -2.502996     -0.920986      0.354913
  C       1.127105      0.582981     -0.293018
  C      -0.354873      0.785828      0.052301
  C      -1.141315     -0.470689     -0.031207
  O      -1.270198     -1.453324      0.914026
  H      -2.058349     -0.957023     -0.738035
  H       2.856344     -0.486918      0.433526
  H       1.313293     -1.257197      0.818012
  H       1.828300      0.173089      1.707364
  H      -3.107168     -0.267824      0.966147
  H       1.613617      1.560055     -0.329530
  H       1.204406      0.133523     -1.285352
  H      -0.428111      1.179633      1.075486
  H      -0.797770      1.516299     -0.630816
15
Coordinates from ORCA-job scan E -19.149863290070
  C       1.826767     -0.303300      0.728948
  C      -2.503078     -0.920647      0.354245
  C       1.126922      0.583020     -0.293018
  C      -0.354931      0.785610      0.053044
  C      -1.141197     -0.471049     -0.029629
  O      -1.271783     -1.453038      0.915894
  H      -2.056336     -0.957759     -0.738651
  H       2.856613     -0.486773      0.432622
  H       1.313828     -1.257258      0.817732
  H       1.829081      0.172994      1.706998
  H      -3.108331     -0.266915      0.963884
  H       1.613296      1.560152     -0.329673
  H       1.203789      0.133665     -1.285434
  H      -0.427661      1.179587      1.076203
  H      -0.798310      1.515849     -0.629982
15
Coordinates from ORCA-job scan E -19.149074473830
  C       1.826051     -0.303621      0.728641
  C      -2.501435     -0.919695      0.353856
  C       1.126032      0.582639     -0.293258
  C      -0.355821      0.785051      0.052913
  C      -1.141947     -0.471697     -0.029731
  O      -1.271997     -1.453483      0.916161
  H      -2.048547     -0.953729     -0.734753
  H       2.855897     -0.486968      0.432239
  H       1.313229     -1.257640      0.817441
  H       1.828379      0.172653      1.706700
  H      -3.108486     -0.266765      0.962571
  H       1.612290      1.559829     -0.329927
  H       1.202881      0.133314     -1.285689
  H      -0.428524      1.178998      1.076084
  H      -0.799332      1.515252     -0.630067
15
Coordinates from ORCA-job scan E -19.149095677960
  C       1.826407     -0.303608      0.728296
  C      -2.502854     -0.919947      0.354248
  C       1.126210      0.582795     -0.293351
  C      -0.355540      0.785173      0.053229
  C      -1.141883     -0.471738     -0.029087
  O      -1.273405     -1.453207      0.918405
  H      -2.046083     -0.954244     -0.736859
  H       2.856162     -0.487038      0.431621
  H       1.313500     -1.257574      0.817172
  H       1.829020      0.172597      1.706381
  H      -3.111011     -0.267094      0.962287
  H       1.612515      1.559958     -0.330041
  H       1.202801      0.133556     -1.285853
  H      -0.427926      1.179127      1.076372
  H      -0.799243      1.515381     -0.629641
15
Coordinates from ORCA-job scan E -19.149139712120
  C       1.827145     -0.303884      0.726786
  C      -2.506142     -0.919809      0.355658
  C       1.126015      0.583226     -0.293616
  C      -0.355186      0.785468      0.054908
  C      -1.141244     -0.471682     -0.025469
  O      -1.278351     -1.451114      0.927130
  H      -2.034308     -0.957421     -0.745071
  H       2.856449     -0.487700      0.428772
  H       1.313848     -1.257614      0.815985
  H       1.831161      0.171932      1.705044
  H      -3.117991     -0.266555      0.959439
  H       1.612382      1.560336     -0.330310
  H       1.201442      0.134529     -1.286481
  H      -0.426400      1.179112      1.077957
  H      -0.800150      1.515313     -0.627552
15
Coordinates from ORCA-job scan E -19.149164880410
  C       1.827686     -0.304140      0.725457
  C      -2.507323     -0.918698      0.356318
  C       1.125362      0.583403     -0.293764
  C      -0.355423      0.785413      0.056740
  C      -1.140986     -0.471812     -0.021649
  O      -1.282752     -1.449279      0.933897
  H      -2.023693     -0.961048     -0.751587
  H       2.856536     -0.488185      0.426026
  H       1.314219     -1.257736      0.815154
  H       1.833130      0.171421      1.703827
  H      -3.122253     -0.264529      0.955669
  H       1.611664      1.560547     -0.330642
  H       1.199640      0.135140     -1.286921
  H      -0.425520      1.178645      1.079872
  H      -0.801616      1.514995     -0.625216
15
Coordinates from ORCA-job scan E -19.149360964030
  C       1.829978     -0.305311      0.719261
  C      -2.510384     -0.912051      0.358079
  C       1.121944      0.584075     -0.294419
  C      -0.356798      0.785131      0.065528
  C      -1.140804     -0.472301     -0.003532
  O      -1.303671     -1.441174      0.963530
  H      -1.973946     -0.978952     -0.778459
  H       2.856654     -0.490361      0.413087
  H       1.315866     -1.258352      0.811445
  H       1.842212      0.169173      1.698074
  H      -3.141244     -0.255078      0.936566
  H       1.608037      1.561299     -0.332497
  H       1.190500      0.137601     -1.288818
  H      -0.421318      1.176609      1.089144
  H      -0.808356      1.513828     -0.613807
15
Coordinates from ORCA-job scan E -19.150001051410
  C       1.830172     -0.306314      0.715246
  C      -2.511158     -0.905118      0.363032
  C       1.119005      0.584180     -0.295285
  C      -0.358132      0.785649      0.070853
  C      -1.142130     -0.471255      0.008620
  O      -1.318910     -1.437298      0.982924
  H      -1.930576     -0.990303     -0.803954
  H       2.855398     -0.492625      0.404997
  H       1.315203     -1.258734      0.809331
  H       1.846825      0.167827      1.694146
  H      -3.154467     -0.250973      0.930300
  H       1.605596      1.561097     -0.334768
  H       1.183427      0.138252     -1.290236
  H      -0.418973      1.175687      1.094722
  H      -0.812611      1.514065     -0.606748
15
Coordinates from ORCA-job scan E -19.151053013890
  C       1.829184     -0.306928      0.713621
  C      -2.510102     -0.899153      0.369404
  C       1.116979      0.583866     -0.295931
  C      -0.359282      0.786043      0.072680
  C      -1.143698     -0.470355      0.013659
  O      -1.327717     -1.437204      0.991815
  H      -1.901622     -0.994344     -0.824386
  H       2.853794     -0.494125      0.401856
  H       1.313643     -1.258952      0.808725
  H       1.847703      0.167367      1.692418
  H      -3.160196     -0.250144      0.934482
  H       1.604068      1.560488     -0.336385
  H       1.179507      0.137757     -1.290931
  H      -0.418925      1.175530      1.096525
  H      -0.814665      1.514292     -0.604370
15
Coordinates from ORCA-job scan E -19.152714541770
  C       1.827921     -0.307526      0.712324
  C      -2.508772     -0.893148      0.376446
  C       1.114982      0.583461     -0.296555
  C      -0.360469      0.786429      0.073950
  C      -1.145200     -0.469617      0.017404
  O      -1.336242     -1.437791      0.999253
  H      -1.873207     -0.997003     -0.844688
  H       2.852029     -0.495570      0.399399
  H       1.311836     -1.259175      0.808307
  H       1.847966      0.166999      1.690992
  H      -3.164803     -0.249817      0.940866
  H       1.602586      1.559788     -0.337905
  H       1.175935      0.137050     -1.291517
  H      -0.419336      1.175632      1.097682
  H      -0.816554      1.514424     -0.602776
15
Coordinates from ORCA-job scan E -19.155023526010
  C       1.826477     -0.308137      0.711201
  C      -2.507280     -0.887238      0.383818
  C       1.112975      0.583001     -0.297167
  C      -0.361675      0.786874      0.074920
  C      -1.146591     -0.468992      0.020346
  O      -1.344850     -1.438646      1.005768
  H      -1.844772     -0.998777     -0.864643
  H       2.850128     -0.497036      0.397288
  H       1.309844     -1.259412      0.807997
  H       1.847903      0.166666      1.689725
  H      -3.168768     -0.249917      0.948499
  H       1.601136      1.559014     -0.339385
  H       1.172483      0.136202     -1.292034
  H      -0.419963      1.176031      1.098476
  H      -0.818377      1.514507     -0.601628
15
Coordinates from ORCA-job scan E -19.157977312220
  C       1.824904     -0.308782      0.710177
  C      -2.505721     -0.881485      0.391346
  C       1.110948      0.582497     -0.297769
  C      -0.362890      0.787417      0.075713
  C      -1.147882     -0.468421      0.022720
  O      -1.353634     -1.439476      1.011583
  H      -1.816043     -0.999950     -0.884126
  H       2.848114     -0.498573      0.395357
  H       1.307710     -1.259676      0.807755
  H       1.847666      0.166329      1.688548
  H      -3.172423     -0.250476      0.956948
  H       1.599728      1.558165     -0.340849
  H       1.169050      0.135245     -1.292500
  H      -0.420689      1.176744      1.099043
  H      -0.820168      1.514580     -0.600765
15
Coordinates from ORCA-job scan E -19.163501950760
  C       1.822474     -0.309925      0.708407
  C      -2.504201     -0.873283      0.402448
  C       1.107886      0.581765     -0.298771
  C      -0.364756      0.788332      0.076990
  C      -1.149850     -0.467277      0.026355
  O      -1.366664     -1.439586      1.020498
  H      -1.770760     -1.001742     -0.911810
  H       2.844982     -0.501117      0.392162
  H       1.304356     -1.260217      0.807078
  H       1.847323      0.165516      1.686601
  H      -3.178988     -0.251762      0.968972
  H       1.597681      1.556873     -0.343058
  H       1.163789      0.133955     -1.293361
  H      -0.421719      1.177748      1.100000
  H      -0.822881      1.514858     -0.599330
15
Coordinates from ORCA-job scan E -19.173562362790
  C       1.818650     -0.312016      0.705296
  C      -2.503240     -0.861711      0.418496
  C       1.103121      0.580656     -0.300422
  C      -0.367669      0.789931      0.079079
  C      -1.153019     -0.465151      0.031805
  O      -1.385903     -1.437484      1.033944
  H      -1.698299     -1.004317     -0.949675
  H       2.840004     -0.505417      0.386703
  H       1.299036     -1.261360      0.805486
  H       1.846885      0.163681      1.683328
  H      -3.190814     -0.254649      0.985650
  H       1.594609      1.554832     -0.346393
  H       1.155444      0.132219     -1.294896
  H      -0.423101      1.179333      1.101675
  H      -0.827034      1.515592     -0.596896
15
Coordinates from ORCA-job scan E -19.189849647290
  C       1.812584     -0.316001      0.699430
  C      -2.504437     -0.845322      0.440752
  C       1.095483      0.579003     -0.303222
  C      -0.372370      0.792654      0.082713
  C      -1.158494     -0.461250      0.040166
  O      -1.413718     -1.429759      1.054603
  H      -1.579450     -1.008179     -0.996655
  H       2.831971     -0.512805      0.376714
  H       1.290564     -1.263874      0.801570
  H       1.846515      0.159432      1.677486
  H      -3.213065     -0.260484      1.006228
  H       1.589808      1.551618     -0.351383
  H       1.141745      0.130216     -1.297794
  H      -0.424793      1.181558      1.104900
  H      -0.833673      1.517331     -0.592328
15
Coordinates from ORCA-job scan E -19.209765072740
  C       1.801576     -0.322794      0.693138
  C      -2.501398     -0.819911      0.471834
  C       1.082819      0.575160     -0.305935
  C      -0.380786      0.796384      0.085727
  C      -1.167990     -0.458763      0.040873
  O      -1.445352     -1.414425      1.069441
  H      -1.410889     -1.006199     -1.051211
  H       2.818512     -0.523582      0.365347
  H       1.277320     -1.269324      0.797080
  H       1.842819      0.152253      1.671351
  H      -3.235691     -0.271950      1.045767
  H       1.581460      1.545321     -0.356922
  H       1.120755      0.125127     -1.300060
  H      -0.430424      1.189087      1.106610
  H      -0.844060      1.517754     -0.589859
15
Coordinates from ORCA-job scan E -19.225146057570
  C       1.787736     -0.333598      0.676725
  C      -2.499789     -0.776446      0.498383
  C       1.064472      0.574058     -0.310224
  C      -0.395050      0.797587      0.094178
  C      -1.185969     -0.457284      0.044179
  O      -1.475205     -1.391130      1.100421
  H      -1.175369     -1.032103     -1.060721
  H       2.801925     -0.534475      0.340381
  H       1.262400     -1.280093      0.776358
  H       1.837287      0.133341      1.658304
  H      -3.271111     -0.264294      1.051324
  H       1.567392      1.542289     -0.358745
  H       1.092118      0.130109     -1.307511
  H      -0.439190      1.184501      1.115486
  H      -0.862976      1.521676     -0.575358
15
Coordinates from ORCA-job scan E -19.231159052400
  C       1.783419     -0.341401      0.657176
  C      -2.524710     -0.743890      0.517283
  C       1.054959      0.577603     -0.315201
  C      -0.402704      0.793564      0.100320
  C      -1.202952     -0.460626      0.042833
  O      -1.492285     -1.370297      1.137709
  H      -0.995533     -1.069867     -1.023533
  H       2.797331     -0.534996      0.315408
  H       1.260638     -1.290365      0.745851
  H       1.834120      0.112260      1.644601
  H      -3.325528     -0.245591      1.026139
  H       1.557709      1.546235     -0.355176
  H       1.078563      0.146139     -1.318301
  H      -0.441312      1.167864      1.125962
  H      -0.873047      1.527505     -0.557892
15
Coordinates from ORCA-job scan E -19.232962382270
  C       1.775663     -0.344502      0.661034
  C      -2.507302     -0.716405      0.540079
  C       1.046260      0.576817     -0.308827
  C      -0.412557      0.785356      0.094590
  C      -1.215533     -0.481162     -0.000469
  O      -1.473787     -1.350283      1.119849
  H      -0.965742     -1.100545     -1.051803
  H       2.793210     -0.526878      0.323815
  H       1.261186     -1.298851      0.738445
  H       1.817286      0.101969      1.652446
  H      -3.294371     -0.216892      1.067711
  H       1.544499      1.547689     -0.338845
  H       1.077812      0.152175     -1.314449
  H      -0.457408      1.164885      1.121938
  H      -0.880546      1.520766     -0.562335
15
Coordinates from ORCA-job scan E -19.233965570900
  C       1.776452     -0.346232      0.655469
  C      -2.518125     -0.705168      0.553313
  C       1.045600      0.581294     -0.307477
  C      -0.416853      0.776876      0.092292
  C      -1.222622     -0.490788     -0.017783
  O      -1.457603     -1.329882      1.132357
  H      -0.949451     -1.145192     -1.041730
  H       2.798291     -0.514284      0.323531
  H       1.270198     -1.306011      0.717538
  H       1.805979      0.087627      1.652623
  H      -3.298695     -0.183454      1.059565
  H       1.539022      1.555214     -0.324444
  H       1.086339      0.169147     -1.318461
  H      -0.465466      1.142712      1.122208
  H      -0.884396      1.522278     -0.555818
15
Coordinates from ORCA-job scan E -19.234379989260
  C       1.771731     -0.346409      0.661236
  C      -2.510183     -0.709000      0.566447
  C       1.046220      0.581208     -0.305652
  C      -0.419745      0.774855      0.084011
  C      -1.225262     -0.491674     -0.035889
  O      -1.428229     -1.320545      1.122222
  H      -0.983915     -1.155199     -1.061959
  H       2.797846     -0.507303      0.339184
  H       1.270285     -1.309189      0.714807
  H       1.788383      0.083765      1.660292
  H      -3.274608     -0.172205      1.082568
  H       1.538936      1.555790     -0.317587
  H       1.095595      0.170859     -1.316999
  H      -0.476857      1.134161      1.114364
  H      -0.881529      1.525025     -0.563866
15
Coordinates from ORCA-job scan E -19.234690537780
  C       1.762211     -0.346904      0.671867
  C      -2.496940     -0.723974      0.582739
  C       1.047172      0.578568     -0.304788
  C      -0.422351      0.777920      0.071018
  C      -1.228600     -0.484924     -0.053438
  O      -1.386574     -1.316553      1.101639
  H      -1.032511     -1.144156     -1.091847
  H       2.793260     -0.503429      0.363786
  H       1.264142     -1.311743      0.718577
  H       1.763365      0.083014      1.671256
  H      -3.238460     -0.174489      1.121718
  H       1.542784      1.551844     -0.315980
  H       1.104567      0.164249     -1.313882
  H      -0.491052      1.132504      1.101599
  H      -0.872342      1.532211     -0.581083
15
Coordinates from ORCA-job scan E -19.234864724090
  C       1.753374     -0.347266      0.681844
  C      -2.486058     -0.737349      0.595149
  C       1.046787      0.574328     -0.304598
  C      -0.424590      0.782508      0.060292
  C      -1.233524     -0.477324     -0.065233
  O      -1.356952     -1.320997      1.079934
  H      -1.062083     -1.120407     -1.118032
  H       2.787553     -0.503007      0.383906
  H       1.256750     -1.312863      0.726906
  H       1.744536      0.085773      1.679888
  H      -3.206746     -0.183942      1.159835
  H       1.546246      1.545575     -0.319166
  H       1.108007      0.153107     -1.310482
  H      -0.501327      1.137653      1.090376
  H      -0.863304      1.538347     -0.597438
15
Coordinates from ORCA-job scan E -19.235111186100
  C       1.738944     -0.347145      0.699272
  C      -2.469575     -0.758878      0.613132
  C       1.044575      0.565333     -0.304123
  C      -0.428880      0.790293      0.043725
  C      -1.244425     -0.464749     -0.082937
  O      -1.315693     -1.337130      1.038606
  H      -1.101167     -1.070156     -1.161961
  H       2.777151     -0.503387      0.415663
  H       1.244038     -1.313421      0.746140
  H       1.717000      0.094375      1.693424
  H      -3.148583     -0.201345      1.226236
  H       1.550773      1.532841     -0.327773
  H       1.109809      0.130016     -1.303665
  H      -0.516581      1.150622      1.071892
  H      -0.848716      1.546868     -0.624450
15
Coordinates from ORCA-job scan E -19.235272850420
  C       1.731190     -0.345741      0.711228
  C      -2.461930     -0.770145      0.621503
  C       1.041915      0.558153     -0.303238
  C      -0.432376      0.793542      0.034983
  C      -1.253655     -0.458523     -0.094562
  O      -1.298288     -1.355985      1.007302
  H      -1.119861     -1.032520     -1.191813
  H       2.771056     -0.502966      0.434151
  H       1.237424     -1.312269      0.763233
  H       1.703875      0.103927      1.701604
  H      -3.104585     -0.208601      1.270835
  H       1.551483      1.523649     -0.335162
  H       1.108629      0.112321     -1.298109
  H      -0.524659      1.159976      1.061086
  H      -0.841547      1.549319     -0.639859
15
Coordinates from ORCA-job scan E -19.235394730440
  C       1.729136     -0.343529      0.717489
  C      -2.462024     -0.771634      0.621953
  C       1.039785      0.554336     -0.302037
  C      -0.434931      0.792059      0.032880
  C      -1.259281     -0.458942     -0.101820
  O      -1.299790     -1.374318      0.988246
  H      -1.123136     -1.013653     -1.208659
  H       2.768977     -0.501907      0.440993
  H       1.235617     -1.309885      0.775048
  H       1.702040      0.112025      1.705192
  H      -3.074962     -0.203026      1.294681
  H       1.549057      1.519899     -0.338847
  H       1.107522      0.103296     -1.294613
  H      -0.527034      1.163280      1.057313
  H      -0.842307      1.546137     -0.644639
15
Coordinates from ORCA-job scan E -19.235465075070
  C       1.730269     -0.342060      0.717483
  C      -2.465944     -0.766550      0.617654
  C       1.039191      0.555493     -0.301033
  C      -0.436063      0.787795      0.034966
  C      -1.259004     -0.464225     -0.104320
  O      -1.310467     -1.383898      0.985076
  H      -1.116934     -1.018287     -1.210740
  H       2.769267     -0.501601      0.438655
  H       1.235570     -1.307787      0.776789
  H       1.705860      0.114308      1.704886
  H      -3.062485     -0.188094      1.297441
  H       1.545642      1.522688     -0.336414
  H       1.108884      0.106200     -1.294326
  H      -0.526143      1.160195      1.058767
  H      -0.848972      1.539960     -0.641701
15
Coordinates from ORCA-job scan E -19.235502900850
  C       1.732190     -0.341665      0.714125
  C      -2.470599     -0.760492      0.611868
  C       1.039589      0.559328     -0.300436
  C      -0.436290      0.783438      0.038062
  C      -1.255318     -0.470495     -0.103431
  O      -1.321802     -1.384767      0.991130
  H      -1.107931     -1.034941     -1.203891
  H       2.770297     -0.502078      0.432641
  H       1.235800     -1.306668      0.771884
  H       1.710518      0.112030      1.702816
  H      -3.060542     -0.171763      1.289138
  H       1.542723      1.528432     -0.330703
  H       1.111564      0.115408     -1.295960
  H      -0.524881      1.154244      1.062178
  H      -0.856647      1.534127     -0.636240
15
Coordinates from ORCA-job scan E -19.235520279230
  C       1.734069     -0.342035      0.709948
  C      -2.474831     -0.756526      0.606539
  C       1.040122      0.562996     -0.300316
  C      -0.436034      0.780798      0.040757
  C      -1.251354     -0.474885     -0.100386
  O      -1.330286     -1.380048      1.000097
  H      -1.098588     -1.051680     -1.193685
  H       2.771532     -0.502666      0.426294
  H       1.236617     -1.306647      0.765141
  H       1.714431      0.108114      1.700286
  H      -3.065499     -0.160916      1.277485
  H       1.540929      1.533369     -0.325650
  H       1.113170      0.124280     -1.298011
  H      -0.524023      1.148928      1.065777
  H      -0.861584      1.531055     -0.631094
15
Coordinates from ORCA-job scan E -19.235528209470
  C       1.735617     -0.342683      0.706337
  C      -2.478391     -0.754614      0.602259
  C       1.040312      0.565322     -0.300464
  C      -0.435718      0.779846      0.042826
  C      -1.248612     -0.477156     -0.096759
  O      -1.336104     -1.374008      1.008165
  H      -1.089449     -1.063477     -1.184062
  H       2.772679     -0.502941      0.421011
  H       1.237973     -1.307311      0.759419
  H       1.717361      0.104579      1.697994
  H      -3.072949     -0.155891      1.267134
  H       1.539976      1.536278     -0.322686
  H       1.113045      0.130085     -1.299664
  H      -0.523455      1.145628      1.068806
  H      -0.863616      1.530479     -0.627135
15
Coordinates from ORCA-job scan E -19.235531170000
  C       1.736519     -0.343252      0.704177
  C      -2.480656     -0.754102      0.599674
  C       1.040150      0.566129     -0.300649
  C      -0.435578      0.780013      0.044044
  C      -1.247488     -0.477765     -0.094102
  O      -1.339208     -1.369795      1.013123
  H      -1.082569     -1.068827     -1.177975
  H       2.773436     -0.502792      0.417898
  H       1.239313     -1.308175      0.756095
  H       1.718853      0.102408      1.696557
  H      -3.078802     -0.155081      1.261060
  H       1.539634      1.537169     -0.321800
  H       1.111890      0.132339     -1.300543
  H      -0.523136      1.144626      1.070593
  H      -0.863689      1.531241     -0.624972
15
Coordinates from ORCA-job scan E -19.235531960410
  C       1.736781     -0.343580      0.703418
  C      -2.481500     -0.754126      0.598728
  C       1.039922      0.566098     -0.300735
  C      -0.435605      0.780450      0.044471
  C      -1.247370     -0.477641     -0.092998
  O      -1.340160     -1.368173      1.015017
  H      -1.079301     -1.069867     -1.175751
  H       2.773750     -0.502416      0.416914
  H       1.240144     -1.308830      0.754826
  H       1.719013      0.101471      1.696066
  H      -3.081297     -0.155768      1.259170
  H       1.539623      1.537036     -0.321894
  H       1.110920      0.132543     -1.300796
  H      -0.523031      1.144944      1.071133
  H      -0.863219      1.531998     -0.624388
15
Coordinates from ORCA-job scan E -19.234868323240
  C       1.736761     -0.343507      0.703552
  C      -2.481567     -0.753725      0.599438
  C       1.039840      0.566188     -0.300544
  C      -0.435625      0.780669      0.044851
  C      -1.247506     -0.477364     -0.092462
  O      -1.340220     -1.367846      1.015599
  H      -1.078812     -1.072522     -1.180477
  H       2.773679     -0.502436      0.416915
  H       1.240054     -1.308716      0.755062
  H       1.719160      0.101582      1.696185
  H      -3.081229     -0.155294      1.259937
  H       1.539615      1.537086     -0.321806
  H       1.110671      0.132589     -1.300598
  H      -0.522885      1.145208      1.071510
  H      -0.863268      1.532226     -0.623980
15
Coordinates from ORCA-job scan E -19.234868715120
  C       1.736729     -0.343645      0.703396
  C      -2.481617     -0.753808      0.599208
  C       1.039783      0.566132     -0.300577
  C      -0.435637      0.780857      0.044897
  C      -1.247595     -0.477017     -0.092133
  O      -1.340116     -1.367433      1.016035
  H      -1.078076     -1.072568     -1.179804
  H       2.773707     -0.502292      0.416822
  H       1.240216     -1.308968      0.754654
  H       1.718931      0.101231      1.696126
  H      -3.081825     -0.155789      1.259580
  H       1.539713      1.536967     -0.321898
  H       1.110402      0.132551     -1.300649
  H      -0.522780      1.145496      1.071514
  H      -0.863164      1.532421     -0.623989
15
Coordinates from ORCA-job scan E -19.234868715120
  C       1.736729     -0.343645      0.703396
  C      -2.481617     -0.753808      0.599208
  C       1.039783      0.566132     -0.300577
  C      -0.435637      0.780857      0.044897
  C      -1.247595     -0.477017     -0.092133
  O      -1.340116     -1.367433      1.016035
  H      -1.078076     -1.072568     -1.179804
  H       2.773707     -0.502292      0.416822
  H       1.240216     -1.308968      0.754654
  H       1.718931      0.101231      1.696126
  H      -3.081825     -0.155789      1.259580
  H       1.539713      1.536967     -0.321898
  H       1.110402      0.132551     -1.300649
  H      -0.522780      1.145496      1.071514
  H      -0.863164      1.532421     -0.623989
15
Coordinates from ORCA-job scan E -19.234178245190
  C       1.736692     -0.343644      0.703467
  C      -2.481728     -0.753476      0.599823
  C       1.039692      0.566180     -0.300412
  C      -0.435635      0.781225      0.045279
  C      -1.247795     -0.476528     -0.091385
  O      -1.340148     -1.366952      1.016848
  H      -1.077311     -1.075203     -1.184299
  H       2.773674     -0.502183      0.416848
  H       1.240254     -1.309008      0.754661
  H       1.718881      0.101144      1.696236
  H      -3.082105     -0.155720      1.260275
  H       1.539799      1.536923     -0.321891
  H       1.110024      0.132541     -1.300482
  H      -0.522536      1.146041      1.071862
  H      -0.863086      1.532795     -0.623649
15
Coordinates from ORCA-job scan E -19.233460689520
  C       1.736659     -0.343645      0.703526
  C      -2.481827     -0.753171      0.600379
  C       1.039606      0.566223     -0.300264
  C      -0.435613      0.781577      0.045673
  C      -1.247969     -0.475906     -0.090409
  O      -1.340080     -1.366397      1.017651
  H      -1.076486     -1.077692     -1.188710
  H       2.773622     -0.502155      0.416824
  H       1.240237     -1.309018      0.754695
  H       1.718914      0.101085      1.696327
  H      -3.082587     -0.155774      1.260812
  H       1.539900      1.536872     -0.321940
  H       1.109600      0.132486     -1.300307
  H      -0.522251      1.146550      1.072226
  H      -0.863055      1.533101     -0.623303
15
Coordinates from ORCA-job scan E -19.232716776500
  C       1.736658     -0.343630      0.703591
  C      -2.481978     -0.752908      0.600890
  C       1.039543      0.566257     -0.300132
  C      -0.435553      0.781945      0.046086
  C      -1.248152     -0.475210     -0.089280
  O      -1.340031     -1.365872      1.018425
  H      -1.075681     -1.080073     -1.193125
  H       2.773580     -0.502180      0.416768
  H       1.240205     -1.308983      0.754798
  H       1.719051      0.101095      1.696400
  H      -3.083262     -0.155987      1.261277
  H       1.540033      1.536804     -0.322061
  H       1.109151      0.132367     -1.300125
  H      -0.521887      1.147102      1.072616
  H      -0.863005      1.533409     -0.622946
15
Coordinates from ORCA-job scan E -19.231947125610
  C       1.736677     -0.343602      0.703660
  C      -2.482174     -0.752681      0.601368
  C       1.039495      0.566284     -0.300011
  C      -0.435462      0.782342      0.046518
  C      -1.248338     -0.474457     -0.088040
  O      -1.340009     -1.365379      1.019180
  H      -1.074874     -1.082377     -1.197570
  H       2.773539     -0.502253      0.416683
  H       1.240152     -1.308912      0.754966
  H       1.719271      0.101164      1.696459
  H      -3.084093     -0.156349      1.261701
  H       1.540196      1.536718     -0.322244
  H       1.108672      0.132193     -1.299937
  H      -0.521451      1.147715      1.073025
  H      -0.862933      1.533731     -0.622578
15
Coordinates from ORCA-job scan E -19.231152395040
  C       1.736710     -0.343567      0.703734
  C      -2.482403     -0.752481      0.601820
  C       1.039458      0.566303     -0.299898
  C      -0.435346      0.782769      0.046971
  C      -1.248523     -0.473656     -0.086714
  O      -1.340008     -1.364908      1.019926
  H      -1.074049     -1.084627     -1.202052
  H       2.773494     -0.502369      0.416571
  H       1.240078     -1.308813      0.755186
  H       1.719558      0.101278      1.696506
  H      -3.085048     -0.156839      1.262099
  H       1.540382      1.536615     -0.322478
  H       1.108165      0.131972     -1.299743
  H      -0.520954      1.148391      1.073451
  H      -0.862844      1.534067     -0.622198
15
Coordinates from ORCA-job scan E -19.230333323980
  C       1.736751     -0.343526      0.703810
  C      -2.482655     -0.752300      0.602251
  C       1.039426      0.566317     -0.299790
  C      -0.435211      0.783222      0.047442
  C      -1.248707     -0.472812     -0.085320
  O      -1.340024     -1.364451      1.020670
  H      -1.073201     -1.086843     -1.206578
  H       2.773446     -0.502522      0.416438
  H       1.239984     -1.308691      0.755451
  H       1.719899      0.101428      1.696543
  H      -3.086106     -0.157435      1.262479
  H       1.540589      1.536497     -0.322754
  H       1.107633      0.131715     -1.299543
  H      -0.520409      1.149122      1.073890
  H      -0.862744      1.534417     -0.621808
15
Coordinates from ORCA-job scan E -19.229490753120
  C       1.736798     -0.343481      0.703889
  C      -2.482926     -0.752131      0.602667
  C       1.039399      0.566324     -0.299687
  C      -0.435061      0.783698      0.047930
  C      -1.248891     -0.471933     -0.083871
  O      -1.340053     -1.364004      1.021417
  H      -1.072328     -1.089036     -1.211152
  H       2.773393     -0.502705      0.416287
  H       1.239874     -1.308553      0.755752
  H       1.720282      0.101607      1.696572
  H      -3.087247     -0.158120      1.262846
  H       1.540812      1.536366     -0.323065
  H       1.107077      0.131426     -1.299338
  H      -0.519823      1.149901      1.074342
  H      -0.862636      1.534778     -0.621408
15
Coordinates from ORCA-job scan E -19.228625636410
  C       1.736851     -0.343433      0.703970
  C      -2.483211     -0.751972      0.603071
  C       1.039376      0.566328     -0.299587
  C      -0.434899      0.784194      0.048432
  C      -1.249074     -0.471023     -0.082376
  O      -1.340093     -1.363563      1.022169
  H      -1.071432     -1.091217     -1.215773
  H       2.773336     -0.502912      0.416121
  H       1.239751     -1.308400      0.756081
  H       1.720700      0.101809      1.696594
  H      -3.088459     -0.158879      1.263203
  H       1.541050      1.536223     -0.323405
  H       1.106500      0.131112     -1.299128
  H      -0.519202      1.150719      1.074805
  H      -0.862522      1.535151     -0.620998
15
Coordinates from ORCA-job scan E -19.227739048730
  C       1.736909     -0.343383      0.704052
  C      -2.483507     -0.751818      0.603467
  C       1.039354      0.566327     -0.299490
  C      -0.434727      0.784707      0.048949
  C      -1.249258     -0.470088     -0.080840
  O      -1.340142     -1.363123      1.022930
  H      -1.070513     -1.093392     -1.220439
  H       2.773276     -0.503138      0.415941
  H       1.239618     -1.308237      0.756435
  H       1.721146      0.102029      1.696611
  H      -3.089733     -0.159700      1.263549
  H       1.541299      1.536071     -0.323769
  H       1.105904      0.130777     -1.298914
  H      -0.518551      1.151572      1.075278
  H      -0.862403      1.535533     -0.620579
15
Coordinates from ORCA-job scan E -19.226832190630
  C       1.736969     -0.343332      0.704135
  C      -2.483813     -0.751668      0.603856
  C       1.039335      0.566324     -0.299395
  C      -0.434547      0.785235      0.049478
  C      -1.249443     -0.469129     -0.079269
  O      -1.340197     -1.362685      1.023701
  H      -1.069571     -1.095564     -1.225150
  H       2.773214     -0.503381      0.415750
  H       1.239477     -1.308065      0.756806
  H       1.721616      0.102263      1.696623
  H      -3.091062     -0.160573      1.263887
  H       1.541558      1.535910     -0.324154
  H       1.105290      0.130424     -1.298696
  H      -0.517874      1.152453      1.075760
  H      -0.862280      1.535924     -0.620151
15
Coordinates from ORCA-job scan E -19.225906388150
  C       1.737033     -0.343279      0.704218
  C      -2.484126     -0.751520      0.604239
  C       1.039316      0.566318     -0.299302
  C      -0.434360      0.785776      0.050018
  C      -1.249628     -0.468150     -0.077666
  O      -1.340260     -1.362244      1.024485
  H      -1.068607     -1.097738     -1.229900
  H       2.773148     -0.503637      0.415549
  H       1.239328     -1.307885      0.757193
  H       1.722106      0.102509      1.696630
  H      -3.092440     -0.161493      1.264214
  H       1.541826      1.535742     -0.324557
  H       1.104661      0.130057     -1.298476
  H      -0.517175      1.153360      1.076252
  H      -0.862154      1.536322     -0.619715
15
Coordinates from ORCA-job scan E -19.224963088540
  C       1.737100     -0.343226      0.704300
  C      -2.484446     -0.751374      0.604618
  C       1.039299      0.566310     -0.299211
  C      -0.434166      0.786329      0.050568
  C      -1.249814     -0.467154     -0.076034
  O      -1.340328     -1.361801      1.025283
  H      -1.067618     -1.099914     -1.234686
  H       2.773081     -0.503905      0.415337
  H       1.239174     -1.307700      0.757591
  H       1.722613      0.102764      1.696633
  H      -3.093864     -0.162452      1.264529
  H       1.542102      1.535568     -0.324975
  H       1.104016      0.129676     -1.298253
  H      -0.516455      1.154288      1.076752
  H      -0.862026      1.536728     -0.619270
15
Coordinates from ORCA-job scan E -19.224003844840
  C       1.737169     -0.343173      0.704381
  C      -2.484772     -0.751227      0.604993
  C       1.039282      0.566300     -0.299120
  C      -0.433966      0.786892      0.051128
  C      -1.250000     -0.466142     -0.074373
  O      -1.340401     -1.361353      1.026096
  H      -1.066606     -1.102094     -1.239503
  H       2.773012     -0.504183      0.415115
  H       1.239016     -1.307511      0.757998
  H       1.723136      0.103024      1.696631
  H      -3.095331     -0.163448      1.264830
  H       1.542384      1.535389     -0.325408
  H       1.103357      0.129286     -1.298028
  H      -0.515716      1.155236      1.077259
  H      -0.861895      1.537139     -0.618818
15
Coordinates from ORCA-job scan E -19.223030288360
  C       1.737240     -0.343120      0.704459
  C      -2.485103     -0.751082      0.605364
  C       1.039266      0.566290     -0.299032
  C      -0.433761      0.787466      0.051698
  C      -1.250185     -0.465115     -0.072687
  O      -1.340479     -1.360900      1.026927
  H      -1.065568     -1.104277     -1.244343
  H       2.772941     -0.504470      0.414883
  H       1.238853     -1.307318      0.758409
  H       1.723673      0.103289      1.696625
  H      -3.096839     -0.164475      1.265116
  H       1.542671      1.535205     -0.325853
  H       1.102685      0.128886     -1.297801
  H      -0.514960      1.156202      1.077775
  H      -0.861764      1.537557     -0.618358
15
Coordinates from ORCA-job scan E -19.222044084470
  C       1.737313     -0.343069      0.704534
  C      -2.485438     -0.750936      0.605730
  C       1.039250      0.566279     -0.298945
  C      -0.433551      0.788048      0.052277
  C      -1.250370     -0.464077     -0.070974
  O      -1.340563     -1.360440      1.027776
  H      -1.064502     -1.106465     -1.249202
  H       2.772869     -0.504766      0.414640
  H       1.238687     -1.307122      0.758824
  H       1.724221      0.103556      1.696613
  H      -3.098388     -0.165531      1.265384
  H       1.542964      1.535017     -0.326309
  H       1.101999      0.128481     -1.297574
  H      -0.514189      1.157184      1.078298
  H      -0.861632      1.537979     -0.617891
15
Coordinates from ORCA-job scan E -19.221046869850
  C       1.737387     -0.343018      0.704604
  C      -2.485776     -0.750790      0.606093
  C       1.039234      0.566268     -0.298859
  C      -0.433337      0.788639      0.052865
  C      -1.250552     -0.463027     -0.069237
  O      -1.340651     -1.359972      1.028646
  H      -1.063406     -1.108657     -1.254073
  H       2.772794     -0.505070      0.414387
  H       1.238517     -1.306926      0.759238
  H       1.724780      0.103823      1.696597
  H      -3.099977     -0.166614      1.265630
  H       1.543261      1.534826     -0.326775
  H       1.101299      0.128070     -1.297346
  H      -0.513403      1.158181      1.078828
  H      -0.861500      1.538405     -0.617417
15
Coordinates from ORCA-job scan E -19.220040173410
  C       1.737463     -0.342971      0.704669
  C      -2.486118     -0.750645      0.606450
  C       1.039217      0.566257     -0.298775
  C      -0.433119      0.789238      0.053461
  C      -1.250732     -0.461968     -0.067475
  O      -1.340744     -1.359494      1.029539
  H      -1.062277     -1.110853     -1.258948
  H       2.772718     -0.505381      0.414121
  H       1.238343     -1.306729      0.759650
  H       1.725349      0.104087      1.696575
  H      -3.101605     -0.167721      1.265852
  H       1.543561      1.534632     -0.327249
  H       1.100586      0.127655     -1.297118
  H      -0.512603      1.159193      1.079366
  H      -0.861369      1.538835     -0.616936
15
Coordinates from ORCA-job scan E -19.219025326720
  C       1.737539     -0.342926      0.704727
  C      -2.486462     -0.750499      0.606802
  C       1.039199      0.566247     -0.298692
  C      -0.432898      0.789846      0.054066
  C      -1.250907     -0.460899     -0.065687
  O      -1.340841     -1.359004      1.030455
  H      -1.061111     -1.113053     -1.263823
  H       2.772639     -0.505701      0.413842
  H       1.238166     -1.306532      0.760057
  H       1.725926      0.104348      1.696547
  H      -3.103273     -0.168851      1.266047
  H       1.543865      1.534436     -0.327730
  H       1.099859      0.127239     -1.296891
  H      -0.511790      1.160219      1.079911
  H      -0.861240      1.539268     -0.616448
15
Coordinates from ORCA-job scan E -19.218003374200
  C       1.737615     -0.342885      0.704778
  C      -2.486808     -0.750354      0.607147
  C       1.039179      0.566238     -0.298611
  C      -0.432674      0.790461      0.054681
  C      -1.251077     -0.459822     -0.063874
  O      -1.340942     -1.358501      1.031398
  H      -1.059904     -1.115259     -1.268690
  H       2.772557     -0.506028      0.413548
  H       1.237986     -1.306337      0.760456
  H       1.726511      0.104602      1.696512
  H      -3.104981     -0.170001      1.266210
  H       1.544170      1.534237     -0.328218
  H       1.099117      0.126823     -1.296666
  H      -0.510966      1.161258      1.080464
  H      -0.861114      1.539704     -0.615953
15
Coordinates from ORCA-job scan E -19.216974992390
  C       1.737691     -0.342848      0.704820
  C      -2.487156     -0.750209      0.607485
  C       1.039157      0.566230     -0.298532
  C      -0.432447      0.791084      0.055305
  C      -1.251241     -0.458738     -0.062034
  O      -1.341049     -1.357983      1.032370
  H      -1.058651     -1.117470     -1.273545
  H       2.772473     -0.506362      0.413238
  H       1.237802     -1.306144      0.760845
  H       1.727105      0.104848      1.696470
  H      -3.106730     -0.171171      1.266338
  H       1.544478      1.534038     -0.328712
  H       1.098359      0.126408     -1.296442
  H      -0.510129      1.162311      1.081024
  H      -0.860991      1.540143     -0.615450
15
Coordinates from ORCA-job scan E -19.215940424670
  C       1.737767     -0.342816      0.704852
  C      -2.487506     -0.750063      0.607816
  C       1.039131      0.566224     -0.298454
  C      -0.432217      0.791715      0.055939
  C      -1.251397     -0.457646     -0.060167
  O      -1.341160     -1.357447      1.033373
  H      -1.057351     -1.119688     -1.278385
  H       2.772386     -0.506704      0.412911
  H       1.237615     -1.305955      0.761223
  H       1.727706      0.105084      1.696419
  H      -3.108522     -0.172359      1.266429
  H       1.544788      1.533836     -0.329212
  H       1.097585      0.125994     -1.296219
  H      -0.509281      1.163377      1.081594
  H      -0.860873      1.540584     -0.614938
15
Coordinates from ORCA-job scan E -19.214899435490
  C       1.737844     -0.342789      0.704873
  C      -2.487859     -0.749917      0.608138
  C       1.039103      0.566220     -0.298377
  C      -0.431986      0.792354      0.056585
  C      -1.251546     -0.456548     -0.058271
  O      -1.341279     -1.356894      1.034408
  H      -1.055998     -1.121916     -1.283207
  H       2.772296     -0.507053      0.412565
  H       1.237426     -1.305769      0.761588
  H       1.728317      0.105310      1.696360
  H      -3.110359     -0.173562      1.266478
  H       1.545098      1.533634     -0.329716
  H       1.096794      0.125584     -1.295999
  H      -0.508421      1.164456      1.082173
  H      -0.860760      1.541026     -0.614416
15
Coordinates from ORCA-job scan E -19.213851292970
  C       1.737922     -0.342767      0.704883
  C      -2.488216     -0.749770      0.608451
  C       1.039072      0.566218     -0.298302
  C      -0.431752      0.793000      0.057243
  C      -1.251689     -0.455445     -0.056346
  O      -1.341407     -1.356321      1.035478
  H      -1.054591     -1.124156     -1.288012
  H       2.772205     -0.507407      0.412198
  H       1.237237     -1.305587      0.761939
  H       1.728937      0.105525      1.696292
  H      -3.112242     -0.174781      1.266484
  H       1.545410      1.533431     -0.330225
  H       1.095987      0.125178     -1.295782
  H      -0.507549      1.165546      1.082763
  H      -0.860652      1.541471     -0.613884
15
Coordinates from ORCA-job scan E -19.212794803270
  C       1.738003     -0.342750      0.704881
  C      -2.488579     -0.749620      0.608755
  C       1.039038      0.566218     -0.298228
  C      -0.431517      0.793653      0.057913
  C      -1.251825     -0.454335     -0.054391
  O      -1.341547     -1.355730      1.036584
  H      -1.053131     -1.126409     -1.292802
  H       2.772113     -0.507768      0.411811
  H       1.237049     -1.305408      0.762277
  H       1.729570      0.105730      1.696215
  H      -3.114173     -0.176013      1.266445
  H       1.545722      1.533228     -0.330739
  H       1.095162      0.124775     -1.295566
  H      -0.506665      1.166647      1.083364
  H      -0.860549      1.541918     -0.613339
15
Coordinates from ORCA-job scan E -19.211728430060
  C       1.738088     -0.342736      0.704869
  C      -2.488949     -0.749468      0.609050
  C       1.039002      0.566220     -0.298156
  C      -0.431279      0.794311      0.058596
  C      -1.251958     -0.453220     -0.052406
  O      -1.341701     -1.355123      1.037724
  H      -1.051621     -1.128679     -1.297583
  H       2.772023     -0.508132      0.411403
  H       1.236864     -1.305232      0.762604
  H       1.730215      0.105926      1.696129
  H      -3.116151     -0.177257      1.266363
  H       1.546034      1.533024     -0.331258
  H       1.094320      0.124375     -1.295352
  H      -0.505767      1.167757      1.083977
  H      -0.860451      1.542368     -0.612779
15
Coordinates from ORCA-job scan E -19.210650519000
  C       1.738179     -0.342724      0.704847
  C      -2.489327     -0.749311      0.609338
  C       1.038964      0.566223     -0.298084
  C      -0.431038      0.794975      0.059292
  C      -1.252089     -0.452099     -0.050393
  O      -1.341871     -1.354500      1.038898
  H      -1.050063     -1.130965     -1.302362
  H       2.771934     -0.508499      0.410976
  H       1.236684     -1.305058      0.762922
  H       1.730877      0.106117      1.696035
  H      -3.118178     -0.178513      1.266240
  H       1.546347      1.532820     -0.331784
  H       1.093463      0.123976     -1.295139
  H      -0.504855      1.168874      1.084603
  H      -0.860357      1.542821     -0.612205
15
Coordinates from ORCA-job scan E -19.209559601780
  C       1.738277     -0.342714      0.704817
  C      -2.489715     -0.749149      0.609618
  C       1.038924      0.566226     -0.298014
  C      -0.430794      0.795643      0.060001
  C      -1.252220     -0.450971     -0.048353
  O      -1.342058     -1.353867      1.040101
  H      -1.048466     -1.133267     -1.307148
  H       2.771850     -0.508868      0.410530
  H       1.236511     -1.304884      0.763236
  H       1.731555      0.106306      1.695932
  H      -3.120250     -0.179781      1.266079
  H       1.546660      1.532614     -0.332319
  H       1.092590      0.123575     -1.294927
  H      -0.503928      1.169997      1.085242
  H      -0.860265      1.543277     -0.611614
15
Coordinates from ORCA-job scan E -19.208454705110
  C       1.738383     -0.342703      0.704781
  C      -2.490111     -0.748981      0.609892
  C       1.038884      0.566228     -0.297944
  C      -0.430547      0.796314      0.060723
  C      -1.252355     -0.449837     -0.046289
  O      -1.342264     -1.353226      1.041330
  H      -1.046836     -1.135583     -1.311950
  H       2.771769     -0.509238      0.410068
  H       1.236345     -1.304708      0.763551
  H       1.732252      0.106498      1.695823
  H      -3.122366     -0.181062      1.265886
  H       1.546973      1.532405     -0.332864
  H       1.091703      0.123169     -1.294714
  H      -0.502984      1.171122      1.085895
  H      -0.860175      1.543738     -0.611006
15
Coordinates from ORCA-job scan E -19.207335568370
  C       1.738497     -0.342689      0.704742
  C      -2.490517     -0.748807      0.610160
  C       1.038843      0.566228     -0.297876
  C      -0.430297      0.796988      0.061456
  C      -1.252495     -0.448695     -0.044204
  O      -1.342487     -1.352582      1.042578
  H      -1.045182     -1.137907     -1.316775
  H       2.771694     -0.509610      0.409593
  H       1.236186     -1.304529      0.763874
  H       1.732970      0.106697      1.695708
  H      -3.124522     -0.182357      1.265666
  H       1.547286      1.532193     -0.333421
  H       1.090802      0.122755     -1.294499
  H      -0.502024      1.172248      1.086560
  H      -0.860085      1.544204     -0.610380
15
Coordinates from ORCA-job scan E -19.206202704260
  C       1.738621     -0.342672      0.704702
  C      -2.490931     -0.748626      0.610424
  C       1.038802      0.566224     -0.297809
  C      -0.430042      0.797663      0.062201
  C      -1.252641     -0.447544     -0.042101
  O      -1.342726     -1.351938      1.043841
  H      -1.043513     -1.140236     -1.321628
  H       2.771623     -0.509982      0.409107
  H       1.236035     -1.304344      0.764209
  H       1.733709      0.106908      1.695587
  H      -3.126714     -0.183670      1.265423
  H       1.547600      1.531975     -0.333994
  H       1.089889      0.122328     -1.294282
  H      -0.501048      1.173374      1.087238
  H      -0.859994      1.544677     -0.609737
15
Coordinates from ORCA-job scan E -19.205057301640
  C       1.738752     -0.342651      0.704663
  C      -2.491352     -0.748439      0.610684
  C       1.038761      0.566215     -0.297744
  C      -0.429784      0.798340      0.062955
  C      -1.252796     -0.446385     -0.039982
  O      -1.342979     -1.351297      1.045114
  H      -1.041833     -1.142562     -1.326511
  H       2.771557     -0.510357      0.408612
  H       1.235890     -1.304152      0.764561
  H       1.734469      0.107135      1.695462
  H      -3.128938     -0.185002      1.265163
  H       1.547914      1.531752     -0.334583
  H       1.088963      0.121887     -1.294061
  H      -0.500054      1.174498      1.087928
  H      -0.859900      1.545155     -0.609078
15
Coordinates from ORCA-job scan E -19.203901026140
  C       1.738892     -0.342624      0.704626
  C      -2.491777     -0.748247      0.610940
  C       1.038721      0.566201     -0.297680
  C      -0.429522      0.799019      0.063717
  C      -1.252959     -0.445215     -0.037851
  O      -1.343245     -1.350663      1.046392
  H      -1.040149     -1.144881     -1.331424
  H       2.771494     -0.510735      0.408109
  H       1.235749     -1.303952      0.764933
  H       1.735251      0.107379      1.695334
  H      -3.131193     -0.186356      1.264887
  H       1.548230      1.531522     -0.335189
  H       1.088026      0.121428     -1.293837
  H      -0.499044      1.175621      1.088628
  H      -0.859804      1.545641     -0.608403
15
Coordinates from ORCA-job scan E -19.202735792750
  C       1.739039     -0.342593      0.704592
  C      -2.492207     -0.748050      0.611192
  C       1.038680      0.566181     -0.297619
  C      -0.429256      0.799700      0.064487
  C      -1.253130     -0.444036     -0.035710
  O      -1.343521     -1.350035      1.047674
  H      -1.038462     -1.147186     -1.336363
  H       2.771434     -0.511117      0.407600
  H       1.235613     -1.303744      0.765328
  H       1.736054      0.107642      1.695201
  H      -3.133474     -0.187734      1.264598
  H       1.548546      1.531284     -0.335815
  H       1.087078      0.120950     -1.293609
  H      -0.498019      1.176741      1.089337
  H      -0.859704      1.546134     -0.607714
15
Coordinates from ORCA-job scan E -19.201563569890
  C       1.739193     -0.342556      0.704562
  C      -2.492639     -0.747848      0.611441
  C       1.038639      0.566155     -0.297559
  C      -0.428987      0.800382      0.065265
  C      -1.253310     -0.442847     -0.033560
  O      -1.343805     -1.349415      1.048957
  H      -1.036775     -1.149475     -1.341326
  H       2.771376     -0.511503      0.407085
  H       1.235478     -1.303526      0.765746
  H       1.736878      0.107924      1.695066
  H      -3.135782     -0.189139      1.264296
  H       1.548863      1.531038     -0.336459
  H       1.086119      0.120453     -1.293377
  H      -0.496977      1.177860      1.090055
  H      -0.859601      1.546635     -0.607012
15
Coordinates from ORCA-job scan E -19.200386243110
  C       1.739352     -0.342515      0.704535
  C      -2.493072     -0.747643      0.611687
  C       1.038599      0.566123     -0.297502
  C      -0.428713      0.801067      0.066048
  C      -1.253498     -0.441647     -0.031402
  O      -1.344096     -1.348803      1.050241
  H      -1.035085     -1.151744     -1.346306
  H       2.771319     -0.511896      0.406565
  H       1.235343     -1.303300      0.766188
  H       1.737721      0.108226      1.694926
  H      -3.138115     -0.190570      1.263981
  H       1.549182      1.530783     -0.337122
  H       1.085148      0.119938     -1.293141
  H      -0.495921      1.178977      1.090781
  H      -0.859493      1.547143     -0.606297
15
Coordinates from ORCA-job scan E -19.199205539350
  C       1.739516     -0.342470      0.704511
  C      -2.493505     -0.747435      0.611928
  C       1.038558      0.566085     -0.297447
  C      -0.428436      0.801754      0.066837
  C      -1.253693     -0.440437     -0.029237
  O      -1.344393     -1.348198      1.051526
  H      -1.033394     -1.153992     -1.351298
  H       2.771262     -0.512296      0.406039
  H       1.235208     -1.303065      0.766651
  H       1.738584      0.108545      1.694782
  H      -3.140472     -0.192029      1.263651
  H       1.549502      1.530521     -0.337804
  H       1.084167      0.119403     -1.292901
  H      -0.494851      1.180093      1.091514
  H      -0.859383      1.547658     -0.605571
15
Coordinates from ORCA-job scan E -19.198022998150
  C       1.739685     -0.342422      0.704488
  C      -2.493938     -0.747225      0.612166
  C       1.038516      0.566041     -0.297395
  C      -0.428156      0.802445      0.067632
  C      -1.253894     -0.439217     -0.027064
  O      -1.344694     -1.347600      1.052813
  H      -1.031698     -1.156216     -1.356297
  H       2.771205     -0.512703      0.405506
  H       1.235072     -1.302822      0.767135
  H       1.739465      0.108881      1.694634
  H      -3.142855     -0.193517      1.263305
  H       1.549823      1.530250     -0.338503
  H       1.083175      0.118852     -1.292658
  H      -0.493767      1.181210      1.092254
  H      -0.859269      1.548181     -0.604835
15
Coordinates from ORCA-job scan E -19.196839973050
  C       1.739858     -0.342370      0.704468
  C      -2.494369     -0.747012      0.612400
  C       1.038474      0.565992     -0.297346
  C      -0.427873      0.803138      0.068433
  C      -1.254101     -0.437988     -0.024885
  O      -1.345001     -1.347008      1.054104
  H      -1.029996     -1.158416     -1.361298
  H       2.771147     -0.513118      0.404966
  H       1.234935     -1.302572      0.767638
  H       1.740364      0.109233      1.694481
  H      -3.145264     -0.195034      1.262940
  H       1.550146      1.529972     -0.339220
  H       1.082172      0.118284     -1.292413
  H      -0.492670      1.182326      1.093001
  H      -0.859152      1.548710     -0.604088
15
Coordinates from ORCA-job scan E -19.195657648590
  C       1.740034     -0.342317      0.704448
  C      -2.494798     -0.746796      0.612629
  C       1.038432      0.565938     -0.297299
  C      -0.427586      0.803834      0.069239
  C      -1.254313     -0.436750     -0.022698
  O      -1.345311     -1.346420      1.055400
  H      -1.028286     -1.160593     -1.366296
  H       2.771088     -0.513541      0.404417
  H       1.234795     -1.302315      0.768159
  H       1.741280      0.109598      1.694323
  H      -3.147698     -0.196578      1.262554
  H       1.550469      1.529686     -0.339953
  H       1.081158      0.117702     -1.292166
  H      -0.491560      1.183443      1.093754
  H      -0.859033      1.549246     -0.603332
15
Coordinates from ORCA-job scan E -19.194477063380
  C       1.740214     -0.342261      0.704428
  C      -2.495225     -0.746578      0.612853
  C       1.038388      0.565880     -0.297255
  C      -0.427297      0.804534      0.070051
  C      -1.254530     -0.435503     -0.020504
  O      -1.345627     -1.345837      1.056703
  H      -1.026565     -1.162747     -1.371285
  H       2.771027     -0.513973      0.403860
  H       1.234654     -1.302052      0.768695
  H       1.742213      0.109975      1.694160
  H      -3.150160     -0.198151      1.262145
  H       1.550794      1.529393     -0.340701
  H       1.080132      0.117106     -1.291916
  H      -0.490437      1.184562      1.094513
  H      -0.858911      1.549789     -0.602565
15
Coordinates from ORCA-job scan E -19.193299133410
  C       1.740397     -0.342204      0.704406
  C      -2.495649     -0.746358      0.613072
  C       1.038343      0.565818     -0.297214
  C      -0.427004      0.805237      0.070868
  C      -1.254751     -0.434248     -0.018302
  O      -1.345947     -1.345256      1.058015
  H      -1.024831     -1.164877     -1.376262
  H       2.770965     -0.514413      0.403293
  H       1.234510     -1.301783      0.769245
  H       1.743162      0.110364      1.693990
  H      -3.152650     -0.199751      1.261710
  H       1.551120      1.529094     -0.341465
  H       1.079096      0.116497     -1.291665
  H      -0.489302      1.185681      1.095279
  H      -0.858788      1.550337     -0.601789
15
Coordinates from ORCA-job scan E -19.192124673110
  C       1.740584     -0.342147      0.704383
  C      -2.496071     -0.746136      0.613285
  C       1.038297      0.565751     -0.297175
  C      -0.426709      0.805943      0.071692
  C      -1.254976     -0.432984     -0.016091
  O      -1.346272     -1.344677      1.059337
  H      -1.023083     -1.166985     -1.381222
  H       2.770902     -0.514861      0.402716
  H       1.234364     -1.301509      0.769806
  H       1.744128      0.110761      1.693813
  H      -3.155170     -0.201379      1.261247
  H       1.551446      1.528788     -0.342242
  H       1.078048      0.115877     -1.291413
  H      -0.488154      1.186801      1.096050
  H      -0.858664      1.550892     -0.601003
15
Coordinates from ORCA-job scan E -19.190954412860
  C       1.740773     -0.342089      0.704357
  C      -2.496490     -0.745910      0.613493
  C       1.038250      0.565682     -0.297140
  C      -0.426412      0.806653      0.072521
  C      -1.255203     -0.431713     -0.013873
  O      -1.346603     -1.344100      1.060670
  H      -1.021317     -1.169072     -1.386161
  H       2.770836     -0.515318      0.402127
  H       1.234216     -1.301231      0.770379
  H       1.745110      0.111168      1.693629
  H      -3.157719     -0.203034      1.260753
  H       1.551773      1.528477     -0.343033
  H       1.076988      0.115248     -1.291161
  H      -0.486994      1.187923      1.096828
  H      -0.858538      1.551453     -0.600208
15
Coordinates from ORCA-job scan E -19.189789013230
  C       1.740966     -0.342030      0.704328
  C      -2.496905     -0.745682      0.613695
  C       1.038201      0.565609     -0.297108
  C      -0.426111      0.807366      0.073357
  C      -1.255434     -0.430434     -0.011645
  O      -1.346939     -1.343523      1.062017
  H      -1.019534     -1.171137     -1.391077
  H       2.770770     -0.515783      0.401526
  H       1.234067     -1.300948      0.770960
  H       1.746107      0.111581      1.693438
  H      -3.160300     -0.204716      1.260227
  H       1.552100      1.528160     -0.343838
  H       1.075917      0.114608     -1.290908
  H      -0.485822      1.189047      1.097612
  H      -0.858412      1.552019     -0.599402
15
Coordinates from ORCA-job scan E -19.188629076200
  C       1.741161     -0.341972      0.704294
  C      -2.497318     -0.745450      0.613890
  C       1.038151      0.565533     -0.297079
  C      -0.425808      0.808083      0.074198
  C      -1.255668     -0.429147     -0.009409
  O      -1.347282     -1.342946      1.063378
  H      -1.017731     -1.173182     -1.395966
  H       2.770701     -0.516258      0.400912
  H       1.233915     -1.300662      0.771549
  H       1.747120      0.112001      1.693239
  H      -3.162913     -0.206424      1.259666
  H       1.552428      1.527837     -0.344654
  H       1.074835      0.113961     -1.290655
  H      -0.484637      1.190172      1.098403
  H      -0.858285      1.552591     -0.598586
15
Coordinates from ORCA-job scan E -19.187475153970
  C       1.741360     -0.341915      0.704257
  C      -2.497727     -0.745216      0.614079
  C       1.038099      0.565455     -0.297053
  C      -0.425503      0.808803      0.075047
  C      -1.255903     -0.427853     -0.007163
  O      -1.347631     -1.342368      1.064755
  H      -1.015906     -1.175206     -1.400825
  H       2.770631     -0.516740      0.400284
  H       1.233762     -1.300372      0.772145
  H       1.748148      0.112426      1.693032
  H      -3.165558     -0.208160      1.259068
  H       1.552756      1.527509     -0.345483
  H       1.073741      0.113307     -1.290403
  H      -0.483440      1.191298      1.099201
  H      -0.858158      1.553169     -0.597759
15
Coordinates from ORCA-job scan E -19.186327755830
  C       1.741561     -0.341858      0.704213
  C      -2.498133     -0.744977      0.614262
  C       1.038046      0.565374     -0.297030
  C      -0.425195      0.809526      0.075901
  C      -1.256142     -0.426552     -0.004908
  O      -1.347987     -1.341788      1.066149
  H      -1.014060     -1.177211     -1.405651
  H       2.770559     -0.517232      0.399643
  H       1.233607     -1.300079      0.772747
  H       1.749192      0.112855      1.692816
  H      -3.168238     -0.209921      1.258432
  H       1.553084      1.527177     -0.346323
  H       1.072635      0.112645     -1.290151
  H      -0.482230      1.192425      1.100004
  H      -0.858030      1.553753     -0.596922
15
Coordinates from ORCA-job scan E -19.185187353530
  C       1.741765     -0.341802      0.704165
  C      -2.498535     -0.744735      0.614437
  C       1.037991      0.565291     -0.297011
  C      -0.424884      0.810253      0.076763
  C      -1.256382     -0.425243     -0.002644
  O      -1.348349     -1.341207      1.067561
  H      -1.012190     -1.179197     -1.410443
  H       2.770485     -0.517732      0.398986
  H       1.233450     -1.299783      0.773353
  H       1.750252      0.113289      1.692591
  H      -3.170952     -0.211710      1.257756
  H       1.553412      1.526840     -0.347175
  H       1.071518      0.111978     -1.289900
  H      -0.481008      1.193554      1.100815
  H      -0.857903      1.554342     -0.596074
15
Coordinates from ORCA-job scan E -19.184054385620
  C       1.741973     -0.341747      0.704110
  C      -2.498933     -0.744488      0.614606
  C       1.037934      0.565206     -0.296996
  C      -0.424571      0.810983      0.077631
  C      -1.256624     -0.423928     -0.000369
  O      -1.348720     -1.340624      1.068993
  H      -1.010296     -1.181164     -1.415196
  H       2.770410     -0.518242      0.398315
  H       1.233292     -1.299484      0.773964
  H       1.751326      0.113726      1.692356
  H      -3.173701     -0.213526      1.257038
  H       1.553740      1.526499     -0.348038
  H       1.070389      0.111305     -1.289650
  H      -0.479773      1.194684      1.101633
  H      -0.857776      1.554937     -0.595216
15
Coordinates from ORCA-job scan E -19.234868715120
  C       1.736729     -0.343645      0.703396
  C      -2.481617     -0.753808      0.599208
  C       1.039783      0.566132     -0.300577
  C      -0.435637      0.780857      0.044897
  C      -1.247595     -0.477017     -0.092133
  O      -1.340116     -1.367433      1.016035
  H      -1.078076     -1.072568     -1.179804
  H       2.773707     -0.502292      0.416822
  H       1.240216     -1.308968      0.754654
  H       1.718931      0.101231      1.696126
  H      -3.081825     -0.155789      1.259580
  H       1.539713      1.536967     -0.321898
  H       1.110402      0.132551     -1.300649
  H      -0.522780      1.145496      1.071514
  H      -0.863164      1.532421     -0.623989
15
Coordinates from ORCA-job scan E -19.233601630450
  C       1.739548     -0.344030      0.702727
  C      -2.483527     -0.758745      0.589065
  C       1.035167      0.571717     -0.292415
  C      -0.433264      0.778097      0.051022
  C      -1.246880     -0.469275     -0.080700
  O      -1.336987     -1.367059      1.016732
  H      -1.079175     -1.058716     -1.181542
  H       2.774562     -0.509854      0.410348
  H       1.244791     -1.309795      0.766851
  H       1.731784      0.108190      1.692370
  H      -3.099248     -0.171346      1.244872
  H       1.535776      1.531812     -0.340798
  H       1.101046      0.121460     -1.294595
  H      -0.519945      1.154618      1.076571
  H      -0.854976      1.537062     -0.617326
15
Coordinates from ORCA-job scan E -19.232577866700
  C       1.742607     -0.338731      0.699003
  C      -2.490269     -0.755525      0.580482
  C       1.033705      0.573982     -0.288753
  C      -0.425733      0.767865      0.065311
  C      -1.245281     -0.466046     -0.067224
  O      -1.351815     -1.379752      1.011571
  H      -1.082398     -1.047657     -1.177281
  H       2.775357     -0.513578      0.400302
  H       1.250454     -1.304601      0.774004
  H       1.748708      0.116050      1.688550
  H      -3.120349     -0.179364      1.229950
  H       1.543169      1.534457     -0.358037
  H       1.099730      0.117779     -1.286462
  H      -0.518513      1.164615      1.083575
  H      -0.850703      1.524645     -0.611810
15
Coordinates from ORCA-job scan E -19.232404380850
  C       1.745791     -0.335829      0.698117
  C      -2.496021     -0.752650      0.581349
  C       1.031834      0.583092     -0.291102
  C      -0.422281      0.756387      0.072057
  C      -1.241657     -0.470196     -0.067620
  O      -1.369587     -1.397805      0.993835
  H      -1.083755     -1.040864     -1.176083
  H       2.781755     -0.519892      0.409864
  H       1.262256     -1.305728      0.783331
  H       1.755275      0.121087      1.689195
  H      -3.118810     -0.161554      1.235878
  H       1.539896      1.535416     -0.371908
  H       1.109043      0.123307     -1.294129
  H      -0.523337      1.164133      1.085389
  H      -0.861732      1.515232     -0.604992
15
Coordinates from ORCA-job scan E -19.231624145640
  C       1.752839     -0.338834      0.702974
  C      -2.497067     -0.749803      0.571900
  C       1.026173      0.587023     -0.283456
  C      -0.426169      0.770293      0.072515
  C      -1.243784     -0.462172     -0.060284
  O      -1.365197     -1.390321      1.002749
  H      -1.083153     -1.036296     -1.172687
  H       2.785195     -0.513184      0.393371
  H       1.277460     -1.314253      0.784349
  H       1.772326      0.107721      1.697318
  H      -3.133018     -0.180651      1.219455
  H       1.529196      1.531281     -0.377812
  H       1.085690      0.108052     -1.275896
  H      -0.525399      1.172894      1.085009
  H      -0.846422      1.522387     -0.616324
15
Coordinates from ORCA-job scan E -19.231152445850
  C       1.755385     -0.335297      0.701202
  C      -2.496148     -0.738880      0.561339
  C       1.019749      0.588585     -0.266432
  C      -0.429102      0.772171      0.086656
  C      -1.240190     -0.462260     -0.052537
  O      -1.373895     -1.401718      0.999483
  H      -1.069345     -1.024913     -1.163120
  H       2.781832     -0.514611      0.369745
  H       1.288037     -1.314456      0.791488
  H       1.801415      0.100058      1.699424
  H      -3.140842     -0.183077      1.199934
  H       1.523533      1.531717     -0.388658
  H       1.066482      0.098297     -1.260929
  H      -0.540028      1.189467      1.090126
  H      -0.838212      1.509055     -0.624541
15
Coordinates from ORCA-job scan E -19.230501474940
  C       1.761423     -0.330293      0.699844
  C      -2.501963     -0.724870      0.556272
  C       1.016897      0.595664     -0.263902
  C      -0.427321      0.762692      0.094801
  C      -1.241360     -0.467881     -0.052234
  O      -1.394540     -1.418133      0.988993
  H      -1.061842     -1.019397     -1.158243
  H       2.788930     -0.514531      0.364414
  H       1.306511     -1.315776      0.802662
  H       1.825576      0.093457      1.703744
  H      -3.147168     -0.173133      1.194663
  H       1.518495      1.530048     -0.403552
  H       1.056364      0.103961     -1.251111
  H      -0.550242      1.194107      1.089694
  H      -0.841089      1.498223     -0.622863
15
Coordinates from ORCA-job scan E -19.229756590770
  C       1.763093     -0.325810      0.694343
  C      -2.502771     -0.714974      0.547187
  C       1.008814      0.598771     -0.251793
  C      -0.428771      0.761000      0.106336
  C      -1.241256     -0.472227     -0.056445
  O      -1.405969     -1.422197      0.989945
  H      -1.049086     -1.023689     -1.152356
  H       2.792313     -0.519050      0.353043
  H       1.317867     -1.317007      0.810321
  H       1.849417      0.084832      1.703324
  H      -3.146626     -0.169569      1.184469
  H       1.517505      1.534007     -0.406890
  H       1.040235      0.101341     -1.244329
  H      -0.566355      1.204311      1.089591
  H      -0.839739      1.494398     -0.623567
15
Coordinates from ORCA-job scan E -19.229595951280
  C       1.762797     -0.331836      0.700558
  C      -2.499579     -0.722296      0.550215
  C       1.007441      0.591986     -0.251066
  C      -0.429790      0.766998      0.099817
  C      -1.237355     -0.467287     -0.047686
  O      -1.388204     -1.424199      0.983047
  H      -1.056510     -1.012413     -1.156854
  H       2.784097     -0.526219      0.349520
  H       1.302927     -1.313388      0.814803
  H       1.844926      0.094880      1.701373
  H      -3.146563     -0.174829      1.186751
  H       1.513645      1.536623     -0.407780
  H       1.053854      0.095543     -1.245832
  H      -0.563451      1.204566      1.090419
  H      -0.839567      1.496007     -0.624105
15
Coordinates from ORCA-job scan E -19.228303343250
  C       1.764064     -0.331569      0.701690
  C      -2.505555     -0.733857      0.544019
  C       1.012674      0.591561     -0.243938
  C      -0.427410      0.768235      0.105606
  C      -1.235049     -0.464097     -0.030373
  O      -1.387494     -1.432731      0.978504
  H      -1.059086     -0.991378     -1.151130
  H       2.779645     -0.530998      0.340481
  H       1.301874     -1.310836      0.818547
  H       1.854387      0.099161      1.700542
  H      -3.161460     -0.182374      1.171720
  H       1.509129      1.534076     -0.426446
  H       1.054318      0.090917     -1.236355
  H      -0.554367      1.217995      1.093301
  H      -0.836999      1.490030     -0.622989
15
Coordinates from ORCA-job scan E -19.226708221250
  C       1.771078     -0.331763      0.703296
  C      -2.512151     -0.746777      0.533571
  C       1.010077      0.595603     -0.234209
  C      -0.430063      0.773822      0.112974
  C      -1.234910     -0.459885     -0.014570
  O      -1.390754     -1.441804      0.975632
  H      -1.059051     -0.968429     -1.141251
  H       2.779384     -0.543672      0.327286
  H       1.305239     -1.308197      0.828947
  H       1.883466      0.097571      1.701132
  H      -3.178538     -0.193962      1.149845
  H       1.508677      1.533394     -0.447950
  H       1.048164      0.084289     -1.222214
  H      -0.553901      1.237893      1.095249
  H      -0.838047      1.486056     -0.624556
15
Coordinates from ORCA-job scan E -19.225132377030
  C       1.773877     -0.331340      0.703281
  C      -2.515496     -0.759833      0.525489
  C       1.013540      0.600105     -0.223842
  C      -0.428238      0.780736      0.119137
  C      -1.231616     -0.455420      0.002352
  O      -1.391603     -1.449374      0.975831
  H      -1.054311     -0.949849     -1.126434
  H       2.775357     -0.550426      0.314153
  H       1.302084     -1.304629      0.829813
  H       1.902303      0.092582      1.701485
  H      -3.194874     -0.205259      1.126796
  H       1.509924      1.529816     -0.467033
  H       1.039205      0.077602     -1.208666
  H      -0.552357      1.257146      1.096250
  H      -0.839126      1.482281     -0.625432
15
Coordinates from ORCA-job scan E -19.223252512400
  C       1.779330     -0.331116      0.704297
  C      -2.518989     -0.773573      0.516325
  C       1.013478      0.606117     -0.214098
  C      -0.429201      0.789008      0.125310
  C      -1.229968     -0.449512      0.017909
  O      -1.393638     -1.457276      0.974582
  H      -1.049523     -0.931249     -1.111644
  H       2.772071     -0.560998      0.299176
  H       1.298437     -1.299235      0.836005
  H       1.930062      0.087921      1.701536
  H      -3.212880     -0.219541      1.102479
  H       1.514412      1.526332     -0.488085
  H       1.029252      0.069701     -1.192608
  H      -0.553106      1.276113      1.097902
  H      -0.841067      1.481445     -0.625903
15
Coordinates from ORCA-job scan E -19.221274978530
  C       1.783036     -0.330395      0.704909
  C      -2.520572     -0.787004      0.509001
  C       1.015892      0.611950     -0.204545
  C      -0.427978      0.798379      0.130617
  C      -1.227476     -0.442850      0.033349
  O      -1.394425     -1.464592      0.973891
  H      -1.043123     -0.914591     -1.095241
  H       2.767263     -0.567741      0.284557
  H       1.292160     -1.293249      0.837705
  H       1.952173      0.081848      1.701780
  H      -3.230196     -0.234124      1.078297
  H       1.519366      1.521118     -0.507946
  H       1.017747      0.060194     -1.176375
  H      -0.552952      1.293753      1.099510
  H      -0.842246      1.481443     -0.626327
15
Coordinates from ORCA-job scan E -19.219113656450
  C       1.787957     -0.329088      0.706455
  C      -2.522238     -0.800093      0.501690
  C       1.017102      0.617834     -0.196171
  C      -0.427584      0.808105      0.135493
  C      -1.226534     -0.435145      0.046998
  O      -1.395626     -1.472455      0.970507
  H      -1.038501     -0.898113     -1.080129
  H       2.762919     -0.574733      0.270326
  H       1.286113     -1.285894      0.841933
  H       1.976314      0.077256      1.701986
  H      -3.246906     -0.249669      1.055437
  H       1.525856      1.514888     -0.528992
  H       1.006282      0.048593     -1.158711
  H      -0.552823      1.308960      1.102080
  H      -0.843662      1.483691     -0.625723
15
Coordinates from ORCA-job scan E -19.216937914740
  C       1.792640     -0.327014      0.708127
  C      -2.523305     -0.812446      0.495784
  C       1.019304      0.622712     -0.189169
  C      -0.425976      0.818015      0.139787
  C      -1.226398     -0.426643      0.059263
  O      -1.395943     -1.479237      0.966748
  H      -1.035358     -0.882286     -1.065646
  H       2.759107     -0.578263      0.257668
  H       1.280438     -1.278284      0.844195
  H       1.996440      0.073289      1.702478
  H      -3.263801     -0.265564      1.033030
  H       1.532680      1.506875     -0.550089
  H       0.994364      0.034493     -1.140853
  H      -0.551012      1.320896      1.105753
  H      -0.844508      1.487592     -0.623894
15
Coordinates from ORCA-job scan E -19.214707740320
  C       1.798399     -0.324123      0.710727
  C      -2.525091     -0.823653      0.490179
  C       1.021153      0.626312     -0.183710
  C      -0.424421      0.827545      0.143753
  C      -1.228117     -0.417419      0.069403
  O      -1.396546     -1.486320      0.959816
  H      -1.035260     -0.866397     -1.053387
  H       2.756900     -0.579741      0.247011
  H       1.276742     -1.270283      0.847688
  H       2.015589      0.071336      1.703456
  H      -3.279845     -0.281315      1.013292
  H       1.539741      1.497043     -0.572061
  H       0.982582      0.018450     -1.122679
  H      -0.548027      1.329751      1.110555
  H      -0.845130      1.492951     -0.620861
15
Coordinates from ORCA-job scan E -19.212581927820
  C       1.805167     -0.320530      0.713560
  C      -2.527441     -0.833200      0.485690
  C       1.023385      0.627947     -0.179966
  C      -0.422025      0.836119      0.147848
  C      -1.231282     -0.408094      0.078047
  O      -1.397614     -1.492489      0.952575
  H      -1.038232     -0.850042     -1.042821
  H       2.757001     -0.577965      0.238469
  H       1.276016     -1.262716      0.850859
  H       2.032184      0.071525      1.704543
  H      -3.297716     -0.297149      0.993330
  H       1.546347      1.485064     -0.594345
  H       0.971136      0.001111     -1.105559
  H      -0.542830      1.335230      1.116749
  H      -0.845424      1.499327     -0.615798
15
Coordinates from ORCA-job scan E -19.210210672820
  C       1.812337     -0.316547      0.717844
  C      -2.531314     -0.841068      0.478173
  C       1.025539      0.628067     -0.176554
  C      -0.419651      0.844659      0.151478
  C      -1.234737     -0.398163      0.085850
  O      -1.400483     -1.501365      0.938006
  H      -1.043121     -0.831633     -1.035004
  H       2.758182     -0.574315      0.232290
  H       1.276977     -1.255438      0.855600
  H       2.047321      0.073115      1.706956
  H      -3.309810     -0.313085      0.983454
  H       1.551850      1.471090     -0.617000
  H       0.959017     -0.017858     -1.087226
  H      -0.538401      1.341945      1.121706
  H      -0.845035      1.504732     -0.612392
15
Coordinates from ORCA-job scan E -19.208735459670
  C       1.815149     -0.318742      0.717628
  C      -2.534327     -0.849109      0.463155
  C       1.027077      0.629563     -0.172347
  C      -0.418656      0.853303      0.154195
  C      -1.233273     -0.391050      0.098038
  O      -1.404824     -1.500569      0.939112
  H      -1.032824     -0.825636     -1.014776
  H       2.754769     -0.578345      0.222186
  H       1.272468     -1.253417      0.854270
  H       2.059297      0.066420      1.705895
  H      -3.317435     -0.329975      0.973263
  H       1.554008      1.466059     -0.623435
  H       0.952054     -0.019518     -1.079552
  H      -0.536226      1.360883      1.119607
  H      -0.848587      1.504269     -0.614056
15
Coordinates from ORCA-job scan E -19.209329378050
  C       1.814849     -0.323012      0.713444
  C      -2.537304     -0.852628      0.451569
  C       1.027690      0.630566     -0.171632
  C      -0.419034      0.855015      0.154846
  C      -1.230588     -0.392046      0.107014
  O      -1.414390     -1.497786      0.951080
  H      -1.015770     -0.833975     -0.991872
  H       2.749415     -0.586443      0.211379
  H       1.266095     -1.253141      0.853109
  H       2.067261      0.062924      1.699282
  H      -3.321472     -0.333802      0.962631
  H       1.554078      1.473079     -0.611411
  H       0.954897     -0.006970     -1.086137
  H      -0.534139      1.372172      1.115757
  H      -0.852919      1.500184     -0.615877
15
Coordinates from ORCA-job scan E -19.210405682050
  C       1.812470     -0.327969      0.709991
  C      -2.537465     -0.856021      0.443943
  C       1.028644      0.633136     -0.170533
  C      -0.420000      0.857158      0.153474
  C      -1.227850     -0.392976      0.111145
  O      -1.418533     -1.494048      0.960845
  H      -1.000379     -0.841176     -0.974563
  H       2.738088     -0.603440      0.198873
  H       1.252850     -1.249529      0.859560
  H       2.079177      0.062208      1.690490
  H      -3.323692     -0.342888      0.958555
  H       1.556876      1.481171     -0.594132
  H       0.959372      0.009153     -1.093182
  H      -0.536423      1.382475      1.109954
  H      -0.854466      1.496883     -0.621236
15
Coordinates from ORCA-job scan E -19.211771101260
  C       1.811965     -0.332534      0.704031
  C      -2.540070     -0.855837      0.435715
  C       1.028963      0.634207     -0.170975
  C      -0.420624      0.856762      0.153353
  C      -1.224805     -0.396983      0.117669
  O      -1.430086     -1.486838      0.979547
  H      -0.980356     -0.857228     -0.953198
  H       2.734113     -0.610354      0.188516
  H       1.247822     -1.250713      0.854403
  H       2.083333      0.058126      1.682919
  H      -3.328898     -0.342675      0.947613
  H       1.558517      1.491807     -0.576501
  H       0.964310      0.026134     -1.103021
  H      -0.536575      1.388231      1.106343
  H      -0.858938      1.492032     -0.623233
15
Coordinates from ORCA-job scan E -19.213381691680
  C       1.808416     -0.337588      0.700644
  C      -2.537979     -0.858158      0.432474
  C       1.030964      0.638163     -0.170341
  C      -0.421855      0.858642      0.150514
  C      -1.221633     -0.398941      0.117472
  O      -1.430656     -1.481254      0.989662
  H      -0.967415     -0.866767     -0.938474
  H       2.720641     -0.629776      0.176915
  H       1.231585     -1.245789      0.860677
  H       2.093371      0.057732      1.673864
  H      -3.329950     -0.352084      0.946889
  H       1.564035      1.500391     -0.555790
  H       0.970707      0.044972     -1.111062
  H      -0.542068      1.395589      1.099911
  H      -0.859493      1.489005     -0.630174
15
Coordinates from ORCA-job scan E -19.214598683680
  C       1.806518     -0.342663      0.695788
  C      -2.538077     -0.858310      0.427270
  C       1.032285      0.642121     -0.168894
  C      -0.423113      0.859269      0.148802
  C      -1.217984     -0.402843      0.120467
  O      -1.437494     -1.473688      1.005678
  H      -0.949054     -0.882781     -0.922427
  H       2.710878     -0.644157      0.164803
  H       1.219373     -1.243007      0.860329
  H       2.101441      0.054077      1.665229
  H      -3.332600     -0.356396      0.942618
  H       1.570206      1.510732     -0.535828
  H       0.976841      0.065789     -1.118976
  H      -0.547862      1.402061      1.094053
  H      -0.862687      1.483935     -0.635734
15
Coordinates from ORCA-job scan E -19.216277490480
  C       1.799948     -0.345439      0.699170
  C      -2.531209     -0.859501      0.433829
  C       1.035473      0.644542     -0.170090
  C      -0.423674      0.861188      0.142557
  C      -1.218064     -0.401708      0.107122
  O      -1.419589     -1.474604      0.995107
  H      -0.955852     -0.878429     -0.928054
  H       2.695267     -0.665362      0.165671
  H       1.198637     -1.233718      0.876381
  H       2.104834      0.061659      1.661389
  H      -3.323818     -0.369716      0.962815
  H       1.576583      1.513129     -0.525614
  H       0.982123      0.073867     -1.123251
  H      -0.554871      1.400394      1.089022
  H      -0.857119      1.487833     -0.642874
15
Coordinates from ORCA-job scan E -19.217778745510
  C       1.792305     -0.348319      0.702823
  C      -2.524343     -0.861138      0.441807
  C       1.037589      0.646771     -0.171408
  C      -0.424558      0.863112      0.135725
  C      -1.218059     -0.401265      0.093992
  O      -1.402670     -1.476540      0.985018
  H      -0.961131     -0.875052     -0.940994
  H       2.678827     -0.688726      0.168648
  H       1.175328     -1.222914      0.892249
  H       2.106616      0.068658      1.657678
  H      -3.311301     -0.382640      0.989120
  H       1.586053      1.517736     -0.513537
  H       0.989427      0.084194     -1.128748
  H      -0.562142      1.399916      1.082362
  H      -0.853271      1.490344     -0.651554
15
Coordinates from ORCA-job scan E -19.218537648310
  C       1.787609     -0.346642      0.708250
  C      -2.517790     -0.863655      0.445339
  C       1.039405      0.646731     -0.176366
  C      -0.423482      0.866001      0.135822
  C      -1.220018     -0.397361      0.081433
  O      -1.385231     -1.483474      0.965206
  H      -0.963388     -0.861925     -0.952181
  H       2.662997     -0.712863      0.174401
  H       1.155523     -1.205696      0.918264
  H       2.115654      0.085697      1.651693
  H      -3.304983     -0.395851      1.000544
  H       1.590752      1.514105     -0.522893
  H       0.983151      0.078360     -1.129561
  H      -0.562629      1.390013      1.089109
  H      -0.848902      1.500698     -0.645877
15
Coordinates from ORCA-job scan E -19.219687590270
  C       1.780864     -0.355235      0.706879
  C      -2.511302     -0.865467      0.459622
  C       1.039577      0.646623     -0.175381
  C      -0.426267      0.869523      0.124044
  C      -1.218403     -0.396984      0.078410
  O      -1.371851     -1.478544      0.969760
  H      -0.970522     -0.858633     -0.948082
  H       2.673493     -0.699909      0.187670
  H       1.155857     -1.225999      0.886923
  H       2.080087      0.064232      1.665897
  H      -3.288225     -0.395547      1.028194
  H       1.593357      1.519288     -0.504663
  H       0.990640      0.089876     -1.135145
  H      -0.573329      1.407207      1.068391
  H      -0.845307      1.493709     -0.669339
15
Coordinates from ORCA-job scan E -19.221468582280
  C       1.770466     -0.362323      0.706565
  C      -2.503328     -0.864547      0.477643
  C       1.040995      0.644841     -0.178424
  C      -0.427487      0.870633      0.111979
  C      -1.217724     -0.397937      0.070296
  O      -1.354883     -1.474732      0.970724
  H      -0.979401     -0.861803     -0.956695
  H       2.678876     -0.691513      0.205764
  H       1.149149     -1.240254      0.861007
  H       2.039908      0.050881      1.677054
  H      -3.266324     -0.393342      1.064277
  H       1.596970      1.525795     -0.482737
  H       1.002451      0.103583     -1.146296
  H      -0.579879      1.416046      1.050731
  H      -0.841117      1.488808     -0.688707
15
Coordinates from ORCA-job scan E -19.222514234990
  C       1.762034     -0.369317      0.706506
  C      -2.496346     -0.865824      0.494445
  C       1.041798      0.643029     -0.180418
  C      -0.428913      0.873417      0.099975
  C      -1.218762     -0.396178      0.065857
  O      -1.338802     -1.472242      0.970423
  H      -0.990591     -0.858649     -0.958770
  H       2.686495     -0.680080      0.223842
  H       1.147509     -1.256171      0.833732
  H       2.001939      0.033949      1.688905
  H      -3.248495     -0.395036      1.095740
  H       1.600869      1.529169     -0.464899
  H       1.012734      0.114652     -1.154512
  H      -0.585916      1.429364      1.031630
  H      -0.836884      1.484054     -0.709274
15
Coordinates from ORCA-job scan E -19.223499460080
  C       1.752605     -0.375889      0.706702
  C      -2.488864     -0.866178      0.511970
  C       1.043044      0.640881     -0.182973
  C      -0.429737      0.875977      0.088011
  C      -1.219675     -0.394355      0.061377
  O      -1.322483     -1.470264      0.969116
  H      -1.002388     -0.856200     -0.964479
  H       2.692255     -0.669349      0.243151
  H       1.145249     -1.270794      0.807760
  H       1.962896      0.018229      1.699499
  H      -3.229512     -0.397451      1.129359
  H       1.604523      1.532384     -0.446021
  H       1.023867      0.125924     -1.163534
  H      -0.590909      1.442102      1.012672
  H      -0.832203      1.479121     -0.729429
15
Coordinates from ORCA-job scan E -19.224397210910
  C       1.743788     -0.381855      0.706865
  C      -2.481950     -0.866556      0.528913
  C       1.043767      0.638724     -0.185389
  C      -0.430938      0.877977      0.075889
  C      -1.221307     -0.392676      0.056753
  O      -1.307335     -1.468995      0.966492
  H      -1.016301     -0.852178     -0.968114
  H       2.698812     -0.656733      0.263663
  H       1.146290     -1.285756      0.781636
  H       1.923670      0.002030      1.709615
  H      -3.210064     -0.398933      1.162282
  H       1.608668      1.534410     -0.428426
  H       1.034919      0.136408     -1.171559
  H      -0.595635      1.454009      0.993734
  H      -0.827715      1.474263     -0.749174
15
Coordinates from ORCA-job scan E -19.225249938170
  C       1.734041     -0.387724      0.707343
  C      -2.474024     -0.866439      0.546652
  C       1.044864      0.636496     -0.188536
  C      -0.431647      0.880251      0.063728
  C      -1.222720     -0.390681      0.052021
  O      -1.291198     -1.467902      0.962968
  H      -1.030956     -0.848420     -0.975086
  H       2.703395     -0.645396      0.285492
  H       1.146257     -1.299512      0.756889
  H       1.883298     -0.013043      1.718552
  H      -3.189125     -0.401618      1.196977
  H       1.612567      1.536154     -0.409995
  H       1.046732      0.146715     -1.180231
  H      -0.599559      1.465659      0.974958
  H      -0.823255      1.469597     -0.768550
15
Coordinates from ORCA-job scan E -19.226047461280
  C       1.724950     -0.392786      0.707675
  C      -2.466788     -0.866120      0.563672
  C       1.045458      0.634286     -0.191431
  C      -0.432758      0.881674      0.051512
  C      -1.224812     -0.389138      0.046830
  O      -1.276528     -1.467561      0.957985
  H      -1.047596     -0.843516     -0.979923
  H       2.708724     -0.631661      0.308443
  H       1.149782     -1.313466      0.731873
  H       1.842648     -0.028623      1.726906
  H      -3.167229     -0.402486      1.230969
  H       1.617179      1.536765     -0.392875
  H       1.058064      0.155992     -1.187637
  H      -0.603575      1.475786      0.956545
  H      -0.818850      1.464990     -0.787362
15
Coordinates from ORCA-job scan E -19.226794493630
  C       1.714890     -0.397982      0.708275
  C      -2.458154     -0.865400      0.581705
  C       1.046483      0.632166     -0.195020
  C      -0.433357      0.883644      0.039287
  C      -1.226502     -0.387179      0.041738
  O      -1.260490     -1.467098      0.952592
  H      -1.064754     -0.839086     -0.988110
  H       2.711864     -0.619637      0.332533
  H       1.151736     -1.326247      0.708136
  H       1.800874     -0.043295      1.734011
  H      -3.143970     -0.404906      1.266344
  H       1.621435      1.537232     -0.374761
  H       1.070195      0.165305     -1.195760
  H      -0.606980      1.486104      0.938195
  H      -0.814600      1.460516     -0.805985
15
Coordinates from ORCA-job scan E -19.227511582250
  C       1.705681     -0.402257      0.708630
  C      -2.450422     -0.864355      0.598779
  C       1.046933      0.630141     -0.198134
  C      -0.434493      0.884477      0.027018
  C      -1.228907     -0.386010      0.035933
  O      -1.246342     -1.467387      0.945800
  H      -1.083850     -0.833776     -0.993392
  H       2.715825     -0.604705      0.357591
  H       1.157779     -1.339203      0.683933
  H       1.759045     -0.058798      1.740456
  H      -3.119617     -0.404658      1.300526
  H       1.626525      1.536653     -0.358067
  H       1.081554      0.173603     -1.202378
  H      -0.610675      1.494313      0.920462
  H      -0.810367      1.456099     -0.823975
15
Coordinates from ORCA-job scan E -19.228204601150
  C       1.695231     -0.406922      0.709197
  C      -2.440808     -0.862899      0.617297
  C       1.047930      0.628329     -0.202040
  C      -0.435050      0.886057      0.014660
  C      -1.230670     -0.384372      0.030321
  O      -1.230401     -1.467078      0.939302
  H      -1.103069     -0.829669     -1.002630
  H       2.717282     -0.591865      0.383882
  H       1.161618     -1.351079      0.660597
  H       1.715534     -0.073661      1.745567
  H      -3.093687     -0.406077      1.336212
  H       1.630914      1.536255     -0.339883
  H       1.094022      0.182336     -1.209991
  H      -0.613763      1.503011      0.902652
  H      -0.806412      1.451770     -0.841961
15
Coordinates from ORCA-job scan E -19.228902379600
  C       1.686000     -0.410725      0.709285
  C      -2.432439     -0.861021      0.634598
  C       1.048350      0.626758     -0.205180
  C      -0.436276      0.886217      0.002148
  C      -1.233192     -0.383899      0.023833
  O      -1.217064     -1.467265      0.932080
  H      -1.123821     -0.825146     -1.007456
  H       2.719802     -0.575696      0.410896
  H       1.170306     -1.363205      0.636170
  H       1.672385     -0.090246      1.749866
  H      -3.067054     -0.403917      1.369799
  H       1.636158      1.535100     -0.323025
  H       1.105716      0.190546     -1.215972
  H      -0.617533      1.509187      0.885442
  H      -0.802669      1.447449     -0.859302
15
Coordinates from ORCA-job scan E -19.229606401270
  C       1.675412     -0.415110      0.709679
  C      -2.421777     -0.858464      0.653751
  C       1.049376      0.625357     -0.209033
  C      -0.436905      0.887157     -0.010406
  C      -1.234990     -0.382939      0.017334
  O      -1.201568     -1.466374      0.925548
  H      -1.144593     -0.822614     -1.017535
  H       2.719688     -0.561634      0.439455
  H       1.176723     -1.374430      0.612302
  H       1.627037     -0.106503      1.752833
  H      -3.038213     -0.402888      1.405281
  H       1.639927      1.534421     -0.304767
  H       1.118693      0.199361     -1.222947
  H      -0.621071      1.515564      0.868365
  H      -0.799069      1.443232     -0.876679
15
Coordinates from ORCA-job scan E -19.230305418920
  C       1.666335     -0.418970      0.709276
  C      -2.412554     -0.855580      0.671433
  C       1.049906      0.624478     -0.211818
  C      -0.438257      0.886780     -0.023137
  C      -1.237468     -0.383247      0.010311
  O      -1.188937     -1.465570      0.919451
  H      -1.165818     -0.819954     -1.021141
  H       2.720528     -0.544785      0.468059
  H       1.187885     -1.385711      0.586681
  H       1.582926     -0.125517      1.754641
  H      -3.009905     -0.398290      1.437432
  H       1.644502      1.533472     -0.287420
  H       1.131033      0.208532     -1.228288
  H      -0.625827      1.519865      0.851547
  H      -0.795678      1.438632     -0.893846
15
Coordinates from ORCA-job scan E -19.231042254940
  C       1.656096     -0.423355      0.709230
  C      -2.401157     -0.851609      0.691047
  C       1.050986      0.623676     -0.215087
  C      -0.439096      0.886737     -0.035720
  C      -1.239407     -0.383301      0.002955
  O      -1.174547     -1.463536      0.914167
  H      -1.187289     -0.820151     -1.031226
  H       2.718949     -0.529396      0.498483
  H       1.197611     -1.396221      0.561257
  H       1.536447     -0.144568      1.755082
  H      -2.978745     -0.393530      1.471680
  H       1.646844      1.533338     -0.268939
  H       1.144643      0.218186     -1.234253
  H      -0.630335      1.523789      0.835202
  H      -0.792329      1.434079     -0.910699
15
Coordinates from ORCA-job scan E -19.231694031670
  C       1.647471     -0.427738      0.708234
  C      -2.391131     -0.847700      0.709167
  C       1.051786      0.623655     -0.217119
  C      -0.440504      0.885980     -0.048506
  C      -1.241859     -0.384210     -0.003965
  O      -1.162577     -1.461404      0.910252
  H      -1.208087     -0.819845     -1.033231
  H       2.717908     -0.512717      0.528141
  H       1.210914     -1.406348      0.533745
  H       1.492234     -0.166988      1.754045
  H      -2.949880     -0.386650      1.501838
  H       1.649838      1.533376     -0.250701
  H       1.158006      0.228955     -1.238723
  H      -0.636355      1.527298      0.818191
  H      -0.789095      1.428473     -0.928188
15
Coordinates from ORCA-job scan E -19.232370153970
  C       1.638076     -0.432445      0.707533
  C      -2.379515     -0.842481      0.728896
  C       1.052979      0.623601     -0.219311
  C      -0.441528      0.885029     -0.060967
  C      -1.244079     -0.385055     -0.011220
  O      -1.149739     -1.458291      0.906996
  H      -1.229377     -0.822650     -1.041815
  H       2.714808     -0.496744      0.559509
  H       1.223963     -1.415692      0.506244
  H       1.446171     -0.189794      1.751549
  H      -2.918024     -0.378561      1.533901
  H       1.650292      1.534399     -0.231590
  H       1.172386      0.239967     -1.243244
  H      -0.642025      1.530087      0.801789
  H      -0.785717      1.422765     -0.945089
15
Coordinates from ORCA-job scan E -19.232912792690
  C       1.630132     -0.437474      0.705911
  C      -2.369011     -0.837574      0.747339
  C       1.054047      0.624373     -0.220366
  C      -0.442929      0.883869     -0.073662
  C      -1.246628     -0.386353     -0.017414
  O      -1.138577     -1.455107      0.905347
  H      -1.249459     -0.824507     -1.042177
  H       2.711811     -0.480848      0.589784
  H       1.239391     -1.424286      0.476833
  H       1.402804     -0.215794      1.747380
  H      -2.889399     -0.369633      1.561994
  H       1.651085      1.535790     -0.212172
  H       1.186909      0.252419     -1.246535
  H      -0.649136      1.533672      0.784064
  H      -0.782370      1.415589     -0.963145
15
Coordinates from ORCA-job scan E -19.233430090350
  C       1.621797     -0.442638      0.704532
  C      -2.357551     -0.831480      0.766924
  C       1.055348      0.625004     -0.221350
  C      -0.444039      0.882300     -0.085951
  C      -1.249227     -0.387526     -0.023640
  O      -1.127309     -1.451407      0.903977
  H      -1.270294     -0.828915     -1.048378
  H       2.707068     -0.465298      0.621435
  H       1.255422     -1.432009      0.447689
  H       1.358498     -0.242272      1.741717
  H      -2.858155     -0.359439      1.591645
  H       1.649477      1.538027     -0.192161
  H       1.202082      0.264868     -1.249448
  H      -0.655747      1.536761      0.766782
  H      -0.778701      1.408160     -0.980593
15
Coordinates from ORCA-job scan E -19.233817153240
  C       1.614611     -0.448151      0.702338
  C      -2.346946     -0.825739      0.785414
  C       1.056566      0.626321     -0.221482
  C      -0.445392      0.880707     -0.098464
  C      -1.252022     -0.388976     -0.028729
  O      -1.117134     -1.447781      0.903912
  H      -1.289815     -0.832110     -1.047181
  H       2.702074     -0.450675      0.651998
  H       1.272985     -1.438750      0.417294
  H       1.316886     -0.271150      1.734295
  H      -2.830127     -0.349036      1.617896
  H       1.647938      1.540563     -0.171564
  H       1.217548      0.278741     -1.251445
  H      -0.663491      1.540915      0.748078
  H      -0.775013      1.399257     -0.999179
15
Coordinates from ORCA-job scan E -19.234135597700
  C       1.607332     -0.453630      0.700425
  C      -2.335860     -0.819107      0.804626
  C       1.057901      0.627370     -0.221497
  C      -0.446485      0.878747     -0.110534
  C      -1.255069     -0.390091     -0.033554
  O      -1.107385     -1.444151      0.903607
  H      -1.310417     -0.836900     -1.051062
  H       2.695603     -0.436300      0.683601
  H       1.291578     -1.444574      0.387839
  H       1.275239     -0.300216      1.725492
  H      -2.799947     -0.337958      1.645457
  H       1.644312      1.543601     -0.150759
  H       1.233292      0.292305     -1.252906
  H      -0.670524      1.544974      0.729629
  H      -0.770900      1.390067     -1.017182
15
Coordinates from ORCA-job scan E -19.234349587280
  C       1.600982     -0.459301      0.697892
  C      -2.325500     -0.812776      0.822810
  C       1.059142      0.628843     -0.220978
  C      -0.447743      0.876733     -0.122756
  C      -1.258340     -0.391423     -0.037530
  O      -1.098486     -1.440852      0.903927
  H      -1.329945     -0.840177     -1.048653
  H       2.688726     -0.423167      0.714264
  H       1.311275     -1.449350      0.358079
  H       1.236212     -0.330661      1.715051
  H      -2.772460     -0.326975      1.670287
  H       1.640591      1.546715     -0.129493
  H       1.249209      0.307024     -1.253729
  H      -0.678293      1.549848      0.710002
  H      -0.766701      1.379657     -1.035990
15
Coordinates from ORCA-job scan E -19.234454946330
  C       1.594766     -0.464764      0.695775
  C      -2.314879     -0.805948      0.841449
  C       1.060403      0.630107     -0.220182
  C      -0.448820      0.874515     -0.134608
  C      -1.262017     -0.392202     -0.041120
  O      -1.090274     -1.438043      0.903390
  H      -1.351011     -0.844129     -1.050953
  H       2.680661     -0.410545      0.745369
  H       1.331528     -1.453127      0.330236
  H       1.198199     -0.360653      1.703632
  H      -2.742990     -0.316216      1.696430
  H       1.635471      1.549916     -0.108326
  H       1.265092      0.321275     -1.253808
  H      -0.685463      1.555038      0.690321
  H      -0.761997      1.368912     -1.054425
