15
Coordinates from ORCA-job freq E -271.011898586446
  C           1.69866101443043     -0.65743290512953     -0.00001848862067
  C          -1.71471983401773     -0.08780715868409      1.01552187305756
  C          -0.81522237340720     -0.39116021016714     -0.15033861154957
  C           1.34792407170424      0.59762031754375     -0.72612402317388
  C          -0.11809159182234      0.75825773564245     -0.81282302016229
  O           0.65827931754928      1.53332807187213      0.08687271580666
  H           0.35709519819137     -0.93907915894927      0.25408023411253
  H           2.21552855286288     -0.54096516527527      0.94659391897009
  H           2.06734576283981     -1.47453520012956     -0.61293592372112
  H          -2.62935875831402      0.41614308978891      0.68764243291947
  H          -1.20917092451756      0.56941659113197      1.72200791184869
  H          -2.01096911784108     -0.99832771453646      1.53545275779113
  H          -1.20757660036639     -1.11720762006827     -0.86134655190901
  H           2.01379969252236      1.03240638051358     -1.46287406636330
  H          -0.59182640981406      1.32144594644681     -1.60970015900626
