17
Coordinates from ORCA-job freq E -421.361059180422
  C      -1.902620      1.004860     -0.225779
  C      -2.000911     -0.300423      0.526396
  C      -0.721263     -1.080275      0.216280
  O      -0.480831     -1.325365     -1.147530
  C       0.213150     -0.274373     -0.573002
  C       1.710381     -0.273183     -0.537152
  O       2.090182      0.515016      0.565838
  O       3.504222      0.708601      0.517157
  H      -2.485209      1.077280     -1.131265
  H      -1.898453      1.904019      0.369540
  H      -2.046311     -0.140827      1.603999
  H      -2.868998     -0.887534      0.220640
  H      -0.410939     -1.869942      0.888284
  H      -0.564957      0.778611     -0.662939
  H       2.092983     -1.300941     -0.428128
  H       2.119109      0.155646     -1.462208
  H       3.650466      1.308832      1.259869
17
Coordinates from ORCA-job freq E -421.362642663840
  C      -1.908408      0.990534     -0.241964
  C      -2.006855     -0.315225      0.525030
  C      -0.718805     -1.071455      0.243175
  O      -0.468377     -1.270238     -1.150394
  C       0.220035     -0.250461     -0.511775
  C       1.711274     -0.249457     -0.510696
  O       2.104850      0.536836      0.588152
  O       3.523422      0.626142      0.480820
  H      -2.436642      1.041837     -1.187026
  H      -1.974644      1.903014      0.339100
  H      -2.088299     -0.146415      1.598783
  H      -2.863186     -0.916379      0.215479
  H      -0.406566     -1.894220      0.874243
  H      -0.587343      0.839157     -0.590863
  H       2.085220     -1.275462     -0.407702
  H       2.109266      0.178537     -1.434740
  H       3.705057      1.273255      1.170376
17
Coordinates from ORCA-job freq E -421.362778612591
  C      -1.914342      0.993943     -0.228950
  C      -2.012770     -0.325113      0.515100
  C      -0.719919     -1.071844      0.232428
  O      -0.458476     -1.256528     -1.163556
  C       0.220451     -0.240571     -0.508437
  C       1.711772     -0.241604     -0.502302
  O       2.105273      0.601383      0.554267
  O       3.530870      0.546309      0.551466
  H      -2.442034      1.062423     -1.173612
  H      -1.983320      1.895101      0.369468
  H      -2.098503     -0.172344      1.591020
  H      -2.865870     -0.925103      0.194692
  H      -0.406409     -1.900484      0.855351
  H      -0.593701      0.848744     -0.588699
  H       2.078179     -1.262441     -0.339772
  H       2.116177      0.129478     -1.448238
  H       3.732620      1.318653      1.089774
17
Coordinates from ORCA-job freq E -421.363117552980
  C      -1.940387      0.983533     -0.238068
  C      -2.023768     -0.330022      0.517556
  C      -0.729919     -1.070573      0.225059
  O      -0.455133     -1.182002     -1.178503
  C       0.224051     -0.208462     -0.459148
  C       1.714450     -0.218790     -0.472204
  O       2.144634      0.591611      0.599552
  O       3.564142      0.454058      0.621378
  H      -2.390825      0.999471     -1.224566
  H      -2.108498      1.891594      0.329061
  H      -2.101460     -0.168516      1.592912
  H      -2.876890     -0.937144      0.209890
  H      -0.431928     -1.933166      0.808266
  H      -0.588694      0.881952     -0.505917
  H       2.073104     -1.243637     -0.320791
  H       2.105713      0.156516     -1.421027
  H       3.821406      1.333580      0.916552
17
Coordinates from ORCA-job freq E -421.363346942645
  C      -1.934657      0.983839     -0.228519
  C      -2.023763     -0.337511      0.508475
  C      -0.728910     -1.072853      0.208360
  O      -0.444058     -1.190352     -1.189781
  C       0.222703     -0.204079     -0.473402
  C       1.713794     -0.213015     -0.458250
  O       2.115834      0.606124      0.618484
  O       3.521045      0.428306      0.733439
  H      -2.395273      1.023149     -1.209475
  H      -2.073410      1.884353      0.357178
  H      -2.088042     -0.184129      1.586030
  H      -2.882832     -0.937942      0.204680
  H      -0.422714     -1.927583      0.798785
  H      -0.593790      0.880913     -0.529423
  H       2.067034     -1.237402     -0.294106
  H       2.126557      0.155496     -1.400751
  H       3.820482      1.342685      0.768277
17
Coordinates from ORCA-job freq E -421.363417901299
  C      -1.935476      0.986611     -0.234033
  C      -2.025867     -0.335788      0.505781
  C      -0.737019     -1.078235      0.203439
  O      -0.444909     -1.151028     -1.197280
  C       0.229769     -0.201204     -0.441224
  C       1.721047     -0.221545     -0.427764
  O       2.132256      0.564587      0.678256
  O       3.535672      0.451552      0.798251
  H      -2.363721      1.006291     -1.230628
  H      -2.132830      1.885855      0.337914
  H      -2.096604     -0.183586      1.582981
  H      -2.885631     -0.933310      0.197147
  H      -0.450409     -1.957871      0.766584
  H      -0.580201      0.892231     -0.465890
  H       2.074588     -1.249720     -0.303614
  H       2.124819      0.180365     -1.361703
  H       3.834514      1.344796      0.591784
17
Coordinates from ORCA-job freq E -421.363728691275
  C      -1.908465      0.997408     -0.221597
  C      -2.030456     -0.332353      0.496854
  C      -0.747763     -1.089927      0.201520
  O      -0.440722     -1.170333     -1.195303
  C       0.235288     -0.224056     -0.436218
  C       1.725672     -0.253841     -0.405730
  O       2.121112      0.503524      0.718992
  O       3.538940      0.503392      0.723045
  H      -2.330916      1.043611     -1.219562
  H      -2.077731      1.893062      0.364137
  H      -2.108335     -0.194151      1.575513
  H      -2.896394     -0.911490      0.171527
  H      -0.474924     -1.971232      0.768663
  H      -0.557353      0.882018     -0.471395
  H       2.077956     -1.287123     -0.310740
  H       2.141999      0.177987     -1.320274
  H       3.732092      1.433505      0.560568
17
Coordinates from ORCA-job freq E -421.363793984071
  C      -1.909935      0.999572     -0.209593
  C      -2.036381     -0.341752      0.486473
  C      -0.749565     -1.092454      0.192535
  O      -0.433695     -1.160666     -1.203456
  C       0.235059     -0.219387     -0.432596
  C       1.725287     -0.248609     -0.392228
  O       2.115253      0.562422      0.696854
  O       3.530387      0.512123      0.754214
  H      -2.334605      1.066093     -1.205411
  H      -2.072911      1.885424      0.392648
  H      -2.126169     -0.221472      1.566339
  H      -2.897431     -0.917335      0.142496
  H      -0.477699     -1.978260      0.753169
  H      -0.558438      0.885779     -0.461112
  H       2.075939     -1.276042     -0.244119
  H       2.146422      0.136575     -1.325500
  H       3.768482      1.407992      0.489286
17
Coordinates from ORCA-job freq E -421.363791801850
  C      -1.905883      1.002612     -0.200164
  C      -2.042583     -0.346791      0.478190
  C      -0.755523     -1.098278      0.186629
  O      -0.429701     -1.153530     -1.207843
  C       0.235977     -0.222027     -0.422922
  C       1.725980     -0.253110     -0.380366
  O       2.117887      0.591827      0.681844
  O       3.532387      0.530023      0.745758
  H      -2.325262      1.084832     -1.197026
  H      -2.066762      1.881410      0.412934
  H      -2.141918     -0.239331      1.558563
  H      -2.902083     -0.915530      0.119351
  H      -0.490698     -1.990644      0.740204
  H      -0.553144      0.885869     -0.445584
  H       2.076900     -1.275172     -0.199700
  H       2.145368      0.101800     -1.326469
  H       3.779056      1.416042      0.456602
17
Coordinates from ORCA-job freq E -421.363790773139
  C      -1.904902      1.002927     -0.200421
  C      -2.042252     -0.346253      0.478329
  C      -0.755553     -1.098478      0.187067
  O      -0.430146     -1.155183     -1.207435
  C       0.236119     -0.223193     -0.423597
  C       1.726186     -0.254129     -0.380476
  O       2.117138      0.587207      0.685185
  O       3.531953      0.532033      0.746803
  H      -2.325084      1.085510     -1.196924
  H      -2.064341      1.881945      0.412736
  H      -2.141610     -0.238449      1.558664
  H      -2.901986     -0.914685      0.119578
  H      -0.490894     -1.990452      0.741331
  H      -0.552547      0.884958     -0.446901
  H       2.077357     -1.276780     -0.203801
  H       2.146084      0.104804     -1.324762
  H       3.774478      1.418220      0.454625
17
Coordinates from ORCA-job freq E -421.363794157509
  C      -1.904977      1.002829     -0.200653
  C      -2.042184     -0.346131      0.478555
  C      -0.755528     -1.098422      0.187238
  O      -0.430284     -1.155326     -1.207296
  C       0.236066     -0.223215     -0.423669
  C       1.726139     -0.254015     -0.380794
  O       2.117269      0.586739      0.685226
  O       3.532116      0.531398      0.746263
  H      -2.325038      1.084970     -1.197240
  H      -2.064633      1.882053      0.412153
  H      -2.141256     -0.237959      1.558881
  H      -2.901999     -0.914676      0.120205
  H      -0.490792     -1.990313      0.741593
  H      -0.552634      0.884900     -0.447114
  H       2.077495     -1.276716     -0.204792
  H       2.145803      0.105493     -1.324964
  H       3.774436      1.418393      0.456406
17
Coordinates from ORCA-job freq E -421.363787186624
  C      -1.905028      1.002773     -0.200915
  C      -2.042028     -0.345976      0.478760
  C      -0.755420     -1.098330      0.187396
  O      -0.430416     -1.155576     -1.207166
  C       0.236045     -0.223246     -0.423894
  C       1.726122     -0.254031     -0.381146
  O       2.117287      0.585876      0.685518
  O       3.532192      0.531004      0.745982
  H      -2.325279      1.084575     -1.197452
  H      -2.064644      1.882174      0.411645
  H      -2.140826     -0.237433      1.559073
  H      -2.901929     -0.914666      0.120835
  H      -0.490586     -1.990069      0.741956
  H      -0.552723      0.884852     -0.447516
  H       2.077461     -1.276883     -0.205978
  H       2.145764      0.106232     -1.325033
  H       3.774008      1.418725      0.457935
