17
Coordinates from ORCA-job freq E -421.406013264010
  C           2.47094264868907      0.38035978763484     -0.01646645168308
  C          -1.25507795634311     -1.08149638414948      0.26324173214816
  C          -1.81977736172092     -0.03010619556059     -0.68339173809788
  C           1.07597804726121      0.11378567945656      0.41284713260998
  C           0.24270429742771     -1.07325024876292      0.47410698409149
  O          -0.85538948785565      2.07996807081136     -0.79312962782002
  O          -1.80192254825665      1.27278333845496     -0.11861380057665
  O           0.75082659267999     -0.36086023653347      1.63946835559359
  H          -0.05914757511217      1.92897718230874     -0.26115234339593
  H           2.50085719045899      0.65439026935720     -1.06912005263338
  H           2.90029673547916      1.19072971522490      0.57162809812245
  H           3.08686026939912     -0.51320300261970      0.13170447660291
  H          -1.73633047698158     -0.97042918680533      1.23702514375226
  H          -1.54314297981337     -2.06290185467247     -0.11902525552044
  H          -1.28381480092335     -0.00699977645328     -1.63203011056337
  H          -2.86795361741300     -0.26152281827935     -0.88619653689629
  H           0.73646402302454     -2.03553133941200      0.36311999426620
