17
Coordinates from ORCA-job freq E -421.382107715792
  C       2.009792     -0.104298     -0.851716
  C       1.369224     -0.317318      0.507886
  O       1.286979     -1.711475      0.753144
  O       0.355808     -1.907626      1.755235
  C      -0.081487      0.141943      0.620142
  O      -0.505358      1.401265      0.897549
  C      -1.005363      0.795809     -0.297735
  C      -2.460726      0.417297     -0.336286
  H       2.088067      0.958311     -1.064451
  H       3.005735     -0.539118     -0.845396
  H       1.421507     -0.594585     -1.622878
  H       1.938270      0.184963      1.306692
  H      -0.347082     -0.943798      1.429493
  H      -0.613840      1.253571     -1.203046
  H      -3.070492      1.284708     -0.578735
  H      -2.775828      0.024513      0.627250
  H      -2.615205     -0.344160     -1.097149
17
Coordinates from ORCA-job freq E -421.383818707362
  C       2.033751     -0.082870     -0.835066
  C       1.366091     -0.337457      0.496843
  O       1.252148     -1.732068      0.702040
  O       0.375322     -1.882154      1.765399
  C      -0.088979      0.115866      0.604396
  O      -0.472079      1.396086      0.844195
  C      -1.015414      0.746504     -0.324324
  C      -2.479674      0.428087     -0.318948
  H       2.098545      0.989458     -1.012631
  H       3.041064     -0.494309     -0.827070
  H       1.468505     -0.551059     -1.638283
  H       1.913030      0.131686      1.324050
  H      -0.339947     -0.919331      1.433529
  H      -0.615362      1.156320     -1.247693
  H      -3.064246      1.309472     -0.578217
  H      -2.787379      0.076573      0.663601
  H      -2.685374     -0.350804     -1.051817
17
Coordinates from ORCA-job freq E -421.384144846863
  C       2.054386     -0.064934     -0.818280
  C       1.364800     -0.350543      0.492478
  O       1.229249     -1.745514      0.669497
  O       0.371486     -1.878997      1.753620
  C      -0.090238      0.105910      0.592726
  O      -0.446279      1.401883      0.782041
  C      -1.019350      0.704733     -0.353847
  C      -2.490849      0.438842     -0.299364
  H       2.071445      1.010781     -0.993030
  H       3.081066     -0.425914     -0.793629
  H       1.527413     -0.552992     -1.636816
  H       1.893382      0.089709      1.344331
  H      -0.342784     -0.905917      1.426792
  H      -0.621507      1.065032     -1.297943
  H      -3.051917      1.340566     -0.542766
  H      -2.776661      0.101735      0.695117
  H      -2.753640     -0.334380     -1.020924
17
Coordinates from ORCA-job freq E -421.384155991936
  C       2.053096     -0.062440     -0.817570
  C       1.364409     -0.351128      0.492731
  O       1.221097     -1.746435      0.663927
  O       0.367076     -1.879446      1.750580
  C      -0.088964      0.110809      0.596282
  O      -0.445313      1.407320      0.778052
  C      -1.017543      0.701790     -0.355358
  C      -2.489038      0.436415     -0.298853
  H       2.074868      1.014184     -0.986763
  H       3.078427     -0.427797     -0.796140
  H       1.523102     -0.543710     -1.638207
  H       1.896471      0.081797      1.345938
  H      -0.342124     -0.897307      1.432133
  H      -0.618687      1.056792     -1.300888
  H      -3.050884      1.337044     -0.544299
  H      -2.774068      0.101161      0.696539
  H      -2.751922     -0.339050     -1.018102
17
Coordinates from ORCA-job freq E -421.384154613154
  C       2.053117     -0.061780     -0.817231
  C       1.364343     -0.351407      0.492833
  O       1.219402     -1.746892      0.661926
  O       0.364032     -1.881114      1.747376
  C      -0.088448      0.111663      0.596624
  O      -0.444139      1.408304      0.777742
  C      -1.017041      0.702041     -0.355282
  C      -2.488434      0.436245     -0.298149
  H       2.072428      1.014815     -0.986939
  H       3.079211     -0.424879     -0.795393
  H       1.524365     -0.544633     -1.637755
  H       1.897184      0.079672      1.346490
  H      -0.342646     -0.896405      1.432003
  H      -0.618416      1.056430     -1.301134
  H      -3.050835      1.335313     -0.547944
  H      -2.773582      0.105397      0.698694
  H      -2.750539     -0.342769     -1.013861
17
Coordinates from ORCA-job freq E -421.384158683903
  C       2.052997     -0.061738     -0.817335
  C       1.364289     -0.351316      0.492780
  O       1.218854     -1.746805      0.661468
  O       0.364371     -1.880789      1.747632
  C      -0.088497      0.111879      0.596826
  O      -0.444435      1.408449      0.778230
  C      -1.017038      0.702370     -0.355026
  C      -2.488336      0.435954     -0.298309
  H       2.073975      1.014931     -0.986330
  H       3.078541     -0.426457     -0.796052
  H       1.523270     -0.543211     -1.638024
  H       1.897364      0.079401      1.346473
  H      -0.342492     -0.896121      1.432409
  H      -0.618331      1.057011     -1.300739
  H      -3.051128      1.334497     -0.549103
  H      -2.773722      0.105699      0.698658
  H      -2.749677     -0.343754     -1.013556
17
Coordinates from ORCA-job freq E -421.384150967049
  C       2.053060     -0.061859     -0.817314
  C       1.364331     -0.351198      0.492834
  O       1.219126     -1.746693      0.661860
  O       0.364200     -1.880681      1.747685
  C      -0.088471      0.111888      0.596698
  O      -0.444427      1.408460      0.778065
  C      -1.017072      0.702332     -0.355139
  C      -2.488358      0.435932     -0.298275
  H       2.073993      1.014778     -0.986536
  H       3.078609     -0.426545     -0.795922
  H       1.523366     -0.543533     -1.637912
  H       1.897319      0.079788      1.346440
  H      -0.342609     -0.896056      1.432205
  H      -0.618453      1.056953     -1.300903
  H      -3.051157      1.334784     -0.547974
  H      -2.773498      0.104679      0.698433
  H      -2.749959     -0.343027     -1.014244
