17
Coordinates from ORCA-job freq E -421.391441430413
  C      -1.802785     -0.556685      0.101225
  C      -0.555077     -1.299606     -0.294834
  C       0.688618     -0.460570     -0.053134
  O       1.796760     -1.225977     -0.402921
  O       3.011199     -0.529329     -0.243197
  O       0.794996      0.331900      1.081847
  C       0.660479      1.005800     -0.167527
  C      -0.626704      1.705317     -0.413306
  H      -2.683622     -0.827075     -0.463375
  H      -1.976237     -0.529562      1.168800
  H      -0.563065     -1.551865     -1.356518
  H      -0.441336     -2.230268      0.271511
  H       3.178830     -0.543391      0.713998
  H       1.578104      1.487999     -0.503453
  H      -0.729646      2.057403     -1.431138
  H      -1.467075      0.704767     -0.206932
  H      -0.863442      2.461145      0.324266
17
Coordinates from ORCA-job freq E -421.393330983391
  C      -1.793305     -0.559882      0.102358
  C      -0.546929     -1.307359     -0.304021
  C       0.689851     -0.471252     -0.076517
  O       1.800972     -1.251063     -0.374865
  O       2.983315     -0.492259     -0.253513
  O       0.774479      0.296706      1.084803
  C       0.679451      0.990173     -0.181454
  C      -0.600140      1.707831     -0.414204
  H      -2.690441     -0.811112     -0.452789
  H      -1.958017     -0.503783      1.173323
  H      -0.570045     -1.573411     -1.361023
  H      -0.431235     -2.237733      0.259782
  H       3.113030     -0.472573      0.703846
  H       1.608426      1.464633     -0.478728
  H      -0.740112      2.061411     -1.431336
  H      -1.478666      0.703771     -0.206567
  H      -0.840634      2.455904      0.336219
17
Coordinates from ORCA-job freq E -421.393386269461
  C      -1.790872     -0.561416      0.109520
  C      -0.548329     -1.306509     -0.312273
  C       0.691258     -0.474266     -0.083375
  O       1.801686     -1.258857     -0.372381
  O       2.988690     -0.505214     -0.247446
  O       0.774506      0.288979      1.083245
  C       0.682882      0.987842     -0.182761
  C      -0.596457      1.706305     -0.414996
  H      -2.693352     -0.807550     -0.439569
  H      -1.945183     -0.507506      1.182233
  H      -0.579694     -1.562865     -1.371560
  H      -0.429792     -2.242641      0.241128
  H       3.084148     -0.437466      0.712402
  H       1.612791      1.466486     -0.470008
  H      -0.743033      2.045695     -1.436276
  H      -1.477113      0.705290     -0.200118
  H      -0.832138      2.463696      0.327548
17
Coordinates from ORCA-job freq E -421.393374028580
  C      -1.790517     -0.561469      0.110238
  C      -0.548524     -1.307343     -0.312225
  C       0.691896     -0.476265     -0.084886
  O       1.802865     -1.259440     -0.376309
  O       2.987801     -0.504337     -0.244000
  O       0.778642      0.287976      1.081169
  C       0.684328      0.985797     -0.185194
  C      -0.594644      1.705762     -0.414032
  H      -2.692204     -0.804461     -0.441492
  H      -1.947063     -0.511103      1.182759
  H      -0.580727     -1.562774     -1.371698
  H      -0.430341     -2.243917      0.240494
  H       3.070467     -0.425948      0.716366
  H       1.614162      1.463038     -0.475342
  H      -0.744234      2.044622     -1.435009
  H      -1.475290      0.705860     -0.194343
  H      -0.826619      2.464006      0.328815
17
Coordinates from ORCA-job freq E -421.393380483371
  C      -1.790834     -0.561347      0.108933
  C      -0.548291     -1.307752     -0.311059
  C       0.692000     -0.476055     -0.085006
  O       1.802630     -1.259646     -0.376660
  O       2.988443     -0.505565     -0.245182
  O       0.779249      0.288360      1.080837
  C       0.684211      0.986105     -0.185558
  C      -0.594865      1.706188     -0.413357
  H      -2.691869     -0.805225     -0.443489
  H      -1.948735     -0.509614      1.181203
  H      -0.579942     -1.566084     -1.369838
  H      -0.430134     -2.242861      0.244156
  H       3.070949     -0.425988      0.715135
  H       1.613763      1.463328     -0.476568
  H      -0.743454      2.048826     -1.433221
  H      -1.475435      0.705632     -0.197033
  H      -0.827686      2.461699      0.332018
17
Coordinates from ORCA-job freq E -421.393382810164
  C      -1.789855     -0.560729      0.109315
  C      -0.548978     -1.308617     -0.312520
  C       0.691410     -0.477662     -0.085253
  O       1.803160     -1.259718     -0.376818
  O       2.986498     -0.502448     -0.243252
  O       0.777740      0.286817      1.080706
  C       0.683902      0.984722     -0.185474
  C      -0.594527      1.705805     -0.414573
  H      -2.694975     -0.811971     -0.433085
  H      -1.938459     -0.498716      1.182367
  H      -0.581395     -1.565227     -1.371724
  H      -0.431656     -2.244656      0.241366
  H       3.068264     -0.424306      0.717234
  H       1.614001      1.461267     -0.475952
  H      -0.737114      2.057264     -1.432322
  H      -1.476108      0.703328     -0.210562
  H      -0.831908      2.454848      0.335860
17
Coordinates from ORCA-job freq E -421.393376115669
  C      -1.790707     -0.561155      0.108495
  C      -0.548354     -1.308165     -0.310913
  C       0.692001     -0.476476     -0.085225
  O       1.802735     -1.259906     -0.377072
  O       2.988375     -0.505638     -0.244854
  O       0.779577      0.288230      1.080450
  C       0.684188      0.985777     -0.186010
  C      -0.594782      1.706235     -0.413241
  H      -2.692379     -0.806980     -0.442038
  H      -1.947203     -0.506814      1.180846
  H      -0.579947     -1.567218     -1.369525
  H      -0.430485     -2.242898      0.245017
  H       3.069222     -0.424535      0.715523
  H       1.613653      1.462734     -0.477765
  H      -0.741726      2.052752     -1.432022
  H      -1.475503      0.705022     -0.200892
  H      -0.828666      2.459040      0.334537
17
Coordinates from ORCA-job freq E -421.393377370435
  C      -1.790737     -0.561178      0.108422
  C      -0.548341     -1.308218     -0.310817
  C       0.692003     -0.476498     -0.085296
  O       1.802744     -1.259898     -0.377229
  O       2.988356     -0.505612     -0.244893
  O       0.779707      0.288192      1.080383
  C       0.684221      0.985745     -0.186066
  C      -0.594741      1.706260     -0.413129
  H      -2.692250     -0.806755     -0.442471
  H      -1.947523     -0.507074      1.180742
  H      -0.579894     -1.567507     -1.369364
  H      -0.430440     -2.242820      0.245326
  H       3.068946     -0.424254      0.715487
  H       1.613690      1.462633     -0.477931
  H      -0.741817      2.052746     -1.431906
  H      -1.475512      0.705112     -0.200600
  H      -0.828411      2.459128      0.334654
17
Coordinates from ORCA-job freq E -421.393383896393
  C      -1.790761     -0.561178      0.108396
  C      -0.548344     -1.308218     -0.310780
  C       0.691996     -0.476499     -0.085239
  O       1.802729     -1.259903     -0.377177
  O       2.988342     -0.505584     -0.244999
  O       0.779694      0.288199      1.080438
  C       0.684218      0.985739     -0.186025
  C      -0.594739      1.706261     -0.413117
  H      -2.692241     -0.806776     -0.442546
  H      -1.947607     -0.507057      1.180708
  H      -0.579857     -1.567509     -1.369327
  H      -0.430475     -2.242813      0.245375
  H       3.069087     -0.424257      0.715368
  H       1.613696      1.462609     -0.477892
  H      -0.741781      2.052759     -1.431895
  H      -1.475520      0.705102     -0.200633
  H      -0.828437      2.459128      0.334656
