17
Coordinates from ORCA-job freq E -421.416212204225
  C          -2.89422666719090     -0.40149571739050     -0.87497619048173
  C           0.62970439280525     -0.46951398078358      0.78466405068915
  C           1.98471645167513     -0.52046051846582      0.19007726991191
  C          -1.88014498711586     -0.48578698167492      0.22650595957276
  C          -0.51321438067316      0.07170790216451      0.07134867047651
  O           4.09200752457367      0.35280018401166      0.33684968257522
  O           2.76372012746188      0.49305853871323      0.82613949563710
  O          -1.52084495864414      0.72351651534849      0.85261754117014
  H          -2.88496324576964     -1.31095210799776     -1.47545550637868
  H          -3.89409836424935     -0.27695056999204     -0.45841679508740
  H          -2.68159422599408      0.45125057235841     -1.51811637936931
  H           0.49102542051257     -0.77638763843370      1.81232146892287
  H           1.95632125661794     -0.33534379550881     -0.88798822549687
  H           2.46979645686051     -1.48419736702470      0.36706837743006
  H          -1.98382063508532     -1.32024717010610      0.91560433713522
  H          -0.30193390927599      0.56469121461709     -0.87400523138632
  H           4.19796474349151      1.16773392016456     -0.16627152532065
