15
Coordinates from ORCA-job scan E -19.248481917100
  C       2.293163     -0.275509      0.712543
  C      -2.019949      0.622065      1.637922
  C       1.533359      0.777344      0.134536
  C       0.072025      0.846967      0.267261
  C      -0.704132     -0.003003      1.207447
  O       0.905128      1.769753      0.891694
  H       2.483488     -0.332737      1.747919
  H       2.703135     -1.059407      0.125079
  H      -2.651026      0.824113      0.781334
  H      -2.567524     -0.023713      2.311636
  H      -1.844053      1.563331      2.144909
  H       1.937057      1.153491     -0.799215
  H      -0.500729      1.182760     -0.548589
  H      -0.131927     -0.251526      2.109937
  H      -0.928255     -0.974889      0.724788
15
Coordinates from ORCA-job scan E -19.252787568910
  C       2.295954     -0.274886      0.742124
  C      -2.016779      0.621675      1.648864
  C       1.524338      0.768210      0.127700
  C       0.065005      0.862426      0.267099
  C      -0.714587     -0.026813      1.194878
  O       0.921453      1.783973      0.874487
  H       2.470802     -0.309795      1.799490
  H       2.747828     -1.047113      0.152628
  H      -2.657753      0.845166      0.797375
  H      -2.562578     -0.032464      2.322729
  H      -1.812813      1.555530      2.169267
  H       1.911912      1.108995     -0.837366
  H      -0.519020      1.225698     -0.571538
  H      -0.124047     -0.288444      2.075938
  H      -0.949952     -0.973119      0.685527
15
Coordinates from ORCA-job scan E -19.254203941270
  C       2.299343     -0.272834      0.763558
  C      -2.013329      0.626184      1.657142
  C       1.513053      0.750009      0.120538
  C       0.056426      0.865732      0.271562
  C      -0.728224     -0.047699      1.184076
  O       0.930651      1.781570      0.862367
  H       2.438374     -0.294312      1.829639
  H       2.814825     -1.005177      0.172427
  H      -2.658642      0.865922      0.812845
  H      -2.558793     -0.029255      2.332193
  H      -1.780941      1.550722      2.182462
  H       1.884783      1.061178     -0.863693
  H      -0.525630      1.253008     -0.570834
  H      -0.119089     -0.317349      2.046523
  H      -0.973044     -0.968660      0.648395
15
Coordinates from ORCA-job scan E -19.254844899470
  C       2.303038     -0.272817      0.770718
  C      -2.013086      0.632368      1.664151
  C       1.505478      0.731444      0.111854
  C       0.051598      0.861820      0.276769
  C      -0.739731     -0.058783      1.181267
  O       0.936268      1.771935      0.854376
  H       2.388892     -0.302591      1.840574
  H       2.891345     -0.947148      0.179720
  H      -2.658057      0.881156      0.823457
  H      -2.560630     -0.021087      2.339828
  H      -1.761584      1.550194      2.190346
  H       1.867619      1.026471     -0.879892
  H      -0.523183      1.262375     -0.565946
  H      -0.118388     -0.331171      2.033455
  H      -0.989818     -0.965127      0.628524
15
Coordinates from ORCA-job scan E -19.255276414460
  C       2.307194     -0.274946      0.766090
  C      -2.014942      0.638922      1.670014
  C       1.501373      0.715201      0.100634
  C       0.050327      0.854853      0.282085
  C      -0.747129     -0.061293      1.186175
  O       0.940303      1.761223      0.848439
  H       2.323875     -0.338060      1.835322
  H       2.972666     -0.878194      0.182314
  H      -2.656131      0.891546      0.828738
  H      -2.566659     -0.011452      2.344809
  H      -1.753919      1.553132      2.196107
  H       1.858556      1.005079     -0.891783
  H      -0.516352      1.258353     -0.561459
  H      -0.120742     -0.332440      2.035220
  H      -0.998659     -0.962883      0.626496
15
Coordinates from ORCA-job scan E -19.255563243390
  C       2.311685     -0.278101      0.752848
  C      -2.017699      0.644336      1.672867
  C       1.500710      0.705289      0.089080
  C       0.052132      0.848122      0.287026
  C      -0.748406     -0.056717      1.197052
  O       0.942960      1.754309      0.845228
  H       2.259067     -0.394334      1.814971
  H       3.041917     -0.815455      0.184098
  H      -2.653108      0.895493      0.827195
  H      -2.574557     -0.002889      2.345714
  H      -1.758093      1.559097      2.198232
  H       1.856717      1.000266     -0.899539
  H      -0.510492      1.245859     -0.558251
  H      -0.125421     -0.322844      2.050538
  H      -0.997650     -0.963392      0.642141
15
Coordinates from ORCA-job scan E -19.255711574510
  C       2.315278     -0.281162      0.738506
  C      -2.020152      0.647271      1.671749
  C       1.502222      0.702907      0.081339
  C       0.055217      0.844655      0.291203
  C      -0.744823     -0.049796      1.208690
  O       0.944945      1.753394      0.845133
  H       2.216084     -0.448177      1.790637
  H       3.083267     -0.778842      0.184085
  H      -2.650570      0.892810      0.820371
  H      -2.580808      0.002521      2.343419
  H      -1.769429      1.566082      2.195019
  H       1.858750      1.007875     -0.902713
  H      -0.509887      1.234644     -0.555153
  H      -0.130717     -0.308687      2.071060
  H      -0.989616     -0.966456      0.665855
15
Coordinates from ORCA-job scan E -19.255765794210
  C       2.316762     -0.283762      0.729321
  C      -2.021696      0.647955      1.668575
  C       1.503765      0.704086      0.078551
  C       0.057560      0.844910      0.294472
  C      -0.740433     -0.045367      1.216311
  O       0.947411      1.755679      0.846552
  H       2.198961     -0.480873      1.775184
  H       3.098935     -0.767574      0.181977
  H      -2.649815      0.886638      0.813064
  H      -2.583379      0.004877      2.341095
  H      -1.779872      1.571580      2.188328
  H       1.859997      1.016366     -0.903296
  H      -0.513428      1.231704     -0.550891
  H      -0.134062     -0.297524      2.086183
  H      -0.980944     -0.969654      0.683774
15
Coordinates from ORCA-job scan E -19.255782401580
  C       2.316694     -0.286013      0.724936
  C      -2.022855      0.647634      1.665590
  C       1.504470      0.704992      0.078321
  C       0.058813      0.846959      0.297144
  C      -0.737611     -0.043592      1.220136
  O       0.950548      1.757480      0.848194
  H       2.195619     -0.495598      1.768609
  H       3.102483     -0.766753      0.179457
  H      -2.650534      0.880024      0.807807
  H      -2.583641      0.005727      2.340213
  H      -1.786667      1.575107      2.181368
  H       1.859185      1.020095     -0.903463
  H      -0.517070      1.234878     -0.545772
  H      -0.135087     -0.290499      2.094102
  H      -0.974585     -0.971402      0.692559
15
Coordinates from ORCA-job scan E -19.255788716530
  C       2.316071     -0.288377      0.722184
  C      -2.024336      0.646954      1.663080
  C       1.504770      0.705071      0.078689
  C       0.059711      0.849559      0.299792
  C      -0.735890     -0.042345      1.222763
  O       0.954217      1.758094      0.850127
  H       2.196306     -0.503242      1.765154
  H       3.102539     -0.768165      0.176484
  H      -2.651951      0.873160      0.803597
  H      -2.583522      0.005959      2.340046
  H      -1.792290      1.577668      2.174859
  H       1.857575      1.021013     -0.903690
  H      -0.519258      1.240079     -0.540312
  H      -0.135047     -0.284433      2.099138
  H      -0.969135     -0.971956      0.697289
15
Coordinates from ORCA-job scan E -19.255791788210
  C       2.315266     -0.290999      0.719651
  C      -2.026254      0.646015      1.660892
  C       1.505022      0.704770      0.079018
  C       0.060648      0.852370      0.302535
  C      -0.734567     -0.040596      1.225398
  O       0.958188      1.758017      0.852389
  H       2.197640     -0.508532      1.762290
  H       3.101256     -0.770317      0.172707
  H      -2.653535      0.866004      0.799632
  H      -2.583746      0.005623      2.339856
  H      -1.798261      1.579670      2.168998
  H       1.856132      1.021082     -0.903897
  H      -0.519977      1.245491     -0.535063
  H      -0.134581     -0.277779      2.103654
  H      -0.963468     -0.971780      0.701142
15
Coordinates from ORCA-job scan E -19.255793847110
  C       2.314302     -0.294085      0.716670
  C      -2.028623      0.644743      1.658654
  C       1.505377      0.704436      0.079163
  C       0.061827      0.855579      0.305613
  C      -0.733057     -0.037977      1.228661
  O       0.962679      1.757800      0.855042
  H       2.198596     -0.513680      1.758987
  H       3.098964     -0.773366      0.167757
  H      -2.655056      0.858057      0.795178
  H      -2.584482      0.004627      2.339182
  H      -1.805600      1.581402      2.163311
  H       1.855064      1.021232     -0.904077
  H      -0.519748      1.251103     -0.529802
  H      -0.133888     -0.269572      2.108965
  H      -0.956594     -0.971260      0.705898
15
Coordinates from ORCA-job scan E -19.255795389230
  C       2.313239     -0.297443      0.713300
  C      -2.031173      0.643191      1.656337
  C       1.505832      0.704245      0.079083
  C       0.063200      0.859031      0.308896
  C      -0.731204     -0.034693      1.232479
  O       0.967470      1.757762      0.857821
  H       2.198841     -0.518887      1.755272
  H       3.095804     -0.777301      0.161929
  H      -2.656200      0.849866      0.790267
  H      -2.585694      0.002964      2.337794
  H      -1.814031      1.582784      2.158055
  H       1.854420      1.021705     -0.904274
  H      -0.518978      1.256719     -0.524733
  H      -0.133082     -0.260220      2.115102
  H      -0.948682     -0.970682      0.711874
15
Coordinates from ORCA-job scan E -19.255796421800
  C       2.312313     -0.300353      0.710242
  C      -2.033291      0.641706      1.654295
  C       1.506267      0.704252      0.078814
  C       0.064461      0.862009      0.311767
  C      -0.729310     -0.031613      1.236046
  O       0.971651      1.758003      0.860081
  H       2.198440     -0.523152      1.751946
  H       3.092509     -0.781303      0.156520
  H      -2.656655      0.843209      0.785798
  H      -2.587091      0.001026      2.335879
  H      -1.821756      1.583585      2.154156
  H       1.854148      1.022351     -0.904533
  H      -0.518155      1.261454     -0.520622
  H      -0.132382     -0.251797      2.120869
  H      -0.941387     -0.970338      0.717943
15
Coordinates from ORCA-job scan E -19.255796907200
  C       2.311841     -0.301930      0.708465
  C      -2.034354      0.640817      1.653079
  C       1.506524      0.704371      0.078523
  C       0.065192      0.863593      0.313412
  C      -0.728035     -0.029888      1.238183
  O       0.974034      1.758336      0.861180
  H       2.197924     -0.525204      1.750084
  H       3.090353     -0.783919      0.153320
  H      -2.656466      0.839994      0.783112
  H      -2.588138     -0.000373      2.334206
  H      -1.826263      1.583758      2.152447
  H       1.854064      1.022795     -0.904819
  H      -0.517748      1.264124     -0.518347
  H      -0.132043     -0.247060      2.124408
  H      -0.937124     -0.970375      0.721949
15
Coordinates from ORCA-job scan E -19.255797056770
  C       2.311783     -0.302304      0.707941
  C      -2.034558      0.640568      1.652667
  C       1.506596      0.704457      0.078357
  C       0.065402      0.863918      0.313921
  C      -0.727566     -0.029517      1.238835
  O       0.974751      1.758505      0.861368
  H       2.197753     -0.525435      1.749607
  H       3.089650     -0.784819      0.152373
  H      -2.656121      0.839521      0.782233
  H      -2.588620     -0.000901      2.333331
  H      -1.827549      1.583654      2.152245
  H       1.853973      1.022900     -0.905045
  H      -0.517751      1.264939     -0.517578
  H      -0.132036     -0.245865      2.125577
  H      -0.935945     -0.970581      0.723369
15
Coordinates from ORCA-job scan E -19.256104074050
  C       2.319999     -0.302383      0.706404
  C      -2.038500      0.641739      1.653745
  C       1.512909      0.703162      0.077309
  C       0.061408      0.862922      0.314557
  C      -0.732393     -0.029789      1.239455
  O       0.975181      1.756900      0.860312
  H       2.206189     -0.526432      1.747897
  H       3.099079     -0.782826      0.150736
  H      -2.660033      0.841619      0.783502
  H      -2.593155      0.000768      2.334395
  H      -1.830265      1.584468      2.153487
  H       1.860342      1.022109     -0.905910
  H      -0.522092      1.264312     -0.516521
  H      -0.136909     -0.247037      2.126008
  H      -0.941999     -0.970492      0.723826
15
Coordinates from ORCA-job scan E -19.256112805980
  C       2.317284     -0.301593      0.707490
  C      -2.037024      0.641179      1.653939
  C       1.513005      0.704244      0.077621
  C       0.061378      0.863903      0.314170
  C      -0.730746     -0.029584      1.238812
  O       0.974727      1.757333      0.859496
  H       2.201302     -0.525942      1.748734
  H       3.095364     -0.784162      0.152377
  H      -2.659091      0.841147      0.784087
  H      -2.590972     -0.000475      2.334509
  H      -1.829122      1.583785      2.154060
  H       1.859249      1.022040     -0.905988
  H      -0.520826      1.264171     -0.517937
  H      -0.134597     -0.246891      2.124989
  H      -0.940170     -0.970115      0.722842
15
Coordinates from ORCA-job scan E -19.256115932250
  C       2.315169     -0.300989      0.708502
  C      -2.035972      0.640549      1.654102
  C       1.513298      0.705524      0.077988
  C       0.061545      0.864987      0.313891
  C      -0.729287     -0.029345      1.238413
  O       0.974474      1.757804      0.858902
  H       2.197941     -0.525232      1.749606
  H       3.091453     -0.786549      0.153400
  H      -2.658305      0.840569      0.784469
  H      -2.589428     -0.001789      2.334466
  H      -1.828582      1.583044      2.154620
  H       1.857900      1.022588     -0.906348
  H      -0.519137      1.264280     -0.519620
  H      -0.132863     -0.246452      2.124385
  H      -0.938444     -0.969947      0.722426
15
Coordinates from ORCA-job scan E -19.256116238070
  C       2.315215     -0.301006      0.708532
  C      -2.036065      0.640434      1.654014
  C       1.513415      0.705747      0.078131
  C       0.061645      0.865110      0.313998
  C      -0.729202     -0.029298      1.238491
  O       0.974563      1.757787      0.859057
  H       2.198701     -0.524729      1.749801
  H       3.090544     -0.787609      0.152982
  H      -2.658260      0.840411      0.784277
  H      -2.589571     -0.001976      2.334268
  H      -1.828857      1.582939      2.154583
  H       1.857481      1.023005     -0.906381
  H      -0.518681      1.264430     -0.519793
  H      -0.132917     -0.246195      2.124575
  H      -0.938248     -0.970010      0.722666
15
Coordinates from ORCA-job scan E -19.256309952830
  C       2.323438     -0.301079      0.706997
  C      -2.040009      0.641608      1.655093
  C       1.519727      0.704458      0.077086
  C       0.057649      0.864108      0.314630
  C      -0.734035     -0.029574      1.239109
  O       0.974996      1.756171      0.858004
  H       2.207148     -0.525726      1.748093
  H       3.099992     -0.785611      0.151343
  H      -2.662174      0.842515      0.785548
  H      -2.594112     -0.000302      2.335332
  H      -1.831570      1.583755      2.155826
  H       1.863851      1.022219     -0.907243
  H      -0.523027      1.263798     -0.518740
  H      -0.137797     -0.247376      2.125003
  H      -0.944315     -0.969923      0.723121
15
Coordinates from ORCA-job scan E -19.256318608380
  C       2.320909     -0.300384      0.707993
  C      -2.038731      0.641006      1.655220
  C       1.519876      0.705551      0.077519
  C       0.057669      0.865112      0.314325
  C      -0.732486     -0.029271      1.238552
  O       0.974604      1.756547      0.857420
  H       2.203160     -0.524948      1.748990
  H       3.095840     -0.787542      0.152479
  H      -2.661355      0.841831      0.785972
  H      -2.592122     -0.001559      2.335395
  H      -1.830725      1.583095      2.156256
  H       1.862740      1.022398     -0.907178
  H      -0.521581      1.263725     -0.520169
  H      -0.135604     -0.246981      2.124123
  H      -0.942433     -0.969538      0.722305
15
Coordinates from ORCA-job scan E -19.256322396340
  C       2.318728     -0.299815      0.709047
  C      -2.037772      0.640243      1.655297
  C       1.520247      0.706971      0.078131
  C       0.057885      0.866351      0.314104
  C      -0.730974     -0.028904      1.238154
  O       0.974388      1.757010      0.857056
  H       2.200702     -0.523544      1.750168
  H       3.090705     -0.791085      0.152956
  H      -2.660631      0.840932      0.786202
  H      -2.590582     -0.003064      2.335270
  H      -1.830449      1.582280      2.156694
  H       1.861212      1.023240     -0.907336
  H      -0.519514      1.263990     -0.522005
  H      -0.133740     -0.246238      2.123523
  H      -0.940444     -0.969328      0.721940
15
Coordinates from ORCA-job scan E -19.256322892720
  C       2.318765     -0.299838      0.709123
  C      -2.037893      0.640079      1.655173
  C       1.520386      0.707242      0.078379
  C       0.057992      0.866523      0.314218
  C      -0.730884     -0.028840      1.238201
  O       0.974491      1.757004      0.857289
  H       2.201955     -0.522618      1.750557
  H       3.089269     -0.792658      0.152332
  H      -2.660607      0.840702      0.785965
  H      -2.590730     -0.003334      2.335022
  H      -1.830798      1.582128      2.156636
  H       1.860721      1.023727     -0.907300
  H      -0.518954      1.264246     -0.522208
  H      -0.133751     -0.245937      2.123666
  H      -0.940199     -0.969386      0.722148
15
Coordinates from ORCA-job scan E -19.256411903790
  C       2.326996     -0.299906      0.707591
  C      -2.041839      0.641256      1.656253
  C       1.526697      0.705959      0.077339
  C       0.053992      0.865516      0.314845
  C      -0.735724     -0.029121      1.238815
  O       0.974926      1.755378      0.856240
  H       2.210411     -0.523610      1.748854
  H       3.098741     -0.790661      0.150690
  H      -2.664524      0.842814      0.787239
  H      -2.595277     -0.001655      2.336088
  H      -1.833506      1.582945      2.157879
  H       1.867092      1.022945     -0.908159
  H      -0.523306      1.263609     -0.521160
  H      -0.138637     -0.247127      2.124088
  H      -0.946280     -0.969301      0.722600
15
Coordinates from ORCA-job scan E -19.256420303970
  C       2.324544     -0.299221      0.708576
  C      -2.040610      0.640656      1.656358
  C       1.526857      0.707033      0.077821
  C       0.054016      0.866495      0.314546
  C      -0.734227     -0.028831      1.238249
  O       0.974558      1.755727      0.855703
  H       2.206805     -0.522603      1.749825
  H       3.094456     -0.792743      0.151689
  H      -2.663738      0.842142      0.787634
  H      -2.593353     -0.002906      2.336119
  H      -1.832707      1.582281      2.158293
  H       1.866010      1.023098     -0.908057
  H      -0.521893      1.263595     -0.522521
  H      -0.136500     -0.246758      2.123197
  H      -0.944457     -0.968924      0.721769
15
Coordinates from ORCA-job scan E -19.256424244280
  C       2.322349     -0.298628      0.709688
  C      -2.039649      0.639861      1.656418
  C       1.527244      0.708492      0.078530
  C       0.054228      0.867754      0.314298
  C      -0.732720     -0.028472      1.237786
  O       0.974343      1.756191      0.855373
  H       2.204765     -0.520753      1.751203
  H       3.088857     -0.796665      0.152041
  H      -2.663025      0.841244      0.787864
  H      -2.591792     -0.004480      2.335955
  H      -1.832430      1.581413      2.158754
  H       1.864478      1.023911     -0.908150
  H      -0.519809      1.263932     -0.524356
  H      -0.134597     -0.246063      2.122498
  H      -0.942482     -0.968698      0.721299
15
Coordinates from ORCA-job scan E -19.256424833090
  C       2.322364     -0.298631      0.709814
  C      -2.039755      0.639675      1.656298
  C       1.527391      0.708801      0.078823
  C       0.054329      0.867948      0.314382
  C      -0.732622     -0.028414      1.237787
  O       0.974431      1.756197      0.855610
  H       2.206202     -0.519592      1.751710
  H       3.087159     -0.798461      0.151390
  H      -2.663001      0.841023      0.787648
  H      -2.591913     -0.004798      2.335696
  H      -1.832758      1.581221      2.158730
  H       1.863973      1.024403     -0.908089
  H      -0.519221      1.264210     -0.524604
  H      -0.134575     -0.245800      2.122569
  H      -0.942244     -0.968744      0.721436
15
Coordinates from ORCA-job scan E -19.256416414770
  C       2.330603     -0.298693      0.708287
  C      -2.043704      0.640854      1.657378
  C       1.533701      0.707524      0.077788
  C       0.050326      0.866935      0.315005
  C      -0.737469     -0.028698      1.238397
  O       0.974870      1.754560      0.854564
  H       2.214664     -0.520577      1.750013
  H       3.096657     -0.796464      0.149745
  H      -2.666921      0.843143      0.788926
  H      -2.596465     -0.003115      2.336764
  H      -1.835461      1.582039      2.159974
  H       1.870345      1.023624     -0.908944
  H      -0.523579      1.263569     -0.523563
  H      -0.139466     -0.246999      2.122984
  H      -0.948338     -0.968661      0.721884
15
Coordinates from ORCA-job scan E -19.256424730330
  C       2.328189     -0.298001      0.709266
  C      -2.042492      0.640260      1.657482
  C       1.533872      0.708595      0.078292
  C       0.050356      0.867894      0.314698
  C      -0.736000     -0.028417      1.237823
  O       0.974506      1.754887      0.854039
  H       2.211204     -0.519481      1.751006
  H       3.092326     -0.798571      0.150705
  H      -2.666150      0.842494      0.789322
  H      -2.594569     -0.004357      2.336787
  H      -1.834665      1.581372      2.160396
  H       1.869289      1.023753     -0.908828
  H      -0.522184      1.263557     -0.524906
  H      -0.137362     -0.246658      2.122082
  H      -0.946558     -0.968285      0.721036
15
Coordinates from ORCA-job scan E -19.256428738940
  C       2.325988     -0.297374      0.710416
  C      -2.041513      0.639458      1.657554
  C       1.534270      0.710082      0.079045
  C       0.050565      0.869149      0.314413
  C      -0.734500     -0.028072      1.237310
  O       0.974273      1.755345      0.853698
  H       2.209299     -0.517445      1.752472
  H       3.086540     -0.802593      0.151063
  H      -2.665438      0.841637      0.789589
  H      -2.592983     -0.005955      2.336622
  H      -1.834337      1.580472      2.160902
  H       1.867772      1.024531     -0.908897
  H      -0.520102      1.263880     -0.526770
  H      -0.135444     -0.246028      2.121305
  H      -0.944627     -0.968047      0.720481
15
Coordinates from ORCA-job scan E -19.256429359470
  C       2.325996     -0.297357      0.710575
  C      -2.041603      0.639271      1.657447
  C       1.534418      0.710407      0.079354
  C       0.050658      0.869341      0.314469
  C      -0.734406     -0.028025      1.237274
  O       0.974341      1.755359      0.853921
  H       2.210790     -0.516187      1.753032
  H       3.084754     -0.804442      0.150446
  H      -2.665413      0.841449      0.789405
  H      -2.593081     -0.006287      2.336368
  H      -1.834621      1.580260      2.160914
  H       1.867269      1.025011     -0.908828
  H      -0.519510      1.264142     -0.527055
  H      -0.135407     -0.245815      2.121319
  H      -0.944422     -0.968087      0.720560
15
Coordinates from ORCA-job scan E -19.256330489680
  C       2.334242     -0.297413      0.709053
  C      -2.045554      0.640452      1.658528
  C       1.540725      0.709136      0.078323
  C       0.046651      0.868322      0.315086
  C      -0.739260     -0.028314      1.237880
  O       0.974782      1.753712      0.852879
  H       2.219259     -0.517165      1.751340
  H       3.094278     -0.802448      0.148798
  H      -2.669336      0.843576      0.790686
  H      -2.597638     -0.004600      2.337438
  H      -1.837320      1.581078      2.162159
  H       1.873641      1.024236     -0.909679
  H      -0.523875      1.263497     -0.526020
  H      -0.140304     -0.247023      2.121727
  H      -0.950529     -0.968006      0.721003
15
Coordinates from ORCA-job scan E -19.256338836520
  C       2.331844     -0.296708      0.710027
  C      -2.044346      0.639863      1.658636
  C       1.540907      0.710207      0.078844
  C       0.046687      0.869264      0.314771
  C      -0.737803     -0.028040      1.237299
  O       0.974418      1.754016      0.852352
  H       2.215845     -0.516040      1.752336
  H       3.089931     -0.804529      0.149753
  H      -2.668569      0.842948      0.791090
  H      -2.595753     -0.005833      2.337462
  H      -1.836513      1.580410      2.162590
  H       1.872594      1.024341     -0.909557
  H      -0.522486      1.263476     -0.527357
  H      -0.138217     -0.246704      2.120814
  H      -0.948778     -0.967631      0.720142
15
Coordinates from ORCA-job scan E -19.256342893340
  C       2.329638     -0.296049      0.711199
  C      -2.043349      0.639065      1.658722
  C       1.541315      0.711708      0.079620
  C       0.046895      0.870507      0.314457
  C      -0.736310     -0.027708      1.236749
  O       0.974169      1.754465      0.851990
  H       2.213966     -0.513939      1.753833
  H       3.084074     -0.808536      0.150158
  H      -2.667856      0.842133      0.791394
  H      -2.594143     -0.007436      2.337305
  H      -1.836130      1.579493      2.163133
  H       1.871078      1.025082     -0.909619
  H      -0.520403      1.263768     -0.529250
  H      -0.136291     -0.246128      2.119982
  H      -0.946892     -0.967386      0.719528
15
Coordinates from ORCA-job scan E -19.256343521420
  C       2.329645     -0.296018      0.711377
  C      -2.043424      0.638881      1.658629
  C       1.541460      0.712040      0.079933
  C       0.046981      0.870693      0.314490
  C      -0.736222     -0.027672      1.236689
  O       0.974218      1.754483      0.852197
  H       2.215460     -0.512655      1.754412
  H       3.082274     -0.810372      0.149590
  H      -2.667830      0.841978      0.791240
  H      -2.594224     -0.007768      2.337063
  H      -1.836373      1.579270      2.163174
  H       1.870575      1.025550     -0.909549
  H      -0.519812      1.264006     -0.529565
  H      -0.136247     -0.245955      2.119955
  H      -0.946719     -0.967422      0.719567
15
Coordinates from ORCA-job scan E -19.256160976330
  C       2.337899     -0.296067      0.709860
  C      -2.047377      0.640064      1.659710
  C       1.547766      0.710775      0.078908
  C       0.042970      0.869669      0.315101
  C      -0.741082     -0.027965      1.237290
  O       0.974663      1.752826      0.851158
  H       2.223934     -0.513625      1.752727
  H       3.091824     -0.808379      0.147939
  H      -2.671756      0.844111      0.792525
  H      -2.598785     -0.006078      2.338134
  H      -1.839069      1.580088      2.164419
  H       1.876947      1.024779     -0.910396
  H      -0.524184      1.263357     -0.528536
  H      -0.141149     -0.247173      2.120356
  H      -0.952840     -0.967343      0.720005
15
Coordinates from ORCA-job scan E -19.256169412540
  C       2.335508     -0.295349      0.710827
  C      -2.046171      0.639482      1.659821
  C       1.547959      0.711846      0.079442
  C       0.043014      0.870596      0.314782
  C      -0.739632     -0.027695      1.236704
  O       0.974300      1.753106      0.850628
  H       2.220530     -0.512496      1.753714
  H       3.087470     -0.810419      0.148896
  H      -2.670990      0.843497      0.792935
  H      -2.596906     -0.007303      2.338159
  H      -1.838251      1.579421      2.164856
  H       1.875901      1.024861     -0.910270
  H      -0.522792      1.263326     -0.529869
  H      -0.139072     -0.246865      2.119438
  H      -0.951107     -0.966969      0.719138
15
Coordinates from ORCA-job scan E -19.256173516720
  C       2.333296     -0.294667      0.712009
  C      -2.045158      0.638689      1.659922
  C       1.548375      0.713357      0.080236
  C       0.043225      0.871830      0.314446
  C      -0.738141     -0.027371      1.236130
  O       0.974042      1.753543      0.850245
  H       2.218634     -0.510385      1.755216
  H       3.081584     -0.814374      0.149354
  H      -2.670274      0.842715      0.793268
  H      -2.595276     -0.008905      2.338012
  H      -1.837827      1.578495      2.165427
  H       1.874376      1.025567     -0.910333
  H      -0.520703      1.263588     -0.531787
  H      -0.137140     -0.246325      2.118569
  H      -0.949253     -0.966718      0.718487
15
Coordinates from ORCA-job scan E -19.256174143320
  C       2.333303     -0.294625      0.712198
  C      -2.045222      0.638509      1.659840
  C       1.548518      0.713689      0.080550
  C       0.043306      0.872009      0.314463
  C      -0.738058     -0.027342      1.236052
  O       0.974079      1.753565      0.850436
  H       2.220114     -0.509105      1.755798
  H       3.079797     -0.816174      0.148835
  H      -2.670249      0.842584      0.793138
  H      -2.595344     -0.009235      2.337781
  H      -1.838037      1.578267      2.165489
  H       1.873869      1.026023     -0.910266
  H      -0.520114      1.263804     -0.532123
  H      -0.137093     -0.246181      2.118513
  H      -0.949107     -0.966750      0.718497
15
Coordinates from ORCA-job scan E -19.255914489570
  C       2.341565     -0.294669      0.710686
  C      -2.049177      0.639694      1.660922
  C       1.554823      0.712431      0.079530
  C       0.039291      0.870980      0.315068
  C      -0.742925     -0.027639      1.236649
  O       0.974528      1.751898      0.849400
  H       2.228594     -0.510067      1.754121
  H       3.089373     -0.814183      0.147181
  H      -2.674177      0.844724      0.794426
  H      -2.599910     -0.007541      2.338854
  H      -1.840728      1.579085      2.166735
  H       1.880242      1.025255     -0.911108
  H      -0.524493      1.263152     -0.531101
  H      -0.142000     -0.247408      2.118907
  H      -0.955242     -0.966673      0.718930
15
Coordinates from ORCA-job scan E -19.255923045260
  C       2.339177     -0.293940      0.711644
  C      -2.047972      0.639116      1.661035
  C       1.555027      0.713501      0.080076
  C       0.039344      0.871896      0.314746
  C      -0.741478     -0.027370      1.236062
  O       0.974168      1.752153      0.848867
  H       2.225186     -0.508945      1.755093
  H       3.085016     -0.816176      0.148143
  H      -2.673411      0.844120      0.794840
  H      -2.598034     -0.008760      2.338879
  H      -1.839905      1.578420      2.167175
  H       1.879192      1.025315     -0.910980
  H      -0.523096      1.263113     -0.532430
  H      -0.139931     -0.247105      2.117988
  H      -0.953519     -0.966299      0.718063
15
Coordinates from ORCA-job scan E -19.255927199130
  C       2.336957     -0.293239      0.712828
  C      -2.046946      0.638328      1.661146
  C       1.555452      0.715020      0.080886
  C       0.039560      0.873125      0.314395
  C      -0.739987     -0.027049      1.235470
  O       0.973908      1.752575      0.848465
  H       2.223258     -0.506846      1.756589
  H       3.079118     -0.820066      0.148651
  H      -2.672692      0.843361      0.795196
  H      -2.596388     -0.010362      2.338740
  H      -1.839448      1.577488      2.167768
  H       1.877651      1.025986     -0.911046
  H      -0.520998      1.263349     -0.534365
  H      -0.137994     -0.246587      2.117094
  H      -0.951689     -0.966042      0.717384
15
Coordinates from ORCA-job scan E -19.255927820770
  C       2.336965     -0.293192      0.713023
  C      -2.047003      0.638153      1.661074
  C       1.555592      0.715350      0.081198
  C       0.039637      0.873300      0.314399
  C      -0.739908     -0.027024      1.235379
  O       0.973938      1.752602      0.848642
  H       2.224716     -0.505585      1.757166
  H       3.077353     -0.821823      0.148177
  H      -2.672668      0.843250      0.795086
  H      -2.596445     -0.010688      2.338520
  H      -1.839635      1.577257      2.167846
  H       1.877138      1.026428     -0.910983
  H      -0.520410      1.263547     -0.534718
  H      -0.137943     -0.246463      2.117016
  H      -0.951564     -0.966071      0.717375
15
Coordinates from ORCA-job scan E -19.255597408430
  C       2.345234     -0.293229      0.711516
  C      -2.050960      0.639340      1.662157
  C       1.561895      0.714098      0.080184
  C       0.035618      0.872266      0.314998
  C      -0.744782     -0.027326      1.235971
  O       0.974390      1.750925      0.847611
  H       2.233201     -0.506539      1.755496
  H       3.086955     -0.819835      0.146522
  H      -2.676599      0.845397      0.796378
  H      -2.601015     -0.008992      2.339594
  H      -1.842322      1.578075      2.169093
  H       1.883512      1.025664     -0.911820
  H      -0.524797      1.262891     -0.533702
  H      -0.142857     -0.247699      2.117402
  H      -0.957712     -0.965996      0.717803
15
Coordinates from ORCA-job scan E -19.255606102740
  C       2.342846     -0.292490      0.712462
  C      -2.049757      0.638766      1.662271
  C       1.562111      0.715168      0.080742
  C       0.035681      0.873172      0.314674
  C      -0.743336     -0.027056      1.235385
  O       0.974036      1.751153      0.847074
  H       2.229783     -0.505429      1.756451
  H       3.082597     -0.821778      0.147487
  H      -2.675834      0.844798      0.796792
  H      -2.599143     -0.010204      2.339620
  H      -1.841497      1.577413      2.169533
  H       1.882456      1.025700     -0.911692
  H      -0.523393      1.262847     -0.535024
  H      -0.140794     -0.247397      2.116486
  H      -0.955996     -0.965621      0.716938
15
Coordinates from ORCA-job scan E -19.255610309350
  C       2.340616     -0.291777      0.713644
  C      -2.048721      0.637980      1.662391
  C       1.562545      0.716691      0.081565
  C       0.035904      0.874398      0.314312
  C      -0.741843     -0.026734      1.234780
  O       0.973780      1.751560      0.846656
  H       2.227819     -0.503355      1.757934
  H       3.076695     -0.825598      0.148041
  H      -2.675112      0.844054      0.797167
  H      -2.597482     -0.011808      2.339486
  H      -1.841017      1.576475      2.170143
  H       1.880895      1.026334     -0.911763
  H      -0.521283      1.263064     -0.536972
  H      -0.138852     -0.246889      2.115574
  H      -0.954181     -0.965358      0.716242
15
Coordinates from ORCA-job scan E -19.255610925080
  C       2.340623     -0.291727      0.713842
  C      -2.048772      0.637810      1.662328
  C       1.562682      0.717018      0.081875
  C       0.035978      0.874572      0.314307
  C      -0.741767     -0.026711      1.234680
  O       0.973806      1.751590      0.846821
  H       2.229254     -0.502117      1.758503
  H       3.074957     -0.827313      0.147609
  H      -2.675090      0.843958      0.797073
  H      -2.597529     -0.012132      2.339274
  H      -1.841186      1.576243      2.170234
  H       1.880375      1.026763     -0.911704
  H      -0.520697      1.263247     -0.537338
  H      -0.138799     -0.246780      2.115481
  H      -0.954073     -0.965383      0.716217
15
Coordinates from ORCA-job scan E -19.255215890740
  C       2.348900     -0.291758      0.712340
  C      -2.052730      0.638998      1.663411
  C       1.568983      0.715774      0.080867
  C       0.031955      0.873534      0.314900
  C      -0.746647     -0.027017      1.235266
  O       0.974262      1.749904      0.845793
  H       2.237744     -0.503063      1.756840
  H       3.084583     -0.825327      0.145951
  H      -2.679024      0.846112      0.798368
  H      -2.602103     -0.010432      2.340350
  H      -1.843868      1.577060      2.171482
  H       1.886750      1.026003     -0.912537
  H      -0.525091      1.262587     -0.536329
  H      -0.143718     -0.248025      2.115859
  H      -0.960233     -0.965308      0.716640
15
Coordinates from ORCA-job scan E -19.255224735630
  C       2.346512     -0.291010      0.713274
  C      -2.051529      0.638429      1.663527
  C       1.569209      0.716838      0.081435
  C       0.032028      0.874428      0.314575
  C      -0.745203     -0.026747      1.234681
  O       0.973915      1.750099      0.845252
  H       2.234317     -0.501964      1.757778
  H       3.080230     -0.827218      0.146921
  H      -2.678258      0.845519      0.798785
  H      -2.600236     -0.011638      2.340377
  H      -1.843041      1.576402      2.171923
  H       1.885688      1.026016     -0.912407
  H      -0.523681      1.262541     -0.537642
  H      -0.141662     -0.247723      2.114946
  H      -0.958526     -0.964934      0.715778
15
Coordinates from ORCA-job scan E -19.255228999620
  C       2.344270     -0.290287      0.714451
  C      -2.050485      0.637646      1.663655
  C       1.569652      0.718364      0.082271
  C       0.032258      0.875656      0.314205
  C      -0.743707     -0.026421      1.234065
  O       0.973666      1.750491      0.844818
  H       2.232312     -0.499916      1.759245
  H       3.074330     -0.830966      0.147521
  H      -2.677535      0.844789      0.799175
  H      -2.598561     -0.013244      2.340248
  H      -1.842543      1.575460      2.172549
  H       1.884103      1.026609     -0.912486
  H      -0.521559      1.262744     -0.539599
  H      -0.139715     -0.247222      2.114018
  H      -0.956722     -0.964663      0.715065
15
Coordinates from ORCA-job scan E -19.255229608850
  C       2.344275     -0.290238      0.714649
  C      -2.050531      0.637479      1.663598
  C       1.569788      0.718689      0.082579
  C       0.032329      0.875832      0.314192
  C      -0.743632     -0.026399      1.233957
  O       0.973691      1.750528      0.844974
  H       2.233721     -0.498707      1.759804
  H       3.072621     -0.832637      0.147128
  H      -2.677514      0.844704      0.799095
  H      -2.598600     -0.013568      2.340043
  H      -1.842699      1.575227      2.172651
  H       1.883573      1.027021     -0.912433
  H      -0.520973      1.262912     -0.539976
  H      -0.139660     -0.247122      2.113912
  H      -0.956625     -0.964682      0.715028
15
Coordinates from ORCA-job scan E -19.254775881190
  C       2.352558     -0.290262      0.713153
  C      -2.054492      0.638668      1.664682
  C       1.576087      0.717451      0.081576
  C       0.028303      0.874789      0.314780
  C      -0.748519     -0.026708      1.234538
  O       0.974150      1.748832      0.843950
  H       2.242217     -0.499646      1.758148
  H       3.082271     -0.830654      0.145469
  H      -2.681451      0.846864      0.800394
  H      -2.603178     -0.011866      2.341120
  H      -1.845377      1.576043      2.173900
  H       1.889949      1.026265     -0.913262
  H      -0.525374      1.262250     -0.538974
  H      -0.144584     -0.248377      2.114282
  H      -0.962799     -0.964609      0.715446
15
Coordinates from ORCA-job scan E -19.254784889710
  C       2.350171     -0.289507      0.714073
  C      -2.053293      0.638104      1.664799
  C       1.576323      0.718510      0.082153
  C       0.028385      0.875672      0.314453
  C      -0.747077     -0.026437      1.233954
  O       0.973811      1.748993      0.843405
  H       2.238779     -0.498560      1.759067
  H       3.077928     -0.832489      0.146442
  H      -2.680686      0.846278      0.800811
  H      -2.601317     -0.013064      2.341147
  H      -1.844549      1.575388      2.174341
  H       1.888880      1.026256     -0.913129
  H      -0.523957      1.262203     -0.540277
  H      -0.142536     -0.248073      2.113373
  H      -0.961099     -0.964234      0.714588
15
Coordinates from ORCA-job scan E -19.254789214370
  C       2.347914     -0.288778      0.715242
  C      -2.052242      0.637324      1.664934
  C       1.576775      0.720038      0.083002
  C       0.028624      0.876904      0.314077
  C      -0.745578     -0.026106      1.233330
  O       0.973572      1.749368      0.842957
  H       2.236733     -0.496543      1.760517
  H       3.072037     -0.836161      0.147084
  H      -2.679962      0.845558      0.801216
  H      -2.599629     -0.014674      2.341021
  H      -1.844038      1.574442      2.174981
  H       1.887268      1.026804     -0.913217
  H      -0.521823      1.262393     -0.542241
  H      -0.140585     -0.247574      2.112435
  H      -0.959304     -0.963955      0.713863
15
Coordinates from ORCA-job scan E -19.254789816990
  C       2.347917     -0.288731      0.715439
  C      -2.052285      0.637159      1.664884
  C       1.576908      0.720361      0.083308
  C       0.028694      0.877083      0.314060
  C      -0.745504     -0.026082      1.233215
  O       0.973597      1.749411      0.843103
  H       2.238116     -0.495365      1.761064
  H       3.070358     -0.837788      0.146728
  H      -2.679943      0.845483      0.801148
  H      -2.599661     -0.014998      2.340823
  H      -1.844184      1.574208      2.175094
  H       1.886728      1.027199     -0.913170
  H      -0.521236      1.262548     -0.542628
  H      -0.140527     -0.247480      2.112319
  H      -0.959216     -0.963968      0.713815
15
Coordinates from ORCA-job scan E -19.254283125090
  C       2.356206     -0.288748      0.713948
  C      -2.056247      0.638350      1.665968
  C       1.583205      0.719129      0.082312
  C       0.024663      0.876035      0.314641
  C      -0.750397     -0.026395      1.233792
  O       0.974061      1.747706      0.842082
  H       2.246617     -0.496296      1.759415
  H       3.080031     -0.835809      0.145067
  H      -2.683881      0.847649      0.802450
  H      -2.604242     -0.013293      2.341901
  H      -1.846857      1.575023      2.176344
  H       1.893105      1.026446     -0.913995
  H      -0.525644      1.261882     -0.541633
  H      -0.145456     -0.248744      2.112680
  H      -0.965402     -0.963896      0.714228
15
Coordinates from ORCA-job scan E -19.254292309750
  C       2.353819     -0.287987      0.714854
  C      -2.055051      0.637791      1.666086
  C       1.583451      0.720182      0.082898
  C       0.024756      0.876908      0.314313
  C      -0.748957     -0.026122      1.233210
  O       0.973730      1.747831      0.841534
  H       2.243168     -0.495223      1.760315
  H       3.075702     -0.837586      0.146044
  H      -2.683118      0.847068      0.802868
  H      -2.602387     -0.014484      2.341928
  H      -1.846030      1.574373      2.176784
  H       1.892028      1.026412     -0.913860
  H      -0.524221      1.261835     -0.542925
  H      -0.143417     -0.248438      2.111776
  H      -0.963710     -0.963520      0.713376
15
Coordinates from ORCA-job scan E -19.254296697760
  C       2.351546     -0.287255      0.716013
  C      -2.053996      0.637013      1.666228
  C       1.583912      0.721709      0.083759
  C       0.025003      0.878145      0.313933
  C      -0.747455     -0.025784      1.232577
  O       0.973503      1.748187      0.841072
  H       2.241082     -0.493239      1.761746
  H       3.069828     -0.841178      0.146727
  H      -2.682393      0.846360      0.803285
  H      -2.600688     -0.016098      2.341805
  H      -1.845509      1.573424      2.177439
  H       1.890388      1.026913     -0.913957
  H      -0.522073      1.262013     -0.544895
  H      -0.141463     -0.247939      2.110828
  H      -0.961923     -0.963231      0.712639
15
Coordinates from ORCA-job scan E -19.254297293830
  C       2.351545     -0.287211      0.716208
  C      -2.054034      0.636851      1.666184
  C       1.584042      0.722029      0.084064
  C       0.025072      0.878330      0.313912
  C      -0.747382     -0.025757      1.232457
  O       0.973529      1.748237      0.841209
  H       2.242438     -0.492092      1.762282
  H       3.068180     -0.842762      0.146406
  H      -2.682376      0.846293      0.803229
  H      -2.600713     -0.016423      2.341612
  H      -1.845646      1.573189      2.177563
  H       1.889836      1.027289     -0.913917
  H      -0.521486      1.262156     -0.545290
  H      -0.141402     -0.247850      2.110703
  H      -0.961843     -0.963238      0.712581
15
Coordinates from ORCA-job scan E -19.253743176430
  C       2.359841     -0.287222      0.714723
  C      -2.057998      0.638044      1.667269
  C       1.590337      0.720805      0.083073
  C       0.021037      0.877277      0.314486
  C      -0.752281     -0.026074      1.233028
  O       0.973997      1.746523      0.840192
  H       2.250944     -0.493015      1.760640
  H       3.077877     -0.840786      0.144744
  H      -2.686316      0.848465      0.804535
  H      -2.605298     -0.014716      2.342691
  H      -1.848314      1.574003      2.178813
  H       1.896215      1.026540     -0.914737
  H      -0.525901      1.261487     -0.544302
  H      -0.146336     -0.249123      2.111056
  H      -0.968041     -0.963167      0.712988
15
Coordinates from ORCA-job scan E -19.253752549070
  C       2.357452     -0.286455      0.715614
  C      -2.056806      0.637489      1.667388
  C       1.590594      0.721850      0.083669
  C       0.021139      0.878140      0.314159
  C      -0.750844     -0.025799      1.232448
  O       0.973674      1.746610      0.839641
  H       2.247485     -0.491957      1.761521
  H       3.073566     -0.842503      0.145724
  H      -2.685554      0.847890      0.804954
  H      -2.603449     -0.015899      2.342719
  H      -1.847488      1.573357      2.179254
  H       1.895127      1.026480     -0.914601
  H      -0.524471      1.261441     -0.545583
  H      -0.144305     -0.248814      2.110157
  H      -0.966357     -0.962790      0.712140
15
Coordinates from ORCA-job scan E -19.253757002980
  C       2.355163     -0.285723      0.716762
  C      -2.055747      0.636715      1.667537
  C       1.591062      0.723374      0.084541
  C       0.021395      0.879383      0.313775
  C      -0.749339     -0.025454      1.231808
  O       0.973460      1.746946      0.839165
  H       2.245360     -0.490005      1.762932
  H       3.067717     -0.846010      0.146448
  H      -2.684830      0.847193      0.805384
  H      -2.601741     -0.017517      2.342598
  H      -1.846958      1.572405      2.179924
  H       1.893457      1.026930     -0.914707
  H      -0.522310      1.261609     -0.547557
  H      -0.142350     -0.248315      2.109199
  H      -0.964579     -0.962490      0.711392
15
Coordinates from ORCA-job scan E -19.253757592620
  C       2.355157     -0.285682      0.716955
  C      -2.055782      0.636555      1.667499
  C       1.591189      0.723691      0.084845
  C       0.021462      0.879573      0.313750
  C      -0.749267     -0.025424      1.231682
  O       0.973489      1.747002      0.839293
  H       2.246690     -0.488890      1.763457
  H       3.066102     -0.847551      0.146161
  H      -2.684814      0.847134      0.805339
  H      -2.601758     -0.017844      2.342409
  H      -1.847087      1.572168      2.180058
  H       1.892894      1.027286     -0.914674
  H      -0.521721      1.261740     -0.547962
  H      -0.142287     -0.248230      2.109065
  H      -0.964505     -0.962490      0.711324
15
Coordinates from ORCA-job scan E -19.253161402670
  C       2.363460     -0.285688      0.715476
  C      -2.059747      0.637749      1.668585
  C       1.597482      0.722474      0.083858
  C       0.017424      0.878517      0.314319
  C      -0.754172     -0.025745      1.232248
  O       0.973960      1.745280      0.838280
  H       2.255200     -0.489806      1.761822
  H       3.075822     -0.845578      0.144499
  H      -2.688757      0.849313      0.806649
  H      -2.606347     -0.016135      2.343490
  H      -1.849751      1.572981      2.181310
  H       1.899274      1.026541     -0.915490
  H      -0.526144      1.261069     -0.546981
  H      -0.147225     -0.249512      2.109409
  H      -0.970716     -0.962420      0.711726
15
Coordinates from ORCA-job scan E -19.253170974710
  C       2.361068     -0.284916      0.716351
  C      -2.058560      0.637200      1.668705
  C       1.597749      0.723510      0.084463
  C       0.017536      0.879369      0.313991
  C      -0.752738     -0.025467      1.231669
  O       0.973645      1.745328      0.837724
  H       2.251730     -0.488760      1.762684
  H       3.071533     -0.847232      0.145482
  H      -2.687997      0.848745      0.807069
  H      -2.604505     -0.017311      2.343518
  H      -1.848926      1.572339      2.181752
  H       1.898175      1.026453     -0.915352
  H      -0.524706      1.261023     -0.548251
  H      -0.145204     -0.249201      2.108514
  H      -0.969040     -0.962040      0.710882
15
Coordinates from ORCA-job scan E -19.253175497000
  C       2.358763     -0.284185      0.717488
  C      -2.057497      0.636429      1.668862
  C       1.598224      0.725030      0.085347
  C       0.017800      0.880619      0.313604
  C      -0.751232     -0.025114      1.231022
  O       0.973446      1.745642      0.837235
  H       2.249568     -0.486841      1.764076
  H       3.065719     -0.850651      0.146246
  H      -2.687273      0.848061      0.807513
  H      -2.602789     -0.018932      2.343398
  H      -1.848387      1.571384      2.182439
  H       1.896473      1.026849     -0.915469
  H      -0.522532      1.261181     -0.550229
  H      -0.143248     -0.248703      2.107548
  H      -0.967273     -0.961728      0.710121
15
Coordinates from ORCA-job scan E -19.253176080420
  C       2.358751     -0.284149      0.717679
  C      -2.057529      0.636271      1.668830
  C       1.598348      0.725343      0.085648
  C       0.017866      0.880817      0.313577
  C      -0.751160     -0.025081      1.230890
  O       0.973477      1.745705      0.837354
  H       2.250871     -0.485757      1.764590
  H       3.064139     -0.852149      0.145993
  H      -2.687260      0.848010      0.807479
  H      -2.602799     -0.019261      2.343215
  H      -1.848510      1.571146      2.182583
  H       1.895897      1.027184     -0.915442
  H      -0.521942      1.261301     -0.550643
  H      -0.143182     -0.248621      2.107404
  H      -0.967205     -0.961720      0.710043
15
Coordinates from ORCA-job scan E -19.252542993260
  C       2.367060     -0.284149      0.716206
  C      -2.061496      0.637466      1.669917
  C       1.604639      0.724132      0.084668
  C       0.013823      0.879757      0.314139
  C      -0.756071     -0.025405      1.231450
  O       0.973951      1.743974      0.836346
  H       2.259386     -0.486665      1.762963
  H       3.073881     -0.850179      0.144331
  H      -2.691205      0.850195      0.808793
  H      -2.607390     -0.017550      2.344297
  H      -1.851169      1.571957      2.183836
  H       1.902279      1.026442     -0.916255
  H      -0.526373      1.260627     -0.549669
  H      -0.148125     -0.249911      2.107740
  H      -0.973428     -0.961651      0.710439
15
Coordinates from ORCA-job scan E -19.252552775530
  C       2.364666     -0.283373      0.717065
  C      -2.060312      0.636923      1.670039
  C       1.604915      0.725159      0.085281
  C       0.013945      0.880600      0.313811
  C      -0.754640     -0.025125      1.230873
  O       0.973645      1.743981      0.835786
  H       2.255906     -0.485632      1.763805
  H       3.069619     -0.851769      0.145318
  H      -2.690446      0.849636      0.809214
  H      -2.605556     -0.018719      2.344324
  H      -1.850345      1.571320      2.184281
  H       1.901168      1.026324     -0.916116
  H      -0.524927      1.260583     -0.550927
  H      -0.146113     -0.249600      2.106849
  H      -0.971762     -0.961268      0.709598
15
Coordinates from ORCA-job scan E -19.252557368590
  C       2.362344     -0.282644      0.718190
  C      -2.059247      0.636156      1.670204
  C       1.605396      0.726672      0.086175
  C       0.014217      0.881857      0.313422
  C      -0.753134     -0.024762      1.230218
  O       0.973460      1.744271      0.835283
  H       2.253707     -0.483745      1.765179
  H       3.063848     -0.855096      0.146123
  H      -2.689724      0.848966      0.809672
  H      -2.603833     -0.020344      2.344206
  H      -1.849799      1.570361      2.184985
  H       1.899433      1.026663     -0.916243
  H      -0.522740      1.260731     -0.552909
  H      -0.144158     -0.249102      2.105873
  H      -0.970007     -0.960943      0.708824
15
Coordinates from ORCA-job scan E -19.252557946100
  C       2.362326     -0.282614      0.718380
  C      -2.059277      0.636000      1.670178
  C       1.605517      0.726981      0.086474
  C       0.014281      0.882064      0.313392
  C      -0.753062     -0.024725      1.230080
  O       0.973494      1.744342      0.835393
  H       2.254983     -0.482690      1.765683
  H       3.062303     -0.856551      0.145903
  H      -2.689713      0.848923      0.809650
  H      -2.603836     -0.020676      2.344027
  H      -1.849915      1.570120      2.185141
  H       1.898843      1.026975     -0.916224
  H      -0.522148      1.260840     -0.553332
  H      -0.144090     -0.249023      2.105720
  H      -0.969945     -0.960927      0.708734
15
Coordinates from ORCA-job scan E -19.251892961820
  C       2.370641     -0.282607      0.716912
  C      -2.063245      0.637196      1.671265
  C       1.611806      0.725777      0.085499
  C       0.010234      0.881000      0.313948
  C      -0.757979     -0.025052      1.230635
  O       0.973972      1.742602      0.834389
  H       2.263503     -0.483592      1.764063
  H       3.072067     -0.854584      0.144241
  H      -2.693660      0.851114      0.810968
  H      -2.608431     -0.018963      2.345111
  H      -1.852570      1.570930      2.186395
  H       1.905226      1.026237     -0.917032
  H      -0.526586      1.260164     -0.552365
  H      -0.149038     -0.250322      2.106047
  H      -0.976179     -0.960858      0.709125
15
Coordinates from ORCA-job scan E -19.251902964480
  C       2.368243     -0.281829      0.717756
  C      -2.062066      0.636659      1.671389
  C       1.612090      0.726793      0.086120
  C       0.010365      0.881833      0.313620
  C      -0.756553     -0.024769      1.230059
  O       0.973674      1.742567      0.833824
  H       2.260014     -0.482570      1.764886
  H       3.067839     -0.856106      0.145232
  H      -2.692903      0.850564      0.811392
  H      -2.606605     -0.020124      2.345138
  H      -1.851746      1.570297      2.186843
  H       1.904102      1.026087     -0.916892
  H      -0.525132      1.260121     -0.553612
  H      -0.147036     -0.250010      2.105160
  H      -0.974525     -0.960472      0.708286
15
Coordinates from ORCA-job scan E -19.251907630610
  C       2.365904     -0.281104      0.718868
  C      -2.061000      0.635897      1.671563
  C       1.612576      0.728297      0.087023
  C       0.010646      0.883099      0.313230
  C      -0.755048     -0.024398      1.229395
  O       0.973504      1.742831      0.833307
  H       2.257781     -0.480715      1.766242
  H       3.062119     -0.859337      0.146078
  H      -2.692183      0.849911      0.811865
  H      -2.604876     -0.021754      2.345021
  H      -1.851192      1.569334      2.187567
  H       1.902333      1.026365     -0.917030
  H      -0.522932      1.260260     -0.555597
  H      -0.145083     -0.249514      2.104173
  H      -0.972784     -0.960132      0.707497
15
Coordinates from ORCA-job scan E -19.251908202610
  C       2.365878     -0.281079      0.719056
  C      -2.061027      0.635743      1.671544
  C       1.612693      0.728600      0.087321
  C       0.010708      0.883316      0.313198
  C      -0.754976     -0.024356      1.229252
  O       0.973540      1.742909      0.833409
  H       2.259031     -0.479688      1.766737
  H       3.060611     -0.860751      0.145892
  H      -2.692174      0.849876      0.811855
  H      -2.604872     -0.022089      2.344845
  H      -1.851303      1.569091      2.187736
  H       1.901729      1.026654     -0.917019
  H      -0.522338      1.260359     -0.556029
  H      -0.145012     -0.249438      2.104010
  H      -0.972728     -0.960107      0.707396
15
Coordinates from ORCA-job scan E -19.251216152320
  C       2.374199     -0.281067      0.717594
  C      -2.064995      0.636939      1.672632
  C       1.618980      0.727403      0.086351
  C       0.006657      0.882249      0.313747
  C      -0.759899     -0.024687      1.229801
  O       0.974022      1.741161      0.832409
  H       2.267554     -0.480583      1.765124
  H       3.070396     -0.858787      0.144230
  H      -2.696123      0.852073      0.813177
  H      -2.609469     -0.020375      2.345930
  H      -1.853953      1.569900      2.188990
  H       1.908114      1.025919     -0.917823
  H      -0.526783      1.259681     -0.555070
  H      -0.149964     -0.250746      2.104329
  H      -0.978973     -0.960038      0.707781
15
Coordinates from ORCA-job scan E -19.251226384680
  C       2.371798     -0.280286      0.718423
  C      -2.063822      0.636410      1.672758
  C       1.619272      0.728407      0.086979
  C       0.006797      0.883071      0.313419
  C      -0.758478     -0.024401      1.229226
  O       0.973733      1.741081      0.831839
  H       2.264058     -0.479572      1.765930
  H       3.066207     -0.860240      0.145226
  H      -2.695369      0.851535      0.813603
  H      -2.607652     -0.021528      2.345957
  H      -1.853130      1.569270      2.189443
  H       1.906975      1.025735     -0.917683
  H      -0.525322      1.259639     -0.556305
  H      -0.147974     -0.250434      2.103443
  H      -0.977331     -0.959648      0.706943
15
Coordinates from ORCA-job scan E -19.251231126050
  C       2.369442     -0.279567      0.719522
  C      -2.062755      0.635652      1.672941
  C       1.619763      0.729899      0.087891
  C       0.007084      0.884347      0.313028
  C      -0.756976     -0.024019      1.228553
  O       0.973576      1.741318      0.831308
  H       2.261793     -0.477746      1.767268
  H       3.060547     -0.863372      0.146113
  H      -2.694653      0.850900      0.814094
  H      -2.605920     -0.023161      2.345841
  H      -1.852568      1.568304      2.190188
  H       1.905170      1.025950     -0.917832
  H      -0.523110      1.259770     -0.558294
  H      -0.146025     -0.249941      2.102445
  H      -0.975607     -0.959293      0.706136
15
Coordinates from ORCA-job scan E -19.251231693020
  C       2.369409     -0.279548      0.719710
  C      -2.062779      0.635499      1.672929
  C       1.619876      0.730198      0.088186
  C       0.007145      0.884575      0.312993
  C      -0.756904     -0.023972      1.228403
  O       0.973616      1.741404      0.831401
  H       2.263016     -0.476747      1.767755
  H       3.059076     -0.864745      0.145959
  H      -2.694646      0.850874      0.814095
  H      -2.605907     -0.023501      2.345670
  H      -1.852673      1.568057      2.190370
  H       1.904551      1.026214     -0.917829
  H      -0.522512      1.259858     -0.558736
  H      -0.145950     -0.249868      2.102272
  H      -0.975556     -0.959257      0.706023
15
Coordinates from ORCA-job scan E -19.250517238680
  C       2.377735     -0.279530      0.718254
  C      -2.066749      0.636697      1.674017
  C       1.626161      0.729007      0.087221
  C       0.003089      0.883505      0.313536
  C      -0.761832     -0.024306      1.228947
  O       0.974102      1.739647      0.830405
  H       2.271543     -0.477635      1.766149
  H       3.068881     -0.862785      0.144298
  H      -2.698597      0.853076      0.815422
  H      -2.610507     -0.021786      2.346756
  H      -1.855319      1.568864      2.191626
  H       1.910938      1.025482     -0.918630
  H      -0.526965      1.259178     -0.557784
  H      -0.150906     -0.251185      2.102582
  H      -0.981813     -0.959189      0.706402
15
Coordinates from ORCA-job scan E -19.250527709120
  C       2.375332     -0.278747      0.719067
  C      -2.065581      0.636174      1.674147
  C       1.626460      0.729998      0.087857
  C       0.003238      0.884318      0.313208
  C      -0.760417     -0.024017      1.228372
  O       0.973820      1.739522      0.829830
  H       2.268041     -0.476634      1.766937
  H       3.064737     -0.864165      0.145300
  H      -2.697846      0.852550      0.815851
  H      -2.608700     -0.022931      2.346783
  H      -1.854496      1.568239      2.192084
  H       1.909784      1.025263     -0.918488
  H      -0.525497      1.259138     -0.559008
  H      -0.148928     -0.250875      2.101698
  H      -0.980185     -0.958794      0.705564
15
Coordinates from ORCA-job scan E -19.250532527690
  C       2.372958     -0.278035      0.720154
  C      -2.064515      0.635422      1.674340
  C       1.626954      0.731476      0.088776
  C       0.003532      0.885604      0.312816
  C      -0.758919     -0.023626      1.227689
  O       0.973679      1.739729      0.829284
  H       2.265747     -0.474836      1.768259
  H       3.059146     -0.867197      0.146228
  H      -2.697134      0.851936      0.816359
  H      -2.606964     -0.024568      2.346668
  H      -1.853927      1.567267      2.192853
  H       1.907941      1.025411     -0.918650
  H      -0.523272      1.259261     -0.561000
  H      -0.146984     -0.250385      2.100687
  H      -0.978480     -0.958421      0.704739
15
Coordinates from ORCA-job scan E -19.250533090210
  C       2.372917     -0.278022      0.720341
  C      -2.064536      0.635271      1.674334
  C       1.627063      0.731769      0.089069
  C       0.003590      0.885844      0.312780
  C      -0.758847     -0.023573      1.227533
  O       0.973722      1.739823      0.829368
  H       2.266943     -0.473862      1.768740
  H       3.057711     -0.868530      0.146107
  H      -2.697129      0.851919      0.816373
  H      -2.606944     -0.024913      2.346500
  H      -1.854026      1.567017      2.193049
  H       1.907308      1.025649     -0.918654
  H      -0.522670      1.259339     -0.561453
  H      -0.146906     -0.250316      2.100504
  H      -0.978433     -0.958375      0.704612
15
Coordinates from ORCA-job scan E -19.249800728990
  C       2.381249     -0.277999      0.718890
  C      -2.068507      0.636469      1.675423
  C       1.633346      0.730585      0.088109
  C      -0.000469      0.884771      0.313316
  C      -0.763780     -0.023910      1.228071
  O       0.974211      1.738059      0.828376
  H       2.275474     -0.474744      1.767140
  H       3.067536     -0.866572      0.144447
  H      -2.701082      0.854126      0.817704
  H      -2.611547     -0.023197      2.347587
  H      -1.856668      1.567822      2.194306
  H       1.913697      1.024920     -0.919451
  H      -0.527132      1.258657     -0.560508
  H      -0.151866     -0.251640      2.100804
  H      -0.984701     -0.958307      0.704985
15
Coordinates from ORCA-job scan E -19.249811444700
  C       2.378843     -0.277215      0.719688
  C      -2.067345      0.635954      1.675557
  C       1.633651      0.731561      0.088750
  C      -0.000313      0.885575      0.312988
  C      -0.762372     -0.023618      1.227495
  O       0.973937      1.737886      0.827796
  H       2.271968     -0.473752      1.767912
  H       3.063442     -0.867879      0.145455
  H      -2.700335      0.853615      0.818139
  H      -2.609750     -0.024334      2.347614
  H      -1.855845      1.567200      2.194770
  H       1.912526      1.024664     -0.919310
  H      -0.525656      1.258620     -0.561720
  H      -0.149901     -0.251332      2.099921
  H      -0.983090     -0.957906      0.704146
15
Coordinates from ORCA-job scan E -19.249816342200
  C       2.376453     -0.276509      0.720763
  C      -2.066280      0.635208      1.675760
  C       1.634147      0.733023      0.089676
  C      -0.000013      0.886873      0.312596
  C      -0.760880     -0.023215      1.226803
  O       0.973810      1.738062      0.827235
  H       2.269647     -0.471980      1.769219
  H       3.057928     -0.870808      0.146424
  H      -2.699628      0.853024      0.818665
  H      -2.608012     -0.025975      2.347499
  H      -1.855270      1.566224      2.195565
  H       1.910646      1.024742     -0.919484
  H      -0.523418      1.258735     -0.563716
  H      -0.147963     -0.250848      2.098896
  H      -0.981405     -0.957515      0.703300
15
Coordinates from ORCA-job scan E -19.249816900880
  C       2.376402     -0.276502      0.720950
  C      -2.066299      0.635057      1.675762
  C       1.634251      0.733310      0.089966
  C       0.000044      0.887126      0.312559
  C      -0.760807     -0.023157      1.226639
  O       0.973857      1.738164      0.827310
  H       2.270817     -0.471029      1.769693
  H       3.056530     -0.872102      0.146335
  H      -2.699625      0.853015      0.818692
  H      -2.607984     -0.026327      2.347334
  H      -1.855363      1.565970      2.195776
  H       1.909996      1.024952     -0.919496
  H      -0.522813      1.258802     -0.564180
  H      -0.147881     -0.250782      2.098702
  H      -0.981363     -0.957457      0.703158
15
Coordinates from ORCA-job scan E -19.249070962590
  C       2.384739     -0.276474      0.719506
  C      -2.070270      0.636256      1.676851
  C       1.640532      0.732132      0.089012
  C      -0.004020      0.886050      0.313088
  C      -0.765746     -0.023497      1.227172
  O       0.974350      1.736392      0.826322
  H       2.279351     -0.471905      1.768101
  H       3.066374     -0.870148      0.144677
  H      -2.703579      0.855228      0.820027
  H      -2.612589     -0.024610      2.348423
  H      -1.858000      1.566773      2.197034
  H       1.916389      1.024227     -0.920289
  H      -0.527282      1.258119     -0.563242
  H      -0.152844     -0.252114      2.098993
  H      -0.987642     -0.957389      0.703526
15
Coordinates from ORCA-job scan E -19.249081929560
  C       2.382332     -0.275690      0.720288
  C      -2.069115      0.635749      1.676989
  C       1.640843      0.733093      0.089658
  C      -0.003856      0.886845      0.312761
  C      -0.764346     -0.023201      1.226595
  O       0.974083      1.736170      0.825736
  H       2.275844     -0.470921      1.768856
  H       3.062337     -0.871380      0.145691
  H      -2.702836      0.854733      0.820467
  H      -2.610804     -0.025738      2.348449
  H      -1.857178      1.566154      2.197506
  H       1.915200      1.023933     -0.920148
  H      -0.525800      1.258084     -0.564443
  H      -0.150894     -0.251810      2.098110
  H      -0.986048     -0.956981      0.702684
15
Coordinates from ORCA-job scan E -19.249086907390
  C       2.379926     -0.274993      0.721351
  C      -2.068052      0.635009      1.677204
  C       1.641339      0.734535      0.090588
  C      -0.003552      0.888156      0.312368
  C      -0.762861     -0.022787      1.225892
  O       0.973970      1.736313      0.825160
  H       2.273500     -0.469172      1.770149
  H       3.056907     -0.874204      0.146702
  H      -2.702136      0.854166      0.821014
  H      -2.609065     -0.027383      2.348335
  H      -1.856595      1.565172      2.198328
  H       1.913281      1.023937     -0.920334
  H      -0.523550      1.258193     -0.566442
  H      -0.148963     -0.251332      2.097070
  H      -0.984386     -0.956570      0.701815
15
Coordinates from ORCA-job scan E -19.249087462940
  C       2.379866     -0.274992      0.721539
  C      -2.068068      0.634859      1.677212
  C       1.641439      0.734816      0.090877
  C      -0.003497      0.888424      0.312330
  C      -0.762788     -0.022722      1.225721
  O       0.974022      1.736424      0.825226
  H       2.274643     -0.468243      1.770619
  H       3.055545     -0.875462      0.146646
  H      -2.702136      0.854167      0.821055
  H      -2.609029     -0.027743      2.348173
  H      -1.856683      1.564913      2.198556
  H       1.912615      1.024119     -0.920355
  H      -0.522940      1.258250     -0.566918
  H      -0.148877     -0.251269      2.096864
  H      -0.984349     -0.956500      0.701658
15
Coordinates from ORCA-job scan E -19.248332112470
  C       2.388208     -0.274959      0.720101
  C      -2.072040      0.636058      1.678303
  C       1.647717      0.733645      0.089927
  C      -0.007565      0.887346      0.312853
  C      -0.767731     -0.023065      1.226248
  O       0.974518      1.734644      0.824242
  H       2.283180     -0.469114      1.769034
  H       3.065407     -0.873511      0.144990
  H      -2.706091      0.856384      0.822394
  H      -2.613636     -0.026025      2.349263
  H      -1.859316      1.565713      2.199814
  H       1.919010      1.023396     -0.921145
  H      -0.527417      1.257566     -0.565987
  H      -0.153844     -0.252609      2.097146
  H      -0.990638     -0.956431      0.702019
15
Coordinates from ORCA-job scan E -19.248343335200
  C       2.385800     -0.274175      0.720868
  C      -2.070892      0.635560      1.678444
  C       1.648033      0.734588      0.090578
  C      -0.007394      0.888132      0.312525
  C      -0.766341     -0.022766      1.225670
  O       0.974257      1.734371      0.823650
  H       2.279675     -0.468137      1.769773
  H       3.061433     -0.874666      0.146010
  H      -2.705353      0.855907      0.822840
  H      -2.611864     -0.027144      2.349289
  H      -1.858494      1.565099      2.200296
  H       1.917803      1.023062     -0.921003
  H      -0.525928      1.257534     -0.567176
  H      -0.151909     -0.252310      2.096262
  H      -0.989064     -0.956016      0.701174
15
Coordinates from ORCA-job scan E -19.248348394340
  C       2.383380     -0.273486      0.721920
  C      -2.069833      0.634827      1.678672
  C       1.648528      0.736009      0.091511
  C      -0.007086      0.889457      0.312132
  C      -0.764865     -0.022340      1.224955
  O       0.974159      1.734480      0.823059
  H       2.277311     -0.466409      1.771054
  H       3.056094     -0.877386      0.147063
  H      -2.704660      0.855367      0.823408
  H      -2.610125     -0.028794      2.349175
  H      -1.857905      1.564110      2.201147
  H       1.915845      1.022991     -0.921203
  H      -0.523668      1.257636     -0.569178
  H      -0.149987     -0.251839      2.095206
  H      -0.987427     -0.955583      0.700280
15
Coordinates from ORCA-job scan E -19.248348947500
  C       2.383309     -0.273491      0.722110
  C      -2.069846      0.634677      1.678688
  C       1.648623      0.736284      0.091797
  C      -0.007034      0.889742      0.312094
  C      -0.764790     -0.022268      1.224776
  O       0.974215      1.734599      0.823114
  H       2.278428     -0.465500      1.771520
  H       3.054768     -0.878608      0.147039
  H      -2.704662      0.855376      0.823463
  H      -2.610080     -0.029163      2.349015
  H      -1.857988      1.563845      2.201392
  H       1.915162      1.023143     -0.921232
  H      -0.523052      1.257684     -0.569667
  H      -0.149897     -0.251779      2.094987
  H      -0.987394     -0.955500      0.700107
15
Coordinates from ORCA-job scan E -19.247588180200
  C       2.391656     -0.273453      0.720677
  C      -2.073818      0.635876      1.679779
  C       1.654899      0.735119      0.090852
  C      -0.011105      0.888661      0.312610
  C      -0.769739     -0.022614      1.225298
  O       0.974714      1.732813      0.822136
  H       2.286967     -0.466365      1.769941
  H       3.064647     -0.876660      0.145385
  H      -2.708619      0.857599      0.824806
  H      -2.614689     -0.027444      2.350107
  H      -1.860616      1.564643      2.202651
  H       1.921560      1.022423     -0.922019
  H      -0.527537      1.256999     -0.568744
  H      -0.154867     -0.253126      2.095260
  H      -0.993692     -0.955431      0.700462
15
Coordinates from ORCA-job scan E -19.247599661670
  C       2.389250     -0.272670      0.721430
  C      -2.072678      0.635387      1.679925
  C       1.655219      0.736043      0.091506
  C      -0.010929      0.889439      0.312282
  C      -0.768360     -0.022311      1.224718
  O       0.974460      1.732488      0.821537
  H       2.283467     -0.465394      1.770666
  H       3.060741     -0.877739      0.146413
  H      -2.707887      0.857141      0.825259
  H      -2.612930     -0.028555      2.350132
  H      -1.859794      1.564031      2.203143
  H       1.920335      1.022048     -0.921878
  H      -0.526043      1.256971     -0.569920
  H      -0.152949     -0.252833      2.094374
  H      -0.992141     -0.955008      0.699612
15
Coordinates from ORCA-job scan E -19.247604802670
  C       2.386816     -0.271990      0.722471
  C      -2.071623      0.634661      1.680166
  C       1.655711      0.737440      0.092441
  C      -0.010617      0.890779      0.311890
  C      -0.766893     -0.021873      1.223991
  O       0.974376      1.732559      0.820930
  H       2.281086     -0.463684      1.771935
  H       3.055501     -0.880353      0.147508
  H      -2.707202      0.856629      0.825850
  H      -2.611193     -0.030209      2.350018
  H      -1.859199      1.563037      2.204025
  H       1.918337      1.021899     -0.922091
  H      -0.523771      1.257068     -0.571926
  H      -0.151037     -0.252371      2.093301
  H      -0.990531     -0.954552      0.698691
15
Coordinates from ORCA-job scan E -19.247605354230
  C       2.386735     -0.272000      0.722663
  C      -2.071634      0.634510      1.680189
  C       1.655800      0.737708      0.092724
  C      -0.010567      0.891082      0.311851
  C      -0.766817     -0.021793      1.223804
  O       0.974437      1.732689      0.820976
  H       2.282178     -0.462793      1.772399
  H       3.054209     -0.881542      0.147515
  H      -2.707207      0.856648      0.825919
  H      -2.611139     -0.030588      2.349861
  H      -1.859277      1.562764      2.204288
  H       1.917637      1.022019     -0.922128
  H      -0.523150      1.257106     -0.572427
  H      -0.150941     -0.252314      2.093068
  H      -0.990501     -0.954455      0.698500
15
Coordinates from ORCA-job scan E -19.246842996690
  C       2.395086     -0.271958      0.721236
  C      -2.075606      0.635710      1.681281
  C       1.662074      0.736550      0.091784
  C      -0.014643      0.890000      0.312360
  C      -0.771770     -0.022142      1.224319
  O       0.974939      1.730895      0.820002
  H       2.290719     -0.463652      1.770828
  H       3.064105     -0.879596      0.145864
  H      -2.711164      0.858875      0.827267
  H      -2.615750     -0.028870      2.350953
  H      -1.861901      1.563560      2.205549
  H       1.924038      1.021301     -0.922912
  H      -0.527642      1.256420     -0.571511
  H      -0.155915     -0.253668      2.093331
  H      -0.996809     -0.954385      0.698849
15
Coordinates from ORCA-job scan E -19.246854738100
  C       2.392683     -0.271176      0.721975
  C      -2.074475      0.635230      1.681433
  C       1.662397      0.737453      0.092440
  C      -0.014461      0.890770      0.312034
  C      -0.770403     -0.021834      1.223738
  O       0.974692      1.730516      0.819396
  H       2.287227     -0.462686      1.771538
  H       3.060272     -0.880598      0.146899
  H      -2.710439      0.858438      0.827728
  H      -2.614006     -0.029971      2.350979
  H      -1.861080      1.562951      2.206052
  H       1.922794      1.020885     -0.922771
  H      -0.526143      1.256396     -0.572675
  H      -0.154014     -0.253381      2.092444
  H      -0.995281     -0.953952      0.697993
15
Coordinates from ORCA-job scan E -19.246859960910
  C       2.390238     -0.270507      0.723006
  C      -2.073426      0.634511      1.681686
  C       1.662886      0.738824      0.093375
  C      -0.014147      0.892126      0.311642
  C      -0.768948     -0.021383      1.222998
  O       0.974622      1.730549      0.818773
  H       2.284834     -0.460993      1.772798
  H       3.055137     -0.883107      0.148037
  H      -2.709763      0.857955      0.828342
  H      -2.612272     -0.031630      2.350864
  H      -1.860479      1.561949      2.206967
  H       1.920756      1.020656     -0.922998
  H      -0.523862      1.256489     -0.574684
  H      -0.152114     -0.252929      2.091351
  H      -0.993701     -0.953471      0.697043
15
Coordinates from ORCA-job scan E -19.246860508910
  C       2.390146     -0.270522      0.723200
  C      -2.073433      0.634359      1.681718
  C       1.662968      0.739084      0.093655
  C      -0.014100      0.892448      0.311603
  C      -0.768871     -0.021295      1.222802
  O       0.974688      1.730688      0.818809
  H       2.285901     -0.460116      1.773260
  H       3.053878     -0.884264      0.148075
  H      -2.709771      0.857983      0.828427
  H      -2.612208     -0.032020      2.350708
  H      -1.860553      1.561668      2.207249
  H       1.920038      1.020742     -0.923045
  H      -0.523234      1.256518     -0.575198
  H      -0.152012     -0.252874      2.091104
  H      -0.993673     -0.953359      0.696833
15
Coordinates from ORCA-job scan E -19.246100215570
  C       2.398501     -0.270476      0.721780
  C      -2.077406      0.635559      1.682811
  C       1.669241      0.737932      0.092720
  C      -0.018179      0.891365      0.312106
  C      -0.773828     -0.021646      1.223312
  O       0.975193      1.728888      0.817839
  H       2.294443     -0.460971      1.771696
  H       3.063790     -0.882322      0.146428
  H      -2.713729      0.860215      0.829779
  H      -2.616820     -0.030302      2.351802
  H      -1.863173      1.562462      2.208510
  H       1.926443      1.020027     -0.923825
  H      -0.527734      1.255832     -0.574290
  H      -0.156989     -0.254236      2.091358
  H      -0.999990     -0.953288      0.697176
15
Coordinates from ORCA-job scan E -19.246112216290
  C       2.396103     -0.269696      0.722504
  C      -2.076285      0.635089      1.682968
  C       1.669565      0.738813      0.093377
  C      -0.017994      0.892127      0.311779
  C      -0.772475     -0.021335      1.222729
  O       0.974951      1.728454      0.817227
  H       2.290963     -0.460008      1.772393
  H       3.060037     -0.883245      0.147471
  H      -2.713012      0.859800      0.830248
  H      -2.615092     -0.031394      2.351827
  H      -1.862352      1.561856      2.209026
  H       1.925180      1.019569     -0.923686
  H      -0.526231      1.255813     -0.575441
  H      -0.155108     -0.253957      2.090468
  H      -0.998488     -0.952846      0.696313
15
Coordinates from ORCA-job scan E -19.246117520300
  C       2.393650     -0.269035      0.723526
  C      -2.075242      0.634377      1.683236
  C       1.670047      0.740156      0.094310
  C      -0.017679      0.893502      0.311388
  C      -0.771033     -0.020870      1.221975
  O       0.974896      1.728447      0.816587
  H       2.288563     -0.458328      1.773644
  H       3.055013     -0.885650      0.148651
  H      -2.712346      0.859349      0.830887
  H      -2.613362     -0.033059      2.351712
  H      -1.861747      1.560845      2.209977
  H       1.923102      1.019257     -0.923926
  H      -0.523941      1.255902     -0.577453
  H      -0.153220     -0.253515      2.089355
  H      -0.996938     -0.952338      0.695333
15
Coordinates from ORCA-job scan E -19.246118068220
  C       2.393546     -0.269055      0.723724
  C      -2.075246      0.634224      1.683276
  C       1.670124      0.740408      0.094586
  C      -0.017635      0.893845      0.311350
  C      -0.770954     -0.020773      1.221770
  O       0.974967      1.728596      0.816612
  H       2.289604     -0.457464      1.774107
  H       3.053784     -0.886778      0.148721
  H      -2.712357      0.859386      0.830987
  H      -2.613289     -0.033462      2.351557
  H      -1.861817      1.560556      2.210278
  H       1.922365      1.019308     -0.923982
  H      -0.523306      1.255922     -0.577980
  H      -0.153112     -0.253463      2.089093
  H      -0.996913     -0.952210      0.695102
15
Coordinates from ORCA-job scan E -19.245363312330
  C       2.401905     -0.269006      0.722309
  C      -2.079219      0.635424      1.684369
  C       1.676395      0.739262      0.093656
  C      -0.021717      0.892760      0.311846
  C      -0.775915     -0.021126      1.222274
  O       0.975476      1.726790      0.815648
  H       2.298148     -0.458314      1.772549
  H       3.063711     -0.884839      0.147077
  H      -2.716316      0.861622      0.832344
  H      -2.617902     -0.031744      2.352652
  H      -1.864432      1.561347      2.211540
  H       1.928775      1.018596     -0.924760
  H      -0.527814      1.255237     -0.577080
  H      -0.158092     -0.254831      2.089338
  H      -1.003238     -0.952138      0.695439
15
Coordinates from ORCA-job scan E -19.245375569780
  C       2.399514     -0.268228      0.723020
  C      -2.078109      0.634964      1.684532
  C       1.676719      0.740119      0.094312
  C      -0.021528      0.893516      0.311520
  C      -0.774577     -0.020810      1.221688
  O       0.975239      1.726298      0.815028
  H       2.294683     -0.457354      1.773234
  H       3.060043     -0.885685      0.148128
  H      -2.715607      0.861230      0.832822
  H      -2.616191     -0.032826      2.352676
  H      -1.863612      1.560744      2.212070
  H       1.927492      1.018094     -0.924621
  H      -0.526307      1.255223     -0.578218
  H      -0.156231     -0.254560      2.088444
  H      -1.001764     -0.951685      0.694567
15
Coordinates from ORCA-job scan E -19.245380953690
  C       2.397055     -0.267578      0.724033
  C      -2.077074      0.634260      1.684814
  C       1.677194      0.741431      0.095241
  C      -0.021214      0.894910      0.311131
  C      -0.773150     -0.020331      1.220921
  O       0.975198      1.726251      0.814371
  H       2.292280     -0.455684      1.774478
  H       3.055135     -0.887986      0.149350
  H      -2.714954      0.860812      0.833487
  H      -2.614467     -0.034497      2.352560
  H      -1.863003      1.559724      2.213057
  H       1.925374      1.017698     -0.924876
  H      -0.524009      1.255311     -0.580232
  H      -0.154357     -0.254129      2.087310
  H      -1.000248     -0.951150      0.693555
15
Coordinates from ORCA-job scan E -19.245381502410
  C       2.396940     -0.267602      0.724235
  C      -2.077075      0.634105      1.684863
  C       1.677264      0.741674      0.095514
  C      -0.021172      0.895275      0.311093
  C      -0.773069     -0.020225      1.220707
  O       0.975275      1.726410      0.814387
  H       2.293297     -0.454832      1.774941
  H       3.053937     -0.889087      0.149451
  H      -2.714967      0.860857      0.833603
  H      -2.614384     -0.034914      2.352406
  H      -1.863070      1.559425      2.213379
  H       1.924619      1.017713     -0.924941
  H      -0.523366      1.255323     -0.580773
  H      -0.154243     -0.254079      2.087033
  H      -1.000224     -0.951005      0.693303
15
Coordinates from ORCA-job scan E -19.244635579030
  C       2.405302     -0.267549      0.722827
  C      -2.081048      0.635305      1.685956
  C       1.683533      0.740535      0.094588
  C      -0.025259      0.894190      0.311582
  C      -0.778034     -0.020580      1.221205
  O       0.975787      1.724598      0.813427
  H       2.301840     -0.455677      1.773391
  H       3.063878     -0.887151      0.147811
  H      -2.718927      0.863097      0.834964
  H      -2.618998     -0.033197      2.353502
  H      -1.865681      1.560213      2.214642
  H       1.931033      1.017003     -0.925716
  H      -0.527881      1.254638     -0.579880
  H      -0.159226     -0.255454      2.087268
  H      -1.006557     -0.950932      0.693634
15
Coordinates from ORCA-job scan E -19.244648088550
  C       2.402921     -0.266774      0.723524
  C      -2.079949      0.634855      1.686126
  C       1.683855      0.741367      0.095242
  C      -0.025067      0.894939      0.311257
  C      -0.776713     -0.020260      1.220616
  O       0.975556      1.724048      0.812800
  H       2.298397     -0.454719      1.774064
  H       3.060299     -0.887920      0.148871
  H      -2.718227      0.862731      0.835452
  H      -2.617306     -0.034269      2.353526
  H      -1.864862      1.559613      2.215186
  H       1.929731      1.016458     -0.925579
  H      -0.526373      1.254630     -0.581006
  H      -0.157387     -0.255192      2.086369
  H      -1.005112     -0.950466      0.692753
15
Coordinates from ORCA-job scan E -19.244653550380
  C       2.400460     -0.266134      0.724530
  C      -2.078923      0.634158      1.686424
  C       1.684321      0.742643      0.096165
  C      -0.024754      0.896354      0.310870
  C      -0.775301     -0.019765      1.219835
  O       0.975529      1.723957      0.812126
  H       2.295995     -0.453056      1.775302
  H       3.055514     -0.890120      0.150135
  H      -2.717587      0.862347      0.836145
  H      -2.615589     -0.035947      2.353409
  H      -1.864251      1.558584      2.216211
  H       1.927574      1.015976     -0.925849
  H      -0.524067      1.254718     -0.583021
  H      -0.155528     -0.254773      2.085214
  H      -1.003630     -0.949901      0.691707
15
Coordinates from ORCA-job scan E -19.244654100810
  C       2.400333     -0.266162      0.724737
  C      -2.078921      0.634001      1.686480
  C       1.684384      0.742879      0.096435
  C      -0.024716      0.896745      0.310833
  C      -0.775218     -0.019649      1.219611
  O       0.975613      1.724127      0.812132
  H       2.296988     -0.452212      1.775767
  H       3.054343     -0.891196      0.150267
  H      -2.717603      0.862400      0.836276
  H      -2.615495     -0.036379      2.353255
  H      -1.864314      1.558274      2.216554
  H       1.926799      1.015953     -0.925924
  H      -0.523416      1.254723     -0.583576
  H      -0.155407     -0.254725      2.084921
  H      -1.003607     -0.949739      0.691433
15
Coordinates from ORCA-job scan E -19.243920119070
  C       2.408698     -0.266106      0.723335
  C      -2.082894      0.635200      1.687574
  C       1.690651      0.741745      0.095513
  C      -0.028806      0.895659      0.311315
  C      -0.780187     -0.020006      1.220103
  O       0.976127      1.722309      0.811177
  H       2.305531     -0.453053      1.774224
  H       3.064297     -0.889262      0.148631
  H      -2.721564      0.864644      0.837642
  H      -2.620110     -0.034662      2.354352
  H      -1.866921      1.559059      2.217819
  H       1.933218      1.015245     -0.926696
  H      -0.527939      1.254039     -0.582691
  H      -0.160392     -0.256105      2.085146
  H      -1.009948     -0.949664      0.691758
15
Coordinates from ORCA-job scan E -19.243932873970
  C       2.406330     -0.265334      0.724019
  C      -2.081809      0.634761      1.687751
  C       1.690971      0.742550      0.096163
  C      -0.028613      0.896402      0.310991
  C      -0.778884     -0.019681      1.219511
  O       0.975901      1.721699      0.810541
  H       2.302112     -0.452095      1.774886
  H       3.060813     -0.889955      0.149700
  H      -2.720874      0.864303      0.838140
  H      -2.618438     -0.035725      2.354375
  H      -1.866105      1.558460      2.218378
  H       1.931897      1.014656     -0.926560
  H      -0.526430      1.254038     -0.583803
  H      -0.158576     -0.255854      2.084242
  H      -1.008534     -0.949186      0.690867
15
Coordinates from ORCA-job scan E -19.243938411040
  C       2.403870     -0.264704      0.725017
  C      -2.080793      0.634072      1.688064
  C       1.691426      0.743789      0.097077
  C      -0.028302      0.897839      0.310607
  C      -0.777490     -0.019171      1.218715
  O       0.975888      1.721563      0.809851
  H       2.299718     -0.450437      1.776119
  H       3.056155     -0.892055      0.151006
  H      -2.720249      0.863954      0.838861
  H      -2.616730     -0.037410      2.354256
  H      -1.865492      1.557421      2.219442
  H       1.929701      1.014088     -0.926845
  H      -0.524118      1.254126     -0.585818
  H      -0.156735     -0.255447      2.083065
  H      -1.007089     -0.948590      0.689785
15
Coordinates from ORCA-job scan E -19.243938964110
  C       2.403731     -0.264736      0.725229
  C      -2.080788      0.633911      1.688129
  C       1.691482      0.744015      0.097343
  C      -0.028267      0.898256      0.310571
  C      -0.777404     -0.019044      1.218481
  O       0.975980      1.721744      0.809846
  H       2.300687     -0.449600      1.776587
  H       3.055010     -0.893108      0.151169
  H      -2.720268      0.864016      0.839009
  H      -2.616625     -0.037858      2.354103
  H      -1.865553      1.557101      2.219808
  H       1.928908      1.014025     -0.926930
  H      -0.523457      1.254125     -0.586388
  H      -0.156606     -0.255399      2.082755
  H      -1.007065     -0.948409      0.689488
15
Coordinates from ORCA-job scan E -19.243219846140
  C       2.412099     -0.264677      0.723833
  C      -2.084760      0.635110      1.689224
  C       1.697747      0.742888      0.096426
  C      -0.032360      0.897170      0.311047
  C      -0.782376     -0.019402      1.218967
  O       0.976496      1.719921      0.808896
  H       2.309229     -0.450437      1.775051
  H       3.064976     -0.891177      0.149537
  H      -2.724229      0.866263      0.840379
  H      -2.621241     -0.036143      2.355201
  H      -1.868156      1.557882      2.221073
  H       1.935331      1.013319     -0.927699
  H      -0.527989      1.253442     -0.585510
  H      -0.161593     -0.256786      2.082970
  H      -1.013413     -0.948332      0.689807
15
Coordinates from ORCA-job scan E -19.243232837580
  C       2.409747     -0.263908      0.724505
  C      -2.083689      0.634682      1.689408
  C       1.698063      0.743664      0.097071
  C      -0.032167      0.897909      0.310724
  C      -0.781093     -0.019072      1.218372
  O       0.976276      1.719251      0.808253
  H       2.305840     -0.449478      1.775703
  H       3.061592     -0.891796      0.150615
  H      -2.723551      0.865949      0.840888
  H      -2.619589     -0.037196      2.355222
  H      -1.867342      1.557286      2.221649
  H       1.933991      1.012686     -0.927566
  H      -0.526479      1.253450     -0.586608
  H      -0.159803     -0.256545      2.082061
  H      -1.012033     -0.947841      0.688904
15
Coordinates from ORCA-job scan E -19.243238446490
  C       2.407293     -0.263288      0.725497
  C      -2.082685      0.634001      1.689736
  C       1.698505      0.744863      0.097973
  C      -0.031860      0.899369      0.310343
  C      -0.779719     -0.018545      1.217562
  O       0.976277      1.719068      0.807546
  H       2.303459     -0.447822      1.776932
  H       3.057065     -0.893798      0.151963
  H      -2.722942      0.865636      0.841637
  H      -2.617892     -0.038887      2.355102
  H      -1.866729      1.556236      2.222753
  H       1.931758      1.012029     -0.927867
  H      -0.524163      1.253541     -0.588623
  H      -0.157979     -0.256150      2.080860
  H      -1.010625     -0.947213      0.687786
15
Coordinates from ORCA-job scan E -19.243239003150
  C       2.407142     -0.263324      0.725715
  C      -2.082678      0.633837      1.689810
  C       1.698552      0.745079      0.098234
  C      -0.031829      0.899815      0.310309
  C      -0.779630     -0.018407      1.217318
  O       0.976377      1.719260      0.807531
  H       2.304404     -0.446989      1.777405
  H       3.055944     -0.894830      0.152156
  H      -2.722965      0.865705      0.841802
  H      -2.617776     -0.039353      2.354948
  H      -1.866789      1.555903      2.223142
  H       1.930944      1.011925     -0.927961
  H      -0.523492      1.253534     -0.589207
  H      -0.157843     -0.256103      2.080534
  H      -1.010599     -0.947012      0.687466
15
Coordinates from ORCA-job scan E -19.242537477710
  C       2.415512     -0.263262      0.724325
  C      -2.086649      0.635035      1.690906
  C       1.704816      0.743958      0.097321
  C      -0.035925      0.898729      0.310778
  C      -0.784605     -0.018767      1.217798
  O       0.976896      1.717431      0.806586
  H       2.312944     -0.447823      1.775875
  H       3.065922     -0.892902      0.150529
  H      -2.726925      0.867955      0.843176
  H      -2.622392     -0.037639      2.356046
  H      -1.869388      1.556681      2.224408
  H       1.937373      1.011221     -0.928728
  H      -0.528031      1.252852     -0.588337
  H      -0.162832     -0.257495      2.080740
  H      -1.016954     -0.946933      0.687778
15
Coordinates from ORCA-job scan E -19.242550694870
  C       2.413179     -0.262498      0.724985
  C      -2.085593      0.634618      1.691097
  C       1.705127      0.744703      0.097959
  C      -0.035733      0.899463      0.310456
  C      -0.783344     -0.018431      1.217200
  O       0.976680      1.716700      0.805934
  H       2.309591     -0.446861      1.776518
  H       3.062641     -0.893447      0.151616
  H      -2.726260      0.867669      0.843697
  H      -2.620763     -0.038682      2.356067
  H      -1.868578      1.556086      2.225001
  H       1.936015      1.010545     -0.928598
  H      -0.526523      1.252869     -0.589421
  H      -0.161068     -0.257265      2.079825
  H      -1.015609     -0.946427      0.686864
15
Coordinates from ORCA-job scan E -19.242556371580
  C       2.410736     -0.261888      0.725971
  C      -2.084603      0.633944      1.691442
  C       1.705553      0.745859      0.098848
  C      -0.035431      0.900949      0.310079
  C      -0.781991     -0.017887      1.216376
  O       0.976696      1.716468      0.805211
  H       2.307229     -0.445205      1.777744
  H       3.058251     -0.895355      0.153005
  H      -2.725668      0.867393      0.844475
  H      -2.619078     -0.040382      2.355944
  H      -1.867967      1.555025      2.226146
  H       1.933746      1.009800     -0.928914
  H      -0.524204      1.252965     -0.591434
  H      -0.159265     -0.256882      2.078600
  H      -1.014240     -0.945766      0.685708
15
Coordinates from ORCA-job scan E -19.242556932800
  C       2.410573     -0.261926      0.726196
  C      -2.084593      0.633776      1.691524
  C       1.705592      0.746065      0.099104
  C      -0.035403      0.901424      0.310048
  C      -0.781899     -0.017736      1.216121
  O       0.976805      1.716671      0.805186
  H       2.308150     -0.444375      1.778221
  H       3.057152     -0.896368      0.153228
  H      -2.725695      0.867468      0.844657
  H      -2.618952     -0.040867      2.355789
  H      -1.868027      1.554679      2.226558
  H       1.932911      1.009653     -0.929019
  H      -0.523523      1.252954     -0.592032
  H      -0.159119     -0.256834      2.078257
  H      -1.014212     -0.945544      0.685364
15
Coordinates from ORCA-job scan E -19.241875535640
  C       2.418945     -0.261862      0.724812
  C      -2.088564      0.634973      1.692620
  C       1.711855      0.744949      0.098196
  C      -0.039503      0.900339      0.310511
  C      -0.786876     -0.018097      1.216595
  O       0.977326      1.714837      0.804246
  H       2.316688     -0.445206      1.776698
  H       3.067140     -0.894442      0.151606
  H      -2.729655      0.869721      0.846036
  H      -2.623567     -0.039155      2.356888
  H      -1.870622      1.555454      2.227825
  H       1.939346      1.008950     -0.929784
  H      -0.528069      1.252273     -0.591170
  H      -0.164110     -0.258231      2.078453
  H      -1.020573     -0.945463      0.685670
15
Coordinates from ORCA-job scan E -19.241888965700
  C       2.416636     -0.261103      0.725460
  C      -2.087525      0.634568      1.692818
  C       1.712158      0.745662      0.098825
  C      -0.039313      0.901070      0.310191
  C      -0.785638     -0.017755      1.215993
  O       0.977115      1.714043      0.803586
  H       2.313376     -0.444241      1.777333
  H       3.063967     -0.894916      0.152702
  H      -2.729003      0.869464      0.846568
  H      -2.621963     -0.040188      2.356907
  H      -1.869816      1.554860      2.228436
  H       1.937970      1.008230     -0.929656
  H      -0.526564      1.252301     -0.592238
  H      -0.162374     -0.258013      2.077532
  H      -1.019264     -0.944942      0.684743
15
Coordinates from ORCA-job scan E -19.241894705550
  C       2.414208     -0.260503      0.726440
  C      -2.086550      0.633902      1.693179
  C       1.712567      0.746772      0.099697
  C      -0.039018      0.902582      0.309818
  C      -0.784309     -0.017193      1.215156
  O       0.977146      1.713762      0.802847
  H       2.311039     -0.442581      1.778557
  H       3.059717     -0.896731      0.154131
  H      -2.728431      0.869224      0.847376
  H      -2.620293     -0.041894      2.356781
  H      -1.869209      1.553788      2.229622
  H       1.935666      1.007396     -0.929988
  H      -0.524243      1.252404     -0.594249
  H      -0.160593     -0.257643      2.076284
  H      -1.017936     -0.944245      0.683550
15
Coordinates from ORCA-job scan E -19.241895272340
  C       2.414034     -0.260544      0.726671
  C      -2.086537      0.633729      1.693271
  C       1.712597      0.746967      0.099947
  C      -0.038993      0.903089      0.309790
  C      -0.784213     -0.017029      1.214891
  O       0.977264      1.713975      0.802812
  H       2.311938     -0.441752      1.779039
  H       3.058640     -0.897727      0.154384
  H      -2.728461      0.869305      0.847575
  H      -2.620155     -0.042399      2.356624
  H      -1.869269      1.553429      2.230058
  H       1.934811      1.007204     -0.930104
  H      -0.523550      1.252389     -0.594861
  H      -0.160439     -0.257593      2.075923
  H      -1.017904     -0.944002      0.683180
15
Coordinates from ORCA-job scan E -19.241236341580
  C       2.422407     -0.260478      0.725294
  C      -2.090508      0.634925      1.694367
  C       1.718859      0.745857      0.099043
  C      -0.043096      0.902004      0.310246
  C      -0.789193     -0.017391      1.215359
  O       0.977788      1.712137      0.801878
  H       2.320473     -0.442581      1.777523
  H       3.068637     -0.895804      0.152767
  H      -2.732421      0.871561      0.848958
  H      -2.624770     -0.040690      2.357725
  H      -1.871860      1.554199      2.231326
  H       1.941252      1.006503     -0.930867
  H      -0.528104      1.251710     -0.594006
  H      -0.165431     -0.258995      2.076109
  H      -1.024270     -0.943919      0.683480
15
Coordinates from ORCA-job scan E -19.241249969940
  C       2.420125     -0.259724      0.725931
  C      -2.089486      0.634531      1.694573
  C       1.719153      0.746535      0.099661
  C      -0.042909      0.902733      0.309929
  C      -0.787979     -0.017043      1.214754
  O       0.977581      1.711280      0.801210
  H       2.317207     -0.441611      1.778151
  H       3.065575     -0.896208      0.153872
  H      -2.731784      0.871333      0.849502
  H      -2.623192     -0.041712      2.357742
  H      -1.871061      1.553607      2.231955
  H       1.939859      1.005741     -0.930743
  H      -0.526603      1.251749     -0.595059
  H      -0.163725     -0.258789      2.075182
  H      -1.023000     -0.943382      0.682541
15
Coordinates from ORCA-job scan E -19.241255767810
  C       2.417718     -0.259133      0.726906
  C      -2.088528      0.633873      1.694950
  C       1.719543      0.747596      0.100515
  C      -0.042622      0.904273      0.309562
  C      -0.786675     -0.016463      1.213903
  O       0.977627      1.710946      0.800455
  H       2.314902     -0.439946      1.779373
  H       3.061470     -0.897933      0.155340
  H      -2.731233      0.871131      0.850339
  H      -2.621538     -0.043427      2.357613
  H      -1.870459      1.552523      2.233183
  H       1.937521      1.004818     -0.931091
  H      -0.524282      1.251862     -0.597065
  H      -0.161968     -0.258430      2.073911
  H      -1.021713     -0.942649      0.681309
15
Coordinates from ORCA-job scan E -19.241256341220
  C       2.417533     -0.259177      0.727144
  C      -2.088514      0.633694      1.695050
  C       1.719564      0.747778      0.100759
  C      -0.042600      0.904813      0.309538
  C      -0.786575     -0.016284      1.213628
  O       0.977757      1.711170      0.800410
  H       2.315778     -0.439116      1.779860
  H       3.060412     -0.898915      0.155621
  H      -2.731267      0.871217      0.850555
  H      -2.621389     -0.043953      2.357454
  H      -1.870521      1.552149      2.233644
  H       1.936644      1.004580     -0.931218
  H      -0.523578      1.251844     -0.597690
  H      -0.161804     -0.258377      2.073534
  H      -1.021677     -0.942384      0.680914
15
Coordinates from ORCA-job scan E -19.240622019580
  C       2.425907     -0.259109      0.725772
  C      -2.092483      0.634890      1.696146
  C       1.725824      0.746674      0.099859
  C      -0.046706      0.903730      0.309987
  C      -0.791557     -0.016647      1.214090
  O       0.978282      1.709328      0.799481
  H       2.324309     -0.439942      1.778351
  H       3.070417     -0.896994      0.154010
  H      -2.735226      0.873475      0.851942
  H      -2.626004     -0.042246      2.358554
  H      -1.873109      1.552916      2.234912
  H       1.943091      1.003879     -0.931978
  H      -0.528139      1.251167     -0.596844
  H      -0.166797     -0.259784      2.073710
  H      -1.028048     -0.942298      0.681208
15
Coordinates from ORCA-job scan E -19.240635827600
  C       2.423657     -0.258360      0.726399
  C      -2.091480      0.634507      1.696360
  C       1.726108      0.747316      0.100464
  C      -0.046524      0.904456      0.309672
  C      -0.790370     -0.016293      1.213482
  O       0.978081      1.708406      0.798805
  H       2.321096     -0.438967      1.778972
  H       3.067471     -0.897331      0.155124
  H      -2.734606      0.873278      0.852499
  H      -2.624453     -0.043258      2.358570
  H      -1.872316      1.552325      2.235559
  H       1.941683      1.003076     -0.931858
  H      -0.526644      1.251219     -0.597879
  H      -0.165123     -0.259589      2.072777
  H      -1.026818     -0.941744      0.680256
15
Coordinates from ORCA-job scan E -19.240641680260
  C       2.421276     -0.257780      0.727368
  C      -2.090542      0.633857      1.696754
  C       1.726477      0.748325      0.101296
  C      -0.046246      0.906026      0.309312
  C      -0.789093     -0.015693      1.212618
  O       0.978142      1.708019      0.798036
  H       2.318829     -0.437296      1.780193
  H       3.063514     -0.898969      0.156629
  H      -2.734077      0.873112      0.853364
  H      -2.622819     -0.044980      2.358436
  H      -1.871723      1.551229      2.236830
  H       1.939312      1.002064     -0.932224
  H      -0.524324      1.251343     -0.599880
  H      -0.163392     -0.259242      2.071483
  H      -1.025573     -0.940975      0.678986
15
Coordinates from ORCA-job scan E -19.240642261490
  C       2.421081     -0.257826      0.727613
  C      -2.090526      0.633673      1.696862
  C       1.726488      0.748494      0.101534
  C      -0.046228      0.906601      0.309292
  C      -0.788989     -0.015500      1.212333
  O       0.978283      1.708252      0.797981
  H       2.319685     -0.436462      1.780686
  H       3.062474     -0.899937      0.156939
  H      -2.734116      0.873203      0.853597
  H      -2.622659     -0.045529      2.358274
  H      -1.871788      1.550840      2.237314
  H       1.938413      1.001777     -0.932362
  H      -0.523607      1.251324     -0.600517
  H      -0.163218     -0.259185      2.071089
  H      -1.025531     -0.940686      0.678566
15
Coordinates from ORCA-job scan E -19.240034493930
  C       2.429455     -0.257757      0.726248
  C      -2.094494      0.634867      1.697959
  C       1.732748      0.747395      0.100638
  C      -0.050337      0.905520      0.309735
  C      -0.793973     -0.015863      1.212789
  O       0.978810      1.706407      0.797058
  H       2.328211     -0.437287      1.779184
  H       3.072487     -0.898019      0.155333
  H      -2.738073      0.875463      0.854988
  H      -2.627273     -0.043824      2.359376
  H      -1.874373      1.551603      2.238583
  H       1.944868      1.001078     -0.933120
  H      -0.528176      1.250650     -0.599679
  H      -0.168212     -0.260595      2.071255
  H      -1.031906     -0.940597      0.678854
15
Coordinates from ORCA-job scan E -19.240048466410
  C       2.427241     -0.257014      0.726864
  C      -2.093512      0.634496      1.698180
  C       1.733019      0.747999      0.101229
  C      -0.050160      0.906245      0.309424
  C      -0.792814     -0.015502      1.212178
  O       0.978614      1.705420      0.796375
  H       2.325056     -0.436305      1.779798
  H       3.069659     -0.898291      0.156455
  H      -2.737470      0.875295      0.855557
  H      -2.625751     -0.044826      2.359389
  H      -1.873589      1.551013      2.239250
  H       1.943445      1.000234     -0.933004
  H      -0.526687      1.250716     -0.600697
  H      -0.166572     -0.260413      2.070316
  H      -1.030717     -0.940026      0.677888
15
Coordinates from ORCA-job scan E -19.240054365860
  C       2.424892     -0.256443      0.727828
  C      -2.092595      0.633854      1.698589
  C       1.733364      0.748952      0.102036
  C      -0.049892      0.907844      0.309071
  C      -0.791565     -0.014882      1.211303
  O       0.978692      1.704976      0.795592
  H       2.322836     -0.434625      1.781018
  H       3.065854     -0.899845      0.157995
  H      -2.736966      0.875167      0.856451
  H      -2.624139     -0.046555      2.359250
  H      -1.873007      1.549905      2.240561
  H       1.941043      0.999133     -0.933387
  H      -0.524370      1.250854     -0.602689
  H      -0.164868     -0.260076      2.069001
  H      -1.029516     -0.939219      0.676581
15
Coordinates from ORCA-job scan E -19.240054955940
  C       2.424689     -0.256491      0.728080
  C      -2.092578      0.633663      1.698706
  C       1.733365      0.749108      0.102267
  C      -0.049879      0.908456      0.309057
  C      -0.791457     -0.014673      1.211008
  O       0.978845      1.705219      0.795529
  H       2.323671     -0.433788      1.781517
  H       3.064832     -0.900800      0.158332
  H      -2.737009      0.875261      0.856700
  H      -2.623968     -0.047127      2.359085
  H      -1.873077      1.549501      2.241070
  H       1.940121      0.998797     -0.933537
  H      -0.523641      1.250835     -0.603338
  H      -0.164685     -0.260014      2.068590
  H      -1.029466     -0.938906      0.676136
15
Coordinates from ORCA-job scan E -19.239475493850
  C       2.433063     -0.256422      0.726721
  C      -2.096545      0.634856      1.699803
  C       1.739624      0.748013      0.101375
  C      -0.053990      0.907377      0.309494
  C      -0.796442     -0.015037      1.211458
  O       0.979374      1.703370      0.794611
  H       2.332191     -0.434611      1.780021
  H       3.074850     -0.898885      0.156732
  H      -2.740965      0.877522      0.858095
  H      -2.628582     -0.045426      2.360186
  H      -1.875658      1.550260      2.242340
  H       1.946583      0.998099     -0.934293
  H      -0.528217      1.250163     -0.602508
  H      -0.169680     -0.261428      2.068746
  H      -1.035845     -0.938813      0.676418
15
Coordinates from ORCA-job scan E -19.239489611990
  C       2.430889     -0.255685      0.727326
  C      -2.095585      0.634497      1.700032
  C       1.739882      0.748578      0.101949
  C      -0.053820      0.908102      0.309186
  C      -0.795313     -0.014669      1.210845
  O       0.979182      1.702318      0.793921
  H       2.329102     -0.433622      1.780630
  H       3.072143     -0.899095      0.157862
  H      -2.740381      0.877386      0.858676
  H      -2.627091     -0.046417      2.360197
  H      -1.874884      1.549671      2.243025
  H       1.945146      0.997215     -0.934182
  H      -0.526736      1.250245     -0.603508
  H      -0.168075     -0.261258      2.067801
  H      -1.034698     -0.938226      0.675439
15
Coordinates from ORCA-job scan E -19.239495552460
  C       2.428579     -0.255124      0.728285
  C      -2.094692      0.633863      1.700456
  C       1.740201      0.749472      0.102730
  C      -0.053564      0.909732      0.308843
  C      -0.794096     -0.014028      1.209959
  O       0.979277      1.701816      0.793126
  H       2.326935     -0.431932      1.781849
  H       3.068494     -0.900567      0.159435
  H      -2.739902      0.877293      0.859597
  H      -2.625504     -0.048152      2.360052
  H      -1.874316      1.548551      2.244377
  H       1.942714      0.996026     -0.934582
  H      -0.524424      1.250399     -0.605488
  H      -0.166401     -0.260930      2.066466
  H      -1.033541     -0.937379      0.674095
15
Coordinates from ORCA-job scan E -19.239496152600
  C       2.428368     -0.255173      0.728544
  C      -2.094674      0.633666      1.700580
  C       1.740192      0.749613      0.102953
  C      -0.053554      0.910382      0.308836
  C      -0.793983     -0.013802      1.209656
  O       0.979444      1.702067      0.793055
  H       2.327753     -0.431089      1.782353
  H       3.067489     -0.901512      0.159797
  H      -2.739951      0.877390      0.859862
  H      -2.625323     -0.048749      2.359882
  H      -1.874393      1.548131      2.244910
  H       1.941768      0.995639     -0.934744
  H      -0.523681      1.250381     -0.606149
  H      -0.166209     -0.260861      2.066040
  H      -1.033483     -0.937042      0.673626
15
Coordinates from ORCA-job scan E -19.238946552710
  C       2.436741     -0.255104      0.727190
  C      -2.098640      0.634857      1.701678
  C       1.746451      0.748524      0.102065
  C      -0.057667      0.909305      0.309265
  C      -0.798969     -0.014165      1.210100
  O       0.979974      1.700216      0.792143
  H       2.336265     -0.431912      1.780864
  H       3.077511     -0.899600      0.158204
  H      -2.743906      0.879652      0.861262
  H      -2.629935     -0.047050      2.360984
  H      -1.876971      1.548886      2.246180
  H       1.948239      0.994942     -0.935498
  H      -0.528263      1.249713     -0.605326
  H      -0.171204     -0.262278      2.066187
  H      -1.039864     -0.936946      0.673902
15
Coordinates from ORCA-job scan E -19.238960796980
  C       2.434612     -0.254374      0.727786
  C      -2.097703      0.634510      1.701914
  C       1.746693      0.749046      0.102621
  C      -0.057505      0.910030      0.308963
  C      -0.797871     -0.013791      1.209485
  O       0.979788      1.699097      0.791446
  H       2.333248     -0.430915      1.781468
  H       3.074929     -0.899749      0.159340
  H      -2.743341      0.879547      0.861854
  H      -2.628477     -0.048030      2.360992
  H      -1.876208      1.548298      2.246884
  H       1.946789      0.994019     -0.935393
  H      -0.526793      1.249811     -0.606307
  H      -0.169636     -0.262120      2.065237
  H      -1.038762     -0.936340      0.672910
15
Coordinates from ORCA-job scan E -19.238966772890
  C       2.432349     -0.253823      0.728738
  C      -2.096836      0.633884      1.702353
  C       1.746985      0.749879      0.103372
  C      -0.057262      0.911692      0.308631
  C      -0.796687     -0.013129      1.208590
  O       0.979900      1.698534      0.790641
  H       2.331144     -0.429213      1.782684
  H       3.071439     -0.901142      0.160943
  H      -2.742889      0.879490      0.862801
  H      -2.626918     -0.049772      2.360840
  H      -1.875658      1.547167      2.248276
  H       1.944328      0.992743     -0.935810
  H      -0.524487      1.249984     -0.608274
  H      -0.167995     -0.261800      2.063883
  H      -1.037649     -0.935455      0.671531
15
Coordinates from ORCA-job scan E -19.238967384370
  C       2.432130     -0.253873      0.729003
  C      -2.096819      0.633680      1.702484
  C       1.746964      0.750003      0.103587
  C      -0.057257      0.912382      0.308631
  C      -0.796571     -0.012885      1.208279
  O       0.980082      1.698793      0.790564
  H       2.331945     -0.428364      1.783193
  H       3.070451     -0.902077      0.161330
  H      -2.742943      0.879588      0.863080
  H      -2.626729     -0.050393      2.360665
  H      -1.875743      1.546731      2.248833
  H       1.943358      0.992303     -0.935984
  H      -0.523730      1.249968     -0.608944
  H      -0.167794     -0.261723      2.063442
  H      -1.037582     -0.935092      0.671038
15
Coordinates from ORCA-job scan E -19.238449012390
  C       2.440502     -0.253804      0.727656
  C      -2.100783      0.634869      1.703582
  C       1.753223      0.748919      0.102703
  C      -0.061372      0.911308      0.309054
  C      -0.801557     -0.013248      1.208717
  O       0.980614      1.696939      0.789657
  H       2.340449     -0.429186      1.781711
  H       3.080476     -0.900168      0.159743
  H      -2.746896      0.881851      0.864484
  H      -2.631339     -0.048698      2.361767
  H      -1.878319      1.547481      2.250103
  H       1.949836      0.991606     -0.936736
  H      -0.528319      1.249304     -0.608129
  H      -0.172788     -0.263142      2.063580
  H      -1.043965     -0.934993      0.671308
15
Coordinates from ORCA-job scan E -19.238463362700
  C       2.438424     -0.253081      0.728241
  C      -2.099872      0.634535      1.703826
  C       1.753448      0.749398      0.103239
  C      -0.061219      0.912034      0.308757
  C      -0.800492     -0.012866      1.208101
  O       0.980433      1.695753      0.788954
  H       2.337510     -0.428180      1.782310
  H       3.078021     -0.900259      0.160884
  H      -2.746352      0.881776      0.865088
  H      -2.629916     -0.049667      2.361771
  H      -1.877569      1.546894      2.250825
  H       1.948374      0.990648     -0.936637
  H      -0.526860      1.249420     -0.609089
  H      -0.171260     -0.262996      2.062625
  H      -1.042908     -0.934369      0.670304
15
Coordinates from ORCA-job scan E -19.238469368790
  C       2.436213     -0.252540      0.729187
  C      -2.099034      0.633917      1.704278
  C       1.753711      0.750166      0.103959
  C      -0.060990      0.913727      0.308439
  C      -0.799343     -0.012182      1.207199
  O       0.980563      1.695127      0.788141
  H       2.335477     -0.426467      1.783523
  H       3.074695     -0.901576      0.162513
  H      -2.745930      0.881755      0.866059
  H      -2.628389     -0.051413      2.361611
  H      -1.877041      1.545753      2.252255
  H       1.945886      0.989285     -0.937072
  H      -0.524561      1.249614     -0.611039
  H      -0.169655     -0.262682      2.061256
  H      -1.041840     -0.933445      0.668893
15
Coordinates from ORCA-job scan E -19.238469992990
  C       2.435990     -0.252592      0.729457
  C      -2.099018      0.633705      1.704416
  C       1.753679      0.750273      0.104165
  C      -0.060988      0.914458      0.308448
  C      -0.799223     -0.011919      1.206880
  O       0.980761      1.695392      0.788058
  H       2.336264     -0.425611      1.784037
  H       3.073723     -0.902502      0.162922
  H      -2.745990      0.881854      0.866351
  H      -2.628192     -0.052060      2.361430
  H      -1.877137      1.545302      2.252835
  H       1.944890      0.988790     -0.937259
  H      -0.523789      1.249603     -0.611718
  H      -0.169444     -0.262596      2.060802
  H      -1.041763     -0.933056      0.668376
15
Coordinates from ORCA-job scan E -19.237984020510
  C       2.444358     -0.252523      0.728116
  C      -2.102980      0.634893      1.705514
  C       1.759937      0.749193      0.103285
  C      -0.065105      0.913387      0.308865
  C      -0.804209     -0.012281      1.207313
  O       0.981294      1.693537      0.787157
  H       2.344759     -0.426432      1.782562
  H       3.083750     -0.900597      0.161341
  H      -2.749941      0.884117      0.867759
  H      -2.632800     -0.050368      2.362532
  H      -1.879710      1.546047      2.254105
  H       1.951377      0.988094     -0.938009
  H      -0.528385      1.248942     -0.610911
  H      -0.174438     -0.264016      2.060930
  H      -1.048147     -0.932952      0.668641
15
Coordinates from ORCA-job scan E -19.237998456700
  C       2.442336     -0.251808      0.728691
  C      -2.102096      0.634571      1.705764
  C       1.760145      0.749627      0.103800
  C      -0.064962      0.914114      0.308574
  C      -0.803179     -0.011893      1.206697
  O       0.981118      1.692283      0.786449
  H       2.341906     -0.425418      1.783156
  H       3.081425     -0.900632      0.162487
  H      -2.749418      0.884073      0.868373
  H      -2.631415     -0.051325      2.362531
  H      -1.878976      1.545462      2.254845
  H       1.949905      0.987100     -0.937917
  H      -0.526939      1.249077     -0.611849
  H      -0.172952     -0.263882      2.059972
  H      -1.047135     -0.932311      0.667625
15
Coordinates from ORCA-job scan E -19.238004488290
  C       2.440185     -0.251277      0.729628
  C      -2.101289      0.633962      1.706229
  C       1.760377      0.750327      0.104486
  C      -0.064747      0.915840      0.308271
  C      -0.802067     -0.011186      1.205790
  O       0.981268      1.691591      0.785631
  H       2.339952     -0.423691      1.784365
  H       3.078265     -0.901874      0.164138
  H      -2.749026      0.884086      0.869366
  H      -2.629924     -0.053075      2.362362
  H      -1.878473      1.544311      2.256311
  H       1.947389      0.985652     -0.938370
  H      -0.524649      1.249295     -0.613779
  H      -0.171385     -0.263573      2.058591
  H      -1.046113     -0.931347      0.666183
15
Coordinates from ORCA-job scan E -19.238005126690
  C       2.439959     -0.251330      0.729903
  C      -2.101277      0.633743      1.706373
  C       1.760332      0.750414      0.104683
  C      -0.064749      0.916612      0.308290
  C      -0.801944     -0.010903      1.205465
  O       0.981483      1.691860      0.785545
  H       2.340728     -0.422827      1.784883
  H       3.077310     -0.902793      0.164567
  H      -2.749093      0.884184      0.869671
  H      -2.629720     -0.053747      2.362173
  H      -1.878582      1.543843      2.256913
  H       1.946365      0.985102     -0.938569
  H      -0.523862      1.249289     -0.614464
  H      -0.171166     -0.263475      2.058124
  H      -1.046024     -0.930931      0.665645
15
Coordinates from ORCA-job scan E -19.237552526380
  C       2.448325     -0.251262      0.728568
  C      -2.105237      0.634928      1.707471
  C       1.766591      0.749339      0.103806
  C      -0.068868      0.915546      0.308701
  C      -0.806929     -0.011265      1.205892
  O       0.982017      1.690003      0.784650
  H       2.349214     -0.423649      1.783414
  H       3.087339     -0.900890      0.162993
  H      -2.753042      0.886447      0.871083
  H      -2.634326     -0.052060      2.363276
  H      -1.881153      1.544584      2.258183
  H       1.952862      0.984406     -0.939318
  H      -0.528464      1.248632     -0.613665
  H      -0.176159     -0.264896      2.058243
  H      -1.052408     -0.930824      0.665904
15
Coordinates from ORCA-job scan E -19.237567028500
  C       2.446363     -0.250555      0.729132
  C      -2.104380      0.634619      1.707727
  C       1.766778      0.749727      0.104298
  C      -0.068736      0.916274      0.308418
  C      -0.805936     -0.010869      1.205277
  O       0.981847      1.688682      0.783938
  H       2.346453     -0.422625      1.784003
  H       3.085145     -0.900873      0.164141
  H      -2.752542      0.886433      0.871705
  H      -2.632981     -0.053003      2.363270
  H      -1.880436      1.544000      2.258940
  H       1.951379      0.983379     -0.939232
  H      -0.527032      1.248788     -0.614579
  H      -0.174717     -0.264773      2.057284
  H      -1.051443     -0.930164      0.664878
15
Coordinates from ORCA-job scan E -19.237573081650
  C       2.444280     -0.250034      0.730060
  C      -2.103609      0.634019      1.708203
  C       1.766978      0.750355      0.104948
  C      -0.068537      0.918031      0.308132
  C      -0.804863     -0.010139      1.204367
  O       0.982017      1.687921      0.783118
  H       2.344589     -0.420886      1.785206
  H       3.082155     -0.902042      0.165809
  H      -2.752182      0.886480      0.872717
  H      -2.631529     -0.054756      2.363089
  H      -1.879963      1.542841      2.260440
  H       1.948837      0.981847     -0.939704
  H      -0.524752      1.249031     -0.616485
  H      -0.173191     -0.264468      2.055893
  H      -1.050467     -0.929161      0.663409
15
Coordinates from ORCA-job scan E -19.237573735820
  C       2.444054     -0.250089      0.730338
  C      -2.103601      0.633793      1.708353
  C       1.766921      0.750422      0.105136
  C      -0.068543      0.918846      0.308164
  C      -0.804736     -0.009836      1.204037
  O       0.982251      1.688192      0.783029
  H       2.345358     -0.420014      1.785727
  H       3.081220     -0.902952      0.166255
  H      -2.752256      0.886576      0.873032
  H      -2.631321     -0.055452      2.362892
  H      -1.880089      1.542358      2.261063
  H       1.947784      0.981239     -0.939916
  H      -0.523950      1.249032     -0.617175
  H      -0.172966     -0.264356      2.055417
  H      -1.050365     -0.928719      0.662850
15
Coordinates from ORCA-job scan E -19.237155269030
  C       2.452416     -0.250022      0.729009
  C      -2.107558      0.634976      1.709450
  C       1.773180      0.749351      0.104263
  C      -0.072663      0.917785      0.308568
  C      -0.809721     -0.010196      1.204459
  O       0.982785      1.686334      0.782140
  H       2.353832     -0.420836      1.784265
  H       3.091247     -0.901053      0.164687
  H      -2.756203      0.888838      0.874448
  H      -2.635924     -0.053770      2.363995
  H      -1.882657      1.543094      2.262333
  H       1.954291      0.980544     -0.940663
  H      -0.528558      1.248380     -0.616383
  H      -0.177958     -0.265777      2.055526
  H      -1.056748     -0.928607      0.663104
15
Coordinates from ORCA-job scan E -19.237169817810
  C       2.450519     -0.249323      0.729563
  C      -2.106732      0.634680      1.709712
  C       1.773347      0.749690      0.104730
  C      -0.072542      0.918514      0.308295
  C      -0.808766     -0.009793      1.203846
  O       0.982621      1.684944      0.781427
  H       2.351171     -0.419803      1.784849
  H       3.089187     -0.900985      0.165834
  H      -2.755726      0.888856      0.875078
  H      -2.634622     -0.054699      2.363982
  H      -1.881960      1.542513      2.263105
  H       1.952798      0.979485     -0.940585
  H      -0.527141      1.248557     -0.617272
  H      -0.176561     -0.265665      2.054568
  H      -1.055831     -0.927930      0.662070
15
Coordinates from ORCA-job scan E -19.237175889520
  C       2.448512     -0.248812      0.730478
  C      -2.105998      0.634090      1.710197
  C       1.773513      0.750244      0.105343
  C      -0.072359      0.920303      0.308030
  C      -0.807735     -0.009040      1.202936
  O       0.982811      1.684110      0.780608
  H       2.349408     -0.418051      1.786044
  H       3.086372     -0.902082      0.167514
  H      -2.755398      0.888935      0.876104
  H      -2.633216     -0.056452      2.363788
  H      -1.881521      1.541347      2.264636
  H       1.950228      0.977870     -0.941075
  H      -0.524872      1.248829     -0.619150
  H      -0.175081     -0.265361      2.053171
  H      -1.054901     -0.926888      0.660576
15
Coordinates from ORCA-job scan E -19.237176561180
  C       2.448289     -0.248868      0.730758
  C      -2.105996      0.633856      1.710350
  C       1.773443      0.750288      0.105521
  C      -0.072369      0.921161      0.308075
  C      -0.807606     -0.008716      1.202603
  O       0.983065      1.684381      0.780519
  H       2.350175     -0.417170      1.786565
  H       3.085458     -0.902985      0.167974
  H      -2.755480      0.889028      0.876428
  H      -2.633005     -0.057173      2.363581
  H      -1.881666      1.540849      2.265278
  H       1.949144      0.977204     -0.941300
  H      -0.524053      1.248838     -0.619841
  H      -0.174851     -0.265234      2.052689
  H      -1.054786     -0.926420      0.659999
15
Coordinates from ORCA-job scan E -19.236792755720
  C       2.456646     -0.248803      0.729435
  C      -2.109951      0.635036      1.711448
  C       1.779702      0.749222      0.104651
  C      -0.076490      0.920104      0.308474
  C      -0.812589     -0.009075      1.203019
  O       0.983601      1.682523      0.779635
  H       2.358637     -0.417994      1.785110
  H       3.095483     -0.901090      0.166413
  H      -2.759425      0.891289      0.877848
  H      -2.637606     -0.055495      2.364684
  H      -1.884232      1.541581      2.266548
  H       1.955661      0.976509     -0.942045
  H      -0.528667      1.248191     -0.619058
  H      -0.179840     -0.266656      2.052789
  H      -1.061167     -0.926303      0.660248
15
Coordinates from ORCA-job scan E -19.236807332790
  C       2.454820     -0.248113      0.729977
  C      -2.109157      0.634754      1.711714
  C       1.779847      0.749512      0.105093
  C      -0.076382      0.920835      0.308212
  C      -0.811673     -0.008664      1.202411
  O       0.983443      1.681064      0.778923
  H       2.356083     -0.416952      1.785688
  H       3.093559     -0.900972      0.167557
  H      -2.758972      0.891336      0.878483
  H      -2.636349     -0.056410      2.364664
  H      -1.883558      1.541003      2.267334
  H       1.954159      0.975420     -0.941975
  H      -0.527267      1.248390     -0.619919
  H      -0.178493     -0.266554      2.051833
  H      -1.060298     -0.925608      0.659207
15
Coordinates from ORCA-job scan E -19.236813421180
  C       2.452897     -0.247612      0.730878
  C      -2.108465      0.634175      1.712206
  C       1.779978      0.749988      0.105668
  C      -0.076216      0.922655      0.307970
  C      -0.810686     -0.007887      1.201504
  O       0.983655      1.680152      0.778110
  H       2.354433     -0.415187      1.786872
  H       3.090923     -0.901999      0.169242
  H      -2.758679      0.891447      0.879520
  H      -2.634994     -0.058160      2.364455
  H      -1.883159      1.539831      2.268892
  H       1.951560      0.973724     -0.942483
  H      -0.525010      1.248692     -0.621763
  H      -0.177062     -0.266250      2.050436
  H      -1.059413     -0.924529      0.657694
15
Coordinates from ORCA-job scan E -19.236814112220
  C       2.452681     -0.247670      0.731158
  C      -2.108471      0.633934      1.712363
  C       1.779895      0.750008      0.105834
  C      -0.076228      0.923556      0.308032
  C      -0.810556     -0.007542      1.201170
  O       0.983930      1.680420      0.778024
  H       2.355203     -0.414298      1.787393
  H       3.090032     -0.902893      0.169711
  H      -2.758770      0.891538      0.879850
  H      -2.634784     -0.058904      2.364237
  H      -1.883327      1.539320      2.269553
  H       1.950443      0.972999     -0.942721
  H      -0.524174      1.248712     -0.622454
  H      -0.176828     -0.266105      2.049950
  H      -1.059284     -0.924034      0.657101
15
Coordinates from ORCA-job scan E -19.236465227810
  C       2.461032     -0.247606      0.729841
  C      -2.112424      0.635112      1.713460
  C       1.786155      0.748945      0.104969
  C      -0.080350      0.922504      0.308425
  C      -0.815537     -0.007899      1.201581
  O       0.984466      1.678562      0.777146
  H       2.363650     -0.415122      1.785944
  H       3.100054     -0.901002      0.168157
  H      -2.762711      0.893796      0.881274
  H      -2.639381     -0.057232      2.365340
  H      -1.885891      1.540046      2.270823
  H       1.956972      0.972303     -0.943465
  H      -0.528794      1.248070     -0.621679
  H      -0.181815     -0.267525      2.050041
  H      -1.065664     -0.923912      0.657345
15
Coordinates from ORCA-job scan E -19.236479816170
  C       2.459282     -0.246926      0.730370
  C      -2.111663      0.634843      1.713729
  C       1.786276      0.749184      0.105383
  C      -0.080255      0.923237      0.308176
  C      -0.814663     -0.007481      1.200978
  O       0.984314      1.677033      0.776436
  H       2.361213     -0.414072      1.786516
  H       3.098267     -0.900837      0.169294
  H      -2.762283      0.893874      0.881911
  H      -2.638173     -0.058130      2.365311
  H      -1.885241      1.539472      2.271620
  H       1.955460      0.971186     -0.943403
  H      -0.527412      1.248292     -0.622509
  H      -0.180519     -0.267433      2.049090
  H      -1.064843     -0.923201      0.656299
15
Coordinates from ORCA-job scan E -19.236485920640
  C       2.457452     -0.246435      0.731254
  C      -2.111016      0.634276      1.714225
  C       1.786371      0.749581      0.105919
  C      -0.080105      0.925085      0.307962
  C      -0.813722     -0.006681      1.200079
  O       0.984549      1.676040      0.775634
  H       2.359687     -0.412295      1.787686
  H       3.095816     -0.901793      0.170976
  H      -2.762025      0.894015      0.882954
  H      -2.636875     -0.059874      2.365084
  H      -1.884887      1.538298      2.273201
  H       1.952830      0.969411     -0.943929
  H      -0.525166      1.248626     -0.624315
  H      -0.179143     -0.267127      2.047699
  H      -1.064004     -0.922086      0.654771
15
Coordinates from ORCA-job scan E -19.236486633120
  C       2.457247     -0.246494      0.731532
  C      -2.111032      0.634029      1.714384
  C       1.786274      0.749574      0.106075
  C      -0.080121      0.926029      0.308042
  C      -0.813591     -0.006314      1.199746
  O       0.984847      1.676301      0.775555
  H       2.360468     -0.411398      1.788204
  H       3.094952     -0.902678      0.171451
  H      -2.762125      0.894102      0.883287
  H      -2.636670     -0.060641      2.364852
  H      -1.885083      1.537774      2.273878
  H       1.951678      0.968626     -0.944180
  H      -0.524314      1.248656     -0.625002
  H      -0.178908     -0.266963      2.047212
  H      -1.063861     -0.921564      0.654165
15
Coordinates from ORCA-job scan E -19.236172618900
  C       2.465592     -0.246433      0.730220
  C      -2.114982      0.635204      1.715481
  C       1.792536      0.748515      0.105212
  C      -0.084243      0.924984      0.308429
  C      -0.818570     -0.006668      1.200152
  O       0.985384      1.674444      0.774682
  H       2.368900     -0.412224      1.786762
  H       3.104968     -0.900791      0.169903
  H      -2.766064      0.896357      0.884714
  H      -2.641264     -0.058974      2.365955
  H      -1.887646      1.538496      2.275148
  H       1.958218      0.967929     -0.944924
  H      -0.528938      1.248020     -0.624234
  H      -0.183892     -0.268382      2.047295
  H      -1.070236     -0.921438      0.654405
15
Coordinates from ORCA-job scan E -19.236187202960
  C       2.463924     -0.245763      0.730735
  C      -2.114257      0.634949      1.715751
  C       1.792633      0.748701      0.105600
  C      -0.084162      0.925717      0.308196
  C      -0.817738     -0.006243      1.199556
  O       0.985238      1.672844      0.773978
  H       2.366586     -0.411166      1.787325
  H       3.103322     -0.900580      0.171029
  H      -2.765661      0.896464      0.885351
  H      -2.640107     -0.059854      2.365916
  H      -1.887023      1.537927      2.275954
  H       1.956696      0.966787     -0.944869
  H      -0.527575      1.248265     -0.625030
  H      -0.182650     -0.268298      2.046353
  H      -1.069464     -0.920711      0.653358
15
Coordinates from ORCA-job scan E -19.236193323310
  C       2.462196     -0.245281      0.731598
  C      -2.113659      0.634396      1.716249
  C       1.792691      0.749015      0.106095
  C      -0.084029      0.927592      0.308014
  C      -0.816848     -0.005421      1.198669
  O       0.985497      1.671763      0.773193
  H       2.365199     -0.409378      1.788478
  H       3.101061     -0.901464      0.172699
  H      -2.765439      0.896636      0.886394
  H      -2.638874     -0.061588      2.365668
  H      -1.886720      1.536753      2.277554
  H       1.954033      0.964934     -0.945413
  H      -0.525342      1.248633     -0.626792
  H      -0.181333     -0.267988      2.044975
  H      -1.068672     -0.919561      0.651821
15
Coordinates from ORCA-job scan E -19.236194060490
  C       2.462007     -0.245342      0.731871
  C      -2.113689      0.634143      1.716407
  C       1.792581      0.748980      0.106240
  C      -0.084046      0.928579      0.308116
  C      -0.816718     -0.005030      1.198340
  O       0.985820      1.672013      0.773124
  H       2.365999     -0.408473      1.788991
  H       3.100228     -0.902339      0.173173
  H      -2.765550      0.896718      0.886726
  H      -2.638678     -0.062376      2.365421
  H      -1.886948      1.536218      2.278244
  H       1.952841      0.964088     -0.945677
  H      -0.524472      1.248677     -0.627471
  H      -0.181100     -0.267802      2.044492
  H      -1.068514     -0.919013      0.651205
15
Coordinates from ORCA-job scan E -19.235914506190
  C       2.470344     -0.245284      0.730564
  C      -2.117636      0.635315      1.717505
  C       1.798844      0.747924      0.105381
  C      -0.088169      0.927540      0.308498
  C      -0.821694     -0.005381      1.198741
  O       0.986357      1.670158      0.772256
  H       2.374414     -0.409302      1.787554
  H       3.110237     -0.900456      0.171632
  H      -2.769485      0.898970      0.888157
  H      -2.643267     -0.060715      2.366524
  H      -1.889509      1.536934      2.279513
  H       1.959393      0.963390     -0.946420
  H      -0.529100      1.248047     -0.626711
  H      -0.186081     -0.269219      2.044566
  H      -1.074884     -0.918881      0.651441
15
Coordinates from ORCA-job scan E -19.235929071870
  C       2.468764     -0.244623      0.731063
  C      -2.116949      0.635076      1.717774
  C       1.798916      0.748057      0.105740
  C      -0.088102      0.928272      0.308283
  C      -0.820906     -0.004951      1.198155
  O       0.986218      1.668486      0.771561
  H       2.372233     -0.408237      1.788108
  H       3.108733     -0.900200      0.172742
  H      -2.769107      0.899106      0.888789
  H      -2.642166     -0.061573      2.366472
  H      -1.888916      1.536373      2.280326
  H       1.957861      0.962224     -0.946373
  H      -0.527758      1.248315     -0.627470
  H      -0.184896     -0.269144      2.043636
  H      -1.074162     -0.918141      0.650394
15
Coordinates from ORCA-job scan E -19.235935211620
  C       2.467149     -0.244151      0.731901
  C      -2.116405      0.634538      1.718270
  C       1.798937      0.748284      0.106195
  C      -0.087985      0.930172      0.308138
  C      -0.820068     -0.004106      1.197286
  O       0.986502      1.667310      0.770801
  H       2.371002     -0.406440      1.789238
  H       3.106669     -0.901011      0.174390
  H      -2.768922      0.899308      0.889824
  H      -2.641006     -0.063294      2.366200
  H      -1.888673      1.535203      2.281939
  H       1.955160      0.960295     -0.946935
  H      -0.525537      1.248718     -0.629180
  H      -0.183645     -0.268827      2.042279
  H      -1.073416     -0.916958      0.648855
15
Coordinates from ORCA-job scan E -19.235935975070
  C       2.466982     -0.244214      0.732166
  C      -2.116452      0.634280      1.718426
  C       1.798813      0.748219      0.106328
  C      -0.088004      0.931201      0.308265
  C      -0.819941     -0.003692      1.196964
  O       0.986851      1.667545      0.770746
  H       2.371829     -0.405528      1.789742
  H       3.105872     -0.901874      0.174856
  H      -2.769044      0.899384      0.890151
  H      -2.640825     -0.064100      2.365935
  H      -1.888937      1.534658      2.282640
  H       1.953926      0.959388     -0.947212
  H      -0.524647      1.248775     -0.629847
  H      -0.183418     -0.268618      2.041806
  H      -1.073242     -0.916385      0.648234
15
Coordinates from ORCA-job scan E -19.235690073910
  C       2.475310     -0.244159      0.730864
  C      -2.120396      0.635448      1.719524
  C       1.805077      0.747166      0.105472
  C      -0.092127      0.930169      0.308642
  C      -0.824913     -0.004040      1.197360
  O       0.987389      1.665692      0.769884
  H       2.380227     -0.406359      1.788312
  H       3.115872     -0.899997      0.173322
  H      -2.772977      0.901632      0.891585
  H      -2.645410     -0.062445      2.367038
  H      -1.891498      1.535370      2.283909
  H       1.960491      0.958689     -0.947953
  H      -0.529280      1.248152     -0.629095
  H      -0.188395     -0.270030      2.041872
  H      -1.079607     -0.916248      0.648466
15
Coordinates from ORCA-job scan E -19.235704608780
  C       2.473823     -0.243508      0.731345
  C      -2.119749      0.635226      1.719790
  C       1.805123      0.747244      0.105803
  C      -0.092075      0.930899      0.308448
  C      -0.824172     -0.003604      1.196787
  O       0.987256      1.663946      0.769202
  H       2.378188     -0.405289      1.788853
  H       3.114514     -0.899696      0.174410
  H      -2.772623      0.901797      0.892209
  H      -2.644369     -0.063280      2.366972
  H      -1.890939      1.534818      2.284724
  H       1.958946      0.957502     -0.947915
  H      -0.527958      1.248443     -0.629812
  H      -0.187271     -0.269963      2.040959
  H      -1.078934     -0.915494      0.647425
15
Coordinates from ORCA-job scan E -19.235710772120
  C       2.472332     -0.243046      0.732151
  C      -2.119264      0.634705      1.720281
  C       1.805107      0.747382      0.106217
  C      -0.091972      0.932820      0.308347
  C      -0.823389     -0.002737      1.195940
  O       0.987567      1.662668      0.768474
  H       2.377129     -0.403484      1.789955
  H       3.112655     -0.900431      0.176023
  H      -2.772476      0.902028      0.893229
  H      -2.643292     -0.064981      2.366671
  H      -1.890762      1.533655      2.286345
  H       1.956203      0.955500     -0.948493
  H      -0.525749      1.248882     -0.631463
  H      -0.186092     -0.269638      2.039633
  H      -1.078234     -0.914282      0.645891
15
Coordinates from ORCA-job scan E -19.235711564830
  C       2.472194     -0.243111      0.732404
  C      -2.119332      0.634444      1.720433
  C       1.804969      0.747284      0.106339
  C      -0.091992      0.933889      0.308504
  C      -0.823267     -0.002299      1.195629
  O       0.987944      1.662883      0.768440
  H       2.377996     -0.402567      1.790446
  H       3.111900     -0.901280      0.176474
  H      -2.772611      0.902097      0.893544
  H      -2.643133     -0.065802      2.366386
  H      -1.891071      1.533104      2.287052
  H       1.954923      0.954530     -0.948783
  H      -0.524839      1.248954     -0.632113
  H      -0.185876     -0.269402      2.039176
  H      -1.078044     -0.913684      0.645270
15
Coordinates from ORCA-job scan E -19.235498104100
  C       2.480513     -0.243059      0.731108
  C      -2.123273      0.635608      1.721530
  C       1.811236      0.746234      0.105485
  C      -0.096115      0.932865      0.308875
  C      -0.828235     -0.002644      1.196021
  O       0.988482      1.661032      0.767582
  H       2.386374     -0.403401      1.789022
  H       3.121890     -0.899408      0.174946
  H      -2.776541      0.904341      0.894982
  H      -2.647712     -0.064154      2.367489
  H      -1.893631      1.533810      2.288321
  H       1.961501      0.953830     -0.949524
  H      -0.529476      1.248338     -0.631368
  H      -0.190848     -0.270811      2.039233
  H      -1.084403     -0.913541      0.645498
15
Coordinates from ORCA-job scan E -19.235512596820
  C       2.479126     -0.242419      0.731568
  C      -2.122668      0.635403      1.721791
  C       1.811256      0.746257      0.105787
  C      -0.096076      0.933591      0.308706
  C      -0.827542     -0.002203      1.195465
  O       0.988356      1.659211      0.766918
  H       2.384488     -0.402328      1.789549
  H       3.120680     -0.899063      0.176005
  H      -2.776212      0.904534      0.895592
  H      -2.646736     -0.064963      2.367407
  H      -1.893109      1.533270      2.289135
  H       1.959942      0.952625     -0.949493
  H      -0.528174      1.248652     -0.632040
  H      -0.189789     -0.270750      2.038343
  H      -1.083779     -0.912777      0.644466
15
Coordinates from ORCA-job scan E -19.235518789840
  C       2.477771     -0.241966      0.732336
  C      -2.122250      0.634902      1.722271
  C       1.811202      0.746303      0.106160
  C      -0.095988      0.935529      0.308656
  C      -0.826818     -0.001315      1.194648
  O       0.988697      1.657822      0.766233
  H       2.383621     -0.400519      1.790616
  H       3.119035     -0.899718      0.177569
  H      -2.776104      0.904794      0.896586
  H      -2.645755     -0.066638      2.367073
  H      -1.893009      1.532119      2.290756
  H       1.957152      0.950551     -0.950088
  H      -0.525975      1.249128     -0.633623
  H      -0.188692     -0.270414      2.037060
  H      -1.083126     -0.911537      0.642948
15
Coordinates from ORCA-job scan E -19.235519615300
  C       2.477671     -0.242034      0.732571
  C      -2.122344      0.634639      1.722416
  C       1.811051      0.746169      0.106272
  C      -0.096007      0.936637      0.308847
  C      -0.826704     -0.000852      1.194353
  O       0.989104      1.658010      0.766225
  H       2.384543     -0.399598      1.791089
  H       3.118330     -0.900551      0.177995
  H      -2.776253      0.904857      0.896885
  H      -2.645624     -0.067472      2.366763
  H      -1.893369      1.531565      2.291466
  H       1.955819      0.949519     -0.950390
  H      -0.525043      1.249216     -0.634249
  H      -0.188492     -0.270149      2.036626
  H      -1.082920     -0.910917      0.642333
15
Coordinates from ORCA-job scan E -19.235337016150
  C       2.485978     -0.241985      0.731281
  C      -2.126281      0.635800      1.723513
  C       1.817320      0.745121      0.105421
  C      -0.100129      0.935621      0.309214
  C      -0.831667     -0.001193      1.194740
  O       0.989642      1.656162      0.765372
  H       2.392900     -0.400435      1.789670
  H       3.128307     -0.898684      0.176474
  H      -2.780179      0.907095      0.898326
  H      -2.650198     -0.065830      2.367867
  H      -1.895929      1.532266      2.292734
  H       1.962411      0.948817     -0.951131
  H      -0.529684      1.248606     -0.633513
  H      -0.193458     -0.271553      2.036676
  H      -1.089270     -0.910768      0.642557
15
Coordinates from ORCA-job scan E -19.235351455980
  C       2.484698     -0.241356      0.731716
  C      -2.125722      0.635614      1.723766
  C       1.817314      0.745088      0.105694
  C      -0.100104      0.936341      0.309074
  C      -0.831024     -0.000748      1.194204
  O       0.989524      1.654264      0.764732
  H       2.391177     -0.399360      1.790179
  H       3.127249     -0.898294      0.177496
  H      -2.779876      0.907316      0.898917
  H      -2.649293     -0.066609      2.367765
  H      -1.895450      1.531740      2.293543
  H       1.960837      0.947596     -0.951107
  H      -0.528403      1.248942     -0.634134
  H      -0.192469     -0.271497      2.035816
  H      -1.088696     -0.909995      0.641541
15
Coordinates from ORCA-job scan E -19.235357686980
  C       2.483494     -0.240912      0.732438
  C      -2.125378      0.635136      1.724231
  C       1.817225      0.745038      0.106026
  C      -0.100027      0.938292      0.309084
  C      -0.830364      0.000161      1.193426
  O       0.989896      1.652753      0.764100
  H       2.390526     -0.397552      1.791202
  H       3.125829     -0.898866      0.178993
  H      -2.779808      0.907604      0.899873
  H      -2.648420     -0.068252      2.367392
  H      -1.895439      1.530607      2.295156
  H       1.957991      0.945453     -0.951718
  H      -0.526210      1.249455     -0.635639
  H      -0.191463     -0.271145      2.034589
  H      -1.088089     -0.908732      0.640048
15
Coordinates from ORCA-job scan E -19.235358549350
  C       2.483440     -0.240983      0.732650
  C      -2.125504      0.634873      1.724365
  C       1.817061      0.744866      0.106127
  C      -0.100044      0.939436      0.309315
  C      -0.830260      0.000648      1.193152
  O       0.990336      1.652907      0.764127
  H       2.391517     -0.396630      1.791651
  H       3.125183     -0.899679      0.179382
  H      -2.779974      0.907659      0.900147
  H      -2.648327     -0.069093      2.367055
  H      -1.895859      1.530053      2.295864
  H       1.956601      0.944360     -0.952032
  H      -0.525254      1.249560     -0.636235
  H      -0.191286     -0.270848      2.034188
  H      -1.087868     -0.908090      0.639446
15
Coordinates from ORCA-job scan E -19.235204962490
  C       2.491736     -0.240938      0.731364
  C      -2.129437      0.636030      1.725463
  C       1.823332      0.743820      0.105278
  C      -0.104166      0.938429      0.309676
  C      -0.835218      0.000311      1.193535
  O       0.990875      1.651063      0.763279
  H       2.399851     -0.397470      1.790239
  H       3.135146     -0.897818      0.177868
  H      -2.783895      0.909892      0.901592
  H      -2.652895     -0.067459      2.368159
  H      -1.898419      1.530749      2.297131
  H       1.963206      0.943655     -0.952773
  H      -0.529898      1.248958     -0.635506
  H      -0.196246     -0.272246      2.034231
  H      -1.094209     -0.907936      0.639667
15
Coordinates from ORCA-job scan E -19.235219338960
  C       2.490570     -0.240321      0.731771
  C      -2.128928      0.635864      1.725705
  C       1.823301      0.743729      0.105522
  C      -0.104154      0.939140      0.309571
  C      -0.834627      0.000760      1.193024
  O       0.990766      1.649084      0.762669
  H       2.398305     -0.396397      1.790725
  H       3.134244     -0.897382      0.178843
  H      -2.783619      0.910139      0.902157
  H      -2.652069     -0.068204      2.368035
  H      -1.897990      1.530240      2.297930
  H       1.961615      0.942422     -0.952756
  H      -0.528637      1.249315     -0.636072
  H      -0.195332     -0.272193      2.033407
  H      -1.093684     -0.907156      0.638672
15
Coordinates from ORCA-job scan E -19.235225618810
  C       2.489533     -0.239886      0.732437
  C      -2.128667      0.635413      1.726148
  C       1.823177      0.743581      0.105815
  C      -0.104086      0.941097      0.309649
  C      -0.834035      0.001690      1.192294
  O       0.991172      1.647439      0.762104
  H       2.397896     -0.394593      1.791694
  H       3.133063     -0.897864      0.180253
  H      -2.783593      0.910455      0.903062
  H      -2.651320     -0.069806      2.367616
  H      -1.898082      1.529133      2.299527
  H       1.958705      0.940214     -0.953382
  H      -0.526447      1.249864     -0.637488
  H      -0.194429     -0.271823      2.032253
  H      -1.093124     -0.905873      0.637219
15
Coordinates from ORCA-job scan E -19.235226523200
  C       2.489537     -0.239960      0.732618
  C      -2.128832      0.635153      1.726267
  C       1.823001      0.743367      0.105904
  C      -0.104098      0.942274      0.309928
  C      -0.833946      0.002202      1.192048
  O       0.991647      1.647549      0.762175
  H       2.398977     -0.393674      1.792112
  H       3.132487     -0.898652      0.180591
  H      -2.783777      0.910502      0.903302
  H      -2.651277     -0.070650      2.367247
  H      -1.898573      1.528583      2.300227
  H       1.957250      0.939060     -0.953708
  H      -0.525464      1.249984     -0.638047
  H      -0.194284     -0.271490      2.031897
  H      -1.092887     -0.905211      0.636639
15
Coordinates from ORCA-job scan E -19.235099975640
  C       2.497819     -0.239919      0.731337
  C      -2.132762      0.636306      1.727365
  C       1.829275      0.742323      0.105057
  C      -0.108219      0.941276      0.310285
  C      -0.838898      0.001870      1.192427
  O       0.992187      1.645709      0.761331
  H       2.407287     -0.394517      1.790705
  H       3.142433     -0.896798      0.179083
  H      -2.787694      0.912728      0.904750
  H      -2.655838     -0.069024      2.368351
  H      -1.901133      1.529275      2.301494
  H       1.963871      0.938352     -0.954449
  H      -0.530111      1.249390     -0.637325
  H      -0.199237     -0.272881      2.031933
  H      -1.099217     -0.905051      0.636857
15
Coordinates from ORCA-job scan E -19.235114278000
  C       2.496777     -0.239314      0.731710
  C      -2.132308      0.636161      1.727593
  C       1.829219      0.742174      0.105273
  C      -0.108217      0.941975      0.310219
  C      -0.838361      0.002322      1.191948
  O       0.992089      1.643648      0.760758
  H       2.405930     -0.393449      1.791163
  H       3.141692     -0.896314      0.180000
  H      -2.787445      0.913000      0.905281
  H      -2.655099     -0.069731      2.368202
  H      -1.900762      1.528787      2.302277
  H       1.962259      0.937110     -0.954440
  H      -0.528867      1.249767     -0.637830
  H      -0.198404     -0.272828      2.031156
  H      -1.098741     -0.904268      0.635892
15
Coordinates from ORCA-job scan E -19.235120620830
  C       2.495924     -0.238889      0.732307
  C      -2.132142      0.635742      1.728008
  C       1.829063      0.741923      0.105527
  C      -0.108154      0.943933      0.310379
  C      -0.837845      0.003273      1.191277
  O       0.992533      1.641854      0.760277
  H       2.405795     -0.391657      1.792066
  H       3.140765     -0.896700      0.181298
  H      -2.787465      0.913343      0.906120
  H      -2.654492     -0.071283      2.367731
  H      -1.900975      1.527713      2.303847
  H       1.959276      0.934840     -0.955079
  H      -0.526675      1.250351     -0.639145
  H      -0.197619     -0.272433      2.030095
  H      -1.098227     -0.902969      0.634493
15
Coordinates from ORCA-job scan E -19.235121573770
  C       2.496001     -0.238966      0.732448
  C      -2.132355      0.635488      1.728108
  C       1.828877      0.741665      0.105606
  C      -0.108160      0.945139      0.310714
  C      -0.837775      0.003811      1.191068
  O       0.993048      1.641909      0.760404
  H       2.406988     -0.390745      1.792443
  H       3.140272     -0.897458      0.181568
  H      -2.787669      0.913382      0.906315
  H      -2.654514     -0.072123      2.367323
  H      -1.901550      1.527174      2.304533
  H       1.957749      0.933628     -0.955416
  H      -0.525659      1.250486     -0.639656
  H      -0.197515     -0.272059      2.029798
  H      -1.097975     -0.902290      0.633946
15
Coordinates from ORCA-job scan E -19.235020132340
  C       2.504268     -0.238930      0.731172
  C      -2.136280      0.636636      1.729206
  C       1.835154      0.740623      0.104760
  C      -0.112280      0.944150      0.311066
  C      -0.842719      0.003484      1.191444
  O       0.993588      1.640075      0.759564
  H       2.415271     -0.391591      1.791041
  H       3.150199     -0.895610      0.180067
  H      -2.791583      0.915600      0.907766
  H      -2.659067     -0.070505      2.368428
  H      -1.904111      1.527860      2.305799
  H       1.964384      0.932916     -0.956158
  H      -0.530309      1.249900     -0.638942
  H      -0.202460     -0.273442      2.029827
  H      -1.104294     -0.902125      0.634162
15
Coordinates from ORCA-job scan E -19.235034349520
  C       2.503358     -0.238338      0.731504
  C      -2.135888      0.636516      1.729416
  C       1.835076      0.740414      0.104948
  C      -0.112286      0.944834      0.311045
  C      -0.842241      0.003939      1.191001
  O       0.993504      1.637926      0.759038
  H       2.414121     -0.390535      1.791464
  H       3.149626     -0.895078      0.180912
  H      -2.791363      0.915896      0.908255
  H      -2.658424     -0.071169      2.368250
  H      -1.903808      1.527399      2.306561
  H       1.962750      0.931669     -0.956156
  H      -0.529081      1.250294     -0.639380
  H      -0.201716     -0.273386      2.029109
  H      -1.103865     -0.901341      0.633235
15
Coordinates from ORCA-job scan E -19.235040773660
  C       2.502713     -0.237923      0.732017
  C      -2.135832      0.636133      1.729795
  C       1.834891      0.740055      0.105164
  C      -0.112224      0.946783      0.311302
  C      -0.841806      0.004911      1.190406
  O       0.993992      1.635965      0.758659
  H       2.414295     -0.388762      1.792285
  H       3.148973     -0.895358      0.182069
  H      -2.791431      0.916265      0.909008
  H      -2.657984     -0.072661      2.367717
  H      -1.904165      1.526369      2.308091
  H       1.959681      0.929344     -0.956807
  H      -0.526877      1.250910     -0.640579
  H      -0.201066     -0.272959      2.028165
  H      -1.103397     -0.900030      0.631910
15
Coordinates from ORCA-job scan E -19.235041783620
  C       2.502878     -0.238004      0.732108
  C      -2.136103      0.635889      1.729869
  C       1.834696      0.739750      0.105233
  C      -0.112219      0.948012      0.311704
  C      -0.841761      0.005475      1.190243
  O       0.994550      1.635952      0.758857
  H       2.415628     -0.387863      1.792609
  H       3.148579     -0.896078      0.182248
  H      -2.791658      0.916296      0.909144
  H      -2.658086     -0.073490      2.367264
  H      -1.904841      1.525848      2.308754
  H       1.958071      0.928075     -0.957154
  H      -0.525823      1.251056     -0.641033
  H      -0.201016     -0.272539      2.027945
  H      -1.103131     -0.899338      0.631410
15
Coordinates from ORCA-job scan E -19.234963699180
  C       2.511128     -0.237973      0.730835
  C      -2.140023      0.637032      1.730968
  C       1.840976      0.738709      0.104389
  C      -0.116338      0.947034      0.312052
  C      -0.846697      0.005153      1.190616
  O       0.995090      1.634124      0.758020
  H       2.423884     -0.388713      1.791213
  H       3.158484     -0.894237      0.180753
  H      -2.795568      0.918505      0.910599
  H      -2.662631     -0.071880      2.368370
  H      -1.907403      1.526529      2.310019
  H       1.964723      0.927359     -0.957898
  H      -0.530476      1.250479     -0.640327
  H      -0.205952     -0.273913      2.027968
  H      -1.109435     -0.899166      0.631623
15
Coordinates from ORCA-job scan E -19.234977819570
  C       2.510362     -0.237396      0.731118
  C      -2.139701      0.636939      1.731156
  C       1.840878      0.738439      0.104549
  C      -0.116350      0.947696      0.312084
  C      -0.846280      0.005611      1.190219
  O       0.995022      1.631884      0.757551
  H       2.422957     -0.387674      1.791592
  H       3.158086     -0.893653      0.181509
  H      -2.795379      0.918823      0.911035
  H      -2.662097     -0.072496      2.368159
  H      -1.907180      1.526100      2.310752
  H       1.963062      0.926112     -0.957903
  H      -0.529259      1.250887     -0.640691
  H      -0.205307     -0.273849      2.027322
  H      -1.109054     -0.898385      0.630747
15
Coordinates from ORCA-job scan E -19.234984349020
  C       2.509950     -0.236991      0.731529
  C      -2.139771      0.636600      1.731489
  C       1.840669      0.737970      0.104729
  C      -0.116281      0.949626      0.312454
  C      -0.845936      0.006604      1.189716
  O       0.995560      1.629732      0.757300
  H       2.423484     -0.385933      1.792311
  H       3.157730     -0.893814      0.182487
  H      -2.795501      0.919217      0.911678
  H      -2.661850     -0.073913      2.367554
  H      -1.907708      1.525126      2.312229
  H       1.959894      0.923739     -0.958564
  H      -0.527031      1.251528     -0.641757
  H      -0.204813     -0.273381      2.026527
  H      -1.108632     -0.897070      0.629520
15
Coordinates from ORCA-job scan E -19.234985427620
  C       2.510223     -0.237077      0.731553
  C      -2.140115      0.636370      1.731531
  C       1.840468      0.737613      0.104790
  C      -0.116263      0.950872      0.312938
  C      -0.845924      0.007196      1.189614
  O       0.996167      1.629635      0.757587
  H       2.424991     -0.385056      1.792568
  H       3.157455     -0.894488      0.182549
  H      -2.795755      0.919238      0.911738
  H      -2.662054     -0.074721      2.367048
  H      -1.908506      1.524632      2.312857
  H       1.958190      0.922419     -0.958919
  H      -0.525931      1.251682     -0.642141
  H      -0.204834     -0.272907      2.026406
  H      -1.108352     -0.896368      0.629083
15
Coordinates from ORCA-job scan E -19.234929224710
  C       2.518456     -0.237051      0.730285
  C      -2.144029      0.637509      1.732630
  C       1.846751      0.736572      0.103946
  C      -0.120380      0.949905      0.313282
  C      -0.850851      0.006880      1.189984
  O       0.996708      1.627813      0.756752
  H       2.433217     -0.385909      1.791176
  H       3.167336     -0.892655      0.181061
  H      -2.799660      0.921437      0.913196
  H      -2.666590     -0.073120      2.368155
  H      -1.911068      1.525309      2.314122
  H       1.964859      0.921698     -0.959664
  H      -0.530585      1.251113     -0.641442
  H      -0.209760     -0.274271      2.026424
  H      -1.114641     -0.896190      0.629295
15
Coordinates from ORCA-job scan E -19.234943235950
  C       2.517845     -0.236488      0.730509
  C      -2.143786      0.637446      1.732790
  C       1.846637      0.736243      0.104079
  C      -0.120393      0.950540      0.313376
  C      -0.850499      0.007339      1.189643
  O       0.996659      1.625477      0.756354
  H       2.432534     -0.384896      1.791501
  H       3.167123     -0.892015      0.181708
  H      -2.799505      0.921776      0.913566
  H      -2.666179     -0.073679      2.367906
  H      -1.910941      1.524919      2.314818
  H       1.963169      0.920460     -0.959676
  H      -0.529375      1.251531     -0.641724
  H      -0.209223     -0.274195      2.025868
  H      -1.114306     -0.895417      0.628483
15
Coordinates from ORCA-job scan E -19.234949902690
  C       2.517698     -0.236095      0.730792
  C      -2.144005      0.637160      1.733065
  C       1.846409      0.735658      0.104225
  C      -0.120311      0.952438      0.313883
  C      -0.850257      0.008355      1.189255
  O       0.997255      1.623105      0.756260
  H       2.433468     -0.383203      1.792091
  H       3.167094     -0.892040      0.182459
  H      -2.799686      0.922193      0.914071
  H      -2.666162     -0.075005      2.367215
  H      -1.911674      1.524018      2.316222
  H       1.959884      0.918050     -0.960344
  H      -0.527107      1.252186     -0.642638
  H      -0.208913     -0.273674      2.025260
  H      -1.113930     -0.894105      0.627384
15
Coordinates from ORCA-job scan E -19.234951066360
  C       2.518104     -0.236187      0.730731
  C      -2.144438      0.636951      1.733065
  C       1.846206      0.735244      0.104279
  C      -0.120272      0.953691      0.314465
  C      -0.850285      0.008975      1.189230
  O       0.997917      1.622902      0.756660
  H       2.435191     -0.382359      1.792262
  H       3.166963     -0.892655      0.182369
  H      -2.799971      0.922203      0.914032
  H      -2.666495     -0.075779      2.366646
  H      -1.912621      1.523563      2.316802
  H       1.958071      0.916685     -0.960704
  H      -0.525948      1.252341     -0.642936
  H      -0.209026     -0.273137      2.025267
  H      -1.113635     -0.893398      0.627033
15
Coordinates from ORCA-job scan E -19.234915570850
  C       2.526317     -0.236166      0.729466
  C      -2.148347      0.638084      1.734165
  C       1.852492      0.734204      0.103435
  C      -0.124387      0.952736      0.314805
  C      -0.855202      0.008665      1.189598
  O       0.998459      1.621088      0.755827
  H       2.443384     -0.383215      1.790875
  H       3.176816     -0.890831      0.180886
  H      -2.803872      0.924391      0.915493
  H      -2.671020     -0.074187      2.367755
  H      -1.915185      1.524235      2.318067
  H       1.964757      0.915958     -0.961453
  H      -0.530603      1.251781     -0.642244
  H      -0.213939     -0.274490      2.025281
  H      -1.119908     -0.893214      0.627244
15
Coordinates from ORCA-job scan E -19.234929459290
  C       2.525878     -0.235620      0.729618
  C      -2.148193      0.638055      1.734292
  C       1.852366      0.733814      0.103542
  C      -0.124397      0.953336      0.314973
  C      -0.854921      0.009126      1.189326
  O       0.998434      1.618648      0.755517
  H       2.442971     -0.382239      1.791131
  H       3.176800     -0.890128      0.181398
  H      -2.803753      0.924748      0.915782
  H      -2.670750     -0.074681      2.367462
  H      -1.915170      1.523894      2.318713
  H       1.963034      0.914738     -0.961469
  H      -0.529392      1.252198     -0.642435
  H      -0.213526     -0.274394      2.024836
  H      -1.119617     -0.892456      0.626515
15
Coordinates from ORCA-job scan E -19.234936306800
  C       2.526035     -0.235239      0.729740
  C      -2.148591      0.637833      1.734493
  C       1.852126      0.733108      0.103658
  C      -0.124292      0.955183      0.315647
  C      -0.854795      0.010165      1.189083
  O       0.999097      1.616020      0.755621
  H       2.444375     -0.380617      1.791559
  H       3.177137     -0.889995      0.181862
  H      -2.803999      0.925186      0.916109
  H      -2.671008     -0.075893      2.366668
  H      -1.916152      1.523088      2.320019
  H       1.959612      0.912309     -0.962138
  H      -0.527063      1.252853     -0.643171
  H      -0.213433     -0.273805      2.024468
  H      -1.119287     -0.891157      0.625584
15
Coordinates from ORCA-job scan E -19.234937579590
  C       2.526606     -0.235339      0.729570
  C      -2.149135      0.637655      1.734440
  C       1.851927      0.732634      0.103706
  C      -0.124226      0.956432      0.316352
  C      -0.854875      0.010816      1.189158
  O       0.999823      1.615682      0.756164
  H       2.446368     -0.379823      1.791617
  H       3.177180     -0.890536      0.181571
  H      -2.804321      0.925184      0.915943
  H      -2.671505     -0.076617      2.366021
  H      -1.917283      1.522688      2.320534
  H       1.957672      0.910911     -0.962502
  H      -0.525826      1.252997     -0.643364
  H      -0.213665     -0.273192      2.024642
  H      -1.118978     -0.890451      0.625349
15
Coordinates from ORCA-job scan E -19.234921897750
  C       2.534797     -0.235323      0.728308
  C      -2.153038      0.638782      1.735541
  C       1.858216      0.731594      0.102861
  C      -0.128339      0.955489      0.316689
  C      -0.859781      0.010512      1.189524
  O       1.000367      1.613877      0.755332
  H       2.454526     -0.380680      1.790233
  H       3.187003     -0.888721      0.180096
  H      -2.808218      0.927360      0.917408
  H      -2.676019     -0.075034      2.367133
  H      -1.919849      1.523356      2.321800
  H       1.964376      0.910177     -0.963255
  H      -0.530483      1.252445     -0.642679
  H      -0.218565     -0.274532      2.024651
  H      -1.125231     -0.890262      0.625560
15
Coordinates from ORCA-job scan E -19.234935646830
  C       2.534547     -0.234796      0.728370
  C      -2.152988      0.638793      1.735625
  C       1.858083      0.731145      0.102945
  C      -0.128341      0.956043      0.316944
  C      -0.859577      0.010974      1.189337
  O       1.000370      1.611325      0.755132
  H       2.454411     -0.379758      1.790402
  H       3.187197     -0.887948      0.180439
  H      -2.808138      0.927730      0.917593
  H      -2.675912     -0.075449      2.366789
  H      -1.919969      1.523076      2.322380
  H       1.962616      0.908990     -0.963272
  H      -0.529262      1.252851     -0.642767
  H      -0.218292     -0.274409      2.024347
  H      -1.124984     -0.889526      0.624937
15
Coordinates from ORCA-job scan E -19.234942735980
  C       2.535059     -0.234428      0.728289
  C      -2.153600      0.638651      1.735732
  C       1.857843      0.730313      0.103034
  C      -0.128199      0.957816      0.317825
  C      -0.859585      0.012036      1.189280
  O       1.001113      1.608390      0.755485
  H       2.456369     -0.378239      1.790621
  H       3.187949     -0.887627      0.180533
  H      -2.808458      0.928186      0.917693
  H      -2.676503     -0.076516      2.365871
  H      -1.921259      1.522395      2.323556
  H       1.959031      0.906567     -0.963937
  H      -0.526838      1.253479     -0.643293
  H      -0.218463     -0.273730      2.024285
  H      -1.124698     -0.888254      0.624227
15
Coordinates from ORCA-job scan E -19.234944154560
  C       2.535838     -0.234538      0.727973
  C      -2.154287      0.638513      1.735609
  C       1.857653      0.729772      0.103079
  C      -0.128096      0.959047      0.318685
  C      -0.859733      0.012720      1.189487
  O       1.001916      1.607879      0.756215
  H       2.458703     -0.377517      1.790529
  H       3.188210     -0.888071      0.179979
  H      -2.808825      0.928169      0.917360
  H      -2.677213     -0.077168      2.365129
  H      -1.922623      1.522072      2.323980
  H       1.956940      0.905151     -0.964298
  H      -0.525497      1.253593     -0.643356
  H      -0.218850     -0.273022      2.024680
  H      -1.124374     -0.887559      0.624150
15
Coordinates from ORCA-job scan E -19.234935231450
  C       2.531137     -0.235049      0.728103
  C      -2.152545      0.637581      1.734459
  C       1.854219      0.730569      0.103854
  C      -0.125358      0.960333      0.319460
  C      -0.856536      0.013376      1.189963
  O       1.002436      1.610504      0.757513
  H       2.455532     -0.377226      1.790878
  H       3.180931     -0.890503      0.179331
  H      -2.806657      0.925912      0.915401
  H      -2.675093     -0.078547      2.363784
  H      -1.922746      1.521751      2.322647
  H       1.952047      0.905088     -0.963799
  H      -0.522193      1.253853     -0.643129
  H      -0.216102     -0.271052      2.025950
  H      -1.119311     -0.887550      0.624785
15
Coordinates from ORCA-job scan E -19.234939500340
  C       2.534527     -0.235420      0.727071
  C      -2.154346      0.637943      1.733812
  C       1.853748      0.729104      0.104051
  C      -0.125436      0.960819      0.321174
  C      -0.857824      0.013658      1.190777
  O       1.003548      1.610398      0.759768
  H       2.463054     -0.376439      1.790271
  H       3.183351     -0.890547      0.176799
  H      -2.807478      0.926404      0.914015
  H      -2.677688     -0.078175      2.362465
  H      -1.925157      1.522046      2.322342
  H       1.949023      0.903348     -0.963994
  H      -0.521096      1.253958     -0.642133
  H      -0.218360     -0.270827      2.027474
  H      -1.120103     -0.887229      0.625309
15
Coordinates from ORCA-job scan E -19.234940289770
  C       2.534130     -0.236063      0.726444
  C      -2.154676      0.637619      1.733450
  C       1.853743      0.729294      0.103866
  C      -0.125283      0.961514      0.321887
  C      -0.857312      0.014158      1.191586
  O       1.004262      1.611647      0.760140
  H       2.462454     -0.377585      1.789557
  H       3.182009     -0.891702      0.175778
  H      -2.807580      0.925002      0.913086
  H      -2.677750     -0.078591      2.362211
  H      -1.926675      1.522284      2.321600
  H       1.949583      0.904136     -0.963987
  H      -0.520734      1.253819     -0.641725
  H      -0.217981     -0.269204      2.028793
  H      -1.118428     -0.887289      0.626516
15
Coordinates from ORCA-job scan E -19.234940411300
  C       2.533711     -0.236466      0.725930
  C      -2.154845      0.637463      1.733165
  C       1.853845      0.729494      0.103690
  C      -0.125120      0.961667      0.322309
  C      -0.856909      0.014415      1.192255
  O       1.004606      1.612038      0.760261
  H       2.461505     -0.378633      1.788924
  H       3.181270     -0.892195      0.175019
  H      -2.807549      0.923999      0.912344
  H      -2.677801     -0.078681      2.362106
  H      -1.927639      1.522600      2.320911
  H       1.950314      0.905074     -0.963941
  H      -0.520677      1.253852     -0.641247
  H      -0.217719     -0.268063      2.029868
  H      -1.117229     -0.887525      0.627605
15
Coordinates from ORCA-job scan E -19.234940411300
  C       2.533711     -0.236466      0.725930
  C      -2.154845      0.637463      1.733165
  C       1.853845      0.729494      0.103690
  C      -0.125120      0.961667      0.322309
  C      -0.856909      0.014415      1.192255
  O       1.004606      1.612038      0.760261
  H       2.461505     -0.378633      1.788924
  H       3.181270     -0.892195      0.175019
  H      -2.807549      0.923999      0.912344
  H      -2.677801     -0.078681      2.362106
  H      -1.927639      1.522600      2.320911
  H       1.950314      0.905074     -0.963941
  H      -0.520677      1.253852     -0.641247
  H      -0.217719     -0.268063      2.029868
  H      -1.117229     -0.887525      0.627605
15
Coordinates from ORCA-job scan E -19.234431063980
  C       2.507994     -0.235544      0.729348
  C      -2.142627      0.634542      1.728663
  C       1.831688      0.733927      0.108698
  C      -0.109639      0.964702      0.323910
  C      -0.840800      0.015623      1.192387
  O       1.001430      1.610626      0.758914
  H       2.438954     -0.376201      1.792752
  H       3.149421     -0.895785      0.176652
  H      -2.793752      0.918058      0.905542
  H      -2.665026     -0.082903      2.356583
  H      -1.920406      1.520986      2.316346
  H       1.925172      0.907848     -0.959469
  H      -0.503245      1.254747     -0.641089
  H      -0.203251     -0.263863      2.032250
  H      -1.096149     -0.887725      0.627715
15
Coordinates from ORCA-job scan E -19.233806715790
  C       2.516215     -0.238883      0.717733
  C      -2.152354      0.634253      1.723199
  C       1.833616      0.752775      0.116986
  C      -0.093201      0.971990      0.340147
  C      -0.843150      0.016896      1.203725
  O       1.009013      1.620961      0.770748
  H       2.451975     -0.396496      1.777991
  H       3.144131     -0.901328      0.151976
  H      -2.794652      0.912431      0.891535
  H      -2.680413     -0.081109      2.348173
  H      -1.939369      1.524111      2.309525
  H       1.918222      0.911534     -0.964774
  H      -0.489971      1.237532     -0.642119
  H      -0.214772     -0.247856      2.054226
  H      -1.085527     -0.897771      0.650130
15
Coordinates from ORCA-job scan E -19.232518876930
  C       2.517590     -0.241631      0.706068
  C      -2.149618      0.635288      1.713828
  C       1.830629      0.771396      0.127503
  C      -0.085395      0.973231      0.355566
  C      -0.848884      0.006127      1.209804
  O       1.006742      1.625625      0.788419
  H       2.456134     -0.406617      1.765935
  H       3.136211     -0.904799      0.137223
  H      -2.785896      0.910434      0.875918
  H      -2.686135     -0.069740      2.342154
  H      -1.934687      1.529186      2.293234
  H       1.906685      0.922319     -0.964506
  H      -0.486111      1.223326     -0.638448
  H      -0.220381     -0.240960      2.068825
  H      -1.077123     -0.914144      0.667677
15
Coordinates from ORCA-job scan E -19.230664078270
  C       2.530722     -0.240054      0.693170
  C      -2.147290      0.637100      1.704513
  C       1.826101      0.784412      0.136749
  C      -0.078974      0.968684      0.370041
  C      -0.856723     -0.005828      1.212353
  O       1.003171      1.623378      0.806455
  H       2.463207     -0.418677      1.752788
  H       3.140165     -0.902840      0.120865
  H      -2.782038      0.911902      0.863704
  H      -2.695976     -0.054897      2.338824
  H      -1.930522      1.535169      2.277033
  H       1.896986      0.932026     -0.961904
  H      -0.484318      1.207744     -0.630777
  H      -0.231349     -0.231300      2.084591
  H      -1.073400     -0.927780      0.680794
15
Coordinates from ORCA-job scan E -19.228813392630
  C       2.534020     -0.242594      0.679742
  C      -2.141435      0.635967      1.694406
  C       1.824002      0.798802      0.146039
  C      -0.071622      0.964982      0.382563
  C      -0.859844     -0.015930      1.210503
  O       1.001819      1.626291      0.827691
  H       2.468780     -0.424292      1.741548
  H       3.137004     -0.904951      0.105636
  H      -2.781757      0.912664      0.856072
  H      -2.703654     -0.041892      2.335138
  H      -1.928291      1.538289      2.262249
  H       1.884509      0.937388     -0.957032
  H      -0.479455      1.191274     -0.623002
  H      -0.240052     -0.216714      2.097914
  H      -1.064262     -0.940246      0.689734
15
Coordinates from ORCA-job scan E -19.227020257320
  C       2.540128     -0.242643      0.667172
  C      -2.135144      0.633736      1.686809
  C       1.828601      0.812433      0.151285
  C      -0.069083      0.959880      0.390618
  C      -0.862693     -0.024717      1.205909
  O       1.000245      1.628375      0.845806
  H       2.457459     -0.434897      1.728150
  H       3.141112     -0.905076      0.094668
  H      -2.789450      0.914060      0.857543
  H      -2.710703     -0.027083      2.336788
  H      -1.928454      1.541334      2.250072
  H       1.887736      0.944828     -0.951383
  H      -0.479176      1.171942     -0.615939
  H      -0.245085     -0.199378      2.104977
  H      -1.055732     -0.953755      0.696728
15
Coordinates from ORCA-job scan E -19.224628626470
  C       2.537606     -0.242871      0.656921
  C      -2.124571      0.629839      1.679815
  C       1.831725      0.827077      0.156255
  C      -0.065856      0.955066      0.395135
  C      -0.861492     -0.033598      1.198213
  O       0.997069      1.628041      0.863526
  H       2.439845     -0.438662      1.717906
  H       3.135854     -0.909076      0.088304
  H      -2.794958      0.914513      0.861434
  H      -2.711974     -0.013981      2.340079
  H      -1.926679      1.543347      2.239162
  H       1.890603      0.952510     -0.944055
  H      -0.477379      1.155816     -0.610338
  H      -0.245120     -0.181056      2.107176
  H      -1.044909     -0.967927      0.699668
15
Coordinates from ORCA-job scan E -19.221662334140
  C       2.526990     -0.241791      0.650757
  C      -2.108676      0.623565      1.673736
  C       1.829860      0.841810      0.160441
  C      -0.061385      0.953326      0.395710
  C      -0.855146     -0.042736      1.188725
  O       0.992425      1.629558      0.879361
  H       2.404231     -0.442230      1.709771
  H       3.122211     -0.915696      0.089513
  H      -2.797153      0.911627      0.868253
  H      -2.705020     -0.003651      2.345340
  H      -1.919930      1.543226      2.228679
  H       1.892028      0.960935     -0.937267
  H      -0.472436      1.144555     -0.609192
  H      -0.238661     -0.161007      2.105152
  H      -1.029575     -0.982452      0.700221
15
Coordinates from ORCA-job scan E -19.218336295360
  C       2.511744     -0.242987      0.642961
  C      -2.093790      0.616861      1.666972
  C       1.829690      0.858379      0.164725
  C      -0.056650      0.951836      0.396745
  C      -0.847135     -0.053068      1.181855
  O       0.988348      1.630472      0.899176
  H       2.369450     -0.443511      1.700719
  H       3.103141     -0.925849      0.089524
  H      -2.799621      0.905781      0.873709
  H      -2.698811      0.008062      2.350765
  H      -1.914730      1.544080      2.214927
  H       1.890590      0.973497     -0.930172
  H      -0.462111      1.134187     -0.609129
  H      -0.229300     -0.140281      2.103149
  H      -1.011052     -0.998419      0.703275
15
Coordinates from ORCA-job scan E -19.214553820040
  C       2.490898     -0.243844      0.637358
  C      -2.076209      0.608559      1.659924
  C       1.826209      0.875724      0.169235
  C      -0.051220      0.952980      0.396672
  C      -0.834688     -0.064068      1.175831
  O       0.983229      1.633517      0.918881
  H       2.324011     -0.445248      1.692374
  H       3.075480     -0.939329      0.093189
  H      -2.799281      0.896229      0.878949
  H      -2.688120      0.018599      2.356886
  H      -1.906236      1.543873      2.199295
  H       1.885336      0.987884     -0.923053
  H      -0.447956      1.126748     -0.611285
  H      -0.214191     -0.118247      2.099145
  H      -0.987500     -1.014336      0.705800
15
Coordinates from ORCA-job scan E -19.210671896720
  C       2.464960     -0.246332      0.629729
  C      -2.058863      0.599872      1.651077
  C       1.823526      0.895484      0.174013
  C      -0.045118      0.955339      0.398816
  C      -0.818557     -0.074638      1.175395
  O       0.978977      1.637804      0.941578
  H       2.280333     -0.445189      1.683149
  H       3.038992     -0.956699      0.094067
  H      -2.795200      0.882948      0.878367
  H      -2.678254      0.029555      2.360489
  H      -1.899239      1.544304      2.180005
  H       1.873349      1.005159     -0.915751
  H      -0.428540      1.118981     -0.612612
  H      -0.196914     -0.098868      2.099335
  H      -0.959693     -1.028679      0.711543
15
Coordinates from ORCA-job scan E -19.206586305740
  C       2.434164     -0.249225      0.621547
  C      -2.039784      0.590056      1.640056
  C       1.817904      0.917153      0.178973
  C      -0.037052      0.960674      0.403167
  C      -0.796505     -0.083893      1.180722
  O       0.975218      1.645835      0.964838
  H       2.233952     -0.443815      1.673681
  H       2.992041     -0.978758      0.095018
  H      -2.784908      0.865947      0.871303
  H      -2.667746      0.039997      2.360709
  H      -1.892487      1.543993      2.158079
  H       1.853532      1.022711     -0.909066
  H      -0.406792      1.112255     -0.612056
  H      -0.175258     -0.084254      2.103830
  H      -0.926517     -1.039637      0.718399
15
Coordinates from ORCA-job scan E -19.203681460110
  C       2.406123     -0.252737      0.609802
  C      -2.025304      0.581857      1.626911
  C       1.812423      0.937713      0.181522
  C      -0.027896      0.968493      0.413358
  C      -0.771765     -0.086704      1.198225
  O       0.976039      1.657875      0.985342
  H       2.202794     -0.440601      1.663146
  H       2.943863     -1.002095      0.090582
  H      -2.766832      0.849376      0.851389
  H      -2.665279      0.048385      2.351832
  H      -1.893848      1.543426      2.137924
  H       1.825679      1.036000     -0.905745
  H      -0.387220      1.103285     -0.605239
  H      -0.155463     -0.084806      2.121264
  H      -0.893551     -1.040427      0.728890
15
Coordinates from ORCA-job scan E -19.201815326510
  C       2.395331     -0.253932      0.596643
  C      -2.017590      0.579816      1.616332
  C       1.808188      0.955054      0.182951
  C      -0.019708      0.971106      0.424815
  C      -0.756181     -0.083760      1.220307
  O       0.976380      1.667082      0.997474
  H       2.197053     -0.440944      1.651705
  H       2.919568     -1.015363      0.081985
  H      -2.743656      0.841799      0.826897
  H      -2.673805      0.056461      2.335758
  H      -1.898228      1.545611      2.126253
  H       1.801514      1.043662     -0.904846
  H      -0.382382      1.088953     -0.593003
  H      -0.149221     -0.100488      2.143059
  H      -0.877500     -1.036017      0.742871
15
Coordinates from ORCA-job scan E -19.199645501240
  C       2.394997     -0.251796      0.580649
  C      -2.014767      0.580974      1.607680
  C       1.802590      0.970209      0.186576
  C      -0.012358      0.970367      0.442391
  C      -0.749581     -0.079879      1.242099
  O       0.976780      1.672584      1.006202
  H       2.205162     -0.441974      1.638892
  H       2.910175     -1.018607      0.068313
  H      -2.711166      0.835474      0.796905
  H      -2.690892      0.070041      2.318961
  H      -1.896603      1.549588      2.120290
  H       1.777768      1.046050     -0.903492
  H      -0.383797      1.067241     -0.573232
  H      -0.155428     -0.116514      2.163300
  H      -0.873118     -1.034718      0.753668
15
Coordinates from ORCA-job scan E -19.197450530020
  C       2.399602     -0.249254      0.563170
  C      -2.015527      0.584979      1.599272
  C       1.794110      0.982422      0.188451
  C      -0.006485      0.968154      0.463186
  C      -0.743674     -0.077446      1.264724
  O       0.978338      1.676004      1.019355
  H       2.228677     -0.440706      1.626631
  H       2.906703     -1.021641      0.052678
  H      -2.676136      0.831906      0.761234
  H      -2.714584      0.087587      2.297847
  H      -1.896970      1.554342      2.114616
  H       1.745431      1.046009     -0.903138
  H      -0.388889      1.044955     -0.550322
  H      -0.160843     -0.138843      2.187150
  H      -0.869990     -1.029428      0.764346
15
Coordinates from ORCA-job scan E -19.195445038010
  C       2.408744     -0.246699      0.547088
  C      -2.018476      0.590590      1.591681
  C       1.782096      0.988608      0.187531
  C      -0.004429      0.965283      0.483961
  C      -0.741657     -0.073427      1.284160
  O       0.980363      1.676281      1.035346
  H       2.268174     -0.434246      1.617795
  H       2.913151     -1.023032      0.040723
  H      -2.642579      0.832897      0.728435
  H      -2.738614      0.104376      2.274564
  H      -1.894963      1.557725      2.111299
  H       1.708861      1.039180     -0.903690
  H      -0.398532      1.025422     -0.526114
  H      -0.168725     -0.163272      2.207334
  H      -0.873652     -1.020647      0.769090
15
Coordinates from ORCA-job scan E -19.193734870120
  C       2.421846     -0.241511      0.532260
  C      -2.026135      0.598161      1.585577
  C       1.768215      0.992537      0.183033
  C      -0.003973      0.960992      0.507508
  C      -0.742176     -0.070008      1.301561
  O       0.985426      1.677716      1.050401
  H       2.317409     -0.423152      1.611152
  H       2.922081     -1.022694      0.030290
  H      -2.613320      0.839457      0.701312
  H      -2.763910      0.119096      2.247665
  H      -1.891321      1.560482      2.109564
  H       1.677020      1.024940     -0.906486
  H      -0.411191      1.006271     -0.498680
  H      -0.179246     -0.190342      2.225551
  H      -0.880963     -1.012906      0.768492
15
Coordinates from ORCA-job scan E -19.193426289880
  C       2.392310     -0.244186      0.546433
  C      -2.003203      0.586225      1.584477
  C       1.769357      0.993936      0.186954
  C      -0.000685      0.965526      0.493799
  C      -0.730216     -0.082778      1.288939
  O       0.975242      1.679480      1.045698
  H       2.258848     -0.414208      1.617510
  H       2.882551     -1.032240      0.043919
  H      -2.617374      0.830399      0.709997
  H      -2.741225      0.113642      2.263420
  H      -1.875285      1.558708      2.104800
  H       1.684877      1.042170     -0.906264
  H      -0.394184      1.025132     -0.511272
  H      -0.162239     -0.176922      2.211440
  H      -0.859013     -1.025845      0.769351
15
Coordinates from ORCA-job scan E -19.192322727880
  C       2.368969     -0.249642      0.558547
  C      -1.983300      0.575542      1.586117
  C       1.774343      0.994903      0.188764
  C      -0.007801      0.964210      0.477538
  C      -0.722210     -0.095530      1.272470
  O       0.962121      1.677526      1.043665
  H       2.205068     -0.407920      1.624739
  H       2.867674     -1.038924      0.064959
  H      -2.625362      0.823034      0.730424
  H      -2.719756      0.119569      2.284057
  H      -1.855295      1.555275      2.098833
  H       1.702487      1.066283     -0.903331
  H      -0.391162      1.037866     -0.527519
  H      -0.143580     -0.161222      2.188541
  H      -0.852434     -1.041931      0.761396
15
Coordinates from ORCA-job scan E -19.190895597330
  C       2.353754     -0.249662      0.571968
  C      -1.964612      0.565419      1.588533
  C       1.781106      0.995062      0.192513
  C      -0.014524      0.960520      0.461304
  C      -0.714317     -0.108964      1.255417
  O       0.947911      1.675351      1.037656
  H       2.149809     -0.400431      1.629843
  H       2.848125     -1.043878      0.081453
  H      -2.633638      0.817242      0.751776
  H      -2.700684      0.126171      2.304357
  H      -1.836176      1.551762      2.095071
  H       1.724168      1.085587     -0.897608
  H      -0.388456      1.050451     -0.544686
  H      -0.127687     -0.147320      2.167716
  H      -0.845017     -1.058268      0.753887
15
Coordinates from ORCA-job scan E -19.189153730790
  C       2.340508     -0.251560      0.583164
  C      -1.948669      0.557400      1.590689
  C       1.785658      0.992243      0.197666
  C      -0.022644      0.954020      0.447643
  C      -0.709250     -0.122867      1.238452
  O       0.933182      1.671888      1.030876
  H       2.100469     -0.397662      1.632798
  H       2.848345     -1.039752      0.096236
  H      -2.643397      0.815869      0.774608
  H      -2.684741      0.137780      2.323563
  H      -1.815317      1.548812      2.090839
  H       1.741659      1.101794     -0.890089
  H      -0.387613      1.060289     -0.560157
  H      -0.115939     -0.133871      2.147142
  H      -0.842488     -1.075341      0.745770
15
Coordinates from ORCA-job scan E -19.187385694410
  C       2.331761     -0.251873      0.595292
  C      -1.934988      0.548840      1.591546
  C       1.788240      0.988245      0.204161
  C      -0.032000      0.946341      0.436724
  C      -0.705909     -0.136484      1.221379
  O       0.918575      1.669407      1.023918
  H       2.069895     -0.391237      1.639653
  H       2.840247     -1.038108      0.105531
  H      -2.651848      0.814832      0.794950
  H      -2.670696      0.150629      2.340757
  H      -1.793336      1.543956      2.085747
  H       1.759165      1.117445     -0.881352
  H      -0.387748      1.068918     -0.573126
  H      -0.107890     -0.120174      2.126960
  H      -0.843706     -1.091697      0.737061
15
Coordinates from ORCA-job scan E -19.185787140030
  C       2.330194     -0.251321      0.606396
  C      -1.925489      0.543138      1.592715
  C       1.789262      0.981516      0.211189
  C      -0.043026      0.935678      0.426966
  C      -0.705967     -0.151407      1.205439
  O       0.903607      1.665025      1.015854
  H       2.040232     -0.396203      1.641816
  H       2.856970     -1.022936      0.112318
  H      -2.662139      0.819527      0.815717
  H      -2.660306      0.169234      2.358499
  H      -1.771037      1.541232      2.080297
  H       1.773911      1.129647     -0.871914
  H      -0.390223      1.073913     -0.584940
  H      -0.104099     -0.108991      2.108453
  H      -0.852126     -1.109012      0.730397
15
Coordinates from ORCA-job scan E -19.184654700620
  C       2.335732     -0.249099      0.619595
  C      -1.919738      0.538166      1.593171
  C       1.787380      0.970219      0.218130
  C      -0.057437      0.923598      0.417153
  C      -0.711147     -0.166800      1.187235
  O       0.888170      1.656818      1.008726
  H       2.040636     -0.394476      1.652461
  H       2.875187     -1.006376      0.116299
  H      -2.672587      0.829945      0.835648
  H      -2.652178      0.189366      2.375494
  H      -1.746505      1.537144      2.075946
  H       1.784821      1.137502     -0.862055
  H      -0.396117      1.080182     -0.595810
  H      -0.106206     -0.102229      2.087521
  H      -0.870248     -1.124921      0.719687
15
Coordinates from ORCA-job scan E -19.183654953980
  C       2.347352     -0.245395      0.632443
  C      -1.917245      0.534516      1.593360
  C       1.783927      0.955760      0.222883
  C      -0.073945      0.909802      0.406556
  C      -0.719501     -0.183086      1.169210
  O       0.873472      1.643511      1.003299
  H       2.047779     -0.394980      1.662822
  H       2.907552     -0.983260      0.121952
  H      -2.683179      0.845563      0.855351
  H      -2.645241      0.212860      2.393090
  H      -1.721535      1.533555      2.071229
  H       1.792354      1.143379     -0.853090
  H      -0.405522      1.087562     -0.605361
  H      -0.111341     -0.099678      2.066322
  H      -0.895163     -1.141068      0.709135
15
Coordinates from ORCA-job scan E -19.182560668530
  C       2.358246     -0.239698      0.642388
  C      -1.916991      0.530390      1.591655
  C       1.781407      0.942819      0.227169
  C      -0.089572      0.892973      0.397281
  C      -0.727817     -0.199596      1.154887
  O       0.860114      1.627796      1.002219
  H       2.057570     -0.396529      1.670730
  H       2.936222     -0.957964      0.122253
  H      -2.690537      0.862700      0.870169
  H      -2.638715      0.238051      2.409209
  H      -1.696658      1.530252      2.062315
  H       1.799982      1.152984     -0.843068
  H      -0.413250      1.090956     -0.612780
  H      -0.119449     -0.097874      2.050140
  H      -0.920790     -1.158220      0.704634
15
Coordinates from ORCA-job scan E -19.181511776680
  C       2.368058     -0.232745      0.650494
  C      -1.918179      0.525941      1.588766
  C       1.778973      0.931519      0.229667
  C      -0.104849      0.875703      0.389111
  C      -0.735115     -0.216419      1.143826
  O       0.847725      1.611008      1.002210
  H       2.070602     -0.397905      1.677894
  H       2.963046     -0.931602      0.121193
  H      -2.691647      0.882743      0.879338
  H      -2.631888      0.263189      2.423008
  H      -1.673154      1.526309      2.053136
  H       1.805727      1.163155     -0.834600
  H      -0.421117      1.093772     -0.618241
  H      -0.130808     -0.100280      2.039872
  H      -0.947613     -1.175348      0.703527
15
Coordinates from ORCA-job scan E -19.180335920500
  C       2.378169     -0.225215      0.656800
  C      -1.920454      0.522085      1.585272
  C       1.776351      0.922170      0.229813
  C      -0.119993      0.858302      0.382766
  C      -0.741769     -0.233958      1.135809
  O       0.836387      1.592098      1.003611
  H       2.088841     -0.399797      1.684438
  H       2.990137     -0.904697      0.119443
  H      -2.687861      0.903377      0.883727
  H      -2.626158      0.289316      2.433440
  H      -1.651714      1.523192      2.043972
  H       1.809078      1.174745     -0.828306
  H      -0.429176      1.096472     -0.621251
  H      -0.144614     -0.106928      2.034228
  H      -0.977461     -1.192121      0.705438
15
Coordinates from ORCA-job scan E -19.178927909790
  C       2.387872     -0.217587      0.661130
  C      -1.923535      0.518618      1.581406
  C       1.773297      0.914961      0.227516
  C      -0.134586      0.841168      0.378544
  C      -0.747527     -0.251765      1.130834
  O       0.826457      1.571353      1.006920
  H       2.110297     -0.401875      1.689608
  H       3.016643     -0.879161      0.118384
  H      -2.680383      0.922896      0.883704
  H      -2.621618      0.316041      2.440936
  H      -1.632280      1.520793      2.034422
  H       1.810313      1.188324     -0.824074
  H      -0.437468      1.099161     -0.621684
  H      -0.158715     -0.116456      2.032063
  H      -1.009006     -1.207429      0.709492
15
Coordinates from ORCA-job scan E -19.177282851440
  C       2.395521     -0.210057      0.664891
  C      -1.926726      0.515172      1.577792
  C       1.769584      0.909182      0.223306
  C      -0.149136      0.825434      0.375434
  C      -0.752067     -0.269741      1.127462
  O       0.817514      1.550681      1.010160
  H       2.131649     -0.403613      1.694317
  H       3.041093     -0.855841      0.120211
  H      -2.670211      0.940663      0.881148
  H      -2.616919      0.342402      2.447034
  H      -1.613597      1.518454      2.025237
  H       1.810751      1.202122     -0.821610
  H      -0.447132      1.103360     -0.620374
  H      -0.171150     -0.128053      2.031057
  H      -1.039414     -1.221126      0.713138
15
Coordinates from ORCA-job scan E -19.175445722910
  C       2.400812     -0.202386      0.669204
  C      -1.929658      0.511557      1.574942
  C       1.765011      0.904081      0.217767
  C      -0.164268      0.811433      0.372356
  C      -0.755804     -0.287624      1.124484
  O       0.808690      1.531626      1.011381
  H       2.151189     -0.405419      1.699272
  H       3.063713     -0.834315      0.126231
  H      -2.658138      0.956776      0.877800
  H      -2.610966      0.367700      2.453121
  H      -1.594447      1.515543      2.017014
  H       1.812001      1.214975     -0.820511
  H      -0.458848      1.109493     -0.618339
  H      -0.181106     -0.141345      2.029404
  H      -1.068420     -1.233054      0.715075
15
Coordinates from ORCA-job scan E -19.173397305430
  C       2.404413     -0.194582      0.674084
  C      -1.932516      0.507785      1.572974
  C       1.759863      0.898907      0.211469
  C      -0.180063      0.798916      0.368839
  C      -0.759221     -0.305102      1.121316
  O       0.799702      1.514744      1.009702
  H       2.168382     -0.407648      1.704239
  H       3.085488     -0.814158      0.136281
  H      -2.645229      0.971484      0.874675
  H      -2.603606      0.391505      2.459824
  H      -1.574902      1.511898      2.009917
  H       1.815008      1.226544     -0.820177
  H      -0.472544      1.117548     -0.615965
  H      -0.188845     -0.155427      2.026531
  H      -1.096169     -1.243373      0.715492
15
Coordinates from ORCA-job scan E -19.171133564900
  C       2.407633     -0.186490      0.679372
  C      -1.935742      0.504108      1.571807
  C       1.754414      0.893077      0.204993
  C      -0.196464      0.787269      0.364609
  C      -0.763235     -0.321844      1.117451
  O       0.790322      1.499838      1.005026
  H       2.184406     -0.410529      1.709126
  H       3.107861     -0.794467      0.149722
  H      -2.632537      0.985649      0.872553
  H      -2.594803      0.413498      2.467556
  H      -1.555097      1.507398      2.004041
  H       1.819700      1.236513     -0.820062
  H      -0.487560      1.126665     -0.613734
  H      -0.195350     -0.169574      2.022146
  H      -1.123786     -1.252070      0.714596
15
Coordinates from ORCA-job scan E -19.168834637510
  C       2.412629     -0.178287      0.684949
  C      -1.941437      0.500461      1.571989
  C       1.749917      0.885769      0.198320
  C      -0.212543      0.776599      0.358608
  C      -0.769005     -0.336980      1.112178
  O       0.781630      1.486327      0.997068
  H       2.202410     -0.413461      1.714311
  H       3.132889     -0.774718      0.165783
  H      -2.622959      1.000061      0.873275
  H      -2.585671      0.432199      2.477564
  H      -1.537371      1.501659      2.000661
  H       1.826422      1.243342     -0.820575
  H      -0.501661      1.136777     -0.613153
  H      -0.202302     -0.182387      2.015918
  H      -1.153184     -1.258321      0.712305
15
Coordinates from ORCA-job scan E -19.166625698640
  C       2.420639     -0.170649      0.688889
  C      -1.951490      0.497074      1.573654
  C       1.747458      0.877589      0.191590
  C      -0.227066      0.766120      0.351273
  C      -0.777216     -0.349663      1.106980
  O       0.774689      1.472645      0.987629
  H       2.224491     -0.417648      1.718006
  H       3.161556     -0.754495      0.181264
  H      -2.618344      1.014320      0.876559
  H      -2.578412      0.447475      2.489525
  H      -1.524552      1.495443      1.999391
  H       1.836187      1.248961     -0.821090
  H      -0.511644      1.145300     -0.614949
  H      -0.211689     -0.191727      2.009838
  H      -1.184845     -1.261704      0.710641
15
Coordinates from ORCA-job scan E -19.164518956920
  C       2.430031     -0.164666      0.690766
  C      -1.965461      0.493414      1.576785
  C       1.746682      0.869395      0.184960
  C      -0.239146      0.757068      0.342928
  C      -0.786270     -0.358797      1.102372
  O       0.770098      1.459541      0.977875
  H       2.249531     -0.423177      1.720069
  H       3.191238     -0.735700      0.195604
  H      -2.618934      1.026859      0.882117
  H      -2.573204      0.458007      2.502835
  H      -1.517792      1.489069      1.999758
  H       1.848834      1.253354     -0.821748
  H      -0.516979      1.151958     -0.619339
  H      -0.222540     -0.195825      2.004595
  H      -1.216327     -1.261458      0.709624
15
Coordinates from ORCA-job scan E -19.162344095730
  C       2.439477     -0.160401      0.691393
  C      -1.982072      0.489007      1.580858
  C       1.745961      0.860864      0.178957
  C      -0.248627      0.750714      0.334335
  C      -0.794574     -0.364168      1.097791
  O       0.767855      1.447665      0.969108
  H       2.277497     -0.427894      1.721901
  H       3.219176     -0.719605      0.208744
  H      -2.623438      1.037520      0.889393
  H      -2.569325      0.463106      2.516582
  H      -1.516302      1.482491      2.001412
  H       1.861141      1.253699     -0.823148
  H      -0.517855      1.158096     -0.625464
  H      -0.233691     -0.194858      1.999854
  H      -1.245461     -1.257195      0.707486
15
Coordinates from ORCA-job scan E -19.159825079010
  C       2.450800     -0.157150      0.689592
  C      -2.001159      0.485073      1.584694
  C       1.745239      0.852310      0.174693
  C      -0.257148      0.744614      0.327751
  C      -0.803717     -0.367837      1.094622
  O       0.766797      1.434398      0.963987
  H       2.311451     -0.432392      1.721978
  H       3.247769     -0.703170      0.217495
  H      -2.629626      1.048275      0.895720
  H      -2.568030      0.467145      2.528977
  H      -1.518295      1.476915      2.002281
  H       1.871724      1.251772     -0.823811
  H      -0.515368      1.161428     -0.631096
  H      -0.247212     -0.191320      1.997279
  H      -1.273463     -1.251022      0.705040
15
Coordinates from ORCA-job scan E -19.156707575960
  C       2.461934     -0.154471      0.686945
  C      -2.020575      0.480897      1.587797
  C       1.741886      0.843367      0.172221
  C      -0.264036      0.739872      0.322982
  C      -0.811796     -0.370873      1.091662
  O       0.766275      1.421789      0.961980
  H       2.348455     -0.434727      1.721959
  H       3.274238     -0.687541      0.223972
  H      -2.634956      1.059337      0.900925
  H      -2.567567      0.470551      2.539902
  H      -1.521494      1.471494      2.002850
  H       1.878377      1.245367     -0.824705
  H      -0.511328      1.164451     -0.635423
  H      -0.261360     -0.186696      1.995841
  H      -1.298291     -1.243777      0.700295
15
Coordinates from ORCA-job scan E -19.153448805260
  C       2.478064     -0.151421      0.681160
  C      -2.043475      0.479124      1.590406
  C       1.740557      0.834664      0.172082
  C      -0.270734      0.731764      0.320792
  C      -0.824062     -0.374611      1.091158
  O       0.766150      1.405627      0.963644
  H       2.394064     -0.437910      1.718148
  H       3.305467     -0.666902      0.223157
  H      -2.641258      1.073337      0.904206
  H      -2.572017      0.477222      2.549383
  H      -1.527166      1.467987      2.002889
  H       1.885469      1.239758     -0.823215
  H      -0.504246      1.160715     -0.638936
  H      -0.281082     -0.183575      1.997897
  H      -1.325970     -1.236737      0.696431
15
Coordinates from ORCA-job scan E -19.149487742060
  C       2.489326     -0.150078      0.676809
  C      -2.063881      0.475336      1.591883
  C       1.734217      0.825165      0.172877
  C      -0.275290      0.729088      0.320215
  C      -0.830921     -0.376893      1.089513
  O       0.766832      1.394969      0.966140
  H       2.437367     -0.435613      1.717300
  H       3.328193     -0.652599      0.223774
  H      -2.644195      1.085244      0.906260
  H      -2.575326      0.480949      2.557052
  H      -1.532918      1.463181      2.004415
  H       1.886981      1.226165     -0.824204
  H      -0.499147      1.162053     -0.640092
  H      -0.297090     -0.179451      1.999583
  H      -1.344389     -1.228477      0.687676
15
Coordinates from ORCA-job scan E -19.145929507840
  C       2.511039     -0.146016      0.666500
  C      -2.090748      0.477300      1.592920
  C       1.734595      0.817939      0.176972
  C      -0.279887      0.714716      0.322483
  C      -0.848780     -0.382521      1.093583
  O       0.766591      1.374433      0.974069
  H       2.491491     -0.439492      1.706907
  H       3.362510     -0.624781      0.210088
  H      -2.648419      1.103744      0.904884
  H      -2.586769      0.494425      2.563288
  H      -1.540529      1.462171      2.003937
  H       1.894955      1.224353     -0.817715
  H      -0.487255      1.145606     -0.642026
  H      -0.325026     -0.179728      2.008006
  H      -1.374008     -1.223109      0.685306
15
Coordinates from ORCA-job scan E -19.141565017350
  C       2.514915     -0.148541      0.665085
  C      -2.107811      0.471221      1.593002
  C       1.724061      0.807552      0.179717
  C      -0.281567      0.720180      0.324159
  C      -0.848995     -0.381450      1.090376
  O       0.768722      1.373287      0.976516
  H       2.530150     -0.427369      1.710828
  H       3.371844     -0.619736      0.210345
  H      -2.647126      1.112798      0.905954
  H      -2.589248      0.492903      2.568472
  H      -1.546770      1.455612      2.009156
  H       1.889805      1.198754     -0.821880
  H      -0.485073      1.152544     -0.640849
  H      -0.335334     -0.175469      2.008916
  H      -1.377812     -1.213245      0.669406
15
Coordinates from ORCA-job scan E -19.137980714240
  C       2.538510     -0.144491      0.655166
  C      -2.136505      0.475180      1.593289
  C       1.725740      0.800100      0.186516
  C      -0.284886      0.703784      0.327776
  C      -0.869750     -0.387321      1.094692
  O       0.768120      1.352210      0.986810
  H       2.586909     -0.426503      1.699964
  H       3.404014     -0.589664      0.190050
  H      -2.649480      1.135256      0.904732
  H      -2.602948      0.508942      2.573511
  H      -1.554833      1.455248      2.010906
  H       1.897856      1.195058     -0.813427
  H      -0.472660      1.129764     -0.642547
  H      -0.365840     -0.179275      2.018128
  H      -1.404486     -1.209248      0.663635
15
Coordinates from ORCA-job scan E -19.134015569900
  C       2.546860     -0.148040      0.647019
  C      -2.159350      0.473899      1.590199
  C       1.718302      0.792792      0.193883
  C      -0.282169      0.700512      0.336223
  C      -0.876617     -0.387532      1.099765
  O       0.770895      1.345112      0.998261
  H       2.631927     -0.419656      1.693213
  H       3.415924     -0.574921      0.171543
  H      -2.646144      1.149218      0.898805
  H      -2.615940      0.517355      2.572871
  H      -1.564279      1.452693      2.013942
  H       1.894318      1.180773     -0.809720
  H      -0.462428      1.118655     -0.639152
  H      -0.385453     -0.177529      2.029138
  H      -1.406084     -1.204289      0.653211
15
Coordinates from ORCA-job scan E -19.130484705620
  C       2.569014     -0.137991      0.642670
  C      -2.182441      0.475348      1.588445
  C       1.715535      0.785734      0.199628
  C      -0.281977      0.690423      0.341058
  C      -0.890202     -0.390407      1.103722
  O       0.771362      1.332059      1.008339
  H       2.664984     -0.427517      1.683769
  H       3.441756     -0.544903      0.156329
  H      -2.642159      1.168850      0.897599
  H      -2.625612      0.531262      2.574925
  H      -1.569377      1.449927      2.017529
  H       1.888856      1.166393     -0.807885
  H      -0.451637      1.099885     -0.639332
  H      -0.408496     -0.180529      2.037865
  H      -1.419842     -1.199493      0.644540
15
Coordinates from ORCA-job scan E -19.128961087590
  C       2.565766     -0.134011      0.639968
  C      -2.189798      0.467731      1.581533
  C       1.705819      0.786176      0.200527
  C      -0.272927      0.697641      0.351453
  C      -0.879300     -0.384454      1.115527
  O       0.776836      1.346834      1.010857
  H       2.653107     -0.444103      1.675676
  H       3.427268     -0.549030      0.141446
  H      -2.631796      1.167493      0.885666
  H      -2.632231      0.530356      2.567493
  H      -1.579069      1.444317      2.016321
  H       1.887540      1.165669     -0.807052
  H      -0.445444      1.094150     -0.634778
  H      -0.410045     -0.172227      2.055973
  H      -1.395964     -1.197501      0.648590
15
Coordinates from ORCA-job scan E -19.129288458920
  C       2.570323     -0.129615      0.653672
  C      -2.199156      0.459037      1.585445
  C       1.718059      0.782388      0.196627
  C      -0.279683      0.709704      0.341825
  C      -0.875101     -0.373384      1.109790
  O       0.779862      1.363148      0.987815
  H       2.644574     -0.444324      1.688478
  H       3.426532     -0.554006      0.153986
  H      -2.634694      1.170167      0.898295
  H      -2.625832      0.515871      2.577972
  H      -1.584432      1.432234      2.026356
  H       1.895218      1.139601     -0.819125
  H      -0.461501      1.108037     -0.641274
  H      -0.402539     -0.175058      2.051228
  H      -1.391868     -1.184762      0.638112
15
Coordinates from ORCA-job scan E -19.234940411300
  C       2.533711     -0.236466      0.725930
  C      -2.154845      0.637463      1.733165
  C       1.853845      0.729494      0.103690
  C      -0.125120      0.961667      0.322309
  C      -0.856909      0.014415      1.192255
  O       1.004606      1.612038      0.760261
  H       2.461505     -0.378633      1.788924
  H       3.181270     -0.892195      0.175019
  H      -2.807549      0.923999      0.912344
  H      -2.677801     -0.078681      2.362106
  H      -1.927639      1.522600      2.320911
  H       1.950314      0.905074     -0.963941
  H      -0.520677      1.253852     -0.641247
  H      -0.217719     -0.268063      2.029868
  H      -1.117229     -0.887525      0.627605
15
Coordinates from ORCA-job scan E -19.234941016650
  C       2.531511     -0.250015      0.708803
  C      -2.166016      0.631955      1.720038
  C       1.855386      0.727308      0.099945
  C      -0.117130      0.974943      0.342640
  C      -0.846089      0.026955      1.214550
  O       1.022347      1.614733      0.770819
  H       2.468149     -0.399022      1.771253
  H       3.166198     -0.908622      0.146660
  H      -2.806491      0.895602      0.882190
  H      -2.688828     -0.085764      2.347180
  H      -1.968253      1.528594      2.300952
  H       1.943603      0.909573     -0.967244
  H      -0.520086      1.272380     -0.616433
  H      -0.216010     -0.229843      2.067235
  H      -1.078530     -0.889739      0.660614
15
Coordinates from ORCA-job scan E -19.234940962800
  C       2.529888     -0.251689      0.706763
  C      -2.166521      0.631408      1.718491
  C       1.855017      0.727981      0.099820
  C      -0.115645      0.975463      0.344534
  C      -0.844498      0.027891      1.216949
  O       1.023725      1.615643      0.772604
  H       2.466084     -0.402928      1.768992
  H       3.163535     -0.910184      0.143184
  H      -2.806741      0.890544      0.878912
  H      -2.688395     -0.085492      2.347464
  H      -1.971865      1.530593      2.296553
  H       1.944020      0.912708     -0.966903
  H      -0.519053      1.273425     -0.614016
  H      -0.215754     -0.225921      2.071332
  H      -1.074037     -0.890401      0.664523
15
Coordinates from ORCA-job scan E -19.234940964430
  C       2.529887     -0.251799      0.706615
  C      -2.166614      0.631381      1.718417
  C       1.855076      0.728011      0.099832
  C      -0.115600      0.975555      0.344696
  C      -0.844472      0.027970      1.217084
  O       1.023835      1.615610      0.772763
  H       2.466076     -0.403200      1.768824
  H       3.163485     -0.910260      0.142931
  H      -2.806886      0.890091      0.878742
  H      -2.688342     -0.085412      2.347629
  H      -1.972154      1.530810      2.296163
  H       1.944071      0.912897     -0.966862
  H      -0.518947      1.273497     -0.613880
  H      -0.215802     -0.225727      2.071554
  H      -1.073854     -0.890384      0.664693
