15
Coordinates from ORCA-job freq E -271.061944189526
  C           2.18265318703022     -0.46731825750127      0.61126402720321
  C          -2.34586785997481      0.27683711236306      0.49197291337888
  C           1.34987086108518     -0.34637110436495     -0.61238909841866
  C          -0.85195737939904      0.21868685171753      0.61007222713992
  C           0.03239980611768      0.27141230248735     -0.57934027948636
  O          -0.14488816573029      1.39782114043320      0.29665637717553
  H           1.94796939621992      0.33161303072976      1.31541669239508
  H           3.24549595341584     -0.41750784050713      0.37533601518442
  H           2.01722101252939     -1.42255450543520      1.12497012205749
  H          -2.76843495156611     -0.72781251500509      0.47538878777009
  H          -2.63107619417169      0.79599848015207     -0.42204405705942
  H          -2.77358849982504      0.81322063039718      1.33963709320000
  H           1.66776821158842     -0.81031724413091     -1.53438254090729
  H          -0.46084522160253     -0.30446394007229      1.47989776895334
  H          -0.46671815571716      0.39075685873671     -1.53566404858626
