15
Coordinates from ORCA-job freq E -270.970396933175
  C           2.79227199731114     -0.11170513371305      0.40594729842622
  C          -2.38007140992245     -0.15348036395841      0.03449424655812
  C          -1.08989334532092      0.63418687041303      0.23471936695537
  C           1.35494766302990     -0.14411929129238      0.60497790425031
  C           0.11378341892119     -0.18249210334777     -0.13344930459842
  O           0.50152633599851     -1.20790913755224      0.81664475897610
  H           2.12390103228225      0.63002764281109      1.30725095342496
  H           3.38997254779190     -0.84759798391254      0.92262798352414
  H           3.20663450330050      0.44870601675416     -0.41988498919948
  H          -2.37059649606102     -1.05587972080445      0.64525406970983
  H          -2.49842652647776     -0.45267030417246     -1.00781277779456
  H          -3.24970085001868      0.43924645050854      0.31437223351136
  H          -1.09543051909712      1.53821946382792     -0.37907794326930
  H          -0.98608311329134      0.94583972747391      1.27472762513818
  H           0.15003876155390     -0.54210713303537     -1.16066842561285
