17
Coordinates from ORCA-job freq E -421.408090761686
  C          -2.67124196942261     -0.68441559133246     -0.41098258088402
  C          -1.79208221011742     -1.03280700556054      0.78410221720579
  C           1.70061525871330      0.24023637354225     -0.53074222977931
  C          -0.34731275666045     -0.93583823878496      0.45305642481500
  C           0.61241602234526      0.15009389621562      0.48989107421104
  O           3.78186347746769      1.07425720867204     -0.91197183109689
  O           2.78967632666296      0.89973487143661      0.08527884267442
  O           0.64913087434737     -0.99724961012277      1.37597441610503
  H          -3.72557609845690     -0.74632745983116     -0.14751415937979
  H          -2.46754346786250      0.32855872541728     -0.75848510055378
  H          -2.48453115511923     -1.36729473676855     -1.23901098181585
  H          -1.99857343582643     -0.35828565569237      1.62461688719166
  H          -2.00101336089346     -2.04472442771158      1.13575417599285
  H           1.36102544911531      0.82215215088955     -1.39201806732404
  H           1.98657371813253     -0.76193509986225     -0.85896885930245
  H           0.36916681201667      1.07528806669449      1.00580304392086
  H           4.45999551555791      0.45326553279878     -0.62209327198050
