17
Coordinates from ORCA-job freq E -421.378305901360
  C           2.73632513145559      0.82639391090723      0.11390273455582
  C          -0.36389571517878     -2.00009711960454      1.71667212144823
  C           0.65252847889646     -0.90904043335020     -0.33782455949725
  C           1.64919205882621     -0.05297705078494      0.33651292006133
  C          -0.60848695379765     -1.13243832801126      0.49998483551915
  O           2.26574005680976     -0.21432538045735      1.46489640544053
  O          -1.98030633275672     -1.00043365864689     -1.34286847611499
  O          -1.58077837419789     -1.83370527050434     -0.26476992541220
  H           2.62161885458302      1.90591649775615      0.10209267439420
  H           3.73904765082077      0.43169467273909      0.01149911818537
  H          -0.00588808708110     -2.98183898823171      1.40552653671232
  H          -1.28215991716344     -2.12582697702954      2.28751226101906
  H           0.39309413160711     -1.54015435177006      2.34970607880945
  H           0.37933146960854     -0.44546914809285     -1.28450232795263
  H           1.09222101138541     -1.89099793574900     -0.55898174237079
  H          -1.02530637682851     -0.16337199786970      0.79357688329733
  H          -2.87774908698879     -0.76671944130006     -1.08095853809496
