17
Coordinates from ORCA-job freq E -421.375421702936
  C       2.797562      0.755877      0.119386
  C      -0.306238     -1.996077      1.699238
  C       0.637369     -0.844234     -0.355271
  C       1.637935     -0.026816      0.343210
  C      -0.609059     -1.082499      0.519853
  O       2.165259     -0.110125      1.538333
  O      -2.126252     -0.869784     -1.231263
  O      -1.621666     -1.736598     -0.214168
  H       2.757015      1.835816      0.045984
  H       3.782541      0.317168      0.192000
  H      -0.038326     -2.984701      1.335350
  H      -1.176595     -2.084233      2.342994
  H       0.523093     -1.582318      2.266167
  H       0.338336     -0.338924     -1.276474
  H       1.053389     -1.825487     -0.625140
  H      -0.988437     -0.111759      0.871339
  H      -3.021395     -1.208698     -1.359561
17
Coordinates from ORCA-job freq E -421.377524461860
  C       2.780404      0.780159      0.117028
  C      -0.327139     -2.004025      1.709901
  C       0.628643     -0.859939     -0.343078
  C       1.637008     -0.025438      0.335700
  C      -0.610128     -1.097131      0.528033
  O       2.181854     -0.131297      1.510816
  O      -2.017872     -0.906032     -1.277649
  O      -1.612951     -1.765551     -0.215372
  H       2.723023      1.860978      0.042068
  H       3.768304      0.339235      0.120360
  H      -0.022868     -2.987845      1.354190
  H      -1.215556     -2.113768      2.328074
  H       0.478176     -1.582265      2.307673
  H       0.331463     -0.365018     -1.268027
  H       1.052914     -1.838022     -0.609198
  H      -1.003122     -0.130728      0.863270
  H      -2.967623     -1.066703     -1.291813
17
Coordinates from ORCA-job freq E -421.377979099513
  C       2.770272      0.796923      0.114395
  C      -0.345401     -2.000078      1.717761
  C       0.629981     -0.863594     -0.329296
  C       1.644159     -0.029932      0.346858
  C      -0.616876     -1.104440      0.526400
  O       2.239039     -0.183125      1.488864
  O      -1.987707     -0.968156     -1.327291
  O      -1.596225     -1.796544     -0.239000
  H       2.700819      1.879451      0.072181
  H       3.757369      0.358279      0.040151
  H       0.005462     -2.974139      1.376360
  H      -1.250075     -2.139198      2.306987
  H       0.425812     -1.553433      2.343140
  H       0.345043     -0.370326     -1.257531
  H       1.058011     -1.841424     -0.589534
  H      -1.030170     -0.142747      0.846160
  H      -2.944985     -0.960907     -1.224627
17
Coordinates from ORCA-job freq E -421.378198317708
  C       2.729771      0.833204      0.118010
  C      -0.369797     -1.986963      1.730552
  C       0.642124     -0.894808     -0.330861
  C       1.658988     -0.065310      0.347626
  C      -0.615174     -1.121531      0.512051
  O       2.334687     -0.290115      1.429311
  O      -1.953259     -1.049846     -1.368291
  O      -1.584549     -1.835680     -0.248596
  H       2.610420      1.910855      0.175930
  H       3.728138      0.452361     -0.056991
  H      -0.039152     -2.977944      1.418318
  H      -1.282841     -2.090548      2.314224
  H       0.404258     -1.542201      2.353118
  H       0.364235     -0.407434     -1.263774
  H       1.068864     -1.876812     -0.575918
  H      -1.036499     -0.152961      0.800774
  H      -2.855685     -0.797658     -1.143506
17
Coordinates from ORCA-job freq E -421.378239807095
  C       2.733687      0.830067      0.127069
  C      -0.370316     -1.976985      1.724159
  C       0.652937     -0.904772     -0.337608
  C       1.669762     -0.078506      0.343313
  C      -0.611795     -1.122534      0.497837
  O       2.340831     -0.303465      1.428558
  O      -1.985368     -1.006895     -1.344379
  O      -1.575697     -1.835728     -0.266674
  H       2.605482      1.906365      0.188497
  H       3.734793      0.457881     -0.048624
  H       0.011289     -2.954117      1.427161
  H      -1.295458     -2.115131      2.280905
  H       0.368320     -1.499417      2.365726
  H       0.386117     -0.424979     -1.277582
  H       1.075135     -1.891599     -0.570690
  H      -1.035074     -0.152801      0.779489
  H      -2.900117     -0.820777     -1.105179
17
Coordinates from ORCA-job freq E -421.378294198605
  C       2.737827      0.823798      0.120908
  C      -0.364109     -1.985947      1.722731
  C       0.645730     -0.899354     -0.338793
  C       1.656648     -0.063953      0.340583
  C      -0.613106     -1.125612      0.501802
  O       2.302433     -0.265445      1.445742
  O      -1.976238     -1.015282     -1.348573
  O      -1.580011     -1.837294     -0.260310
  H       2.624116      1.903030      0.149642
  H       3.737469      0.432859     -0.020028
  H       0.015703     -2.961593      1.418517
  H      -1.285894     -2.127142      2.284273
  H       0.377401     -1.510549      2.362473
  H       0.370252     -0.420699     -1.277213
  H       1.075836     -1.881829     -0.575395
  H      -1.036395     -0.157747      0.789638
  H      -2.883134     -0.800633     -1.104021
17
Coordinates from ORCA-job freq E -421.378312751954
  C       2.734100      0.828322      0.115588
  C      -0.365106     -1.997295      1.718000
  C       0.652927     -0.910099     -0.338078
  C       1.651904     -0.057362      0.336995
  C      -0.608652     -1.131820      0.499560
  O       2.276776     -0.227821      1.459455
  O      -1.979354     -1.003461     -1.344586
  O      -1.580604     -1.834391     -0.264441
  H       2.615380      1.907488      0.115101
  H       3.737485      0.438356      0.002178
  H      -0.007578     -2.979851      1.408901
  H      -1.283799     -2.121360      2.288510
  H       0.391775     -1.536716      2.350663
  H       0.380449     -0.445021     -1.284179
  H       1.090576     -1.892787     -0.559886
  H      -1.025492     -0.162121      0.791061
  H      -2.876258     -0.767452     -1.082863
17
Coordinates from ORCA-job freq E -421.378249738452
  C       2.736307      0.826584      0.113410
  C      -0.364044     -2.000922      1.716456
  C       0.652885     -0.909472     -0.337588
  C       1.648990     -0.052450      0.336334
  C      -0.608238     -1.132693      0.500099
  O       2.264287     -0.211722      1.465720
  O      -1.980221     -0.999194     -1.342475
  O      -1.580742     -1.833287     -0.265002
  H       2.621518      1.906079      0.099511
  H       3.739167      0.431791      0.012737
  H      -0.007085     -2.982902      1.404835
  H      -1.282205     -2.125981      2.287611
  H       0.393639     -1.541920      2.349352
  H       0.379671     -0.446668     -1.284645
  H       1.092969     -1.891421     -0.558026
  H      -1.024720     -0.163584      0.794027
  H      -2.877650     -0.765629     -1.080378
17
Coordinates from ORCA-job freq E -421.378315926308
  C       2.737685      0.825222      0.112615
  C      -0.363161     -2.002291      1.715662
  C       0.652498     -0.908607     -0.337715
  C       1.647420     -0.050035      0.336013
  C      -0.608208     -1.133145      0.500116
  O       2.257526     -0.204235      1.468900
  O      -1.981135     -0.998596     -1.341706
  O      -1.580693     -1.833521     -0.265248
  H       2.625440      1.904868      0.092005
  H       3.740071      0.427562      0.018716
  H      -0.005180     -2.983625      1.403184
  H      -1.281234     -2.128796      2.286640
  H       0.393996     -1.542982      2.348974
  H       0.378816     -0.446285     -1.284907
  H       1.093700     -1.890050     -0.558233
  H      -1.025050     -0.164519      0.795113
  H      -2.877965     -0.764357     -1.078152
17
Coordinates from ORCA-job freq E -421.378310997119
  C       2.737024      0.825831      0.113240
  C      -0.363538     -2.001237      1.716147
  C       0.652534     -0.908823     -0.337756
  C       1.648296     -0.051446      0.336251
  C      -0.608333     -1.132789      0.500055
  O       2.261568     -0.209138      1.466950
  O      -1.980737     -0.999461     -1.342261
  O      -1.580720     -1.833594     -0.265023
  H       2.623557      1.905422      0.096921
  H       3.739580      0.429618      0.015180
  H      -0.005686     -2.982813      1.404291
  H      -1.281691     -2.127255      2.287104
  H       0.393628     -1.541730      2.349296
  H       0.379093     -0.445951     -1.284729
  H       1.093016     -1.890520     -0.558527
  H      -1.025171     -0.163952      0.794369
  H      -2.877892     -0.765553     -1.079530
17
Coordinates from ORCA-job freq E -421.378292397088
  C       2.736554      0.826247      0.113471
  C      -0.363843     -2.000748      1.716465
  C       0.652573     -0.909026     -0.337689
  C       1.648769     -0.052232      0.336421
  C      -0.608408     -1.132671      0.500068
  O       2.263982     -0.211848      1.465779
  O      -1.980318     -0.999893     -1.342641
  O      -1.580735     -1.833624     -0.264933
  H       2.622362      1.905799      0.099611
  H       3.739206      0.430905      0.012879
  H      -0.005956     -2.982441      1.405016
  H      -1.282107     -2.126547      2.287285
  H       0.393219     -1.541069      2.349615
  H       0.379251     -0.445895     -1.284558
  H       1.092712     -1.890853     -0.558572
  H      -1.025200     -0.163713      0.794048
  H      -2.877531     -0.765783     -1.080285
17
Coordinates from ORCA-job freq E -421.378311070317
  C       2.736315      0.826443      0.113824
  C      -0.363994     -2.000134      1.716715
  C       0.652516     -0.909002     -0.337737
  C       1.649193     -0.052921      0.336558
  C      -0.608531     -1.132476      0.500006
  O       2.266004     -0.214394      1.464782
  O      -1.980222     -1.000575     -1.342965
  O      -1.580722     -1.833802     -0.264837
  H       2.621628      1.905965      0.102173
  H       3.739000      0.431729      0.011156
  H      -0.005856     -2.981842      1.405613
  H      -1.282322     -2.125953      2.287432
  H       0.392878     -1.540141      2.349849
  H       0.379314     -0.445471     -1.284434
  H       1.092268     -1.890931     -0.558884
  H      -1.025439     -0.163444      0.793590
  H      -2.877502     -0.766441     -1.080865
17
Coordinates from ORCA-job freq E -421.378305901360
  C       2.736325      0.826394      0.113903
  C      -0.363896     -2.000097      1.716672
  C       0.652528     -0.909040     -0.337825
  C       1.649192     -0.052977      0.336513
  C      -0.608487     -1.132438      0.499985
  O       2.265740     -0.214325      1.464896
  O      -1.980306     -1.000434     -1.342868
  O      -1.580778     -1.833705     -0.264770
  H       2.621619      1.905916      0.102093
  H       3.739048      0.431695      0.011499
  H      -0.005888     -2.981839      1.405527
  H      -1.282160     -2.125827      2.287512
  H       0.393094     -1.540154      2.349706
  H       0.379331     -0.445469     -1.284502
  H       1.092221     -1.890998     -0.558982
  H      -1.025306     -0.163372      0.793577
  H      -2.877749     -0.766719     -1.080959
