17
Coordinates from ORCA-job freq E -421.415753351402
  C           2.71710763101064     -0.06862163349388     -1.29971998974097
  C           2.03639787228650      0.46616541423840     -0.30185682614716
  C           0.49210634663083      0.15773750537550      1.42965709410471
  C          -0.69534036021508      0.65664443602098      0.68029408875692
  C          -1.27826918861726     -0.42280304323629     -0.23068901057398
  O          -2.87830141147184     -0.78612287572929     -1.81446785767143
  O           1.58318863965339     -0.29049634782034      0.74064682835796
  O          -2.38712807648880      0.16419723249576     -0.88224157560465
  H           3.10885256816306      0.56446386926518     -2.07983067055152
  H           2.90185776340092     -1.13237845482597     -1.34200011188443
  H           1.83377186922422      1.52792353507422     -0.21917731057716
  H           0.36685197493334     -0.39184754143043      2.35111915511490
  H          -0.45242187855850      1.52468218017361      0.06311282337120
  H          -1.45180407224214      0.97406299740095      1.39796030368574
  H          -0.54148652712109     -0.74234177508895     -0.97119381793087
  H          -1.59818854360028     -1.29322917259008      0.35040952335419
  H          -3.70662260698793     -1.05581332582939     -1.40184464606342
