17
Coordinates from ORCA-job freq E -421.480007318693
  C          -2.90017554318705      0.39029406144256     -0.66295691082550
  C           1.95634156818843     -0.51150628141069      0.38899135294337
  C           0.78870074461472     -0.98664725282717     -0.42938208188266
  C          -1.74963831495683     -0.45667379294516     -0.21054985041189
  C          -0.35857315380894     -0.01256948466334     -0.32982024552905
  O           4.34982139677811      0.50388317931078      2.32461933617418
  O           3.07885587346147     -0.42112184089006     -0.04011464898607
  O          -1.02855543881788      0.01100841203625      0.92048737812515
  H          -3.75616861972059      0.24933868392643     -0.00349385498144
  H          -3.19955345527505      0.11770045573978     -1.67483750411136
  H          -2.62249977093649      1.44304237377118     -0.64691130086977
  H           1.73433427864935     -0.23445633439351      1.43425462011658
  H           0.46381542944095     -1.94465386382521     -0.01329602144660
  H           1.10914898026187     -1.13181806267209     -1.46016931286877
  H          -1.91784858356427     -1.53048631471897     -0.20061966728152
  H          -0.18195661142953      0.97220880151950     -0.75423516594254
  H           4.13697122030171      0.20464726059972      1.41617587777790
