17
* (null), Energy   -1000.0000000
C    -0.057340    0.721474   -0.913815    0.059449    0.057249    0.096713
C     0.669073   -0.591696   -1.055801   -0.003462   -0.007693   -0.007305
C     1.928551   -0.634314   -0.171468    0.007219   -0.003694   -0.008270
C    -2.040245   -0.221124    0.438727    0.003115    0.007051   -0.000775
C    -1.509608    0.682362   -0.589903   -0.021650   -0.018907   -0.005056
O     1.338182    1.135306    1.079597    0.067388   -0.058266    0.061326
O    -2.234498   -0.493636   -0.935233   -0.002364    0.002331   -0.005607
O     1.568509   -0.221860    1.129074   -0.016719    0.054004   -0.002557
H     0.524849    1.189622    0.185970   -1.159290   -0.160217   -1.588325
H     0.217485    1.482705   -1.640220   -0.111873   -0.142876   -0.195351
H     0.972666   -0.755527   -2.091988    0.008718   -0.039323    0.015961
H     0.013545   -1.415071   -0.775749   -0.003613   -0.007722   -0.008964
H     2.710037    0.025005   -0.553309   -0.009406    0.010495    0.006133
H     2.310117   -1.649378   -0.073163    0.012154    0.004448    0.018881
H    -1.353098   -0.883735    0.954687   -0.006520   -0.004306    0.000161
H    -2.930148    0.063734    0.986698   -0.002778   -0.016396    0.003277
H    -2.055958    1.600990   -0.771571   -0.026359   -0.018665    0.007104
17
* Frequency(6) -1880.4923
C    -0.050584    0.727981   -0.902824    0.059449    0.057249    0.096713
C     0.668680   -0.592570   -1.056631   -0.003462   -0.007693   -0.007305
C     1.929371   -0.634734   -0.172407    0.007219   -0.003694   -0.008270
C    -2.039891   -0.220323    0.438639    0.003115    0.007051   -0.000775
C    -1.512069    0.680213   -0.590477   -0.021650   -0.018907   -0.005056
O     1.345841    1.128685    1.086566    0.067388   -0.058266    0.061326
O    -2.234767   -0.493371   -0.935870   -0.002364    0.002331   -0.005607
O     1.566609   -0.215723    1.128784   -0.016719    0.054004   -0.002557
H     0.393102    1.171414    0.005465   -1.159290   -0.160217   -1.588325
H     0.204771    1.466468   -1.662421   -0.111873   -0.142876   -0.195351
H     0.973656   -0.759996   -2.090175    0.008718   -0.039323    0.015961
H     0.013135   -1.415949   -0.776767   -0.003613   -0.007722   -0.008964
H     2.708968    0.026198   -0.552612   -0.009406    0.010495    0.006133
H     2.311498   -1.648873   -0.071017    0.012154    0.004448    0.018881
H    -1.353839   -0.884225    0.954705   -0.006520   -0.004306    0.000161
H    -2.930463    0.061871    0.987071   -0.002778   -0.016396    0.003277
H    -2.058953    1.598868   -0.770763   -0.026359   -0.018665    0.007104
17
* Frequency(6) -1880.4923
C    -0.044560    0.733782   -0.893024    0.059449    0.057249    0.096713
C     0.668329   -0.593350   -1.057371   -0.003462   -0.007693   -0.007305
C     1.930102   -0.635109   -0.173245    0.007219   -0.003694   -0.008270
C    -2.039575   -0.219608    0.438561    0.003115    0.007051   -0.000775
C    -1.514262    0.678297   -0.590990   -0.021650   -0.018907   -0.005056
O     1.352669    1.122780    1.092780    0.067388   -0.058266    0.061326
O    -2.235007   -0.493135   -0.936438   -0.002364    0.002331   -0.005607
O     1.564915   -0.210251    1.128524   -0.016719    0.054004   -0.002557
H     0.275632    1.155179   -0.155479   -1.159290   -0.160217   -1.588325
H     0.193435    1.451991   -1.682216   -0.111873   -0.142876   -0.195351
H     0.974540   -0.763981   -2.088557    0.008718   -0.039323    0.015961
H     0.012769   -1.416731   -0.777676   -0.003613   -0.007722   -0.008964
H     2.708015    0.027262   -0.551990   -0.009406    0.010495    0.006133
H     2.312730   -1.648422   -0.069104    0.012154    0.004448    0.018881
H    -1.354499   -0.884661    0.954722   -0.006520   -0.004306    0.000161
H    -2.930745    0.060209    0.987403   -0.002778   -0.016396    0.003277
H    -2.061624    1.596977   -0.770043   -0.026359   -0.018665    0.007104
17
* Frequency(6) -1880.4923
C    -0.039921    0.738249   -0.885477    0.059449    0.057249    0.096713
C     0.668059   -0.593950   -1.057941   -0.003462   -0.007693   -0.007305
C     1.930666   -0.635397   -0.173891    0.007219   -0.003694   -0.008270
C    -2.039332   -0.219058    0.438500    0.003115    0.007051   -0.000775
C    -1.515952    0.676822   -0.591384   -0.021650   -0.018907   -0.005056
O     1.357928    1.118234    1.097566    0.067388   -0.058266    0.061326
O    -2.235191   -0.492953   -0.936876   -0.002364    0.002331   -0.005607
O     1.563610   -0.206036    1.128325   -0.016719    0.054004   -0.002557
H     0.185168    1.142677   -0.279422   -1.159290   -0.160217   -1.588325
H     0.184705    1.440841   -1.697460   -0.111873   -0.142876   -0.195351
H     0.975220   -0.767049   -2.087312    0.008718   -0.039323    0.015961
H     0.012487   -1.417334   -0.778375   -0.003613   -0.007722   -0.008964
H     2.707281    0.028081   -0.551512   -0.009406    0.010495    0.006133
H     2.313678   -1.648075   -0.067631    0.012154    0.004448    0.018881
H    -1.355008   -0.884997    0.954734   -0.006520   -0.004306    0.000161
H    -2.930962    0.058930    0.987658   -0.002778   -0.016396    0.003277
H    -2.063681    1.595521   -0.769489   -0.026359   -0.018665    0.007104
17
* Frequency(6) -1880.4923
C    -0.037169    0.740899   -0.881001    0.059449    0.057249    0.096713
C     0.667899   -0.594306   -1.058279   -0.003462   -0.007693   -0.007305
C     1.931000   -0.635568   -0.174273    0.007219   -0.003694   -0.008270
C    -2.039188   -0.218732    0.438464    0.003115    0.007051   -0.000775
C    -1.516954    0.675947   -0.591618   -0.021650   -0.018907   -0.005056
O     1.361047    1.115537    1.100404    0.067388   -0.058266    0.061326
O    -2.235301   -0.492845   -0.937136   -0.002364    0.002331   -0.005607
O     1.562836   -0.203537    1.128207   -0.016719    0.054004   -0.002557
H     0.131514    1.135262   -0.352933   -1.159290   -0.160217   -1.588325
H     0.179528    1.434229   -1.706501   -0.111873   -0.142876   -0.195351
H     0.975624   -0.768869   -2.086573    0.008718   -0.039323    0.015961
H     0.012319   -1.417691   -0.778790   -0.003613   -0.007722   -0.008964
H     2.706845    0.028566   -0.551228   -0.009406    0.010495    0.006133
H     2.314241   -1.647869   -0.066757    0.012154    0.004448    0.018881
H    -1.355310   -0.885196    0.954742   -0.006520   -0.004306    0.000161
H    -2.931090    0.058171    0.987810   -0.002778   -0.016396    0.003277
H    -2.064901    1.594657   -0.769160   -0.026359   -0.018665    0.007104
17
* Frequency(6) -1880.4923
C    -0.036604    0.741443   -0.880081    0.059449    0.057249    0.096713
C     0.667866   -0.594379   -1.058349   -0.003462   -0.007693   -0.007305
C     1.931068   -0.635603   -0.174352    0.007219   -0.003694   -0.008270
C    -2.039158   -0.218665    0.438457    0.003115    0.007051   -0.000775
C    -1.517160    0.675767   -0.591666   -0.021650   -0.018907   -0.005056
O     1.361688    1.114983    1.100987    0.067388   -0.058266    0.061326
O    -2.235323   -0.492823   -0.937189   -0.002364    0.002331   -0.005607
O     1.562677   -0.203023    1.128182   -0.016719    0.054004   -0.002557
H     0.120484    1.133737   -0.368045   -1.159290   -0.160217   -1.588325
H     0.178463    1.432869   -1.708360   -0.111873   -0.142876   -0.195351
H     0.975707   -0.769243   -2.086421    0.008718   -0.039323    0.015961
H     0.012285   -1.417765   -0.778875   -0.003613   -0.007722   -0.008964
H     2.706756    0.028666   -0.551170   -0.009406    0.010495    0.006133
H     2.314356   -1.647827   -0.066577    0.012154    0.004448    0.018881
H    -1.355372   -0.885237    0.954743   -0.006520   -0.004306    0.000161
H    -2.931117    0.058015    0.987841   -0.002778   -0.016396    0.003277
H    -2.065152    1.594479   -0.769093   -0.026359   -0.018665    0.007104
17
* Frequency(6) -1880.4923
C    -0.038285    0.739824   -0.882817    0.059449    0.057249    0.096713
C     0.667964   -0.594162   -1.058142   -0.003462   -0.007693   -0.007305
C     1.930864   -0.635498   -0.174118    0.007219   -0.003694   -0.008270
C    -2.039247   -0.218864    0.438479    0.003115    0.007051   -0.000775
C    -1.516548    0.676302   -0.591523   -0.021650   -0.018907   -0.005056
O     1.359782    1.116631    1.099253    0.067388   -0.058266    0.061326
O    -2.235256   -0.492889   -0.937030   -0.002364    0.002331   -0.005607
O     1.563150   -0.204551    1.128255   -0.016719    0.054004   -0.002557
H     0.153273    1.138269   -0.323121   -1.159290   -0.160217   -1.588325
H     0.181628    1.436911   -1.702835   -0.111873   -0.142876   -0.195351
H     0.975460   -0.768131   -2.086873    0.008718   -0.039323    0.015961
H     0.012387   -1.417546   -0.778622   -0.003613   -0.007722   -0.008964
H     2.707022    0.028369   -0.551343   -0.009406    0.010495    0.006133
H     2.314013   -1.647953   -0.067111    0.012154    0.004448    0.018881
H    -1.355188   -0.885115    0.954739   -0.006520   -0.004306    0.000161
H    -2.931038    0.058479    0.987748   -0.002778   -0.016396    0.003277
H    -2.064406    1.595007   -0.769294   -0.026359   -0.018665    0.007104
17
* Frequency(6) -1880.4923
C    -0.042032    0.736216   -0.888911    0.059449    0.057249    0.096713
C     0.668182   -0.593677   -1.057682   -0.003462   -0.007693   -0.007305
C     1.930409   -0.635266   -0.173597    0.007219   -0.003694   -0.008270
C    -2.039443   -0.219308    0.438528    0.003115    0.007051   -0.000775
C    -1.515183    0.677493   -0.591205   -0.021650   -0.018907   -0.005056
O     1.355535    1.120302    1.095388    0.067388   -0.058266    0.061326
O    -2.235107   -0.493036   -0.936677   -0.002364    0.002331   -0.005607
O     1.564204   -0.207954    1.128416   -0.016719    0.054004   -0.002557
H     0.226328    1.148365   -0.223029   -1.159290   -0.160217   -1.588325
H     0.188678    1.445914   -1.690524   -0.111873   -0.142876   -0.195351
H     0.974911   -0.765653   -2.087879    0.008718   -0.039323    0.015961
H     0.012615   -1.417060   -0.778057   -0.003613   -0.007722   -0.008964
H     2.707615    0.027708   -0.551730   -0.009406    0.010495    0.006133
H     2.313247   -1.648233   -0.068301    0.012154    0.004448    0.018881
H    -1.354777   -0.884844    0.954729   -0.006520   -0.004306    0.000161
H    -2.930863    0.059512    0.987542   -0.002778   -0.016396    0.003277
H    -2.062745    1.596183   -0.769741   -0.026359   -0.018665    0.007104
17
* Frequency(6) -1880.4923
C    -0.047437    0.731011   -0.897705    0.059449    0.057249    0.096713
C     0.668497   -0.592977   -1.057018   -0.003462   -0.007693   -0.007305
C     1.929753   -0.634930   -0.172845    0.007219   -0.003694   -0.008270
C    -2.039726   -0.219950    0.438598    0.003115    0.007051   -0.000775
C    -1.513215    0.679212   -0.590745   -0.021650   -0.018907   -0.005056
O     1.349408    1.125600    1.089812    0.067388   -0.058266    0.061326
O    -2.234892   -0.493248   -0.936167   -0.002364    0.002331   -0.005607
O     1.565724   -0.212864    1.128648   -0.016719    0.054004   -0.002557
H     0.331733    1.162933   -0.078616   -1.159290   -0.160217   -1.588325
H     0.198849    1.458905   -1.672762   -0.111873   -0.142876   -0.195351
H     0.974118   -0.762078   -2.089330    0.008718   -0.039323    0.015961
H     0.012943   -1.416357   -0.777242   -0.003613   -0.007722   -0.008964
H     2.708470    0.026754   -0.552287   -0.009406    0.010495    0.006133
H     2.312142   -1.648638   -0.070018    0.012154    0.004448    0.018881
H    -1.354184   -0.884453    0.954714   -0.006520   -0.004306    0.000161
H    -2.930610    0.061003    0.987244   -0.002778   -0.016396    0.003277
H    -2.060349    1.597880   -0.770387   -0.026359   -0.018665    0.007104
17
* Frequency(6) -1880.4923
C    -0.053915    0.724772   -0.908244    0.059449    0.057249    0.096713
C     0.668874   -0.592139   -1.056222   -0.003462   -0.007693   -0.007305
C     1.928966   -0.634527   -0.171944    0.007219   -0.003694   -0.008270
C    -2.040065   -0.220718    0.438683    0.003115    0.007051   -0.000775
C    -1.510855    0.681273   -0.590194   -0.021650   -0.018907   -0.005056
O     1.342065    1.131950    1.083130    0.067388   -0.058266    0.061326
O    -2.234635   -0.493502   -0.935556   -0.002364    0.002331   -0.005607
O     1.567546   -0.218749    1.128927   -0.016719    0.054004   -0.002557
H     0.458065    1.180392    0.094470   -1.159290   -0.160217   -1.588325
H     0.211040    1.474474   -1.651474   -0.111873   -0.142876   -0.195351
H     0.973168   -0.757792   -2.091069    0.008718   -0.039323    0.015961
H     0.013337   -1.415516   -0.776265   -0.003613   -0.007722   -0.008964
H     2.709495    0.025610   -0.552955   -0.009406    0.010495    0.006133
H     2.310817   -1.649122   -0.072075    0.012154    0.004448    0.018881
H    -1.353473   -0.883983    0.954696   -0.006520   -0.004306    0.000161
H    -2.930308    0.062789    0.986887   -0.002778   -0.016396    0.003277
H    -2.057476    1.599914   -0.771161   -0.026359   -0.018665    0.007104
17
* Frequency(6) -1880.4923
C    -0.060765    0.718176   -0.919387    0.059449    0.057249    0.096713
C     0.669273   -0.591253   -1.055380   -0.003462   -0.007693   -0.007305
C     1.928135   -0.634102   -0.170991    0.007219   -0.003694   -0.008270
C    -2.040424   -0.221530    0.438772    0.003115    0.007051   -0.000775
C    -1.508361    0.683451   -0.589611   -0.021650   -0.018907   -0.005056
O     1.334300    1.138663    1.076064    0.067388   -0.058266    0.061326
O    -2.234362   -0.493770   -0.934910   -0.002364    0.002331   -0.005607
O     1.569472   -0.224971    1.129221   -0.016719    0.054004   -0.002557
H     0.591634    1.198851    0.277470   -1.159290   -0.160217   -1.588325
H     0.223930    1.490936   -1.628967   -0.111873   -0.142876   -0.195351
H     0.972164   -0.753262   -2.092908    0.008718   -0.039323    0.015961
H     0.013753   -1.414626   -0.775232   -0.003613   -0.007722   -0.008964
H     2.710578    0.024401   -0.553662   -0.009406    0.010495    0.006133
H     2.309417   -1.649635   -0.074251    0.012154    0.004448    0.018881
H    -1.352722   -0.883487    0.954678   -0.006520   -0.004306    0.000161
H    -2.929987    0.064678    0.986509   -0.002778   -0.016396    0.003277
H    -2.054439    1.602065   -0.771980   -0.026359   -0.018665    0.007104
17
* Frequency(6) -1880.4923
C    -0.067243    0.711938   -0.929926    0.059449    0.057249    0.096713
C     0.669650   -0.590414   -1.054584   -0.003462   -0.007693   -0.007305
C     1.927348   -0.633699   -0.170090    0.007219   -0.003694   -0.008270
C    -2.040764   -0.222299    0.438856    0.003115    0.007051   -0.000775
C    -1.506002    0.685511   -0.589060   -0.021650   -0.018907   -0.005056
O     1.326957    1.145012    1.069381    0.067388   -0.058266    0.061326
O    -2.234105   -0.494024   -0.934299   -0.002364    0.002331   -0.005607
O     1.571294   -0.230856    1.129500   -0.016719    0.054004   -0.002557
H     0.717966    1.216311    0.450556   -1.159290   -0.160217   -1.588325
H     0.236121    1.506506   -1.607679   -0.111873   -0.142876   -0.195351
H     0.971214   -0.748977   -2.094647    0.008718   -0.039323    0.015961
H     0.014147   -1.413785   -0.774255   -0.003613   -0.007722   -0.008964
H     2.711603    0.023257   -0.554330   -0.009406    0.010495    0.006133
H     2.308092   -1.650119   -0.076308    0.012154    0.004448    0.018881
H    -1.352012   -0.883018    0.954660   -0.006520   -0.004306    0.000161
H    -2.929685    0.066465    0.986152   -0.002778   -0.016396    0.003277
H    -2.051567    1.604099   -0.772754   -0.026359   -0.018665    0.007104
17
* Frequency(6) -1880.4923
C    -0.072648    0.706733   -0.938719    0.059449    0.057249    0.096713
C     0.669965   -0.589715   -1.053920   -0.003462   -0.007693   -0.007305
C     1.926692   -0.633363   -0.169338    0.007219   -0.003694   -0.008270
C    -2.041047   -0.222940    0.438927    0.003115    0.007051   -0.000775
C    -1.504033    0.687230   -0.588601   -0.021650   -0.018907   -0.005056
O     1.320830    1.150310    1.063805    0.067388   -0.058266    0.061326
O    -2.233890   -0.494236   -0.933789   -0.002364    0.002331   -0.005607
O     1.572814   -0.235766    1.129732   -0.016719    0.054004   -0.002557
H     0.823370    1.230878    0.594969   -1.159290   -0.160217   -1.588325
H     0.246293    1.519496   -1.589917   -0.111873   -0.142876   -0.195351
H     0.970421   -0.745401   -2.096098    0.008718   -0.039323    0.015961
H     0.014476   -1.413082   -0.773440   -0.003613   -0.007722   -0.008964
H     2.712459    0.022303   -0.554888   -0.009406    0.010495    0.006133
H     2.306987   -1.650524   -0.078025    0.012154    0.004448    0.018881
H    -1.351419   -0.882626    0.954646   -0.006520   -0.004306    0.000161
H    -2.929432    0.067956    0.985854   -0.002778   -0.016396    0.003277
H    -2.049170    1.605796   -0.773400   -0.026359   -0.018665    0.007104
17
* Frequency(6) -1880.4923
C    -0.076395    0.703125   -0.944814    0.059449    0.057249    0.096713
C     0.670183   -0.589230   -1.053460   -0.003462   -0.007693   -0.007305
C     1.926237   -0.633130   -0.168817    0.007219   -0.003694   -0.008270
C    -2.041243   -0.223384    0.438976    0.003115    0.007051   -0.000775
C    -1.502669    0.688422   -0.588282   -0.021650   -0.018907   -0.005056
O     1.316583    1.153982    1.059941    0.067388   -0.058266    0.061326
O    -2.233741   -0.494383   -0.933436   -0.002364    0.002331   -0.005607
O     1.573868   -0.239170    1.129893   -0.016719    0.054004   -0.002557
H     0.896426    1.240975    0.695061   -1.159290   -0.160217   -1.588325
H     0.253343    1.528500   -1.577606   -0.111873   -0.142876   -0.195351
H     0.969872   -0.742923   -2.097104    0.008718   -0.039323    0.015961
H     0.014703   -1.412596   -0.772876   -0.003613   -0.007722   -0.008964
H     2.713051    0.021642   -0.555274   -0.009406    0.010495    0.006133
H     2.306221   -1.650804   -0.079215    0.012154    0.004448    0.018881
H    -1.351008   -0.882355    0.954635   -0.006520   -0.004306    0.000161
H    -2.929257    0.068989    0.985648   -0.002778   -0.016396    0.003277
H    -2.047509    1.606972   -0.773848   -0.026359   -0.018665    0.007104
17
* Frequency(6) -1880.4923
C    -0.078076    0.701506   -0.947549    0.059449    0.057249    0.096713
C     0.670281   -0.589012   -1.053253   -0.003462   -0.007693   -0.007305
C     1.926033   -0.633026   -0.168583    0.007219   -0.003694   -0.008270
C    -2.041331   -0.223583    0.438998    0.003115    0.007051   -0.000775
C    -1.502056    0.688956   -0.588139   -0.021650   -0.018907   -0.005056
O     1.314677    1.155629    1.058206    0.067388   -0.058266    0.061326
O    -2.233674   -0.494449   -0.933277   -0.002364    0.002331   -0.005607
O     1.574340   -0.240697    1.129966   -0.016719    0.054004   -0.002557
H     0.929215    1.245506    0.739985   -1.159290   -0.160217   -1.588325
H     0.256507    1.532541   -1.572081   -0.111873   -0.142876   -0.195351
H     0.969625   -0.741811   -2.097556    0.008718   -0.039323    0.015961
H     0.014806   -1.412377   -0.772622   -0.003613   -0.007722   -0.008964
H     2.713317    0.021345   -0.555448   -0.009406    0.010495    0.006133
H     2.305877   -1.650930   -0.079749    0.012154    0.004448    0.018881
H    -1.350823   -0.882233    0.954631   -0.006520   -0.004306    0.000161
H    -2.929178    0.069453    0.985555   -0.002778   -0.016396    0.003277
H    -2.046763    1.607500   -0.774048   -0.026359   -0.018665    0.007104
17
* Frequency(6) -1880.4923
C    -0.077510    0.702050   -0.946629    0.059449    0.057249    0.096713
C     0.670248   -0.589086   -1.053322   -0.003462   -0.007693   -0.007305
C     1.926101   -0.633061   -0.168662    0.007219   -0.003694   -0.008270
C    -2.041302   -0.223516    0.438990    0.003115    0.007051   -0.000775
C    -1.502262    0.688777   -0.588187   -0.021650   -0.018907   -0.005056
O     1.315318    1.155075    1.058790    0.067388   -0.058266    0.061326
O    -2.233696   -0.494427   -0.933330   -0.002364    0.002331   -0.005607
O     1.574181   -0.240183    1.129941   -0.016719    0.054004   -0.002557
H     0.918185    1.243982    0.724873   -1.159290   -0.160217   -1.588325
H     0.255442    1.531182   -1.573940   -0.111873   -0.142876   -0.195351
H     0.969708   -0.742185   -2.097404    0.008718   -0.039323    0.015961
H     0.014771   -1.412451   -0.772707   -0.003613   -0.007722   -0.008964
H     2.713228    0.021445   -0.555390   -0.009406    0.010495    0.006133
H     2.305993   -1.650887   -0.079569    0.012154    0.004448    0.018881
H    -1.350886   -0.882274    0.954632   -0.006520   -0.004306    0.000161
H    -2.929205    0.069297    0.985586   -0.002778   -0.016396    0.003277
H    -2.047014    1.607322   -0.773981   -0.026359   -0.018665    0.007104
17
* Frequency(6) -1880.4923
C    -0.074759    0.704700   -0.942153    0.059449    0.057249    0.096713
C     0.670088   -0.589442   -1.053661   -0.003462   -0.007693   -0.007305
C     1.926435   -0.633232   -0.169045    0.007219   -0.003694   -0.008270
C    -2.041158   -0.223190    0.438954    0.003115    0.007051   -0.000775
C    -1.503264    0.687902   -0.588421   -0.021650   -0.018907   -0.005056
O     1.318437    1.152378    1.061628    0.067388   -0.058266    0.061326
O    -2.233806   -0.494319   -0.933590   -0.002364    0.002331   -0.005607
O     1.573408   -0.237684    1.129823   -0.016719    0.054004   -0.002557
H     0.864531    1.236567    0.651362   -1.159290   -0.160217   -1.588325
H     0.250265    1.524569   -1.582981   -0.111873   -0.142876   -0.195351
H     0.970111   -0.744005   -2.096665    0.008718   -0.039323    0.015961
H     0.014604   -1.412808   -0.773122   -0.003613   -0.007722   -0.008964
H     2.712793    0.021930   -0.555106   -0.009406    0.010495    0.006133
H     2.306556   -1.650682   -0.078695    0.012154    0.004448    0.018881
H    -1.351187   -0.882474    0.954640   -0.006520   -0.004306    0.000161
H    -2.929333    0.068538    0.985738   -0.002778   -0.016396    0.003277
H    -2.048234    1.606459   -0.773652   -0.026359   -0.018665    0.007104
17
* Frequency(6) -1880.4923
C    -0.070120    0.709167   -0.934606    0.059449    0.057249    0.096713
C     0.669818   -0.590042   -1.054231   -0.003462   -0.007693   -0.007305
C     1.926999   -0.633520   -0.169690    0.007219   -0.003694   -0.008270
C    -2.040914   -0.222640    0.438894    0.003115    0.007051   -0.000775
C    -1.504954    0.686426   -0.588816   -0.021650   -0.018907   -0.005056
O     1.323696    1.147832    1.066413    0.067388   -0.058266    0.061326
O    -2.233990   -0.494137   -0.934028   -0.002364    0.002331   -0.005607
O     1.572103   -0.233470    1.129624   -0.016719    0.054004   -0.002557
H     0.774067    1.224064    0.527419   -1.159290   -0.160217   -1.588325
H     0.241535    1.513420   -1.598225   -0.111873   -0.142876   -0.195351
H     0.970792   -0.747074   -2.095420    0.008718   -0.039323    0.015961
H     0.014322   -1.413411   -0.773822   -0.003613   -0.007722   -0.008964
H     2.712059    0.022749   -0.554627   -0.009406    0.010495    0.006133
H     2.307504   -1.650335   -0.077222    0.012154    0.004448    0.018881
H    -1.351696   -0.882810    0.954652   -0.006520   -0.004306    0.000161
H    -2.929550    0.067259    0.985994   -0.002778   -0.016396    0.003277
H    -2.050291    1.605002   -0.773098   -0.026359   -0.018665    0.007104
17
* Frequency(6) -1880.4923
C    -0.064096    0.714968   -0.924806    0.059449    0.057249    0.096713
C     0.669467   -0.590822   -1.054971   -0.003462   -0.007693   -0.007305
C     1.927730   -0.633895   -0.170528    0.007219   -0.003694   -0.008270
C    -2.040599   -0.221925    0.438815    0.003115    0.007051   -0.000775
C    -1.507148    0.684510   -0.589328   -0.021650   -0.018907   -0.005056
O     1.330524    1.141928    1.072627    0.067388   -0.058266    0.061326
O    -2.234230   -0.493901   -0.934596   -0.002364    0.002331   -0.005607
O     1.570409   -0.227997    1.129365   -0.016719    0.054004   -0.002557
H     0.656597    1.207830    0.366475   -1.159290   -0.160217   -1.588325
H     0.230199    1.498942   -1.618020   -0.111873   -0.142876   -0.195351
H     0.971675   -0.751058   -2.093802    0.008718   -0.039323    0.015961
H     0.013956   -1.414193   -0.774730   -0.003613   -0.007722   -0.008964
H     2.711105    0.023813   -0.554006   -0.009406    0.010495    0.006133
H     2.308736   -1.649884   -0.075309    0.012154    0.004448    0.018881
H    -1.352357   -0.883246    0.954669   -0.006520   -0.004306    0.000161
H    -2.929832    0.065597    0.986326   -0.002778   -0.016396    0.003277
H    -2.052962    1.603111   -0.772378   -0.026359   -0.018665    0.007104
17
* Frequency(6) -1880.4923
C    -0.057340    0.721474   -0.913815    0.059449    0.057249    0.096713
C     0.669073   -0.591696   -1.055801   -0.003462   -0.007693   -0.007305
C     1.928551   -0.634314   -0.171468    0.007219   -0.003694   -0.008270
C    -2.040245   -0.221124    0.438727    0.003115    0.007051   -0.000775
C    -1.509608    0.682362   -0.589903   -0.021650   -0.018907   -0.005056
O     1.338182    1.135306    1.079597    0.067388   -0.058266    0.061326
O    -2.234498   -0.493636   -0.935233   -0.002364    0.002331   -0.005607
O     1.568509   -0.221860    1.129074   -0.016719    0.054004   -0.002557
H     0.524849    1.189622    0.185970   -1.159290   -0.160217   -1.588325
H     0.217485    1.482705   -1.640220   -0.111873   -0.142876   -0.195351
H     0.972666   -0.755527   -2.091988    0.008718   -0.039323    0.015961
H     0.013545   -1.415071   -0.775749   -0.003613   -0.007722   -0.008964
H     2.710037    0.025005   -0.553309   -0.009406    0.010495    0.006133
H     2.310117   -1.649378   -0.073163    0.012154    0.004448    0.018881
H    -1.353098   -0.883735    0.954687   -0.006520   -0.004306    0.000161
H    -2.930148    0.063734    0.986698   -0.002778   -0.016396    0.003277
H    -2.055958    1.600990   -0.771571   -0.026359   -0.018665    0.007104
