17
Coordinates from ORCA-job freq E -421.413417404286
  C          -2.48520853292873      1.15723667995341      0.69616244728587
  C           0.31840570496857     -1.09670136558479     -0.78305442845573
  C           1.45670948283191     -0.11530594919199     -0.98678438238699
  C          -1.85414911710018      0.19724454797651     -0.18615722065169
  C          -0.68104036495672     -0.61053198598277      0.23099733200429
  O           3.16371470211652      0.93859823185761      0.09859132203762
  O           2.15819159384135     -0.05015108567268      0.24138284994427
  O          -1.96280275413890     -1.18969302710254      0.17542845133099
  H          -2.53144656406870      0.95563952670607      1.75523435751670
  H          -2.89308554543060      2.07759292703322      0.31188099050101
  H          -0.19220556376410     -1.25066161311668     -1.73506890477585
  H           0.72090213499558     -2.06196818137506     -0.46761077928816
  H           1.07998242983152      0.87934861155765     -1.23949796408990
  H           2.12966305921844     -0.45095827062751     -1.78072833426566
  H          -1.95432351246121      0.37291442059928     -1.25303381179252
  H          -0.30332166188320     -0.44691969292740      1.23570895767564
  H           3.96520450892846      0.40309822589765      0.08977511741012
