17
Coordinates from ORCA-job freq E -421.378555383441
  C          -2.04749878181785      0.40808587729997     -1.02945225922257
  C           2.03230495215554      0.32150955426525      0.50098867830395
  C          -0.02606621415321     -0.93321802436520     -0.21989838471029
  C          -1.01323663236174      0.22336088344932      0.05906523502871
  C           1.31395089574819     -0.35762072971828     -0.61571066505763
  O           0.65175661736167      1.39574791119680      1.07536981485719
  O           2.44905229488334     -1.08506276895830     -0.47007367896446
  O          -0.28652612391005      1.46087382722816      0.10345940254484
  H           2.08875569884527     -0.16939666094370      1.45816775102685
  H          -2.66622511223478      1.28104118425913     -0.82938799649756
  H          -2.68749101681685     -0.47157533504310     -1.08009665176205
  H          -1.55987184969097      0.53760030247380     -1.99638503092825
  H           2.78759379080768      1.04819441293351      0.25278558079488
  H           0.12050175380480     -1.55968328189715      0.65967599262828
  H          -0.41337173624813     -1.56395767467268     -1.02126693874513
  H          -1.48890000427404      0.09045197042404      1.03226519715350
  H           1.27394046790113      0.27251555206844     -1.50965704645023
