15
Coordinates from ORCA-job freq E -271.013297106588
  C       1.079048     -0.041718      1.208111
  C      -1.456335     -0.382167      0.870782
  C       1.047861      0.536390     -0.179950
  C       0.161061     -0.301326     -1.110452
  C      -1.253649     -0.409799     -0.572474
  O      -1.788400      0.714602      0.086924
  H      -0.273207     -0.242486      1.389131
  H       1.514538     -1.030406      1.278361
  H       1.421585      0.631251      1.981192
  H      -2.252829     -0.898082      1.389552
  H       2.054848      0.593896     -0.608910
  H       0.645441      1.551036     -0.139240
  H       0.562996     -1.313179     -1.206179
  H       0.138368      0.151558     -2.103671
  H      -1.959038     -0.934308     -1.214250
15
Coordinates from ORCA-job freq E -271.012940224172
  C       1.053801     -0.041761      1.210522
  C      -1.430172     -0.382181      0.872646
  C       1.041993      0.533612     -0.184515
  C       0.159231     -0.295529     -1.124303
  C      -1.243442     -0.418773     -0.573758
  O      -1.771103      0.718783      0.087203
  H      -0.251149     -0.236844      1.383215
  H       1.478294     -1.039969      1.293288
  H       1.385230      0.630275      1.996115
  H      -2.223025     -0.892440      1.409866
  H       2.052672      0.585366     -0.600278
  H       0.652899      1.551881     -0.152218
  H       0.564997     -1.304514     -1.233436
  H       0.128579      0.162709     -2.114465
  H      -1.956520     -0.945356     -1.200956
15
Coordinates from ORCA-job freq E -271.013746417620
  C       1.084359     -0.047411      1.202190
  C      -1.443401     -0.381621      0.869640
  C       1.034957      0.543831     -0.182526
  C       0.166053     -0.312262     -1.109037
  C      -1.247427     -0.394978     -0.576928
  O      -1.763239      0.732355      0.098171
  H      -0.286568     -0.256918      1.383459
  H       1.523024     -1.039965      1.263628
  H       1.421781      0.622521      1.986097
  H      -2.245566     -0.897601      1.385126
  H       2.035905      0.632091     -0.616753
  H       0.604502      1.545075     -0.131749
  H       0.560760     -1.329408     -1.166486
  H       0.157823      0.111680     -2.115091
  H      -1.960677     -0.902129     -1.220815
15
Coordinates from ORCA-job freq E -271.013513386104
  C       1.073368     -0.042564      1.208780
  C      -1.448132     -0.382925      0.870138
  C       1.042863      0.537620     -0.182788
  C       0.160709     -0.300848     -1.114877
  C      -1.248232     -0.412213     -0.574809
  O      -1.777415      0.721278      0.087857
  H      -0.265803     -0.243212      1.390315
  H       1.505137     -1.038045      1.281872
  H       1.412904      0.629336      1.990616
  H      -2.246348     -0.896109      1.395955
  H       2.048657      0.600021     -0.609322
  H       0.640720      1.550900     -0.143537
  H       0.563623     -1.312359     -1.209048
  H       0.137802      0.146873     -2.110256
  H      -1.957566     -0.932491     -1.211969
15
Coordinates from ORCA-job freq E -271.013489084150
  C       1.059172     -0.035289      1.217587
  C      -1.459496     -0.385999      0.869000
  C       1.052926      0.529417     -0.183519
  C       0.153360     -0.285066     -1.121034
  C      -1.246278     -0.439981     -0.571561
  O      -1.795937      0.706797      0.071705
  H      -0.234010     -0.223781      1.405420
  H       1.480163     -1.035189      1.306003
  H       1.404559      0.637097      1.997148
  H      -2.253700     -0.891306      1.410491
  H       2.063567      0.556709     -0.600725
  H       0.691650      1.558129     -0.160240
  H       0.569026     -1.285506     -1.270617
  H       0.108026      0.194854     -2.100479
  H      -1.950741     -0.975627     -1.200252
15
Coordinates from ORCA-job freq E -271.013579618010
  C       1.063208     -0.032287      1.220077
  C      -1.471790     -0.388348      0.866876
  C       1.057473      0.527624     -0.183477
  C       0.151496     -0.281196     -1.120252
  C      -1.245974     -0.449614     -0.570848
  O      -1.803886      0.702578      0.066075
  H      -0.232680     -0.220463      1.416493
  H       1.482550     -1.033056      1.310935
  H       1.413214      0.639916      1.998102
  H      -2.267136     -0.888920      1.411352
  H       2.067783      0.547550     -0.601483
  H       0.706519      1.559786     -0.163024
  H       0.571173     -1.277610     -1.286116
  H       0.098980      0.206028     -2.095800
  H      -1.948642     -0.986728     -1.199982
15
Coordinates from ORCA-job freq E -271.013588520130
  C       1.065002     -0.033464      1.218353
  C      -1.469567     -0.387832      0.866624
  C       1.055495      0.529046     -0.183579
  C       0.152941     -0.283834     -1.119542
  C      -1.245630     -0.445950     -0.571734
  O      -1.800024      0.705796      0.068828
  H      -0.237386     -0.223998      1.415064
  H       1.485323     -1.033817      1.307041
  H       1.413585      0.637950      1.997482
  H      -2.265020     -0.888903      1.410082
  H       2.065277      0.555551     -0.602775
  H       0.697660      1.558831     -0.160357
  H       0.571242     -1.282186     -1.276937
  H       0.103779      0.197675     -2.098077
  H      -1.950391     -0.979606     -1.201546
15
Coordinates from ORCA-job freq E -271.013622073063
  C       1.062490     -0.035350      1.216120
  C      -1.464659     -0.386285      0.865331
  C       1.051742      0.530555     -0.183675
  C       0.154955     -0.287145     -1.119428
  C      -1.243980     -0.442863     -0.573337
  O      -1.794340      0.710323      0.071374
  H      -0.234869     -0.226986      1.413360
  H       1.483297     -1.035401      1.302591
  H       1.409746      0.633887      1.997323
  H      -2.258291     -0.887179      1.411134
  H       2.061603      0.565196     -0.602476
  H       0.685951      1.557552     -0.157483
  H       0.572622     -1.287133     -1.268593
  H       0.109183      0.188006     -2.101240
  H      -1.953162     -0.971916     -1.202075
15
Coordinates from ORCA-job freq E -271.013671617346
  C       1.061236     -0.036307      1.215760
  C      -1.465422     -0.385581      0.863133
  C       1.050029      0.531413     -0.183462
  C       0.155730     -0.288606     -1.119356
  C      -1.244102     -0.442744     -0.575003
  O      -1.793223      0.712238      0.071198
  H      -0.227222     -0.228786      1.414969
  H       1.483523     -1.036085      1.300474
  H       1.409873      0.631509      1.997793
  H      -2.257996     -0.885077      1.412079
  H       2.059795      0.571169     -0.601762
  H       0.680365      1.556953     -0.155805
  H       0.573695     -1.289030     -1.264750
  H       0.111973      0.182761     -2.103131
  H      -1.955968     -0.968566     -1.203209
15
Coordinates from ORCA-job freq E -271.013562161740
  C       1.077319     -0.037749      1.211954
  C      -1.476868     -0.388330      0.856507
  C       1.047850      0.537297     -0.184042
  C       0.159550     -0.295077     -1.114585
  C      -1.247296     -0.434861     -0.580294
  O      -1.790064      0.720194      0.078142
  H      -0.241005     -0.243730      1.423793
  H       1.506757     -1.035952      1.287251
  H       1.427736      0.627334      1.996429
  H      -2.270590     -0.886766      1.405476
  H       2.053282      0.599173     -0.609114
  H       0.659251      1.555489     -0.148059
  H       0.573989     -1.300660     -1.230893
  H       0.128589      0.152411     -2.109897
  H      -1.966214     -0.943514     -1.213742
15
Coordinates from ORCA-job freq E -271.013644003110
  C       1.069055     -0.036125      1.213654
  C      -1.467875     -0.387610      0.862298
  C       1.050291      0.533604     -0.184197
  C       0.157076     -0.290396     -1.117332
  C      -1.244907     -0.438186     -0.575926
  O      -1.791821      0.714759      0.075859
  H      -0.243061     -0.233783      1.416419
  H       1.492417     -1.035602      1.295870
  H       1.415920      0.631397      1.996698
  H      -2.260785     -0.889100      1.408708
  H       2.058423      0.578601     -0.606021
  H       0.675223      1.557157     -0.154029
  H       0.572863     -1.293339     -1.251333
  H       0.117883      0.172594     -2.105185
  H      -1.958417     -0.958711     -1.206558
15
Coordinates from ORCA-job freq E -271.013647154616
  C       1.067817     -0.036418      1.213247
  C      -1.466436     -0.387406      0.861946
  C       1.049510      0.533875     -0.184266
  C       0.157361     -0.290765     -1.117574
  C      -1.244558     -0.437511     -0.576340
  O      -1.790732      0.715502      0.076455
  H      -0.241941     -0.234225      1.415818
  H       1.491200     -1.035828      1.295220
  H       1.414133      0.630661      1.996826
  H      -2.258304     -0.889196      1.409495
  H       2.057808      0.579757     -0.605691
  H       0.673581      1.557123     -0.153888
  H       0.572963     -1.294059     -1.249813
  H       0.119031      0.170927     -2.106048
  H      -1.959147     -0.957178     -1.206459
15
Coordinates from ORCA-job freq E -271.013647064770
  C       1.067598     -0.036505      1.213165
  C      -1.466326     -0.387347      0.861661
  C       1.049250      0.534002     -0.184273
  C       0.157439     -0.290911     -1.117707
  C      -1.244572     -0.437425     -0.576597
  O      -1.790338      0.715795      0.076475
  H      -0.241256     -0.234942      1.415827
  H       1.491257     -1.035842      1.294975
  H       1.413709      0.630439      1.996992
  H      -2.257860     -0.888920      1.409930
  H       2.057574      0.580547     -0.605534
  H       0.672925      1.557083     -0.153765
  H       0.573026     -1.294320     -1.249174
  H       0.119548      0.170126     -2.106492
  H      -1.959688     -0.956520     -1.206557
15
Coordinates from ORCA-job freq E -271.013653446918
  C       1.067509     -0.036497      1.213164
  C      -1.466300     -0.387335      0.861554
  C       1.049183      0.533998     -0.184278
  C       0.157436     -0.290936     -1.117781
  C      -1.244613     -0.437413     -0.576698
  O      -1.790178      0.715885      0.076469
  H      -0.241023     -0.235458      1.415771
  H       1.491394     -1.035750      1.295002
  H       1.413379      0.630483      1.997074
  H      -2.257662     -0.888771      1.410199
  H       2.057533      0.580691     -0.605450
  H       0.672827      1.557066     -0.153802
  H       0.573025     -1.294374     -1.249083
  H       0.119706      0.169970     -2.106622
  H      -1.959932     -0.956299     -1.206592
15
Coordinates from ORCA-job freq E -271.013646895933
  C       1.067459     -0.036468      1.213194
  C      -1.466279     -0.387346      0.861493
  C       1.049158      0.533951     -0.184279
  C       0.157408     -0.290943     -1.117831
  C      -1.244651     -0.437402     -0.576762
  O      -1.790073      0.715929      0.076486
  H      -0.240897     -0.235890      1.415697
  H       1.491588     -1.035616      1.295132
  H       1.413069      0.630620      1.997122
  H      -2.257538     -0.888681      1.410373
  H       2.057530      0.580634     -0.605399
  H       0.672866      1.557043     -0.153866
  H       0.572988     -1.294386     -1.249137
  H       0.119738      0.169978     -2.106660
  H      -1.960080     -0.956163     -1.206637
15
Coordinates from ORCA-job freq E -271.013660625983
  C       1.067443     -0.036453      1.213206
  C      -1.466274     -0.387363      0.861439
  C       1.049132      0.533927     -0.184281
  C       0.157395     -0.290976     -1.117852
  C      -1.244694     -0.437354     -0.576818
  O      -1.789964      0.715992      0.076544
  H      -0.240825     -0.236304      1.415631
  H       1.491847     -1.035483      1.295208
  H       1.412798      0.630738      1.997151
  H      -2.257465     -0.888623      1.410486
  H       2.057512      0.580626     -0.605383
  H       0.672842      1.557021     -0.153904
  H       0.572951     -1.294436     -1.249099
  H       0.119810      0.169911     -2.106699
  H      -1.960223     -0.955964     -1.206701
15
Coordinates from ORCA-job freq E -271.013644535681
  C       1.067419     -0.036432      1.213229
  C      -1.466263     -0.387395      0.861400
  C       1.049112      0.533893     -0.184282
  C       0.157377     -0.291007     -1.117875
  C      -1.244730     -0.437326     -0.576860
  O      -1.789849      0.716041      0.076607
  H      -0.240733     -0.236666      1.415568
  H       1.492082     -1.035348      1.295311
  H       1.412535      0.630874      1.997184
  H      -2.257417     -0.888570      1.410577
  H       2.057499      0.580579     -0.605369
  H       0.672841      1.556995     -0.153953
  H       0.572914     -1.294477     -1.249118
  H       0.119843      0.169887     -2.106722
  H      -1.960344     -0.955785     -1.206769
15
Coordinates from ORCA-job freq E -271.013653640486
  C       1.067407     -0.036413      1.213251
  C      -1.466259     -0.387422      0.861376
  C       1.049104      0.533856     -0.184286
  C       0.157357     -0.291026     -1.117888
  C      -1.244758     -0.437304     -0.576887
  O      -1.789755      0.716076      0.076658
  H      -0.240663     -0.236980      1.415508
  H       1.492304     -1.035221      1.295422
  H       1.412304      0.631007      1.997204
  H      -2.257399     -0.888526      1.410638
  H       2.057497      0.580505     -0.605361
  H       0.672864      1.556967     -0.153998
  H       0.572867     -1.294501     -1.249160
  H       0.119838      0.169897     -2.106719
  H      -1.960422     -0.955654     -1.206830
15
Coordinates from ORCA-job freq E -271.013648557959
  C       1.067397     -0.036401      1.213266
  C      -1.466247     -0.387442      0.861358
  C       1.049094      0.533827     -0.184287
  C       0.157340     -0.291047     -1.117899
  C      -1.244782     -0.437277     -0.576909
  O      -1.789669      0.716114      0.076707
  H      -0.240601     -0.237252      1.415449
  H       1.492500     -1.035113      1.295510
  H       1.412091      0.631116      1.997220
  H      -2.257378     -0.888489      1.410682
  H       2.057487      0.580452     -0.605359
  H       0.672873      1.556943     -0.154029
  H       0.572827     -1.294530     -1.249183
  H       0.119843      0.169893     -2.106721
  H      -1.960489     -0.955533     -1.206876
15
Coordinates from ORCA-job freq E -271.013658630956
  C       1.067395     -0.036395      1.213279
  C      -1.466241     -0.387463      0.861341
  C       1.049085      0.533804     -0.184291
  C       0.157328     -0.291069     -1.117904
  C      -1.244806     -0.437245     -0.576929
  O      -1.789578      0.716157      0.076765
  H      -0.240541     -0.237506      1.415400
  H       1.492694     -1.035021      1.295584
  H       1.411901      0.631212      1.997240
  H      -2.257377     -0.888453      1.410707
  H       2.057477      0.580423     -0.605369
  H       0.672849      1.556912     -0.154062
  H       0.572790     -1.294560     -1.249182
  H       0.119862      0.169870     -2.106729
  H      -1.960554     -0.955409     -1.206922
15
Coordinates from ORCA-job freq E -271.013647016390
  C       1.067396     -0.036386      1.213280
  C      -1.466230     -0.387503      0.861326
  C       1.049073      0.533787     -0.184298
  C       0.157321     -0.291100     -1.117905
  C      -1.244831     -0.437201     -0.576950
  O      -1.789477      0.716206      0.076853
  H      -0.240501     -0.237752      1.415350
  H       1.492896     -1.034923      1.295642
  H       1.411709      0.631312      1.997246
  H      -2.257375     -0.888444      1.410725
  H       2.057461      0.580402     -0.605380
  H       0.672819      1.556891     -0.154095
  H       0.572757     -1.294607     -1.249142
  H       0.119901      0.169817     -2.106741
  H      -1.960634     -0.955239     -1.206983
15
Coordinates from ORCA-job freq E -271.013656956648
  C       1.067397     -0.036370      1.213294
  C      -1.466224     -0.387541      0.861317
  C       1.049066      0.533762     -0.184304
  C       0.157307     -0.291122     -1.117913
  C      -1.244853     -0.437174     -0.576964
  O      -1.789387      0.716238      0.076920
  H      -0.240452     -0.237968      1.415313
  H       1.493079     -1.034827      1.295724
  H       1.411537      0.631417      1.997257
  H      -2.257390     -0.888431      1.410729
  H       2.057454      0.580355     -0.605388
  H       0.672823      1.556867     -0.154125
  H       0.572725     -1.294639     -1.249158
  H       0.119904      0.169803     -2.106745
  H      -1.960700     -0.955110     -1.207031
15
Coordinates from ORCA-job freq E -271.013649028951
  C       1.067390     -0.036361      1.213301
  C      -1.466223     -0.387565      0.861316
  C       1.049066      0.533748     -0.184306
  C       0.157294     -0.291132     -1.117918
  C      -1.244874     -0.437164     -0.576972
  O      -1.789334      0.716256      0.076954
  H      -0.240406     -0.238144      1.415270
  H       1.493213     -1.034756      1.295770
  H       1.411401      0.631492      1.997266
  H      -2.257409     -0.888403      1.410750
  H       2.057459      0.580314     -0.605388
  H       0.672849      1.556866     -0.154141
  H       0.572701     -1.294653     -1.249165
  H       0.119905      0.169806     -2.106751
  H      -1.960747     -0.955044     -1.207059
15
Coordinates from ORCA-job freq E -271.013653029241
  C       1.067393     -0.036357      1.213304
  C      -1.466219     -0.387587      0.861310
  C       1.049055      0.533735     -0.184310
  C       0.157288     -0.291151     -1.117919
  C      -1.244888     -0.437140     -0.576982
  O      -1.789267      0.716285      0.077001
  H      -0.240371     -0.238311      1.415236
  H       1.493351     -1.034690      1.295807
  H       1.411280      0.631555      1.997272
  H      -2.257427     -0.888382      1.410753
  H       2.057446      0.580300     -0.605397
  H       0.672831      1.556848     -0.154155
  H       0.572687     -1.294679     -1.249146
  H       0.119920      0.169779     -2.106755
  H      -1.960793     -0.954946     -1.207090
15
Coordinates from ORCA-job freq E -271.013652098477
  C       1.067397     -0.036357      1.213307
  C      -1.466213     -0.387597      0.861305
  C       1.049042      0.533723     -0.184312
  C       0.157286     -0.291172     -1.117917
  C      -1.244895     -0.437119     -0.576990
  O      -1.789199      0.716318      0.077034
  H      -0.240332     -0.238454      1.415212
  H       1.493469     -1.034640      1.295837
  H       1.411185      0.631604      1.997279
  H      -2.257442     -0.888351      1.410749
  H       2.057427      0.580304     -0.605405
  H       0.672781      1.556817     -0.154166
  H       0.572670     -1.294705     -1.249134
  H       0.119932      0.169753     -2.106750
  H      -1.960823     -0.954863     -1.207120
15
Coordinates from ORCA-job freq E -271.013654689392
  C       1.067401     -0.036356      1.213307
  C      -1.466207     -0.387610      0.861303
  C       1.049032      0.533715     -0.184314
  C       0.157282     -0.291192     -1.117916
  C      -1.244907     -0.437100     -0.576996
  O      -1.789141      0.716345      0.077068
  H      -0.240297     -0.238584      1.415186
  H       1.493578     -1.034593      1.295862
  H       1.411093      0.631648      1.997284
  H      -2.257458     -0.888329      1.410746
  H       2.057416      0.580308     -0.605410
  H       0.672747      1.556799     -0.154173
  H       0.572655     -1.294730     -1.249118
  H       0.119949      0.169721     -2.106756
  H      -1.960858     -0.954784     -1.207145
15
Coordinates from ORCA-job freq E -271.013650394923
  C       1.067399     -0.036348      1.213312
  C      -1.466198     -0.387634      0.861306
  C       1.049036      0.533699     -0.184320
  C       0.157272     -0.291200     -1.117923
  C      -1.244924     -0.437080     -0.577000
  O      -1.789098      0.716362      0.077114
  H      -0.240265     -0.238703      1.415157
  H       1.493682     -1.034535      1.295912
  H       1.410976      0.631712      1.997290
  H      -2.257467     -0.888330      1.410745
  H       2.057420      0.580274     -0.605412
  H       0.672767      1.556787     -0.154194
  H       0.572627     -1.294745     -1.249129
  H       0.119954      0.169720     -2.106764
  H      -1.960896     -0.954719     -1.207168
15
Coordinates from ORCA-job freq E -271.013657112312
  C       1.067407     -0.036338      1.213310
  C      -1.466191     -0.387676      0.861301
  C       1.049028      0.533696     -0.184329
  C       0.157270     -0.291221     -1.117918
  C      -1.244941     -0.437046     -0.577012
  O      -1.789030      0.716388      0.077185
  H      -0.240248     -0.238839      1.415137
  H       1.493803     -1.034472      1.295935
  H       1.410877      0.631769      1.997293
  H      -2.257482     -0.888351      1.410735
  H       2.057408      0.580271     -0.605425
  H       0.672749      1.556782     -0.154221
  H       0.572606     -1.294778     -1.249068
  H       0.119986      0.169658     -2.106776
  H      -1.960956     -0.954582     -1.207219
15
Coordinates from ORCA-job freq E -271.013649631732
  C       1.067411     -0.036332      1.213315
  C      -1.466185     -0.387707      0.861293
  C       1.049022      0.533688     -0.184333
  C       0.157264     -0.291238     -1.117922
  C      -1.244955     -0.437018     -0.577024
  O      -1.788981      0.716412      0.077240
  H      -0.240216     -0.238955      1.415118
  H       1.493908     -1.034424      1.295969
  H       1.410785      0.631822      1.997298
  H      -2.257491     -0.888354      1.410723
  H       2.057399      0.580268     -0.605441
  H       0.672737      1.556770     -0.154229
  H       0.572583     -1.294806     -1.249035
  H       0.120003      0.169617     -2.106793
  H      -1.960998     -0.954484     -1.207253
15
Coordinates from ORCA-job freq E -271.013653183250
  C       1.067416     -0.036332      1.213312
  C      -1.466186     -0.387717      0.861292
  C       1.049021      0.533687     -0.184337
  C       0.157262     -0.291247     -1.117921
  C      -1.244965     -0.437001     -0.577028
  O      -1.788949      0.716429      0.077264
  H      -0.240193     -0.239048      1.415098
  H       1.493983     -1.034392      1.295983
  H       1.410722      0.631851      1.997304
  H      -2.257510     -0.888341      1.410717
  H       2.057394      0.580270     -0.605451
  H       0.672722      1.556763     -0.154232
  H       0.572573     -1.294820     -1.249012
  H       0.120017      0.169594     -2.106799
  H      -1.961022     -0.954436     -1.207263
15
Coordinates from ORCA-job freq E -271.013653540593
  C       1.067407     -0.036327      1.213315
  C      -1.466183     -0.387727      0.861298
  C       1.049024      0.533679     -0.184342
  C       0.157256     -0.291247     -1.117927
  C      -1.244970     -0.436997     -0.577026
  O      -1.788928      0.716434      0.077280
  H      -0.240160     -0.239117      1.415079
  H       1.494026     -1.034365      1.296017
  H       1.410657      0.631885      1.997307
  H      -2.257522     -0.888331      1.410720
  H       2.057400      0.580242     -0.605453
  H       0.672739      1.556761     -0.154246
  H       0.572564     -1.294820     -1.249031
  H       0.120008      0.169607     -2.106799
  H      -1.961032     -0.954417     -1.207267
15
Coordinates from ORCA-job freq E -271.013654332738
  C       1.067407     -0.036327      1.213313
  C      -1.466187     -0.387728      0.861301
  C       1.049024      0.533679     -0.184343
  C       0.157253     -0.291249     -1.117922
  C      -1.244976     -0.436993     -0.577023
  O      -1.788915      0.716440      0.077287
  H      -0.240140     -0.239178      1.415058
  H       1.494069     -1.034345      1.296020
  H       1.410616      0.631901      1.997313
  H      -2.257538     -0.888313      1.410720
  H       2.057398      0.580232     -0.605453
  H       0.672746      1.556762     -0.154252
  H       0.572564     -1.294822     -1.249027
  H       0.120007      0.169607     -2.106795
  H      -1.961040     -0.954406     -1.207269
