15
Coordinates from ORCA-job scan E -19.195863625550
  C       1.331863     -0.196890      1.085016
  C      -1.482947     -0.285809      0.851895
  C       1.077186      0.505220     -0.183820
  C       0.150881     -0.366555     -1.046038
  C      -1.314440     -0.199092     -0.692999
  O      -1.674803      0.875151      0.096841
  H      -0.501157     -0.279278      1.383562
  H       2.331489     -0.627253      1.121752
  H       1.029021      0.132604      2.036347
  H      -2.296920     -0.793696      1.218612
  H       1.829652      0.964958     -0.768099
  H       0.476981      1.404669      0.111756
  H       0.358530     -1.437933     -0.802699
  H       0.330035     -0.368712     -2.074786
  H      -2.003086     -0.702125     -1.268414
15
Coordinates from ORCA-job scan E -19.214530735380
  C       1.335038     -0.142367      1.115165
  C      -1.477061     -0.335066      0.836334
  C       1.073620      0.511740     -0.185000
  C       0.148204     -0.379105     -1.035233
  C      -1.311700     -0.192383     -0.662457
  O      -1.639669      0.874562      0.150770
  H      -0.490855     -0.417741      1.330031
  H       2.298571     -0.645095      1.169776
  H       1.064282      0.274640      2.061236
  H      -2.338086     -0.838240      1.207788
  H       1.876533      0.901172     -0.791124
  H       0.494961      1.431099      0.056843
  H       0.345608     -1.445638     -0.797940
  H       0.309967     -0.328179     -2.099550
  H      -2.047127     -0.644139     -1.287711
15
Coordinates from ORCA-job scan E -19.224707521010
  C       1.322785     -0.101635      1.126842
  C      -1.468795     -0.382865      0.829589
  C       1.068595      0.520675     -0.193560
  C       0.153276     -0.385706     -1.037489
  C      -1.301930     -0.201535     -0.630892
  O      -1.622852      0.856766      0.200437
  H      -0.482876     -0.498319      1.322060
  H       2.232124     -0.685741      1.215221
  H       1.076808      0.401162      2.048299
  H      -2.353628     -0.873445      1.211023
  H       1.922205      0.830761     -0.797222
  H       0.513542      1.452688     -0.000616
  H       0.357081     -1.442529     -0.814003
  H       0.289100     -0.271416     -2.115575
  H      -2.063147     -0.593602     -1.295188
15
Coordinates from ORCA-job scan E -19.233309550540
  C       1.285809     -0.045760      1.135806
  C      -1.463054     -0.449379      0.838108
  C       1.073344      0.538851     -0.211685
  C       0.160961     -0.376989     -1.053130
  C      -1.288282     -0.225867     -0.597604
  O      -1.616586      0.815061      0.260541
  H      -0.483253     -0.575490      1.349551
  H       2.083901     -0.760476      1.269935
  H       1.108590      0.564122      2.011264
  H      -2.360334     -0.924540      1.231117
  H       1.986908      0.724629     -0.788960
  H       0.568348      1.500494     -0.087201
  H       0.392963     -1.427326     -0.862797
  H       0.255935     -0.184250     -2.128987
  H      -2.062962     -0.547819     -1.297033
15
Coordinates from ORCA-job scan E -19.238883652120
  C       1.252564      0.000362      1.143416
  C      -1.464090     -0.491396      0.855626
  C       1.083901      0.556338     -0.223684
  C       0.166259     -0.349651     -1.073183
  C      -1.276790     -0.269932     -0.574091
  O      -1.649062      0.768591      0.278092
  H      -0.498111     -0.568062      1.404015
  H       1.881840     -0.858235      1.304616
  H       1.192079      0.684987      1.977540
  H      -2.353925     -0.969062      1.263038
  H       2.041343      0.617902     -0.759895
  H       0.641822      1.549001     -0.161011
  H       0.455764     -1.393699     -0.949890
  H       0.214687     -0.068918     -2.130347
  H      -2.045995     -0.582967     -1.285315
15
Coordinates from ORCA-job scan E -19.241238851530
  C       1.250400      0.008504      1.151870
  C      -1.470814     -0.478524      0.868102
  C       1.084646      0.559009     -0.217125
  C       0.165193     -0.328354     -1.083251
  C      -1.269197     -0.312904     -0.567587
  O      -1.697180      0.747757      0.233570
  H      -0.518268     -0.485073      1.441829
  H       1.753662     -0.930853      1.298964
  H       1.288038      0.703410      1.974791
  H      -2.343199     -0.969649      1.287320
  H       2.054919      0.582498     -0.733414
  H       0.670825      1.563871     -0.170798
  H       0.507196     -1.363316     -1.029837
  H       0.184792      0.013723     -2.119297
  H      -2.018727     -0.684839     -1.266211
15
Coordinates from ORCA-job scan E -19.242592131560
  C       1.255443     -0.001034      1.160615
  C      -1.478169     -0.440534      0.878143
  C       1.079599      0.554286     -0.203635
  C       0.163641     -0.313507     -1.089415
  C      -1.258017     -0.355296     -0.563925
  O      -1.742462      0.734825      0.163316
  H      -0.538813     -0.377171      1.468912
  H       1.651474     -0.994331      1.277537
  H       1.386797      0.679061      1.982198
  H      -2.331768     -0.946929      1.307842
  H       2.053989      0.590328     -0.711818
  H       0.672433      1.563171     -0.151656
  H       0.549043     -1.335901     -1.106913
  H       0.160426      0.077737     -2.106044
  H      -1.981330     -0.809445     -1.236231
15
Coordinates from ORCA-job scan E -19.243079774870
  C       1.259437     -0.020949      1.163992
  C      -1.482557     -0.398373      0.882593
  C       1.073178      0.549984     -0.191046
  C       0.166728     -0.306878     -1.091982
  C      -1.246572     -0.388088     -0.559819
  O      -1.777227      0.724568      0.098401
  H      -0.553894     -0.278985      1.482001
  H       1.585911     -1.042392      1.252100
  H       1.460476      0.637633      1.987780
  H      -2.322251     -0.916823      1.324276
  H       2.047927      0.622389     -0.697370
  H       0.655825      1.555552     -0.121580
  H       0.575267     -1.318711     -1.158297
  H       0.147915      0.117810     -2.096378
  H      -1.947877     -0.911475     -1.205744
15
Coordinates from ORCA-job scan E -19.243218680780
  C       1.254693     -0.022258      1.164825
  C      -1.484411     -0.385196      0.886503
  C       1.073575      0.549650     -0.189332
  C       0.171734     -0.305724     -1.092230
  C      -1.238931     -0.401795     -0.555306
  O      -1.781452      0.719523      0.078918
  H      -0.559782     -0.261212      1.491114
  H       1.535401     -1.057873      1.247329
  H       1.503188      0.626591      1.983060
  H      -2.323296     -0.906361      1.326556
  H       2.047822      0.644187     -0.693684
  H       0.649729      1.554009     -0.115785
  H       0.583714     -1.314761     -1.178563
  H       0.144339      0.131073     -2.091883
  H      -1.934036     -0.944593     -1.192596
15
Coordinates from ORCA-job scan E -19.243278625160
  C       1.257220     -0.038056      1.163072
  C      -1.484333     -0.363771      0.883751
  C       1.068668      0.550650     -0.182911
  C       0.177084     -0.307214     -1.090643
  C      -1.235785     -0.412490     -0.555524
  O      -1.796300      0.715818      0.052216
  H      -0.564035     -0.217925      1.489504
  H       1.527100     -1.077762      1.232570
  H       1.532609      0.600129      1.982495
  H      -2.319399     -0.888368      1.332366
  H       2.040027      0.673786     -0.688586
  H       0.627858      1.547149     -0.094461
  H       0.588854     -1.315185     -1.181763
  H       0.146849      0.136326     -2.089237
  H      -1.924132     -0.977826     -1.183922
15
Coordinates from ORCA-job scan E -19.243309568720
  C       1.255810     -0.033817      1.162405
  C      -1.483736     -0.369866      0.883521
  C       1.069320      0.552524     -0.184989
  C       0.178478     -0.309139     -1.089582
  C      -1.236789     -0.409069     -0.556611
  O      -1.788909      0.718150      0.061841
  H      -0.562579     -0.237531      1.490801
  H       1.526928     -1.072813      1.237204
  H       1.534911      0.607257      1.978638
  H      -2.323015     -0.891621      1.327905
  H       2.039909      0.676728     -0.690910
  H       0.625848      1.548037     -0.098415
  H       0.585250     -1.319786     -1.171684
  H       0.150031      0.128174     -2.090557
  H      -1.929172     -0.961967     -1.190639
15
Coordinates from ORCA-job scan E -19.243318107880
  C       1.256291     -0.033644      1.161905
  C      -1.482665     -0.371303      0.882278
  C       1.067503      0.553801     -0.184977
  C       0.179084     -0.310670     -1.089200
  C      -1.237257     -0.407421     -0.558172
  O      -1.785153      0.720042      0.064602
  H      -0.561302     -0.243870      1.490606
  H       1.528605     -1.072165      1.238210
  H       1.538689      0.608253      1.976536
  H      -2.323772     -0.890962      1.325673
  H       2.037275      0.681264     -0.690936
  H       0.619818      1.547183     -0.097117
  H       0.584262     -1.322524     -1.164344
  H       0.152096      0.121883     -2.091856
  H      -1.931189     -0.954607     -1.194281
15
Coordinates from ORCA-job scan E -19.243320358330
  C       1.256912     -0.034480      1.161545
  C      -1.481998     -0.370719      0.881597
  C       1.065937      0.554280     -0.184548
  C       0.179352     -0.311386     -1.089348
  C      -1.237335     -0.407162     -0.559005
  O      -1.783813      0.721053      0.064192
  H      -0.560743     -0.243888      1.490423
  H       1.528207     -1.073255      1.237614
  H       1.541833      0.606993      1.975640
  H      -2.323474     -0.889372      1.325239
  H       2.035374      0.684979     -0.690105
  H       0.615348      1.546151     -0.094972
  H       0.585112     -1.323293     -1.161560
  H       0.153118      0.118813     -2.092805
  H      -1.931542     -0.953455     -1.194980
15
Coordinates from ORCA-job scan E -19.243320993570
  C       1.257305     -0.035104      1.161283
  C      -1.481688     -0.370054      0.881366
  C       1.065115      0.554386     -0.184308
  C       0.179461     -0.311685     -1.089532
  C      -1.237329     -0.407235     -0.559281
  O      -1.783351      0.721516      0.063431
  H      -0.560519     -0.242843      1.490282
  H       1.527195     -1.074263      1.236860
  H       1.543429      0.605860      1.975321
  H      -2.323125     -0.888289      1.325425
  H       2.034526      0.687195     -0.689411
  H       0.613079      1.545527     -0.093607
  H       0.586160     -1.323320     -1.160801
  H       0.153605      0.117509     -2.093359
  H      -1.931577     -0.953942     -1.194741
15
Coordinates from ORCA-job scan E -19.243221747120
  C       1.252504     -0.036213      1.161236
  C      -1.477154     -0.368937      0.881537
  C       1.063295      0.554325     -0.184363
  C       0.179823     -0.312161     -1.090900
  C      -1.236049     -0.407021     -0.559418
  O      -1.780442      0.722298      0.063545
  H      -0.554011     -0.241571      1.488073
  H       1.522563     -1.075344      1.236587
  H       1.536600      0.604178      1.976438
  H      -2.317673     -0.886694      1.327894
  H       2.033520      0.688078     -0.687655
  H       0.610462      1.545129     -0.093951
  H       0.586656     -1.323745     -1.162142
  H       0.153733      0.117010     -2.094730
  H      -1.931541     -0.954072     -1.193223
15
Coordinates from ORCA-job scan E -19.243223969100
  C       1.252395     -0.034832      1.162236
  C      -1.478493     -0.370229      0.881338
  C       1.064158      0.554242     -0.184349
  C       0.179395     -0.311809     -1.090636
  C      -1.237217     -0.406823     -0.559639
  O      -1.781568      0.721862      0.064481
  H      -0.553990     -0.244200      1.487241
  H       1.522409     -1.073950      1.238183
  H       1.539846      0.606296      1.975741
  H      -2.319081     -0.888300      1.327422
  H       2.034792      0.686424     -0.687348
  H       0.612592      1.545723     -0.095040
  H       0.586075     -1.323403     -1.162039
  H       0.153747      0.117448     -2.094494
  H      -1.932775     -0.953187     -1.194169
15
Coordinates from ORCA-job scan E -19.243223933300
  C       1.253053     -0.036482      1.162569
  C      -1.479601     -0.368588      0.880883
  C       1.063966      0.553854     -0.183522
  C       0.179098     -0.311560     -1.090343
  C      -1.237996     -0.407414     -0.560083
  O      -1.784400      0.721373      0.062008
  H      -0.554349     -0.239487      1.485954
  H       1.526342     -1.074972      1.236566
  H       1.541263      0.604301      1.976121
  H      -2.319219     -0.887115      1.328259
  H       2.034450      0.687163     -0.686467
  H       0.611884      1.545021     -0.093015
  H       0.586246     -1.322936     -1.162020
  H       0.154016      0.118118     -2.094051
  H      -1.932467     -0.956015     -1.193931
15
Coordinates from ORCA-job scan E -19.243121126400
  C       1.248247     -0.037591      1.162514
  C      -1.475061     -0.367474      0.881054
  C       1.062143      0.553793     -0.183578
  C       0.179460     -0.312036     -1.091709
  C      -1.236714     -0.407199     -0.560216
  O      -1.781487      0.722155      0.062130
  H      -0.547843     -0.238225      1.483733
  H       1.521710     -1.076050      1.236295
  H       1.534429      0.602621      1.977235
  H      -2.313755     -0.885519      1.330723
  H       2.033438      0.688046     -0.684709
  H       0.609265      1.544623     -0.093360
  H       0.586741     -1.323361     -1.163361
  H       0.154142      0.117620     -2.095421
  H      -1.932429     -0.956142     -1.192405
15
Coordinates from ORCA-job scan E -19.243120303800
  C       1.246605     -0.032391      1.163749
  C      -1.476196     -0.372912      0.881682
  C       1.064081      0.554085     -0.185137
  C       0.179061     -0.311675     -1.091500
  C      -1.237437     -0.406104     -0.559776
  O      -1.778654      0.721875      0.068231
  H      -0.547494     -0.250863      1.484459
  H       1.516553     -1.071489      1.241617
  H       1.537249      0.610123      1.975150
  H      -2.316644     -0.890353      1.328682
  H       2.036390      0.682963     -0.685602
  H       0.614685      1.546876     -0.099173
  H       0.585344     -1.323398     -1.163084
  H       0.153558      0.117721     -2.095295
  H      -1.934815     -0.949198     -1.195077
15
Coordinates from ORCA-job scan E -19.243124216130
  C       1.247633     -0.035387      1.163686
  C      -1.476778     -0.369877      0.881109
  C       1.063362      0.553654     -0.183957
  C       0.178897     -0.311521     -1.091348
  C      -1.237823     -0.406985     -0.560288
  O      -1.781940      0.721536      0.064325
  H      -0.547969     -0.242960      1.483222
  H       1.521752     -1.073659      1.238767
  H       1.537316      0.606217      1.976161
  H      -2.315834     -0.887928      1.329960
  H       2.035207      0.684809     -0.684662
  H       0.612605      1.545635     -0.095743
  H       0.585758     -1.323000     -1.163298
  H       0.153779      0.118430     -2.094902
  H      -1.933679     -0.953704     -1.194106
15
Coordinates from ORCA-job scan E -19.243124466260
  C       1.247582     -0.035471      1.163684
  C      -1.477048     -0.369955      0.881191
  C       1.063460      0.553549     -0.184031
  C       0.178807     -0.311429     -1.091269
  C      -1.237850     -0.407076     -0.560239
  O      -1.782059      0.721432      0.064399
  H      -0.548074     -0.242763      1.483099
  H       1.522719     -1.073523      1.238671
  H       1.536711      0.606332      1.976226
  H      -2.316019     -0.887956      1.330137
  H       2.035354      0.684304     -0.684676
  H       0.612946      1.545657     -0.095874
  H       0.585678     -1.322917     -1.163351
  H       0.153645      0.118715     -2.094737
  H      -1.933566     -0.953638     -1.194303
15
Coordinates from ORCA-job scan E -19.243017042570
  C       1.242771     -0.036588      1.163619
  C      -1.472508     -0.368834      0.881363
  C       1.061640      0.553488     -0.184086
  C       0.179170     -0.311905     -1.092632
  C      -1.236567     -0.406860     -0.560366
  O      -1.779144      0.722218      0.064519
  H      -0.541577     -0.241490      1.480873
  H       1.518079     -1.074610      1.238392
  H       1.529874      0.604642      1.977336
  H      -2.310549     -0.886354      1.332602
  H       2.034343      0.685185     -0.682915
  H       0.610335      1.545261     -0.096216
  H       0.586174     -1.323341     -1.164686
  H       0.153770      0.118214     -2.096105
  H      -1.933526     -0.953766     -1.192770
15
Coordinates from ORCA-job scan E -19.243019717510
  C       1.242503     -0.034858      1.164758
  C      -1.473981     -0.370533      0.881202
  C       1.062673      0.553382     -0.184160
  C       0.178650     -0.311451     -1.092363
  C      -1.237744     -0.406652     -0.560560
  O      -1.780143      0.721718      0.065923
  H      -0.541583     -0.244902      1.480117
  H       1.518172     -1.072735      1.240497
  H       1.532921      0.607390      1.976554
  H      -2.312148     -0.888373      1.331941
  H       2.035806      0.682675     -0.682748
  H       0.613085      1.546036     -0.097770
  H       0.585287     -1.322992     -1.164726
  H       0.153524      0.118906     -2.095742
  H      -1.934737     -0.952352     -1.193997
15
Coordinates from ORCA-job scan E -19.243019619020
  C       1.243266     -0.036791      1.165352
  C      -1.475573     -0.368661      0.880621
  C       1.062665      0.552829     -0.183122
  C       0.178144     -0.310963     -1.092020
  C      -1.238822     -0.407448     -0.561116
  O      -1.783963      0.721012      0.063048
  H      -0.542097     -0.239203      1.478469
  H       1.523880     -1.073603      1.238946
  H       1.534296      0.605327      1.977098
  H      -2.312442     -0.887219      1.332895
  H       2.035637      0.682581     -0.681782
  H       0.612943      1.545303     -0.095499
  H       0.585128     -1.322321     -1.165020
  H       0.153525      0.120210     -2.095047
  H      -1.934301     -0.955792     -1.193896
15
Coordinates from ORCA-job scan E -19.243020857670
  C       1.242587     -0.035379      1.165078
  C      -1.475113     -0.370301      0.881146
  C       1.062973      0.553017     -0.183967
  C       0.178291     -0.311071     -1.092103
  C      -1.238281     -0.407041     -0.560673
  O      -1.781675      0.721232      0.065318
  H      -0.541932     -0.243259      1.479422
  H       1.521592     -1.072529      1.240140
  H       1.532754      0.607297      1.976699
  H      -2.312780     -0.888303      1.332423
  H       2.036176      0.681445     -0.682471
  H       0.613958      1.545933     -0.097506
  H       0.585014     -1.322568     -1.164929
  H       0.153305      0.119899     -2.095204
  H      -1.934585     -0.953113     -1.194446
15
Coordinates from ORCA-job scan E -19.242910258240
  C       1.237771     -0.036501      1.165003
  C      -1.470571     -0.369177      0.881320
  C       1.061155      0.552956     -0.184023
  C       0.178655     -0.311546     -1.093464
  C      -1.236996     -0.406824     -0.560796
  O      -1.778756      0.722020      0.065441
  H      -0.535442     -0.241984      1.477188
  H       1.516946     -1.073620      1.239859
  H       1.525912      0.605602      1.977803
  H      -2.307302     -0.886697      1.334887
  H       2.035165      0.682326     -0.680709
  H       0.611353      1.545540     -0.097846
  H       0.585510     -1.322991     -1.166261
  H       0.153429      0.119397     -2.096570
  H      -1.934542     -0.953241     -1.192906
15
Coordinates from ORCA-job scan E -19.242912671610
  C       1.237559     -0.034902      1.166089
  C      -1.471958     -0.370736      0.881142
  C       1.062113      0.552846     -0.184063
  C       0.178143     -0.311121     -1.093207
  C      -1.238113     -0.406623     -0.560990
  O      -1.779739      0.721561      0.066715
  H      -0.535425     -0.245111      1.476418
  H       1.517186     -1.071851      1.241831
  H       1.528699      0.608160      1.977116
  H      -2.308779     -0.888584      1.334267
  H       2.036508      0.679933     -0.680555
  H       0.613942      1.546254     -0.099249
  H       0.584646     -1.322671     -1.166318
  H       0.153173      0.120066     -2.096217
  H      -1.935668     -0.951961     -1.194051
15
Coordinates from ORCA-job scan E -19.242912488510
  C       1.238311     -0.036760      1.166662
  C      -1.473489     -0.368953      0.880582
  C       1.062126      0.552305     -0.183073
  C       0.177636     -0.310646     -1.092884
  C      -1.239151     -0.407374     -0.561518
  O      -1.783408      0.720894      0.063983
  H      -0.535902     -0.239656      1.474832
  H       1.522788     -1.072632      1.240383
  H       1.529836      0.606211      1.977687
  H      -2.309054     -0.887499      1.335177
  H       2.036363      0.679726     -0.679671
  H       0.613888      1.545567     -0.097087
  H       0.584456     -1.322027     -1.166642
  H       0.153135      0.121350     -2.095545
  H      -1.935250     -0.955244     -1.193961
15
Coordinates from ORCA-job scan E -19.242913729490
  C       1.237618     -0.035337      1.166395
  C      -1.473048     -0.370602      0.881108
  C       1.062450      0.552493     -0.183916
  C       0.177784     -0.310742     -1.092969
  C      -1.238629     -0.406970     -0.561078
  O      -1.781161      0.721096      0.066253
  H      -0.535747     -0.243705      1.475792
  H       1.520502     -1.071551      1.241581
  H       1.528343      0.608193      1.977272
  H      -2.309406     -0.888607      1.334710
  H       2.036924      0.678574     -0.680347
  H       0.614933      1.546198     -0.099103
  H       0.584346     -1.322256     -1.166557
  H       0.152926      0.121055     -2.095702
  H      -1.935549     -0.952579     -1.194512
15
Coordinates from ORCA-job scan E -19.242799550140
  C       1.232797     -0.036464      1.166310
  C      -1.468504     -0.369475      0.881284
  C       1.060633      0.552432     -0.183972
  C       0.178148     -0.311216     -1.094327
  C      -1.237343     -0.406751     -0.561196
  O      -1.778239      0.721886      0.066379
  H      -0.529263     -0.242427      1.473549
  H       1.515849     -1.072646      1.241298
  H       1.521495      0.606491      1.978369
  H      -2.303920     -0.886997      1.337174
  H       2.035912      0.679454     -0.678583
  H       0.612332      1.545807     -0.099440
  H       0.584843     -1.322678     -1.167886
  H       0.153050      0.120551     -2.097067
  H      -1.935504     -0.952707     -1.192964
15
Coordinates from ORCA-job scan E -19.242802017700
  C       1.232606     -0.034867      1.167412
  C      -1.469909     -0.371022      0.881087
  C       1.061581      0.552320     -0.183991
  C       0.177629     -0.310793     -1.094062
  C      -1.238476     -0.406548     -0.561403
  O      -1.779256      0.721426      0.067622
  H      -0.529227     -0.245534      1.472758
  H       1.516132     -1.070872      1.243267
  H       1.524347      0.609044      1.977682
  H      -2.305411     -0.888884      1.336538
  H       2.037230      0.677070     -0.678421
  H       0.614905      1.546510     -0.100810
  H       0.583971     -1.322358     -1.167929
  H       0.152802      0.121215     -2.096707
  H      -1.936637     -0.951446     -1.194116
15
Coordinates from ORCA-job scan E -19.242801684580
  C       1.233398     -0.036823      1.167987
  C      -1.471468     -0.369146      0.880504
  C       1.061576      0.551767     -0.182962
  C       0.177119     -0.310316     -1.093734
  C      -1.239529     -0.407325     -0.561948
  O      -1.783031      0.720752      0.064769
  H      -0.529707     -0.239847      1.471160
  H       1.521888     -1.071709      1.241745
  H       1.525505      0.606974      1.978282
  H      -2.305681     -0.887718      1.337468
  H       2.037047      0.676918     -0.677523
  H       0.614788      1.545785     -0.098540
  H       0.583794     -1.321703     -1.168258
  H       0.152777      0.122513     -2.096024
  H      -1.936191     -0.954863     -1.193999
15
Coordinates from ORCA-job scan E -19.242803081200
  C       1.232662     -0.035317      1.167700
  C      -1.470989     -0.370881      0.881058
  C       1.061917      0.551972     -0.183849
  C       0.177282     -0.310417     -1.093831
  C      -1.238977     -0.406897     -0.561486
  O      -1.780665      0.720963      0.067156
  H      -0.529545     -0.244108      1.472182
  H       1.519423     -1.070582      1.243003
  H       1.523961      0.609052      1.977837
  H      -2.306038     -0.888890      1.336977
  H       2.037637      0.675738     -0.678225
  H       0.615876      1.546447     -0.100659
  H       0.583688     -1.321944     -1.168171
  H       0.152564      0.122193     -2.096202
  H      -1.936510     -0.952070     -1.194563
15
Coordinates from ORCA-job scan E -19.242685284070
  C       1.227835     -0.036449      1.167605
  C      -1.466442     -0.369751      0.881235
  C       1.060102      0.551911     -0.183906
  C       0.177646     -0.310890     -1.095188
  C      -1.237690     -0.406677     -0.561598
  O      -1.777740      0.721755      0.067285
  H      -0.523067     -0.242828      1.469931
  H       1.514764     -1.071681      1.242719
  H       1.517108      0.607345      1.978928
  H      -2.300543     -0.887276      1.339440
  H       2.036625      0.676617     -0.676460
  H       0.613280      1.546059     -0.100994
  H       0.584185     -1.322365     -1.169498
  H       0.152686      0.121689     -2.097566
  H      -1.936464     -0.952198     -1.193008
15
Coordinates from ORCA-job scan E -19.242687850170
  C       1.227659     -0.034833      1.168731
  C      -1.467878     -0.371308      0.881021
  C       1.061048      0.551796     -0.183910
  C       0.177116     -0.310467     -1.094909
  C      -1.238843     -0.406472     -0.561816
  O      -1.778783      0.721292      0.068522
  H      -0.523012     -0.245965      1.469111
  H       1.515077     -1.069883      1.244708
  H       1.520048      0.609926      1.978229
  H      -2.302067     -0.889183      1.338781
  H       2.037933      0.674222     -0.676289
  H       0.615862      1.546758     -0.102353
  H       0.583297     -1.322048     -1.169526
  H       0.152440      0.122353     -2.097192
  H      -1.937610     -0.950929     -1.194182
15
Coordinates from ORCA-job scan E -19.242687342220
  C       1.228506     -0.036912      1.169318
  C      -1.469497     -0.369315      0.880408
  C       1.061029      0.551223     -0.182831
  C       0.176595     -0.309980     -1.094569
  C      -1.239925     -0.407289     -0.562384
  O      -1.782717      0.720601      0.065509
  H      -0.523501     -0.239967      1.467470
  H       1.521061     -1.070786      1.243095
  H       1.521260      0.607709      1.978862
  H      -2.302344     -0.887920      1.339744
  H       2.037714      0.674129     -0.675360
  H       0.615683      1.545986     -0.099944
  H       0.583128     -1.321374     -1.169864
  H       0.152420      0.123684     -2.096487
  H      -1.937126     -0.954530     -1.194042
15
Coordinates from ORCA-job scan E -19.242688950240
  C       1.227715     -0.035310      1.169003
  C      -1.468965     -0.371152      0.880999
  C       1.061388      0.551449     -0.183775
  C       0.176779     -0.310091     -1.094682
  C      -1.239332     -0.406832     -0.561892
  O      -1.780195      0.720826      0.068042
  H      -0.523329     -0.244486      1.468574
  H       1.518375     -1.069607      1.244422
  H       1.519631      0.609901      1.978384
  H      -2.302703     -0.889167      1.339225
  H       2.038336      0.672916     -0.676098
  H       0.616819      1.546686     -0.102190
  H       0.583029     -1.321630     -1.169775
  H       0.152203      0.123331     -2.096690
  H      -1.937466     -0.951575     -1.194620
15
Coordinates from ORCA-job scan E -19.242567571760
  C       1.222884     -0.036447      1.168897
  C      -1.464415     -0.370019      0.881178
  C       1.059574      0.551388     -0.183831
  C       0.177143     -0.310563     -1.096036
  C      -1.238042     -0.406611     -0.561999
  O      -1.777267      0.721619      0.068174
  H      -0.516858     -0.243203      1.466315
  H       1.513711     -1.070710      1.244136
  H       1.512773      0.608188      1.979469
  H      -2.297200     -0.887549      1.341687
  H       2.037324      0.673794     -0.674331
  H       0.614228      1.546301     -0.102522
  H       0.583527     -1.322051     -1.171098
  H       0.152323      0.122826     -2.098053
  H      -1.937417     -0.951703     -1.193057
15
Coordinates from ORCA-job scan E -19.242570239260
  C       1.222724     -0.034810      1.170047
  C      -1.465884     -0.371588      0.880947
  C       1.060520      0.551270     -0.183822
  C       0.176603     -0.310140     -1.095745
  C      -1.239215     -0.406403     -0.562227
  O      -1.778335      0.721153      0.069406
  H      -0.516782     -0.246370      1.465466
  H       1.514052     -1.068887      1.246145
  H       1.515797      0.610798      1.978759
  H      -2.298757     -0.889477      1.341006
  H       2.038622      0.671388     -0.674152
  H       0.616818      1.546997     -0.103870
  H       0.582623     -1.321736     -1.171113
  H       0.152077      0.123490     -2.097666
  H      -1.938575     -0.950425     -1.194254
15
Coordinates from ORCA-job scan E -19.242569529050
  C       1.223629     -0.037018      1.170647
  C      -1.467568     -0.369475      0.880304
  C       1.060486      0.550676     -0.182692
  C       0.176070     -0.309644     -1.095392
  C      -1.240327     -0.407262     -0.562817
  O      -1.782437      0.720445      0.066229
  H      -0.517280     -0.240049      1.463778
  H       1.520272     -1.069857      1.244437
  H       1.517065      0.608431      1.979426
  H      -2.299043     -0.888116      1.342004
  H       2.038369      0.671353     -0.673191
  H       0.616580      1.546178     -0.101318
  H       0.582461     -1.321043     -1.171461
  H       0.152060      0.124856     -2.096936
  H      -1.938051     -0.954215     -1.194092
15
Coordinates from ORCA-job scan E -19.242571380860
  C       1.222780     -0.035313      1.170301
  C      -1.466980     -0.371419      0.880933
  C       1.060864      0.550923     -0.183695
  C       0.176275     -0.309764     -1.095521
  C      -1.239690     -0.406774     -0.562294
  O      -1.779752      0.720684      0.068915
  H      -0.517099     -0.244838      1.464967
  H       1.517358     -1.068623      1.245836
  H       1.515345      0.610743      1.978913
  H      -2.299403     -0.889442      1.341456
  H       2.039025      0.670102     -0.673966
  H       0.617767      1.546917     -0.103698
  H       0.582370     -1.321315     -1.171370
  H       0.151837      0.124470     -2.097166
  H      -1.938412     -0.951091     -1.194684
15
Coordinates from ORCA-job scan E -19.242446467980
  C       1.217944     -0.036455      1.170185
  C      -1.462429     -0.370284      0.881114
  C       1.059051      0.550863     -0.183752
  C       0.176640     -0.310235     -1.096874
  C      -1.238399     -0.406552     -0.562396
  O      -1.776820      0.721479      0.069050
  H      -0.510635     -0.243553      1.462700
  H       1.512688     -1.069731      1.245549
  H       1.508482      0.609024      1.979992
  H      -2.293893     -0.887820      1.343917
  H       2.038013      0.670980     -0.672197
  H       0.615181      1.546534     -0.104028
  H       0.582868     -1.321735     -1.172690
  H       0.151957      0.123964     -2.098528
  H      -1.938361     -0.951219     -1.193114
15
Coordinates from ORCA-job scan E -19.242449240180
  C       1.217800     -0.034799      1.171359
  C      -1.463930     -0.371863      0.880866
  C       1.059996      0.550743     -0.183729
  C       0.176089     -0.309813     -1.096569
  C      -1.239590     -0.406341     -0.562634
  O      -1.777914      0.721011      0.070276
  H      -0.510536     -0.246748      1.461822
  H       1.513057     -1.067883      1.247576
  H       1.511590      0.611661      1.979272
  H      -2.295482     -0.889769      1.343214
  H       2.039300      0.668564     -0.672010
  H       0.617779      1.547226     -0.105364
  H       0.581948     -1.321422     -1.172690
  H       0.151710      0.124626     -2.098128
  H      -1.939530     -0.949933     -1.194333
15
Coordinates from ORCA-job scan E -19.242448295010
  C       1.218766     -0.037139      1.171972
  C      -1.465682     -0.369626      0.880191
  C       1.059948      0.550126     -0.182545
  C       0.175544     -0.309307     -1.096202
  C      -1.240734     -0.407242     -0.563247
  O      -1.782189      0.720284      0.066929
  H      -0.511042     -0.240093      1.460088
  H       1.519522     -1.068923      1.245772
  H       1.512918      0.609140      1.979973
  H      -2.295780     -0.888307      1.344247
  H       2.039012      0.668589     -0.671017
  H       0.617479      1.546358     -0.102664
  H       0.581794     -1.320710     -1.173049
  H       0.151696      0.126028     -2.097372
  H      -1.938964     -0.953917     -1.194149
15
Coordinates from ORCA-job scan E -19.242450425890
  C       1.217856     -0.035327      1.171593
  C      -1.465036     -0.371684      0.880861
  C       1.060346      0.550396     -0.183610
  C       0.175771     -0.309436     -1.096348
  C      -1.240052     -0.406722     -0.562691
  O      -1.779333      0.720538      0.069775
  H      -0.510854     -0.245164      1.461367
  H       1.516372     -1.067632      1.247244
  H       1.511101      0.611577      1.979424
  H      -2.296142     -0.889716      1.343670
  H       2.039705      0.667299     -0.671831
  H       0.618721      1.547139     -0.105185
  H       0.581710     -1.320998     -1.172956
  H       0.151468      0.125608     -2.097630
  H      -1.939347     -0.950617     -1.194756
15
Coordinates from ORCA-job scan E -19.242322034880
  C       1.213014     -0.036474      1.171468
  C      -1.460482     -0.370545      0.881044
  C       1.058535      0.550335     -0.183667
  C       0.176136     -0.309907     -1.097699
  C      -1.238759     -0.406499     -0.562788
  O      -1.776398      0.721335      0.069913
  H      -0.504396     -0.243878      1.459091
  H       1.511695     -1.068743      1.246956
  H       1.504233      0.609853      1.980497
  H      -2.290623     -0.888091      1.346130
  H       2.038693      0.668175     -0.670061
  H       0.616139      1.546759     -0.105512
  H       0.582209     -1.321417     -1.174274
  H       0.151586      0.125101     -2.098991
  H      -1.939295     -0.950745     -1.193179
15
Coordinates from ORCA-job scan E -19.242324916510
  C       1.212889     -0.034798      1.172666
  C      -1.462017     -0.372134      0.880779
  C       1.059478      0.550213     -0.183630
  C       0.175574     -0.309485     -1.097380
  C      -1.239969     -0.406286     -0.563036
  O      -1.777518      0.720864      0.071132
  H      -0.504274     -0.247099      1.458183
  H       1.512093     -1.066872      1.249003
  H       1.507426      0.612516      1.979767
  H      -2.292246     -0.890060      1.345404
  H       2.039967      0.665751     -0.669866
  H       0.618744      1.547447     -0.106836
  H       0.581273     -1.321108     -1.174259
  H       0.151339      0.125760     -2.098578
  H      -1.940475     -0.949451     -1.194421
15
Coordinates from ORCA-job scan E -19.242323698750
  C       1.213919     -0.037277      1.173293
  C      -1.463841     -0.369769      0.880070
  C       1.059414      0.549574     -0.182392
  C       0.175017     -0.308970     -1.096999
  C      -1.241145     -0.407230     -0.563674
  O      -1.781973      0.720119      0.067608
  H      -0.504788     -0.240098      1.456402
  H       1.518810     -1.067984      1.247096
  H       1.508817      0.609833      1.980505
  H      -2.292557     -0.888491      1.346472
  H       2.039643      0.665838     -0.668840
  H       0.618379      1.546529     -0.103981
  H       0.581127     -1.320375     -1.174628
  H       0.151328      0.127199     -2.097795
  H      -1.939864     -0.953637     -1.194213
15
Coordinates from ORCA-job scan E -19.242326148740
  C       1.212943     -0.035352      1.172880
  C      -1.463135     -0.371946      0.880784
  C       1.059835      0.549868     -0.183521
  C       0.175268     -0.309108     -1.097164
  C      -1.240416     -0.406677     -0.563083
  O      -1.778939      0.720387      0.070623
  H      -0.504592     -0.245466      1.457775
  H       1.515415     -1.066631      1.248647
  H       1.506898      0.612403      1.979917
  H      -2.292921     -0.889990      1.345865
  H       2.040375      0.664505     -0.669694
  H       0.619680      1.547354     -0.106650
  H       0.581051     -1.320679     -1.174533
  H       0.151095      0.126744     -2.098083
  H      -1.940272     -0.950152     -1.194836
15
Coordinates from ORCA-job scan E -19.242194347730
  C       1.208097     -0.036504      1.172745
  C      -1.458579     -0.370804      0.880968
  C       1.058025      0.549807     -0.183579
  C       0.175633     -0.309577     -1.098512
  C      -1.239122     -0.406453     -0.563175
  O      -1.776002      0.721186      0.070765
  H      -0.498140     -0.244177      1.455491
  H       1.510733     -1.067746      1.248358
  H       1.500024      0.610673      1.980984
  H      -2.287394     -0.888360      1.348324
  H       2.039363      0.665381     -0.667922
  H       0.617103      1.546975     -0.106976
  H       0.581551     -1.321098     -1.175848
  H       0.151212      0.126237     -2.099442
  H      -1.940217     -0.950279     -1.193252
15
Coordinates from ORCA-job scan E -19.242197343970
  C       1.207991     -0.034809      1.173967
  C      -1.460148     -0.372402      0.880685
  C       1.058966      0.549682     -0.183526
  C       0.175060     -0.309156     -1.098180
  C      -1.240351     -0.406237     -0.563434
  O      -1.777149      0.720713      0.071974
  H      -0.497993     -0.247425      1.454552
  H       1.511160     -1.065853      1.250422
  H       1.503307      0.613362      1.980245
  H      -2.289050     -0.890349      1.347575
  H       2.040625      0.662949     -0.667719
  H       0.619713      1.547660     -0.108285
  H       0.580599     -1.320792     -1.175817
  H       0.150965      0.126893     -2.099015
  H      -1.941408     -0.948979     -1.194517
15
Coordinates from ORCA-job scan E -19.242195810940
  C       1.209089     -0.037432      1.174609
  C      -1.462047     -0.369904      0.879941
  C       1.058887      0.549019     -0.182231
  C       0.174490     -0.308632     -1.097782
  C      -1.241560     -0.407227     -0.564096
  O      -1.781789      0.719951      0.068268
  H      -0.498515     -0.240063      1.452726
  H       1.518137     -1.067040      1.248410
  H       1.504762      0.610510      1.981019
  H      -2.289377     -0.888670      1.348679
  H       2.040262      0.663103     -0.666661
  H       0.619280      1.546690     -0.105270
  H       0.580462     -1.320039     -1.176195
  H       0.150956      0.128368     -2.098204
  H      -1.940751     -0.953374     -1.194285
15
Coordinates from ORCA-job scan E -19.242198625450
  C       1.208043     -0.035387      1.174161
  C      -1.461279     -0.372206      0.880701
  C       1.059331      0.549338     -0.183429
  C       0.174765     -0.308779     -1.097966
  C      -1.240782     -0.406638     -0.563470
  O      -1.778571      0.720233      0.071460
  H      -0.498312     -0.245743      1.454196
  H       1.514489     -1.065622      1.250043
  H       1.502736      0.613221      1.980392
  H      -2.289743     -0.890263      1.348041
  H       2.041037      0.661721     -0.667556
  H       0.620646      1.547561     -0.108095
  H       0.580393     -1.320360     -1.176100
  H       0.150717      0.127879     -2.098523
  H      -1.941185     -0.949695     -1.194925
15
Coordinates from ORCA-job scan E -19.242198747960
  C       1.207990     -0.035239      1.174153
  C      -1.461301     -0.372444      0.880765
  C       1.059442      0.549306     -0.183551
  C       0.174690     -0.308741     -1.097966
  C      -1.240737     -0.406577     -0.563392
  O      -1.778388      0.720246      0.071805
  H      -0.498316     -0.246120      1.454088
  H       1.514756     -1.065358      1.250254
  H       1.501985      0.613563      1.980487
  H      -2.289734     -0.890511      1.348088
  H       2.041198      0.661160     -0.667673
  H       0.621089      1.547681     -0.108387
  H       0.580252     -1.320359     -1.176220
  H       0.150521      0.128020     -2.098480
  H      -1.941162     -0.949369     -1.195045
15
Coordinates from ORCA-job scan E -19.242063557090
  C       1.203139     -0.036396      1.174006
  C      -1.456743     -0.371299      0.880952
  C       1.057634      0.549246     -0.183608
  C       0.175055     -0.309210     -1.099313
  C      -1.239441     -0.406351     -0.563478
  O      -1.775448      0.721047      0.071950
  H      -0.491871     -0.244827      1.451796
  H       1.510066     -1.066477      1.249963
  H       1.495106      0.611826      1.981547
  H      -2.284199     -0.888877      1.350547
  H       2.040186      0.662035     -0.665900
  H       0.618517      1.547306     -0.108709
  H       0.580752     -1.320777     -1.177533
  H       0.150637      0.127511     -2.099838
  H      -1.941105     -0.949496     -1.193454
15
Coordinates from ORCA-job scan E -19.242066902450
  C       1.203155     -0.034933      1.175261
  C      -1.458389     -0.372619      0.880583
  C       1.058500      0.549103     -0.183406
  C       0.174488     -0.308786     -1.098964
  C      -1.240758     -0.406201     -0.563814
  O      -1.776964      0.720541      0.072756
  H      -0.491722     -0.247408      1.450789
  H       1.510764     -1.064790      1.251795
  H       1.498768      0.614157      1.980835
  H      -2.285836     -0.890664      1.349847
  H       2.041319      0.659885     -0.665591
  H       0.620872      1.547865     -0.109663
  H       0.579864     -1.320430     -1.177473
  H       0.150491      0.128164     -2.099397
  H      -1.942265     -0.948624     -1.194630
15
Coordinates from ORCA-job scan E -19.242065287290
  C       1.204162     -0.037566      1.175709
  C      -1.460037     -0.370136      0.879940
  C       1.058333      0.548510     -0.182217
  C       0.174056     -0.308343     -1.098626
  C      -1.241758     -0.407166     -0.564400
  O      -1.781175      0.719857      0.069163
  H      -0.492222     -0.240215      1.449356
  H       1.517131     -1.066115      1.249662
  H       1.499944      0.611187      1.981564
  H      -2.286066     -0.888856      1.350923
  H       2.040851      0.660373     -0.664637
  H       0.620133      1.546876     -0.106733
  H       0.579898     -1.319744     -1.177786
  H       0.150582      0.129432     -2.098696
  H      -1.941546     -0.952834     -1.194295
15
Coordinates from ORCA-job scan E -19.242067984320
  C       1.203129     -0.035368      1.175434
  C      -1.459494     -0.372569      0.880636
  C       1.058883      0.548799     -0.183371
  C       0.174242     -0.308429     -1.098760
  C      -1.241158     -0.406572     -0.563827
  O      -1.778198      0.720067      0.072409
  H      -0.492014     -0.246134      1.450639
  H       1.513692     -1.064497      1.251503
  H       1.498386      0.614163      1.980865
  H      -2.286628     -0.890650      1.350212
  H       2.041759      0.658722     -0.665466
  H       0.621793      1.547805     -0.109636
  H       0.579700     -1.320021     -1.177692
  H       0.150303      0.129054     -2.098944
  H      -1.942108     -0.949109     -1.195075
15
Coordinates from ORCA-job scan E -19.242068087500
  C       1.203104     -0.035264      1.175433
  C      -1.459493     -0.372739      0.880674
  C       1.058960      0.548771     -0.183459
  C       0.174171     -0.308404     -1.098760
  C      -1.241111     -0.406518     -0.563769
  O      -1.778046      0.720091      0.072673
  H      -0.492015     -0.246406      1.450493
  H       1.513927     -1.064294      1.251678
  H       1.497748      0.614421      1.980969
  H      -2.286581     -0.890837      1.350256
  H       2.041869      0.658275     -0.665556
  H       0.622137      1.547899     -0.109843
  H       0.579569     -1.320033     -1.177795
  H       0.150120      0.129168     -2.098909
  H      -1.942071     -0.948872     -1.195159
15
Coordinates from ORCA-job scan E -19.241929650360
  C       1.198248     -0.036426      1.175277
  C      -1.454932     -0.371592      0.880863
  C       1.057153      0.548711     -0.183517
  C       0.174537     -0.308872     -1.100105
  C      -1.239814     -0.406291     -0.563850
  O      -1.775102      0.720894      0.072821
  H      -0.485576     -0.245111      1.448192
  H       1.509231     -1.065417      1.251387
  H       1.490863      0.612679      1.982022
  H      -2.281039     -0.889200      1.352714
  H       2.040857      0.659150     -0.663781
  H       0.619570      1.547526     -0.110163
  H       0.580069     -1.320450     -1.179106
  H       0.150234      0.128659     -2.100265
  H      -1.942013     -0.948999     -1.193561
15
Coordinates from ORCA-job scan E -19.241933140480
  C       1.198278     -0.034940      1.176554
  C      -1.456618     -0.372924      0.880480
  C       1.058019      0.548568     -0.183304
  C       0.173964     -0.308450     -1.099740
  C      -1.241150     -0.406144     -0.564196
  O      -1.776640      0.720383      0.073621
  H      -0.485401     -0.247734      1.447176
  H       1.509930     -1.063710      1.253234
  H       1.494651      0.615037      1.981287
  H      -2.282728     -0.891001      1.351983
  H       2.041980      0.657014     -0.663463
  H       0.621921      1.548080     -0.111110
  H       0.579172     -1.320107     -1.179021
  H       0.150097      0.129304     -2.099811
  H      -1.943187     -0.948115     -1.194764
15
Coordinates from ORCA-job scan E -19.241931125530
  C       1.199360     -0.037756      1.177007
  C      -1.458345     -0.370266      0.879801
  C       1.057826      0.547951     -0.182050
  C       0.173529     -0.307999     -1.099386
  C      -1.242182     -0.407173     -0.564811
  O      -1.781062      0.719677      0.069795
  H      -0.485914     -0.240096      1.445718
  H       1.516566     -1.065152      1.250950
  H       1.495934      0.611837      1.982050
  H      -2.282978     -0.889035      1.353101
  H       2.041460      0.657636     -0.662463
  H       0.621061      1.547023     -0.107980
  H       0.579233     -1.319399     -1.179336
  H       0.150206      0.130604     -2.099082
  H      -1.942409     -0.952592     -1.194387
15
Coordinates from ORCA-job scan E -19.241934260140
  C       1.198255     -0.035420      1.176698
  C      -1.457728     -0.372838      0.880543
  C       1.058398      0.548268     -0.183276
  C       0.173738     -0.308097     -1.099540
  C      -1.241527     -0.406536     -0.564200
  O      -1.777875      0.719908      0.073238
  H      -0.485692     -0.246373      1.447095
  H       1.512841     -1.063459      1.252889
  H       1.494262      0.614974      1.981310
  H      -2.283536     -0.890937      1.352350
  H       2.042408      0.655932     -0.663337
  H       0.622790      1.548003     -0.111053
  H       0.579038     -1.319699     -1.179239
  H       0.149915      0.130183     -2.099364
  H      -1.943000     -0.948648     -1.195187
15
Coordinates from ORCA-job scan E -19.241934362880
  C       1.198234     -0.035320      1.176704
  C      -1.457732     -0.373000      0.880574
  C       1.058472      0.548239     -0.183358
  C       0.173665     -0.308072     -1.099538
  C      -1.241483     -0.406485     -0.564145
  O      -1.777736      0.719930      0.073489
  H      -0.485696     -0.246630      1.446933
  H       1.513073     -1.063261      1.253067
  H       1.493665      0.615227      1.981411
  H      -2.283488     -0.891120      1.352392
  H       2.042512      0.655496     -0.663418
  H       0.623126      1.548093     -0.111248
  H       0.578905     -1.319710     -1.179342
  H       0.149729      0.130299     -2.099325
  H      -1.942960     -0.948426     -1.195270
15
Coordinates from ORCA-job scan E -19.241792795310
  C       1.193372     -0.036487      1.176537
  C      -1.453169     -0.371850      0.880765
  C       1.056667      0.548179     -0.183416
  C       0.174031     -0.308540     -1.100881
  C      -1.240184     -0.406258     -0.564221
  O      -1.774789      0.720735      0.073641
  H      -0.479263     -0.245333      1.444623
  H       1.508371     -1.064388      1.252775
  H       1.486775      0.613479      1.982458
  H      -2.277938     -0.889479      1.354849
  H       2.041500      0.656370     -0.661642
  H       0.620563      1.547722     -0.111565
  H       0.579406     -1.320126     -1.180650
  H       0.149843      0.129788     -2.100681
  H      -1.942900     -0.948553     -1.193665
15
Coordinates from ORCA-job scan E -19.241796428370
  C       1.193420     -0.034976      1.177836
  C      -1.454893     -0.373197      0.880368
  C       1.057532      0.548036     -0.183193
  C       0.173451     -0.308119     -1.100501
  C      -1.241538     -0.406109     -0.564575
  O      -1.776346      0.720220      0.074439
  H      -0.479060     -0.247998      1.443593
  H       1.509082     -1.062656      1.254640
  H       1.490655      0.615869      1.981708
  H      -2.279673     -0.891302      1.354091
  H       2.042615      0.654230     -0.661319
  H       0.622920      1.548275     -0.112506
  H       0.578497     -1.319787     -1.180547
  H       0.149708      0.130428     -2.100213
  H      -1.944087     -0.947653     -1.194894
15
Coordinates from ORCA-job scan E -19.241793968700
  C       1.194578     -0.037967      1.178299
  C      -1.456705     -0.370377      0.879653
  C       1.057322      0.547393     -0.181875
  C       0.173006     -0.307658     -1.100131
  C      -1.242605     -0.407195     -0.565217
  O      -1.780985      0.719493      0.070393
  H      -0.479582     -0.239926      1.442102
  H       1.516011     -1.064197      1.252219
  H       1.492015      0.612458      1.982511
  H      -2.279944     -0.889198      1.355251
  H       2.042053      0.654947     -0.660282
  H       0.621971      1.547155     -0.109187
  H       0.578578     -1.319055     -1.180872
  H       0.149825      0.131768     -2.099455
  H      -1.943252     -0.952381     -1.194483
15
Coordinates from ORCA-job scan E -19.241797601480
  C       1.193396     -0.035488      1.177954
  C      -1.456017     -0.373095      0.880443
  C       1.057919      0.547737     -0.183177
  C       0.173238     -0.307767     -1.100305
  C      -1.241898     -0.406515     -0.564566
  O      -1.777584      0.719742      0.074042
  H      -0.479350     -0.246573      1.443579
  H       1.512006     -1.062423      1.254258
  H       1.490222      0.615765      1.981728
  H      -2.280504     -0.891214      1.354461
  H       2.043046      0.653181     -0.661202
  H       0.623777      1.548189     -0.112439
  H       0.578385     -1.319376     -1.180773
  H       0.149524      0.131307     -2.099769
  H      -1.943875     -0.948211     -1.195305
15
Coordinates from ORCA-job scan E -19.241797707000
  C       1.193379     -0.035388      1.177967
  C      -1.456023     -0.373253      0.880469
  C       1.057990      0.547707     -0.183253
  C       0.173162     -0.307742     -1.100301
  C      -1.241854     -0.406465     -0.564514
  O      -1.777454      0.719763      0.074286
  H      -0.479354     -0.246821      1.443399
  H       1.512235     -1.062227      1.254442
  H       1.489651      0.616017      1.981828
  H      -2.280452     -0.891396      1.354502
  H       2.043145      0.652747     -0.661277
  H       0.624109      1.548278     -0.112626
  H       0.578248     -1.319387     -1.180877
  H       0.149334      0.131425     -2.099728
  H      -1.943831     -0.947997     -1.195389
15
Coordinates from ORCA-job scan E -19.241653142040
  C       1.188512     -0.036560      1.177789
  C      -1.451458     -0.372100      0.880661
  C       1.056186      0.547647     -0.183312
  C       0.173529     -0.308208     -1.101642
  C      -1.240553     -0.406237     -0.564585
  O      -1.774504      0.720570      0.074441
  H      -0.472927     -0.245522      1.441080
  H       1.507527     -1.063358      1.254149
  H       1.482756      0.614264      1.982870
  H      -2.274894     -0.889751      1.356959
  H       2.042133      0.653620     -0.659499
  H       0.621552      1.547909     -0.112941
  H       0.578750     -1.319803     -1.182182
  H       0.149446      0.130914     -2.101083
  H      -1.943769     -0.948124     -1.193777
15
Coordinates from ORCA-job scan E -19.241656922900
  C       1.188580     -0.035028      1.179110
  C      -1.453219     -0.373460      0.880250
  C       1.057051      0.547503     -0.183077
  C       0.172941     -0.307789     -1.101248
  C      -1.241924     -0.406087     -0.564947
  O      -1.776084      0.720053      0.075234
  H      -0.472695     -0.248220      1.440035
  H       1.508259     -1.061604      1.256029
  H       1.486721      0.616679      1.982107
  H      -2.276672     -0.891594      1.356175
  H       2.043238      0.651477     -0.659173
  H       0.623913      1.548459     -0.113873
  H       0.577829     -1.319467     -1.182061
  H       0.149315      0.131548     -2.100602
  H      -1.944967     -0.947211     -1.195031
15
Coordinates from ORCA-job scan E -19.241653963420
  C       1.189816     -0.038194      1.179580
  C      -1.455120     -0.370482      0.879500
  C       1.056824      0.546835     -0.181698
  C       0.172487     -0.307318     -1.100862
  C      -1.243028     -0.407227     -0.565615
  O      -1.780936      0.719305      0.070973
  H      -0.473226     -0.239718      1.438519
  H       1.515485     -1.063239      1.253473
  H       1.488148      0.613060      1.982952
  H      -2.276969     -0.889354      1.357375
  H       2.042636      0.652282     -0.658102
  H       0.622879      1.547278     -0.110369
  H       0.577928     -1.318710     -1.182396
  H       0.149440      0.132927     -2.099815
  H      -1.944077     -0.952186     -1.194588
15
Coordinates from ORCA-job scan E -19.241658153170
  C       1.188554     -0.035566      1.179201
  C      -1.454363     -0.373352      0.880339
  C       1.057450      0.547207     -0.183076
  C       0.172741     -0.307436     -1.101056
  C      -1.242268     -0.406504     -0.564925
  O      -1.777322      0.719571      0.074833
  H      -0.472983     -0.246747      1.440094
  H       1.511198     -1.061379      1.255616
  H       1.486235      0.616546      1.982123
  H      -2.277533     -0.891489      1.356545
  H       2.043678      0.650446     -0.659068
  H       0.624770      1.548368     -0.113806
  H       0.577735     -1.319051     -1.182296
  H       0.149128      0.132428     -2.100161
  H      -1.944734     -0.947783     -1.195435
15
Coordinates from ORCA-job scan E -19.241658262130
  C       1.188541     -0.035468      1.179221
  C      -1.454369     -0.373504      0.880357
  C       1.057516      0.547176     -0.183147
  C       0.172662     -0.307411     -1.101051
  C      -1.242225     -0.406454     -0.564876
  O      -1.777200      0.719592      0.075069
  H      -0.472988     -0.246985      1.439893
  H       1.511425     -1.061186      1.255805
  H       1.485690      0.616796      1.982225
  H      -2.277472     -0.891670      1.356587
  H       2.043770      0.650015     -0.659137
  H       0.625096      1.548455     -0.113983
  H       0.577594     -1.319063     -1.182399
  H       0.148933      0.132546     -2.100118
  H      -1.944686     -0.947578     -1.195518
15
Coordinates from ORCA-job scan E -19.241510848760
  C       1.183670     -0.036645      1.179033
  C      -1.449802     -0.372348      0.880551
  C       1.055713      0.547116     -0.183206
  C       0.173029     -0.307877     -1.102390
  C      -1.240923     -0.406224     -0.564942
  O      -1.774247      0.720401      0.075227
  H      -0.466566     -0.245685      1.437565
  H       1.506711     -1.062321      1.255512
  H       1.478790      0.615037      1.983261
  H      -2.271907     -0.890022      1.359043
  H       2.042757      0.650887     -0.657358
  H       0.622543      1.548089     -0.114296
  H       0.578097     -1.319478     -1.183702
  H       0.149044      0.132034     -2.101472
  H      -1.944622     -0.947705     -1.193899
15
Coordinates from ORCA-job scan E -19.241514784890
  C       1.183758     -0.035093      1.180375
  C      -1.451601     -0.373720      0.880126
  C       1.056577      0.546972     -0.182959
  C       0.172434     -0.307460     -1.101981
  C      -1.242311     -0.406072     -0.565312
  O      -1.775850      0.719882      0.076014
  H      -0.466304     -0.248413      1.436508
  H       1.507466     -1.060544      1.257404
  H       1.482838      0.617477      1.982486
  H      -2.273730     -0.891883      1.358232
  H       2.043851      0.648742     -0.657028
  H       0.624908      1.548635     -0.115217
  H       0.577165     -1.319146     -1.183562
  H       0.148916      0.132662     -2.100979
  H      -1.945831     -0.946780     -1.195179
15
Coordinates from ORCA-job scan E -19.241511248710
  C       1.185075     -0.038440      1.180853
  C      -1.453597     -0.370578      0.879339
  C       1.056334      0.546277     -0.181516
  C       0.171970     -0.306978     -1.101577
  C      -1.243453     -0.407269     -0.566007
  O      -1.780927      0.719112      0.071530
  H      -0.466842     -0.239465      1.434969
  H       1.515002     -1.062278      1.254707
  H       1.484335      0.613642      1.983373
  H      -2.274057     -0.889503      1.359473
  H       2.043209      0.649638     -0.655925
  H       0.623786      1.547393     -0.111522
  H       0.577282     -1.318364     -1.183907
  H       0.149051      0.134081     -2.100160
  H      -1.944884     -0.952009     -1.194703
15
Coordinates from ORCA-job scan E -19.241516077150
  C       1.183728     -0.035654      1.180439
  C      -1.452766     -0.373608      0.880229
  C       1.056990      0.546677     -0.182975
  C       0.172246     -0.307105     -1.101792
  C      -1.242639     -0.406500     -0.565275
  O      -1.777089      0.719395      0.075612
  H      -0.466590     -0.246896      1.436645
  H       1.510423     -1.060326      1.256961
  H       1.482297      0.617317      1.982497
  H      -2.274624     -0.891766      1.358602
  H       2.044304      0.647726     -0.656937
  H       0.625768      1.548541     -0.115154
  H       0.577089     -1.318725     -1.183805
  H       0.148726      0.133544     -2.100541
  H      -1.945577     -0.947361     -1.195577
15
Coordinates from ORCA-job scan E -19.241516189900
  C       1.183722     -0.035559      1.180466
  C      -1.452771     -0.373754      0.880239
  C       1.057050      0.546646     -0.183038
  C       0.172164     -0.307081     -1.101786
  C      -1.242596     -0.406449     -0.565230
  O      -1.776974      0.719418      0.075839
  H      -0.466594     -0.247123      1.436421
  H       1.510646     -1.060137      1.257156
  H       1.481778      0.617563      1.982601
  H      -2.274554     -0.891945      1.358643
  H       2.044385      0.647300     -0.657001
  H       0.626086      1.548626     -0.115319
  H       0.576944     -1.318739     -1.183908
  H       0.148526      0.133661     -2.100496
  H      -1.945525     -0.947167     -1.195660
15
Coordinates from ORCA-job scan E -19.241366097560
  C       1.178845     -0.036740      1.180268
  C      -1.448202     -0.372595      0.880436
  C       1.055249      0.546586     -0.183097
  C       0.172532     -0.307546     -1.103123
  C      -1.241293     -0.406218     -0.565291
  O      -1.774018      0.720228      0.076000
  H      -0.460179     -0.245821      1.434084
  H       1.505926     -1.061276      1.256861
  H       1.474873      0.615799      1.983631
  H      -2.268981     -0.890292      1.361098
  H       2.043373      0.648171     -0.655220
  H       0.623538      1.548262     -0.115630
  H       0.577447     -1.319153     -1.185208
  H       0.148636      0.133148     -2.101849
  H      -1.945460     -0.947293     -1.194034
15
Coordinates from ORCA-job scan E -19.241370197510
  C       1.178955     -0.035168      1.181630
  C      -1.450041     -0.373978      0.879996
  C       1.056113      0.546442     -0.182839
  C       0.171930     -0.307131     -1.102700
  C      -1.242698     -0.406065     -0.565670
  O      -1.775644      0.719707      0.076782
  H      -0.459885     -0.248580      1.433017
  H       1.506703     -1.059478      1.258765
  H       1.479005      0.618263      1.982844
  H      -2.270850     -0.892173      1.360261
  H       2.044456      0.646025     -0.654888
  H       0.625906      1.548806     -0.116541
  H       0.576505     -1.318825     -1.185047
  H       0.148513      0.133770     -2.101343
  H      -1.946679     -0.946356     -1.195339
15
Coordinates from ORCA-job scan E -19.241365991730
  C       1.180359     -0.038706      1.182118
  C      -1.452139     -0.370666      0.879169
  C       1.055853      0.545720     -0.181329
  C       0.171454     -0.306638     -1.102276
  C      -1.243881     -0.407321     -0.566393
  O      -1.780959      0.718914      0.072063
  H      -0.460429     -0.239163      1.431455
  H       1.514569     -1.061312      1.255920
  H       1.480582      0.614203      1.983776
  H      -2.271214     -0.889646      1.361542
  H       2.043773      0.647016     -0.653750
  H       0.624693      1.547498     -0.112645
  H       0.576640     -1.318016     -1.185401
  H       0.148658      0.135229     -2.100492
  H      -1.945673     -0.951852     -1.194831
15
Coordinates from ORCA-job scan E -19.241371557620
  C       1.178921     -0.035753      1.181666
  C      -1.451230     -0.373865      0.880114
  C       1.056541      0.546150     -0.182874
  C       0.171755     -0.306774     -1.102513
  C      -1.243011     -0.406504     -0.565618
  O      -1.776884      0.719216      0.076379
  H      -0.460168     -0.247021      1.433237
  H       1.509680     -1.059265      1.258291
  H       1.478408      0.618078      1.982849
  H      -2.271782     -0.892043      1.360630
  H       2.044922      0.645023     -0.654812
  H       0.626773      1.548709     -0.116483
  H       0.576447     -1.318399     -1.185299
  H       0.148319      0.134653     -2.100908
  H      -1.946404     -0.946945     -1.195733
15
Coordinates from ORCA-job scan E -19.241371674510
  C       1.178922     -0.035660      1.181702
  C      -1.451234     -0.374003      0.880115
  C       1.056593      0.546117     -0.182928
  C       0.171669     -0.306752     -1.102506
  C      -1.242967     -0.406452     -0.565577
  O      -1.776777      0.719240      0.076595
  H      -0.460172     -0.247236      1.432987
  H       1.509899     -1.059080      1.258492
  H       1.477919      0.618319      1.982956
  H      -2.271701     -0.892219      1.360669
  H       2.044993      0.644603     -0.654869
  H       0.627080      1.548791     -0.116635
  H       0.576297     -1.318415     -1.185400
  H       0.148115      0.134768     -2.100861
  H      -1.946348     -0.946762     -1.195814
15
Coordinates from ORCA-job scan E -19.241219096300
  C       1.174040     -0.036846      1.181494
  C      -1.446663     -0.372841      0.880314
  C       1.054793      0.546058     -0.182988
  C       0.172037     -0.307216     -1.103841
  C      -1.241662     -0.406220     -0.565633
  O      -1.773818      0.720052      0.076760
  H      -0.453762     -0.245932      1.430640
  H       1.505174     -1.060222      1.258197
  H       1.471009      0.616550      1.983981
  H      -2.266121     -0.890563      1.363124
  H       2.043980      0.645474     -0.653087
  H       0.624536      1.548429     -0.116943
  H       0.576800     -1.318828     -1.186698
  H       0.148224      0.134255     -2.102213
  H      -1.946281     -0.946888     -1.194181
15
Coordinates from ORCA-job scan E -19.241223369430
  C       1.174172     -0.035253      1.182875
  C      -1.448542     -0.374237      0.879860
  C       1.055656      0.545914     -0.182719
  C       0.171428     -0.306803     -1.103403
  C      -1.243085     -0.406065     -0.566019
  O      -1.775468      0.719529      0.077536
  H      -0.453436     -0.248721      1.429567
  H       1.505973     -1.058403      1.260112
  H       1.475224      0.619038      1.983181
  H      -2.268039     -0.892463      1.362259
  H       2.045053      0.643327     -0.652752
  H       0.626906      1.548970     -0.117845
  H       0.575849     -1.318504     -1.186517
  H       0.148105      0.134869     -2.101694
  H      -1.947511     -0.945938     -1.195513
15
Coordinates from ORCA-job scan E -19.241218385200
  C       1.175670     -0.038993      1.183374
  C      -1.450753     -0.370745      0.878991
  C       1.055380      0.545163     -0.181137
  C       0.170940     -0.306298     -1.102957
  C      -1.244312     -0.407383     -0.566773
  O      -1.781035      0.718712      0.072569
  H      -0.453984     -0.238811      1.427983
  H       1.514187     -1.060343      1.257111
  H       1.476890      0.614740      1.984158
  H      -2.268445     -0.889782      1.363581
  H       2.044326      0.644417     -0.651580
  H       0.625599      1.547594     -0.113735
  H       0.576004     -1.317666     -1.186878
  H       0.148261      0.136371     -2.100808
  H      -1.946443     -0.951714     -1.194972
15
Coordinates from ORCA-job scan E -19.241224803950
  C       1.174135     -0.035862      1.182882
  C      -1.449760     -0.374123      0.879994
  C       1.056101      0.545624     -0.182772
  C       0.171266     -0.306443     -1.103219
  C      -1.243382     -0.406515     -0.565951
  O      -1.776708      0.719033      0.077136
  H      -0.453715     -0.247122      1.429877
  H       1.508974     -1.058193      1.259606
  H       1.474570      0.618828      1.983178
  H      -2.269014     -0.892322      1.362625
  H       2.045534      0.642338     -0.652693
  H       0.627783      1.548871     -0.117794
  H       0.575809     -1.318072     -1.186776
  H       0.147907      0.135754     -2.101262
  H      -1.947214     -0.946533     -1.195903
15
Coordinates from ORCA-job scan E -19.241224925440
  C       1.174144     -0.035772      1.182927
  C      -1.449760     -0.374252      0.879984
  C       1.056144      0.545591     -0.182817
  C       0.171176     -0.306424     -1.103209
  C      -1.243339     -0.406462     -0.565916
  O      -1.776610      0.719060      0.077339
  H      -0.453718     -0.247324      1.429597
  H       1.509187     -1.058015      1.259813
  H       1.474114      0.619064      1.983290
  H      -2.268919     -0.892494      1.362663
  H       2.045591      0.641926     -0.652743
  H       0.628077      1.548950     -0.117930
  H       0.575654     -1.318092     -1.186874
  H       0.147699      0.135866     -2.101214
  H      -1.947155     -0.946362     -1.195982
15
Coordinates from ORCA-job scan E -19.241070080280
  C       1.169257     -0.036963      1.182709
  C      -1.445187     -0.373088      0.880185
  C       1.054346      0.545532     -0.182877
  C       0.171545     -0.306887     -1.104543
  C      -1.242032     -0.406229     -0.565967
  O      -1.773648      0.719873      0.077507
  H      -0.447314     -0.246019      1.427240
  H       1.504456     -1.059161      1.259517
  H       1.467199      0.617290      1.984309
  H      -2.263332     -0.890834      1.365118
  H       2.044578      0.642796     -0.650960
  H       0.625537      1.548590     -0.118235
  H       0.576158     -1.318504     -1.188170
  H       0.147807      0.135352     -2.102564
  H      -1.947085     -0.946488     -1.194343
15
Coordinates from ORCA-job scan E -19.241074536750
  C       1.169411     -0.035350      1.184109
  C      -1.447109     -0.374496      0.879718
  C       1.055209      0.545389     -0.182597
  C       0.170929     -0.306476     -1.104090
  C      -1.243472     -0.406073     -0.566361
  O      -1.775320      0.719348      0.078277
  H      -0.446953     -0.248838      1.426163
  H       1.505276     -1.057320      1.261441
  H       1.471498      0.619801      1.983496
  H      -2.265300     -0.892753      1.364225
  H       2.045641      0.640650     -0.650624
  H       0.627909      1.549128     -0.119128
  H       0.575198     -1.318183     -1.187968
  H       0.147693      0.135958     -2.102033
  H      -1.948326     -0.945524     -1.195701
15
Coordinates from ORCA-job scan E -19.241068645980
  C       1.171010     -0.039302      1.184620
  C      -1.449442     -0.370815      0.878803
  C       1.054916      0.544607     -0.180940
  C       0.170429     -0.305958     -1.103620
  C      -1.244747     -0.407457     -0.567147
  O      -1.781158      0.718505      0.073048
  H      -0.447505     -0.238407      1.424559
  H       1.513862     -1.059371      1.258276
  H       1.473265      0.615252      1.984520
  H      -2.265757     -0.889911      1.365587
  H       2.044870      0.641844     -0.649414
  H       0.626503      1.547680     -0.114794
  H       0.575372     -1.317315     -1.188336
  H       0.147861      0.137505     -2.101108
  H      -1.947193     -0.951597     -1.195128
15
Coordinates from ORCA-job scan E -19.241076053010
  C       1.169370     -0.035981      1.184086
  C      -1.448358     -0.374384      0.879868
  C       1.055673      0.545101     -0.182671
  C       0.170781     -0.306114     -1.103908
  C      -1.243753     -0.406534     -0.566276
  O      -1.776562      0.718846      0.077880
  H      -0.447228     -0.247200      1.426570
  H       1.508304     -1.057112      1.260903
  H       1.470788      0.619567      1.983484
  H      -2.266324     -0.892603      1.364585
  H       2.046139      0.639671     -0.650581
  H       0.628797      1.549027     -0.119086
  H       0.575176     -1.317746     -1.188234
  H       0.147490      0.136845     -2.101602
  H      -1.948007     -0.946125     -1.196089
15
Coordinates from ORCA-job scan E -19.241076179690
  C       1.169389     -0.035895      1.184141
  C      -1.448354     -0.374501      0.879847
  C       1.055705      0.545068     -0.182706
  C       0.170687     -0.306097     -1.103897
  C      -1.243709     -0.406479     -0.566247
  O      -1.776472      0.718876      0.078069
  H      -0.447229     -0.247388      1.426256
  H       1.508509     -1.056942      1.261116
  H       1.470367      0.619796      1.983601
  H      -2.266214     -0.892769      1.364623
  H       2.046180      0.639270     -0.650624
  H       0.629075      1.549103     -0.119204
  H       0.575016     -1.317769     -1.188329
  H       0.147278      0.136953     -2.101553
  H      -1.947943     -0.945967     -1.196167
15
Coordinates from ORCA-job scan E -19.240919315140
  C       1.164498     -0.037090      1.183913
  C      -1.443779     -0.373335      0.880050
  C       1.053909      0.545009     -0.182766
  C       0.171056     -0.306560     -1.105228
  C      -1.242401     -0.406245     -0.566293
  O      -1.773508      0.719691      0.078241
  H      -0.440831     -0.246080      1.423890
  H       1.503773     -1.058091      1.260820
  H       1.463447      0.618017      1.984615
  H      -2.260619     -0.891105      1.367077
  H       2.045167      0.640139     -0.648839
  H       0.626540      1.548745     -0.119507
  H       0.575521     -1.318181     -1.189622
  H       0.147385      0.136439     -2.102902
  H      -1.947872     -0.946093     -1.194521
15
Coordinates from ORCA-job scan E -19.240923966130
  C       1.164675     -0.035456      1.185331
  C      -1.445744     -0.374756      0.879570
  C       1.054772      0.544867     -0.182476
  C       0.170435     -0.306151     -1.104760
  C      -1.243858     -0.406088     -0.566694
  O      -1.775203      0.719163      0.079005
  H      -0.440435     -0.248930      1.422812
  H       1.504615     -1.056229      1.262752
  H       1.467830      0.620550      1.983788
  H      -2.262641     -0.893043      1.366155
  H       2.046221      0.637996     -0.648503
  H       0.628913      1.549280     -0.120390
  H       0.574552     -1.317863     -1.189399
  H       0.147277      0.137036     -2.102359
  H      -1.949122     -0.945115     -1.195906
15
Coordinates from ORCA-job scan E -19.240917018660
  C       1.166382     -0.039634      1.185856
  C      -1.448212     -0.370876      0.878606
  C       1.054462      0.544053     -0.180737
  C       0.169920     -0.305620     -1.104264
  C      -1.245187     -0.407542     -0.567514
  O      -1.781329      0.718292      0.073498
  H      -0.440988     -0.237948      1.421190
  H       1.513597     -1.058396      1.259412
  H       1.469710      0.615738      1.984861
  H      -2.263158     -0.890031      1.367557
  H       2.045402      0.639299     -0.647255
  H       0.627403      1.547758     -0.115818
  H       0.574747     -1.316964     -1.189772
  H       0.147458      0.138630     -2.101392
  H      -1.947922     -0.951500     -1.195301
15
Coordinates from ORCA-job scan E -19.240925572230
  C       1.164630     -0.036111      1.185277
  C      -1.447029     -0.374647      0.879736
  C       1.055256      0.544582     -0.182572
  C       0.170299     -0.305786     -1.104580
  C      -1.244124     -0.406560     -0.566592
  O      -1.776448      0.718655      0.078612
  H      -0.440705     -0.247254      1.423323
  H       1.507673     -1.056021      1.262180
  H       1.467063      0.620295      1.983766
  H      -2.263719     -0.892885      1.366509
  H       2.046737      0.637027     -0.648479
  H       0.629816      1.549179     -0.120359
  H       0.574549     -1.317420     -1.189672
  H       0.147069      0.137925     -2.101930
  H      -1.948782     -0.945718     -1.196294
15
Coordinates from ORCA-job scan E -19.240925704850
  C       1.164661     -0.036028      1.185344
  C      -1.447019     -0.374751      0.879701
  C       1.055275      0.544549     -0.182593
  C       0.170201     -0.305773     -1.104566
  C      -1.244080     -0.406503     -0.566569
  O      -1.776366      0.718689      0.078786
  H      -0.440703     -0.247426      1.422971
  H       1.507869     -1.055861      1.262400
  H       1.466682      0.620516      1.983889
  H      -2.263590     -0.893044      1.366545
  H       2.046760      0.636638     -0.648514
  H       0.630073      1.549250     -0.120457
  H       0.574383     -1.317448     -1.189763
  H       0.146853      0.138028     -2.101879
  H      -1.948713     -0.945575     -1.196369
15
Coordinates from ORCA-job scan E -19.240767099380
  C       1.159765     -0.037228      1.185106
  C      -1.442442     -0.373582      0.879907
  C       1.053480      0.544490     -0.182654
  C       0.170570     -0.306234     -1.105896
  C      -1.242770     -0.406269     -0.566611
  O      -1.773399      0.719506      0.078960
  H      -0.434310     -0.246117      1.420594
  H       1.503127     -1.057013      1.262104
  H       1.459757      0.618731      1.984898
  H      -2.257989     -0.891377      1.368999
  H       2.045747      0.637507     -0.646727
  H       0.627542      1.548895     -0.120757
  H       0.574888     -1.317858     -1.191054
  H       0.146959      0.137513     -2.103227
  H      -1.948640     -0.945702     -1.194717
15
Coordinates from ORCA-job scan E -19.240771957210
  C       1.159965     -0.035574      1.186541
  C      -1.444453     -0.375016      0.879414
  C       1.054343      0.544349     -0.182355
  C       0.169944     -0.305829     -1.105412
  C      -1.244243     -0.406111     -0.567018
  O      -1.775117      0.718976      0.079718
  H      -0.433878     -0.248998      1.419521
  H       1.503991     -1.055130      1.264042
  H       1.464223      0.621287      1.984056
  H      -2.260066     -0.893334      1.368048
  H       2.046791      0.635367     -0.646390
  H       0.629917      1.549428     -0.121631
  H       0.573912     -1.317545     -1.190808
  H       0.146857      0.138100     -2.102671
  H      -1.949900     -0.944709     -1.196128
15
Coordinates from ORCA-job scan E -19.240763776150
  C       1.161789     -0.039989      1.187083
  C      -1.447070     -0.370927      0.878397
  C       1.054017      0.543500     -0.180530
  C       0.169414     -0.305282     -1.104887
  C      -1.245630     -0.407638     -0.567876
  O      -1.781552      0.718075      0.073916
  H      -0.434429     -0.237433      1.417883
  H       1.513395     -1.057418      1.260517
  H       1.466231      0.616196      1.985179
  H      -2.260654     -0.890143      1.369490
  H       2.045925      0.636785     -0.645103
  H       0.628299      1.547825     -0.116807
  H       0.574128     -1.316612     -1.191184
  H       0.147052      0.139744     -2.101659
  H      -1.948629     -0.951424     -1.195492
15
Coordinates from ORCA-job scan E -19.240773662110
  C       1.159917     -0.036250      1.186455
  C      -1.445779     -0.374913      0.879598
  C       1.054850      0.544067     -0.182473
  C       0.169822     -0.305460     -1.105233
  C      -1.244494     -0.406595     -0.566898
  O      -1.776366      0.718461      0.079331
  H      -0.434141     -0.247285      1.420143
  H       1.507084     -1.054921      1.263435
  H       1.463399      0.621011      1.984023
  H      -2.261206     -0.893169      1.368392
  H       2.047329      0.634405     -0.646386
  H       0.630836      1.549326     -0.121613
  H       0.573927     -1.317095     -1.191086
  H       0.146644      0.138992     -2.102243
  H      -1.949537     -0.945314     -1.196518
15
Coordinates from ORCA-job scan E -19.240773801620
  C       1.159961     -0.036172      1.186535
  C      -1.445761     -0.375003      0.879548
  C       1.054854      0.544033     -0.182481
  C       0.169718     -0.305451     -1.105217
  C      -1.244450     -0.406536     -0.566883
  O      -1.776292      0.718500      0.079487
  H      -0.434136     -0.247441      1.419747
  H       1.507268     -1.054771      1.263663
  H       1.463062      0.621222      1.984154
  H      -2.261055     -0.893319      1.368427
  H       2.047331      0.634032     -0.646412
  H       0.631070      1.549393     -0.121688
  H       0.573755     -1.317128     -1.191173
  H       0.146424      0.139089     -2.102191
  H      -1.949464     -0.945187     -1.196590
15
Coordinates from ORCA-job scan E -19.240613767250
  C       1.155060     -0.037377      1.186287
  C      -1.441183     -0.373831      0.879756
  C       1.053061      0.543975     -0.182541
  C       0.170089     -0.305912     -1.106545
  C      -1.243138     -0.406300     -0.566920
  O      -1.773322      0.719319      0.079665
  H      -0.427749     -0.246130      1.417360
  H       1.502520     -1.055927      1.263367
  H       1.456133      0.619433      1.985158
  H      -2.255447     -0.891649      1.370881
  H       2.046318      0.634900     -0.644624
  H       0.628543      1.549039     -0.121986
  H       0.574261     -1.317538     -1.192461
  H       0.146529      0.138573     -2.103537
  H      -1.949389     -0.945314     -1.194932
15
Coordinates from ORCA-job scan E -19.240618845620
  C       1.155284     -0.035702      1.187738
  C      -1.443240     -0.375279      0.879252
  C       1.053925      0.543836     -0.182234
  C       0.169458     -0.305509     -1.106046
  C      -1.244627     -0.406142     -0.567333
  O      -1.775063      0.718786      0.080417
  H      -0.427279     -0.249041      1.416296
  H       1.503405     -1.054024      1.265309
  H       1.460681      0.622009      1.984301
  H      -2.257584     -0.893625      1.369900
  H       2.047352      0.632765     -0.644289
  H       0.630919      1.549569     -0.122851
  H       0.573279     -1.317228     -1.192192
  H       0.146433      0.139150     -2.102970
  H      -1.950657     -0.944306     -1.196370
15
Coordinates from ORCA-job scan E -19.240609221720
  C       1.157235     -0.040369      1.188297
  C      -1.446021     -0.370969      0.878178
  C       1.053582      0.542951     -0.180318
  C       0.168911     -0.304947     -1.105488
  C      -1.246078     -0.407748     -0.568231
  O      -1.781830      0.717853      0.074301
  H      -0.427826     -0.236857      1.414646
  H       1.513263     -1.056438      1.261588
  H       1.462834      0.616624      1.985474
  H      -2.258254     -0.890245      1.371381
  H       2.046436      0.634305     -0.642959
  H       0.629187      1.547883     -0.117759
  H       0.573517     -1.316259     -1.192570
  H       0.146644      0.140845     -2.101909
  H      -1.949313     -0.951369     -1.195704
15
Coordinates from ORCA-job scan E -19.240620659190
  C       1.155233     -0.036400      1.187619
  C      -1.444612     -0.375183      0.879453
  C       1.054456      0.543558     -0.182376
  C       0.169350     -0.305136     -1.105867
  C      -1.244863     -0.406638     -0.567194
  O      -1.776317      0.718265      0.080037
  H      -0.427533     -0.247294      1.417038
  H       1.506538     -1.053810      1.264667
  H       1.459802      0.621714      1.984253
  H      -2.258793     -0.893455      1.370233
  H       2.047913      0.631810     -0.644306
  H       0.631858      1.549468     -0.122848
  H       0.573313     -1.316772     -1.192476
  H       0.146215      0.140044     -2.102542
  H      -1.950273     -0.944909     -1.196763
15
Coordinates from ORCA-job scan E -19.240620806810
  C       1.155292     -0.036327      1.187714
  C      -1.444585     -0.375256      0.879386
  C       1.054443      0.543523     -0.182368
  C       0.169240     -0.305133     -1.105849
  C      -1.244819     -0.406576     -0.567189
  O      -1.776252      0.718309      0.080173
  H      -0.427524     -0.247431      1.416592
  H       1.506708     -1.053674      1.264903
  H       1.459514      0.621913      1.984393
  H      -2.258616     -0.893594      1.370267
  H       2.047891      0.631454     -0.644322
  H       0.632063      1.549529     -0.122896
  H       0.573134     -1.316811     -1.192556
  H       0.145991      0.140133     -2.102489
  H      -1.950194     -0.944801     -1.196832
15
Coordinates from ORCA-job scan E -19.240459691370
  C       1.150387     -0.037536      1.187455
  C      -1.440005     -0.374081      0.879597
  C       1.052651      0.543464     -0.182429
  C       0.169611     -0.305592     -1.107175
  C      -1.243506     -0.406339     -0.567221
  O      -1.773280      0.719129      0.080354
  H      -0.421143     -0.246118      1.414194
  H       1.501955     -1.054833      1.264606
  H       1.452581      0.620120      1.985392
  H      -2.253002     -0.891921      1.372721
  H       2.046878      0.632322     -0.642532
  H       0.629542      1.549178     -0.123191
  H       0.573640     -1.317221     -1.193842
  H       0.146095      0.139616     -2.103834
  H      -1.950118     -0.944928     -1.195168
15
Coordinates from ORCA-job scan E -19.240465005600
  C       1.150634     -0.035841      1.188921
  C      -1.442110     -0.375543      0.879081
  C       1.053516      0.543329     -0.182114
  C       0.168977     -0.305192     -1.106660
  C      -1.245010     -0.406182     -0.567640
  O      -1.775043      0.718594      0.081101
  H      -0.420635     -0.249059      1.413145
  H       1.502862     -1.052911      1.266550
  H       1.457209      0.622716      1.984519
  H      -2.255201     -0.893915      1.371708
  H       2.047904      0.630193     -0.642199
  H       0.631917      1.549706     -0.124049
  H       0.572654     -1.316914     -1.193549
  H       0.146006      0.140183     -2.103254
  H      -1.951394     -0.943905     -1.196634
15
Coordinates from ORCA-job scan E -19.240453690010
  C       1.152723     -0.040776      1.189501
  C      -1.445073     -0.371001      0.877945
  C       1.053157      0.542405     -0.180100
  C       0.168411     -0.304613     -1.106065
  C      -1.246532     -0.407871     -0.568581
  O      -1.782166      0.717626      0.074650
  H      -0.421173     -0.236218      1.411488
  H       1.513206     -1.055456      1.262620
  H       1.459526      0.617020      1.985744
  H      -2.255968     -0.890337      1.373227
  H       2.046936      0.631862     -0.640826
  H       0.630066      1.547931     -0.118671
  H       0.572914     -1.315907     -1.193927
  H       0.146235      0.141933     -2.102140
  H      -1.949973     -0.951337     -1.195939
15
Coordinates from ORCA-job scan E -19.240466938750
  C       1.150582     -0.036560      1.188767
  C      -1.443536     -0.375457      0.879300
  C       1.054074      0.543054     -0.182282
  C       0.168882     -0.304816     -1.106480
  C      -1.245233     -0.406689     -0.567481
  O      -1.776303      0.718065      0.080730
  H      -0.420877     -0.247281      1.414017
  H       1.506039     -1.052690      1.265872
  H       1.456276      0.622404      1.984456
  H      -2.256488     -0.893742      1.372027
  H       2.048490      0.629244     -0.642239
  H       0.632880      1.549605     -0.124062
  H       0.572706     -1.316451     -1.193837
  H       0.145783      0.141078     -2.102827
  H      -1.950988     -0.944504     -1.197033
15
Coordinates from ORCA-job scan E -19.240467096030
  C       1.150658     -0.036492      1.188880
  C      -1.443496     -0.375511      0.879214
  C       1.054040      0.543019     -0.182255
  C       0.168767     -0.304818     -1.106459
  C      -1.245188     -0.406623     -0.567487
  O      -1.776247      0.718117      0.080842
  H      -0.420864     -0.247398      1.413513
  H       1.506193     -1.052569      1.266117
  H       1.456043      0.622591      1.984607
  H      -2.256281     -0.893870      1.372060
  H       2.048440      0.628908     -0.642244
  H       0.633052      1.549661     -0.124081
  H       0.572519     -1.316499     -1.193910
  H       0.145555      0.141158     -2.102772
  H      -1.950904     -0.944415     -1.197098
15
Coordinates from ORCA-job scan E -19.240305286820
  C       1.145749     -0.037705      1.188611
  C      -1.438914     -0.374335      0.879427
  C       1.052249      0.542960     -0.182316
  C       0.169138     -0.305277     -1.107783
  C      -1.243874     -0.406386     -0.567514
  O      -1.773272      0.718939      0.081027
  H      -0.414488     -0.246084      1.411104
  H       1.501435     -1.053731      1.265821
  H       1.449105      0.620793      1.985602
  H      -2.250661     -0.892192      1.374514
  H       2.047427      0.629775     -0.640453
  H       0.630535      1.549312     -0.124374
  H       0.573026     -1.316907     -1.195193
  H       0.145658      0.140641     -2.104116
  H      -1.950827     -0.944542     -1.195428
15
Coordinates from ORCA-job scan E -19.240310854680
  C       1.146020     -0.035992      1.190089
  C      -1.441070     -0.375809      0.878902
  C       1.053116      0.542828     -0.181994
  C       0.168501     -0.304880     -1.107253
  C      -1.245392     -0.406229     -0.567937
  O      -1.775057      0.718401      0.081767
  H      -0.413940     -0.249050      1.410077
  H       1.502364     -1.051790      1.267762
  H       1.453811      0.623406      1.984712
  H      -2.252925     -0.894203      1.373471
  H       2.048445      0.627655     -0.640123
  H       0.632909      1.549837     -0.125224
  H       0.572036     -1.316604     -1.194876
  H       0.145577      0.141196     -2.103525
  H      -1.952110     -0.943504     -1.196921
15
Coordinates from ORCA-job scan E -19.240297564790
  C       1.148257     -0.041210      1.190690
  C      -1.444234     -0.371023      0.877701
  C       1.052742      0.541863     -0.179878
  C       0.167916     -0.304283     -1.106618
  C      -1.246990     -0.408007     -0.568923
  O      -1.782561      0.717395      0.074963
  H      -0.414467     -0.235515      1.408420
  H       1.513226     -1.054473      1.263609
  H       1.456307      0.617382      1.985989
  H      -2.253806     -0.890418      1.375026
  H       2.047424      0.629460     -0.638705
  H       0.630934      1.547968     -0.119544
  H       0.572321     -1.315557     -1.195251
  H       0.145825      0.143003     -2.102352
  H      -1.950608     -0.951325     -1.196199
15
Coordinates from ORCA-job scan E -19.240312918000
  C       1.145966     -0.036730      1.189900
  C      -1.442556     -0.375737      0.879139
  C       1.053703      0.542556     -0.182190
  C       0.168421     -0.304499     -1.107071
  C      -1.245602     -0.406749     -0.567758
  O      -1.776324      0.717863      0.081407
  H      -0.414169     -0.247247      1.411088
  H       1.505590     -1.051558      1.267048
  H       1.452827      0.623081      1.984630
  H      -2.254301     -0.894031      1.373771
  H       2.049059      0.626708     -0.640187
  H       0.633899      1.549739     -0.125257
  H       0.572107     -1.316134     -1.195167
  H       0.145347      0.142094     -2.103096
  H      -1.951682     -0.944095     -1.197329
15
Coordinates from ORCA-job scan E -19.240313086880
  C       1.146063     -0.036668      1.190032
  C      -1.442500     -0.375769      0.879031
  C       1.053646      0.542521     -0.182143
  C       0.168298     -0.304508     -1.107047
  C      -1.245557     -0.406679     -0.567776
  O      -1.776278      0.717923      0.081493
  H      -0.414151     -0.247341      1.410517
  H       1.505724     -1.051456      1.267302
  H       1.452655      0.623252      1.984794
  H      -2.254058     -0.894144      1.373804
  H       2.048977      0.626397     -0.640180
  H       0.634033      1.549788     -0.125241
  H       0.571911     -1.316190     -1.195231
  H       0.145115      0.142163     -2.103040
  H      -1.951593     -0.944030     -1.197390
15
Coordinates from ORCA-job scan E -19.240151010080
  C       1.141149     -0.037885      1.189754
  C      -1.437918     -0.374590      0.879248
  C       1.051857      0.542463     -0.182203
  C       0.168670     -0.304967     -1.108370
  C      -1.244241     -0.406440     -0.567799
  O      -1.773301      0.718746      0.081681
  H      -0.407781     -0.246026      1.408096
  H       1.500961     -1.052622      1.267007
  H       1.445713      0.621450      1.985784
  H      -2.248432     -0.892463      1.376257
  H       2.047964      0.627263     -0.638387
  H       0.631520      1.549440     -0.125531
  H       0.572419     -1.316598     -1.196512
  H       0.145218      0.141645     -2.104383
  H      -1.951513     -0.944157     -1.195714
15
Coordinates from ORCA-job scan E -19.240156850770
  C       1.141444     -0.036154      1.191241
  C      -1.440126     -0.376078      0.878713
  C       1.052727      0.542334     -0.181877
  C       0.168032     -0.304572     -1.107823
  C      -1.245772     -0.406285     -0.568225
  O      -1.775107      0.718206      0.082417
  H      -0.407192     -0.249020      1.407101
  H       1.501912     -1.050663      1.268943
  H       1.450493      0.624079      1.984877
  H      -2.250766     -0.894491      1.375183
  H       2.048976      0.625154     -0.638062
  H       0.633894      1.549963     -0.126376
  H       0.571428     -1.316298     -1.196170
  H       0.145145      0.142187     -2.103780
  H      -1.952803     -0.943102     -1.197235
15
Coordinates from ORCA-job scan E -19.240141216280
  C       1.143844     -0.041675      1.191868
  C      -1.443516     -0.371033      0.877440
  C       1.052337      0.541326     -0.179648
  C       0.167424     -0.303956     -1.107142
  C      -1.247457     -0.408159     -0.569261
  O      -1.783028      0.717158      0.075230
  H      -0.407701     -0.234737      1.405448
  H       1.513343     -1.053490      1.264550
  H       1.453198      0.617705      1.986207
  H      -2.251782     -0.890485      1.376773
  H       2.047900      0.627103     -0.636596
  H       0.631787      1.547994     -0.120370
  H       0.571737     -1.315206     -1.196539
  H       0.145416      0.144054     -2.102543
  H      -1.951216     -0.951340     -1.196489
15
Coordinates from ORCA-job scan E -19.240159058560
  C       1.141391     -0.036911      1.191016
  C      -1.441679     -0.376022      0.878969
  C       1.053345      0.542066     -0.182101
  C       0.167965     -0.304187     -1.107639
  C      -1.245970     -0.406818     -0.568025
  O      -1.776384      0.717658      0.082069
  H      -0.407404     -0.247192      1.408262
  H       1.505196     -1.050418      1.268191
  H       1.449462      0.623743      1.984774
  H      -2.252241     -0.894320      1.375461
  H       2.049619      0.624209     -0.638153
  H       0.634914      1.549867     -0.126430
  H       0.571517     -1.315820     -1.196462
  H       0.144909      0.143086     -2.103349
  H      -1.952353     -0.943682     -1.197656
15
Coordinates from ORCA-job scan E -19.240159241390
  C       1.141510     -0.036854      1.191170
  C      -1.441606     -0.376029      0.878837
  C       1.053260      0.542031     -0.182030
  C       0.167834     -0.304204     -1.107611
  C      -1.245926     -0.406743     -0.568057
  O      -1.776348      0.717728      0.082125
  H      -0.407380     -0.247261      1.407614
  H       1.505306     -1.050337      1.268457
  H       1.449359      0.623897      1.984953
  H      -2.251956     -0.894416      1.375494
  H       2.049501      0.623925     -0.638132
  H       0.635004      1.549909     -0.126375
  H       0.571311     -1.315887     -1.196516
  H       0.144674      0.143143     -2.103292
  H      -1.952258     -0.943643     -1.197710
15
Coordinates from ORCA-job scan E -19.239997366520
  C       1.136592     -0.038076      1.190882
  C      -1.437022     -0.374847      0.879056
  C       1.051473      0.541973     -0.182090
  C       0.168207     -0.304662     -1.108932
  C      -1.244609     -0.406504     -0.568076
  O      -1.773369      0.718553      0.082316
  H      -0.401015     -0.245944      1.405181
  H       1.500539     -1.051506      1.268162
  H       1.442413      0.622090      1.985939
  H      -2.246324     -0.892732      1.377948
  H       2.048488      0.624790     -0.636337
  H       0.632495      1.549563     -0.126663
  H       0.571820     -1.316294     -1.197795
  H       0.144776      0.142625     -2.104634
  H      -1.952177     -0.943770     -1.196030
15
Coordinates from ORCA-job scan E -19.240003502080
  C       1.136910     -0.036327      1.192377
  C      -1.439285     -0.376351      0.878515
  C       1.052346      0.541849     -0.181761
  C       0.167569     -0.304271     -1.108370
  C      -1.246152     -0.406351     -0.568503
  O      -1.775194      0.718009      0.083048
  H      -0.400384     -0.248965      1.404226
  H       1.501512     -1.049528      1.270090
  H       1.447261      0.624735      1.985013
  H      -2.248732     -0.894777      1.376841
  H       2.049495      0.622693     -0.636018
  H       0.634868      1.550085     -0.127503
  H       0.570830     -1.315997     -1.197428
  H       0.144712      0.143153     -2.104020
  H      -1.953472     -0.942696     -1.197579
15
Coordinates from ORCA-job scan E -19.239985088470
  C       1.139489     -0.042173      1.193032
  C      -1.442928     -0.371030      0.877162
  C       1.051944      0.540794     -0.179412
  C       0.166937     -0.303633     -1.107637
  C      -1.247933     -0.408327     -0.569594
  O      -1.783568      0.716916      0.075450
  H      -0.400869     -0.233881      1.402588
  H       1.513561     -1.052507      1.265437
  H       1.450203      0.617986      1.986397
  H      -2.249908     -0.890536      1.378463
  H       2.048362      0.624796     -0.634502
  H       0.632623      1.548008     -0.121148
  H       0.571164     -1.314858     -1.197787
  H       0.145008      0.145085     -2.102712
  H      -1.951797     -0.951380     -1.196811
15
Coordinates from ORCA-job scan E -19.240005868900
  C       1.136859     -0.037102      1.192115
  C      -1.440914     -0.376314      0.878788
  C       1.052999      0.541586     -0.182015
  C       0.167516     -0.303880     -1.108181
  C      -1.246339     -0.406896     -0.568282
  O      -1.776483      0.717453      0.082713
  H      -0.400576     -0.247116      1.405548
  H       1.504860     -1.049266      1.269299
  H       1.446187      0.624389      1.984887
  H      -2.250318     -0.894610      1.377093
  H       2.050170      0.621748     -0.636137
  H       0.635920      1.549992     -0.127580
  H       0.570936     -1.315512     -1.197719
  H       0.144470      0.144053     -2.103586
  H      -1.953001     -0.943263     -1.198015
15
Coordinates from ORCA-job scan E -19.240006068590
  C       1.137005     -0.037051      1.192295
  C      -1.440820     -0.376292      0.878628
  C       1.052882      0.541550     -0.181916
  C       0.167376     -0.303907     -1.108149
  C      -1.246295     -0.406815     -0.568331
  O      -1.776459      0.717534      0.082736
  H      -0.400546     -0.247158      1.404811
  H       1.504943     -1.049210      1.269578
  H       1.446162      0.624524      1.985083
  H      -2.249986     -0.894687      1.377127
  H       2.050011      0.621495     -0.636100
  H       0.635961      1.550025     -0.127483
  H       0.570719     -1.315590     -1.197761
  H       0.144232      0.144095     -2.103528
  H      -1.952900     -0.943253     -1.198064
15
Coordinates from ORCA-job scan E -19.239844908190
  C       1.132083     -0.038278      1.191997
  C      -1.436235     -0.375109      0.878850
  C       1.051097      0.541492     -0.181977
  C       0.167750     -0.304364     -1.109468
  C      -1.244977     -0.406575     -0.568345
  O      -1.773478      0.718360      0.082930
  H      -0.394185     -0.245840      1.402367
  H       1.500171     -1.050382      1.269284
  H       1.439212      0.622713      1.986065
  H      -2.244348     -0.893000      1.379580
  H       2.048998      0.622360     -0.634304
  H       0.633456      1.549681     -0.127768
  H       0.571229     -1.315996     -1.199038
  H       0.144333      0.143577     -2.104868
  H      -1.952818     -0.943380     -1.196378
15
Coordinates from ORCA-job scan E -19.239851363920
  C       1.132423     -0.036511      1.193495
  C      -1.438555     -0.376629      0.878305
  C       1.051976      0.541373     -0.181648
  C       0.167114     -0.303976     -1.108891
  C      -1.246530     -0.406425     -0.568773
  O      -1.775320      0.717813      0.083660
  H      -0.393512     -0.248887      1.401464
  H       1.501168     -1.048387      1.271199
  H       1.444123      0.625372      1.985119
  H      -2.246836     -0.895061      1.378441
  H       2.050002      0.620276     -0.633994
  H       0.635829      1.550201     -0.128606
  H       0.570243     -1.315703     -1.198645
  H       0.144279      0.144091     -2.104245
  H      -1.954117     -0.942286     -1.197955
15
Coordinates from ORCA-job scan E -19.239829639390
  C       1.135199     -0.042707      1.194183
  C      -1.442485     -0.371014      0.876866
  C       1.051562      0.540267     -0.179167
  C       0.166454     -0.303315     -1.108100
  C      -1.248420     -0.408513     -0.569922
  O      -1.784190      0.716668      0.075618
  H      -0.393966     -0.232939      1.399853
  H       1.513893     -1.051524      1.266264
  H       1.447333      0.618222      1.986556
  H      -2.248201     -0.890571      1.380092
  H       2.048811      0.622545     -0.632424
  H       0.633438      1.548009     -0.121873
  H       0.570604     -1.314512     -1.198989
  H       0.144603      0.146092     -2.102858
  H      -1.952349     -0.951448     -1.197170
15
Coordinates from ORCA-job scan E -19.239853905710
  C       1.132377     -0.037303      1.193196
  C      -1.440270     -0.376614      0.878595
  C       1.052664      0.541114     -0.181932
  C       0.167074     -0.303580     -1.108696
  C      -1.246708     -0.406984     -0.568530
  O      -1.776625      0.717246      0.083339
  H      -0.393679     -0.247022      1.402959
  H       1.504589     -1.048105      1.270368
  H       1.443011      0.625020      1.984966
  H      -2.248546     -0.894900      1.378662
  H       2.050710      0.619331     -0.634143
  H       0.636917      1.550112     -0.128707
  H       0.570366     -1.315211     -1.198932
  H       0.144030      0.144991     -2.103806
  H      -1.953624     -0.942836     -1.198411
15
Coordinates from ORCA-job scan E -19.239854125750
  C       1.132552     -0.037259      1.193405
  C      -1.440150     -0.376560      0.878404
  C       1.052512      0.541079     -0.181803
  C       0.166924     -0.303618     -1.108660
  C      -1.246666     -0.406896     -0.568597
  O      -1.776613      0.717339      0.083324
  H      -0.393641     -0.247033      1.402120
  H       1.504640     -1.048077      1.270662
  H       1.443074      0.625133      1.985183
  H      -2.248158     -0.894954      1.378697
  H       2.050506      0.619113     -0.634088
  H       0.636900      1.550136     -0.128561
  H       0.570136     -1.315301     -1.198961
  H       0.143788      0.145017     -2.103746
  H      -1.953519     -0.942858     -1.198453
15
Coordinates from ORCA-job scan E -19.239694235340
  C       1.127626     -0.038490      1.193098
  C      -1.435565     -0.375374      0.878629
  C       1.050729      0.541021     -0.181863
  C       0.167298     -0.304074     -1.109977
  C      -1.245346     -0.406655     -0.568607
  O      -1.773630      0.718167      0.083522
  H      -0.387286     -0.245713      1.399662
  H       1.499863     -1.049252      1.270369
  H       1.436121      0.623318      1.986161
  H      -2.242516     -0.893264      1.381151
  H       2.049492      0.619977     -0.632290
  H       0.634400      1.549794     -0.128843
  H       0.570647     -1.315707     -1.200235
  H       0.143889      0.144498     -2.105086
  H      -1.953435     -0.942986     -1.196763
15
Coordinates from ORCA-job scan E -19.239701040170
  C       1.127987     -0.036708      1.194594
  C      -1.437944     -0.376912      0.878082
  C       1.051615      0.540908     -0.181536
  C       0.166666     -0.303689     -1.109385
  C      -1.246908     -0.406509     -0.569033
  O      -1.775487      0.717616      0.084250
  H      -0.386570     -0.248787      1.398825
  H       1.500884     -1.047240      1.272266
  H       1.441086      0.625989      1.985193
  H      -2.245088     -0.895341      1.379979
  H       2.050496      0.617909     -0.631991
  H       0.636772      1.550313     -0.129682
  H       0.569667     -1.315416     -1.199817
  H       0.143846      0.144997     -2.104452
  H      -1.954736     -0.941870     -1.198367
15
Coordinates from ORCA-job scan E -19.239675345720
  C       1.130981     -0.043281      1.195318
  C      -1.442201     -0.370983      0.876549
  C       1.051192      0.539748     -0.178915
  C       0.165977     -0.303002     -1.108527
  C      -1.248920     -0.408719     -0.570247
  O      -1.784902      0.716414      0.075727
  H      -0.386982     -0.231904      1.397258
  H       1.514355     -1.050544      1.267024
  H       1.444600      0.618408      1.986683
  H      -2.246678     -0.890586      1.381655
  H       2.049245      0.620355     -0.630365
  H       0.634229      1.547995     -0.122541
  H       0.570056     -1.314169     -1.200142
  H       0.144203      0.147073     -2.102978
  H      -1.952870     -0.951545     -1.197572
15
Coordinates from ORCA-job scan E -19.239703774540
  C       1.127950     -0.037514      1.194258
  C      -1.439756     -0.376922      0.878389
  C       1.052342      0.540654     -0.181853
  C       0.166639     -0.303288     -1.109182
  C      -1.247079     -0.407081     -0.568768
  O      -1.776810      0.717039      0.083944
  H      -0.386706     -0.246909      1.400508
  H       1.504388     -1.046933      1.271394
  H       1.439944      0.625634      1.985012
  H      -2.246938     -0.895190      1.380163
  H       2.051239      0.616962     -0.632173
  H       0.637899      1.550228     -0.129809
  H       0.569806     -1.314917     -1.200098
  H       0.143590      0.145896     -2.104008
  H      -1.954223     -0.942398     -1.198849
15
Coordinates from ORCA-job scan E -19.239704018990
  C       1.128157     -0.037478      1.194501
  C      -1.439607     -0.376831      0.878163
  C       1.052149      0.540618     -0.181688
  C       0.166477     -0.303338     -1.109140
  C      -1.247038     -0.406986     -0.568857
  O      -1.776813      0.717146      0.083887
  H      -0.386660     -0.246887      1.399549
  H       1.504402     -1.046938      1.271705
  H       1.440107      0.625723      1.985252
  H      -2.246485     -0.895218      1.380200
  H       2.050982      0.616783     -0.632097
  H       0.637818      1.550241     -0.129607
  H       0.569563     -1.315022     -1.200110
  H       0.143346      0.145904     -2.103947
  H      -1.954112     -0.942457     -1.198884
15
Coordinates from ORCA-job scan E -19.239545994000
  C       1.123228     -0.038713      1.194185
  C      -1.435021     -0.375643      0.878390
  C       1.050367      0.540560     -0.181748
  C       0.166852     -0.303793     -1.110456
  C      -1.245717     -0.406744     -0.568863
  O      -1.773828      0.717975      0.084088
  H      -0.380310     -0.245566      1.397078
  H       1.499621     -1.048115      1.271413
  H       1.433151      0.623904      1.986226
  H      -2.240838     -0.893526      1.382654
  H       2.049969      0.617646     -0.630298
  H       0.635322      1.549901     -0.129887
  H       0.570073     -1.315427     -1.201383
  H       0.143446      0.145385     -2.105285
  H      -1.954028     -0.942585     -1.197189
15
Coordinates from ORCA-job scan E -19.239553181010
  C       1.123608     -0.036916      1.195675
  C      -1.437461     -0.377201      0.877845
  C       1.051262      0.540455     -0.181428
  C       0.166226     -0.303411     -1.109850
  C      -1.247285     -0.406602     -0.569284
  O      -1.775696      0.717420      0.084818
  H      -0.379549     -0.248664      1.396324
  H       1.500666     -1.046087      1.273288
  H       1.438158      0.626585      1.985234
  H      -2.243501     -0.895618      1.381449
  H       2.050975      0.615595     -0.630012
  H       0.637695      1.550419     -0.130730
  H       0.569103     -1.315139     -1.200939
  H       0.143414      0.145868     -2.104643
  H      -1.955329     -0.941444     -1.198820
15
Coordinates from ORCA-job scan E -19.239522689580
  C       1.126844     -0.043899      1.196438
  C      -1.442093     -0.370936      0.876208
  C       1.050835      0.539236     -0.178653
  C       0.165505     -0.302695     -1.108916
  C      -1.249435     -0.408947     -0.570568
  O      -1.785714      0.716153      0.075770
  H      -0.379910     -0.230763      1.394822
  H       1.514966     -1.049566      1.267706
  H       1.442020      0.618538      1.986776
  H      -2.245361     -0.890579      1.383145
  H       2.049664      0.618232     -0.628327
  H       0.634991      1.547966     -0.123145
  H       0.569523     -1.313829     -1.201238
  H       0.143809      0.148024     -2.103070
  H      -1.953358     -0.951674     -1.198021
15
Coordinates from ORCA-job scan E -19.239556127600
  C       1.123584     -0.037736      1.195301
  C      -1.439384     -0.377240      0.878166
  C       1.052030      0.540207     -0.181777
  C       0.166212     -0.303006     -1.109636
  C      -1.247451     -0.407188     -0.568998
  O      -1.777041      0.716832      0.084528
  H      -0.379649     -0.246779      1.398208
  H       1.504264     -1.045751      1.272373
  H       1.436995      0.626230      1.985021
  H      -2.245507     -0.895478      1.381589
  H       2.051755      0.614646     -0.630229
  H       0.638863      1.550339     -0.130884
  H       0.569258     -1.314634     -1.201210
  H       0.143151      0.146764     -2.104192
  H      -1.954795     -0.941947     -1.199333
15
Coordinates from ORCA-job scan E -19.239556400920
  C       1.123829     -0.037708      1.195584
  C      -1.439201     -0.377108      0.877901
  C       1.051791      0.540170     -0.181571
  C       0.166037     -0.303068     -1.109589
  C      -1.247414     -0.407084     -0.569112
  O      -1.777062      0.716955      0.084422
  H      -0.379594     -0.246720      1.397110
  H       1.504236     -1.045792      1.272705
  H       1.437274      0.626293      1.985287
  H      -2.244980     -0.895478      1.381630
  H       2.051439      0.614510     -0.630129
  H       0.638709      1.550340     -0.130620
  H       0.568998     -1.314755     -1.201205
  H       0.142905      0.146753     -2.104128
  H      -1.954680     -0.942047     -1.199360
15
Coordinates from ORCA-job scan E -19.239400870660
  C       1.118895     -0.038946      1.195259
  C      -1.434615     -0.375918      0.878131
  C       1.050011      0.540112     -0.181631
  C       0.166412     -0.303523     -1.110903
  C      -1.246092     -0.406842     -0.569114
  O      -1.774076      0.717785      0.084626
  H      -0.373249     -0.245397      1.394626
  H       1.499451     -1.046972      1.272415
  H       1.430314      0.624470      1.986259
  H      -2.239329     -0.893782      1.384085
  H       2.050426      0.615373     -0.628328
  H       0.636217      1.550003     -0.130898
  H       0.569509     -1.315159     -1.202475
  H       0.143005      0.146233     -2.105464
  H      -1.954595     -0.942176     -1.197661
15
Coordinates from ORCA-job scan E -19.239408477540
  C       1.119292     -0.037136      1.196735
  C      -1.437119     -0.377497      0.877592
  C       1.050919      0.540016     -0.181323
  C       0.165796     -0.303144     -1.110283
  C      -1.247662     -0.406706     -0.569527
  O      -1.775951      0.717226      0.085362
  H      -0.372445     -0.248521      1.393975
  H       1.500522     -1.044928      1.274259
  H       1.435348      0.627159      1.985240
  H      -2.242091     -0.895889      1.382847
  H       2.051439      0.613340     -0.628059
  H       0.638593      1.550520     -0.131750
  H       0.568553     -1.314872     -1.202006
  H       0.142986      0.146698     -2.104817
  H      -1.955895     -0.941006     -1.199319
15
Coordinates from ORCA-job scan E -19.239372136100
  C       1.122798     -0.044568      1.197541
  C      -1.442185     -0.370871      0.875841
  C       1.050493      0.538731     -0.178381
  C       0.165038     -0.302395     -1.109263
  C      -1.249970     -0.409199     -0.570888
  O      -1.786640      0.715884      0.075738
  H      -0.372738     -0.229504      1.392569
  H       1.515750     -1.048591      1.268300
  H       1.439609      0.618606      1.986831
  H      -2.244276     -0.890546      1.384557
  H       2.050069      0.616184     -0.626312
  H       0.635721      1.547919     -0.123679
  H       0.569007     -1.313492     -1.202272
  H       0.143424      0.148943     -2.103132
  H      -1.953813     -0.951840     -1.198525
15
Coordinates from ORCA-job scan E -19.239411658430
  C       1.119287     -0.037969      1.196324
  C      -1.439164     -0.377568      0.877926
  C       1.051729      0.539773     -0.181704
  C       0.165793     -0.302735     -1.110056
  C      -1.247825     -0.407306     -0.569220
  O      -1.777322      0.716627      0.085086
  H      -0.372499     -0.246632      1.396073
  H       1.504226     -1.044559      1.273301
  H       1.434176      0.626807      1.984992
  H      -2.244269     -0.895762      1.382936
  H       2.052256      0.612391     -0.628314
  H       0.639803      1.550446     -0.131930
  H       0.568721     -1.314362     -1.202263
  H       0.142714      0.147590     -2.104355
  H      -1.955340     -0.941480     -1.199868
15
Coordinates from ORCA-job scan E -19.239411965120
  C       1.119573     -0.037948      1.196654
  C      -1.438944     -0.377391      0.877615
  C       1.051439      0.539735     -0.181452
  C       0.165602     -0.302812     -1.110002
  C      -1.247794     -0.407192     -0.569362
  O      -1.777365      0.716766      0.084927
  H      -0.372435     -0.246532      1.394816
  H       1.504149     -1.044641      1.273657
  H       1.434588      0.626842      1.985288
  H      -2.243659     -0.895732      1.382982
  H       2.051875      0.612300     -0.628186
  H       0.639569      1.550434     -0.131597
  H       0.568443     -1.314500     -1.202237
  H       0.142468      0.147557     -2.104288
  H      -1.955222     -0.941627     -1.199888
15
Coordinates from ORCA-job scan E -19.239259581520
  C       1.114637     -0.039190      1.196320
  C      -1.434358     -0.376199      0.877849
  C       1.049661      0.539677     -0.181512
  C       0.165977     -0.303265     -1.111314
  C      -1.246471     -0.406950     -0.569361
  O      -1.774377      0.717597      0.085133
  H      -0.366095     -0.245209      1.392318
  H       1.499361     -1.045823      1.273369
  H       1.427626      0.625016      1.986257
  H      -2.238005     -0.894033      1.385437
  H       2.050861      0.613163     -0.626384
  H       0.637082      1.550098     -0.131872
  H       0.568955     -1.314904     -1.203505
  H       0.142567      0.147037     -2.105624
  H      -1.955136     -0.941756     -1.198185
15
Coordinates from ORCA-job scan E -19.239267650560
  C       1.115045     -0.037367      1.197773
  C      -1.436928     -0.377802      0.877322
  C       1.050585      0.539590     -0.181221
  C       0.165375     -0.302890     -1.110683
  C      -1.248039     -0.406820     -0.569762
  O      -1.776252      0.717034      0.085881
  H      -0.365246     -0.248359      1.391794
  H       1.500458     -1.043762      1.275176
  H       1.432667      0.627711      1.985208
  H      -2.240872     -0.896155      1.384166
  H       2.051886      0.611150     -0.626137
  H       0.639463      1.550616     -0.132740
  H       0.568017     -1.314618     -1.203012
  H       0.142561      0.147485     -2.104971
  H      -1.956432     -0.940552     -1.199868
15
Coordinates from ORCA-job scan E -19.239224099570
  C       1.118856     -0.045295      1.198627
  C      -1.442501     -0.370786      0.875444
  C       1.050167      0.538235     -0.178096
  C       0.164576     -0.302102     -1.109561
  C      -1.250530     -0.409480     -0.571207
  O      -1.787698      0.715604      0.075620
  H      -0.365454     -0.228108      1.390526
  H       1.516736     -1.047621      1.268793
  H       1.437386      0.618603      1.986846
  H      -2.243453     -0.890483      1.385881
  H       2.050458      0.614220     -0.624323
  H       0.636415      1.547852     -0.124134
  H       0.568508     -1.313158     -1.203236
  H       0.143050      0.149827     -2.103159
  H      -1.954232     -0.952048     -1.199092
15
Coordinates from ORCA-job scan E -19.239271091370
  C       1.115067     -0.038214      1.197327
  C      -1.439111     -0.377907      0.877663
  C       1.051437      0.539354     -0.181634
  C       0.165382     -0.302477     -1.110439
  C      -1.248202     -0.407434     -0.569434
  O      -1.777656      0.716425      0.085616
  H      -0.365246     -0.246470      1.394121
  H       1.504283     -1.043358      1.274172
  H       1.431501      0.627364      1.984924
  H      -2.243241     -0.896041      1.384196
  H       2.052738      0.610202     -0.626431
  H       0.640713      1.550547     -0.132944
  H       0.568197     -1.314104     -1.203249
  H       0.142282      0.148368     -2.104498
  H      -1.955858     -0.940994     -1.200461
15
Coordinates from ORCA-job scan E -19.239271435500
  C       1.115400     -0.038198      1.197712
  C      -1.438850     -0.377679      0.877302
  C       1.051091      0.539315     -0.181330
  C       0.165173     -0.302569     -1.110377
  C      -1.248181     -0.407310     -0.569610
  O      -1.777727      0.716580      0.085396
  H      -0.365172     -0.246326      1.392681
  H       1.504152     -1.043484      1.274558
  H       1.432069      0.627370      1.985253
  H      -2.242539     -0.895979      1.384247
  H       2.052286      0.610161     -0.626271
  H       0.640392      1.550521     -0.132533
  H       0.567897     -1.314261     -1.203200
  H       0.142035      0.148313     -2.104427
  H      -1.955738     -0.941195     -1.200474
15
Coordinates from ORCA-job scan E -19.239122856920
  C       1.110461     -0.039444      1.197370
  C      -1.434265     -0.376485      0.877539
  C       1.049314      0.539257     -0.181389
  C       0.165549     -0.303022     -1.111687
  C      -1.246857     -0.407067     -0.569605
  O      -1.774738      0.717413      0.085605
  H      -0.358836     -0.245001      1.390167
  H       1.499361     -1.044668      1.274272
  H       1.425104      0.625541      1.986218
  H      -2.236881     -0.894278      1.386703
  H       2.051272      0.611022     -0.624467
  H       0.637909      1.550186     -0.132805
  H       0.568410     -1.314664     -1.204466
  H       0.142134      0.147793     -2.105761
  H      -1.955651     -0.941323     -1.198767
15
Coordinates from ORCA-job scan E -19.239131434240
  C       1.110876     -0.037611      1.198789
  C      -1.436903     -0.378118      0.877031
  C       1.050259      0.539182     -0.181124
  C       0.164964     -0.302649     -1.111047
  C      -1.248418     -0.406945     -0.569988
  O      -1.776603      0.716844      0.086372
  H      -0.357944     -0.248181      1.389802
  H       1.500483     -1.042591      1.276034
  H       1.430125      0.628241      1.985138
  H      -2.239864     -0.896414      1.385400
  H       2.052316      0.609031     -0.624248
  H       0.640298      1.550707     -0.133698
  H       0.567496     -1.314379     -1.203952
  H       0.142141      0.148221     -2.105107
  H      -1.956940     -0.940079     -1.200476
15
Coordinates from ORCA-job scan E -19.239078897290
  C       1.115033     -0.046089      1.199694
  C      -1.443076     -0.370680      0.875013
  C       1.049862      0.537747     -0.177798
  C       0.164121     -0.301816     -1.109807
  C      -1.251121     -0.409792     -0.571527
  O      -1.788905      0.715313      0.075403
  H      -0.358044     -0.226557      1.388729
  H       1.517963     -1.046653      1.269170
  H       1.435374      0.618522      1.986815
  H      -2.242932     -0.890387      1.387107
  H       2.050835      0.612347     -0.622364
  H       0.637068      1.547761     -0.124502
  H       0.568029     -1.312828     -1.204122
  H       0.142691      0.150673     -2.103149
  H      -1.954612     -0.952301     -1.199733
15
Coordinates from ORCA-job scan E -19.239135165680
  C       1.110934     -0.038471      1.198311
  C      -1.439237     -0.378256      0.877375
  C       1.051153      0.538951     -0.181567
  C       0.164980     -0.302235     -1.110783
  C      -1.248584     -0.407572     -0.569644
  O      -1.778046      0.716226      0.086113
  H      -0.357879     -0.246291      1.392366
  H       1.504445     -1.042149      1.274983
  H       1.428985      0.627899      1.984816
  H      -2.242440     -0.896313      1.385361
  H       2.053198      0.608089     -0.624584
  H       0.641584      1.550641     -0.133921
  H       0.567685     -1.313863     -1.204163
  H       0.141855      0.149093     -2.104619
  H      -1.956345     -0.940488     -1.201119
15
Coordinates from ORCA-job scan E -19.239135549160
  C       1.111320     -0.038458      1.198759
  C      -1.438937     -0.377976      0.876958
  C       1.050746      0.538910     -0.181203
  C       0.164749     -0.302342     -1.110710
  C      -1.248577     -0.407438     -0.569857
  O      -1.778155      0.716399      0.085827
  H      -0.357794     -0.246101      1.390719
  H       1.504254     -1.042320      1.275403
  H       1.429735      0.627877      1.985178
  H      -2.241640     -0.896218      1.385419
  H       2.052670      0.608097     -0.624387
  H       0.641172      1.550601     -0.133426
  H       0.567360     -1.314040     -1.204087
  H       0.141608      0.149015     -2.104541
  H      -1.956227     -0.940746     -1.201127
15
Coordinates from ORCA-job scan E -19.238991420570
  C       1.106378     -0.039708      1.198409
  C      -1.434352     -0.376780      0.877198
  C       1.048971      0.538853     -0.181262
  C       0.165126     -0.302794     -1.112018
  C      -1.247252     -0.407194     -0.569849
  O      -1.775165      0.717232      0.086039
  H      -0.351462     -0.244775      1.388189
  H       1.499461     -1.043507      1.275120
  H       1.422769      0.626044      1.986142
  H      -2.235980     -0.894515      1.387875
  H       2.051656      0.608958     -0.622581
  H       0.638693      1.550268     -0.133695
  H       0.567874     -1.314441     -1.205350
  H       0.141708      0.148495     -2.105874
  H      -1.956139     -0.940876     -1.199417
15
Coordinates from ORCA-job scan E -19.239000553640
  C       1.106793     -0.037866      1.199783
  C      -1.437059     -0.378448      0.876717
  C       1.049942      0.538791     -0.181033
  C       0.164563     -0.302424     -1.111372
  C      -1.248798     -0.407081     -0.570208
  O      -1.777007      0.716659      0.086834
  H      -0.350527     -0.247988      1.388018
  H       1.500607     -1.041412      1.276828
  H       1.427736      0.628748      1.985026
  H      -2.239086     -0.896666      1.386541
  H       2.052726      0.606989     -0.622396
  H       0.641096      1.550792     -0.134624
  H       0.566991     -1.314157     -1.204817
  H       0.141728      0.148903     -2.105221
  H      -1.957418     -0.939580     -1.201149
15
Coordinates from ORCA-job scan E -19.238936699700
  C       1.111343     -0.046958      1.200740
  C      -1.443946     -0.370551      0.874543
  C       1.049583      0.537268     -0.177487
  C       0.163672     -0.301539     -1.109994
  C      -1.251749     -0.410143     -0.571849
  O      -1.790286      0.715006      0.075077
  H      -0.350489     -0.224830      1.387221
  H       1.519473     -1.045687      1.269413
  H       1.433596      0.618355      1.986733
  H      -2.242760     -0.890254      1.388224
  H       2.051200      0.610574     -0.620441
  H       0.637679      1.547644     -0.124773
  H       0.567572     -1.312500     -1.204921
  H       0.142351      0.151477     -2.103095
  H      -1.954953     -0.952603     -1.200462
15
Coordinates from ORCA-job scan E -19.239004614300
  C       1.106901     -0.038743      1.199276
  C      -1.439558     -0.378615      0.877055
  C       1.050872      0.538566     -0.181499
  C       0.164585     -0.302012     -1.111082
  C      -1.248972     -0.407722     -0.569850
  O      -1.778498      0.716034      0.086571
  H      -0.350384     -0.246095      1.390824
  H       1.504723     -1.040933      1.275727
  H       1.426648      0.628409      1.984667
  H      -2.241884     -0.896572      1.386424
  H       2.053629      0.606060     -0.622774
  H       0.642406      1.550727     -0.134854
  H       0.567186     -1.313643     -1.204994
  H       0.141434      0.149757     -2.104716
  H      -1.956802     -0.939958     -1.201848
15
Coordinates from ORCA-job scan E -19.239005034750
  C       1.107343     -0.038729      1.199798
  C      -1.439223     -0.378281      0.876577
  C       1.050403      0.538524     -0.181070
  C       0.164331     -0.302133     -1.110996
  C      -1.248985     -0.407577     -0.570105
  O      -1.778656      0.716221      0.086215
  H      -0.350286     -0.245859      1.388951
  H       1.504472     -1.041150      1.276188
  H       1.427610      0.628362      1.985062
  H      -2.240987     -0.896449      1.386488
  H       2.053025      0.606116     -0.622536
  H       0.641904      1.550673     -0.134271
  H       0.566833     -1.313837     -1.204888
  H       0.141191      0.149658     -2.104630
  H      -1.956689     -0.940279     -1.201856
15
Coordinates from ORCA-job scan E -19.238865972230
  C       1.102399     -0.039981      1.199440
  C      -1.434639     -0.377084      0.876821
  C       1.048631      0.538466     -0.181128
  C       0.164708     -0.302584     -1.112303
  C      -1.247660     -0.407332     -0.570094
  O      -1.775665      0.717055      0.086429
  H      -0.343959     -0.244532      1.386405
  H       1.499676     -1.042338      1.275909
  H       1.420643      0.626527      1.986024
  H      -2.235324     -0.894743      1.388945
  H       2.052012      0.606976     -0.620729
  H       0.639429      1.550342     -0.134538
  H       0.567348     -1.314238     -1.206150
  H       0.141290      0.149138     -2.105961
  H      -1.956601     -0.940409     -1.200143
15
Coordinates from ORCA-job scan E -19.238875704370
  C       1.102805     -0.038132      1.200752
  C      -1.437414     -0.378794      0.876376
  C       1.049634      0.538419     -0.180947
  C       0.164174     -0.302217     -1.111655
  C      -1.249183     -0.407229     -0.570422
  O      -1.777468      0.716477      0.087266
  H      -0.342983     -0.247786      1.386468
  H       1.500845     -1.040226      1.277552
  H       1.425515      0.629235      1.984870
  H      -2.238564     -0.896910      1.387581
  H       2.053114      0.605031     -0.620586
  H       0.641849      1.550872     -0.135517
  H       0.566502     -1.313954     -1.205601
  H       0.141324      0.149524     -2.105314
  H      -1.957865     -0.939050     -1.201896
15
Coordinates from ORCA-job scan E -19.238797510680
  C       1.107805     -0.047910      1.201763
  C      -1.445159     -0.370404      0.874030
  C       1.049335      0.536798     -0.177164
  C       0.163229     -0.301270     -1.110115
  C      -1.252422     -0.410535     -0.572174
  O      -1.791859      0.714682      0.074630
  H      -0.342766     -0.222914      1.386060
  H       1.521313     -1.044717      1.269505
  H       1.432079      0.618099      1.986591
  H      -2.242992     -0.890083      1.389215
  H       2.051557      0.608911     -0.618561
  H       0.638246      1.547499     -0.124941
  H       0.567139     -1.312176     -1.205621
  H       0.142032      0.152233     -2.102994
  H      -1.955252     -0.952952     -1.201295
15
Coordinates from ORCA-job scan E -19.238880144940
  C       1.102982     -0.039030      1.200227
  C      -1.440091     -0.378981      0.876695
  C       1.050591      0.538201     -0.181427
  C       0.164198     -0.301810     -1.111335
  C      -1.249369     -0.407883     -0.570058
  O      -1.779019      0.715850      0.086981
  H      -0.342747     -0.245880      1.389509
  H       1.505134     -1.039714      1.276400
  H       1.424516      0.628892      1.984478
  H      -2.241592     -0.896815      1.387376
  H       2.054026      0.604129     -0.621006
  H       0.643166      1.550804     -0.135735
  H       0.566696     -1.313447     -1.205734
  H       0.141022      0.150354     -2.104787
  H      -1.957226     -0.939406     -1.202658
15
Coordinates from ORCA-job scan E -19.238880592870
  C       1.103483     -0.039008      1.200828
  C      -1.439734     -0.378600      0.876155
  C       1.050065      0.538156     -0.180931
  C       0.163917     -0.301943     -1.111232
  C      -1.249410     -0.407728     -0.570357
  O      -1.779240      0.716047      0.086555
  H      -0.342634     -0.245601      1.387404
  H       1.504821     -1.039972      1.276907
  H       1.425718      0.628827      1.984899
  H      -2.240609     -0.896671      1.387445
  H       2.053350      0.604225     -0.620724
  H       0.642584      1.550737     -0.135065
  H       0.566315     -1.313657     -1.205596
  H       0.140784      0.150237     -2.104689
  H      -1.957124     -0.939790     -1.202673
15
Coordinates from ORCA-job scan E -19.238747191790
  C       1.098537     -0.040264      1.200463
  C      -1.435152     -0.377401      0.876403
  C       1.048294      0.538098     -0.180988
  C       0.164295     -0.302393     -1.112537
  C      -1.248085     -0.407483     -0.570342
  O      -1.776249      0.716882      0.086771
  H      -0.336311     -0.244274      1.384840
  H       1.500024     -1.041161      1.276631
  H       1.418750      0.626989      1.985860
  H      -2.234945     -0.894963      1.389903
  H       2.052337      0.605084     -0.618916
  H       0.640113      1.550407     -0.135330
  H       0.566830     -1.314057     -1.206855
  H       0.140884      0.149717     -2.106019
  H      -1.957036     -0.939920     -1.200958
15
Coordinates from ORCA-job scan E -19.238757552640
  C       1.098925     -0.038408      1.201699
  C      -1.437991     -0.379159      0.876003
  C       1.049334      0.538069     -0.180867
  C       0.163796     -0.302030     -1.111891
  C      -1.249573     -0.407390     -0.570632
  O      -1.777992      0.716301      0.087664
  H      -0.335294     -0.247579      1.385178
  H       1.501211     -1.039029      1.278202
  H       1.423484      0.629701      1.984666
  H      -2.238324     -0.897145      1.388507
  H       2.053480      0.603163     -0.618824
  H       0.642554      1.550945     -0.136373
  H       0.566029     -1.313773     -1.206293
  H       0.140929      0.150077     -2.105384
  H      -1.958280     -0.938482     -1.202729
15
Coordinates from ORCA-job scan E -19.238661277840
  C       1.104437     -0.048942      1.202758
  C      -1.446759     -0.370254      0.873470
  C       1.049125      0.536341     -0.176834
  C       0.162795     -0.301013     -1.110161
  C      -1.253145     -0.410970     -0.572502
  O      -1.793634      0.714340      0.074065
  H      -0.334845     -0.220820      1.385313
  H       1.523522     -1.043733      1.269434
  H       1.430848      0.617759      1.986379
  H      -2.243692     -0.889882      1.390056
  H       2.051910      0.607364     -0.616736
  H       0.638770      1.547325     -0.125009
  H       0.566729     -1.311859     -1.206207
  H       0.141738      0.152932     -2.102842
  H      -1.955512     -0.953328     -1.202256
15
Coordinates from ORCA-job scan E -19.238762440570
  C       1.099196     -0.039335      1.201169
  C      -1.440856     -0.379353      0.876287
  C       1.050304      0.537855     -0.181347
  C       0.163814     -0.301634     -1.111534
  C      -1.249778     -0.408055     -0.570272
  O      -1.779620      0.715677      0.087332
  H      -0.334948     -0.245645      1.388434
  H       1.505693     -1.038494      1.276999
  H       1.422624      0.629345      1.984249
  H      -2.241587     -0.897037      1.388205
  H       2.054377      0.602305     -0.619282
  H       0.643850      1.550868     -0.136554
  H       0.566215     -1.313281     -1.206370
  H       0.140620      0.150874     -2.104831
  H      -1.957618     -0.938830     -1.203559
15
Coordinates from ORCA-job scan E -19.238762897910
  C       1.099753     -0.039296      1.201851
  C      -1.440499     -0.378935      0.875688
  C       1.049732      0.537808     -0.180787
  C       0.163509     -0.301774     -1.111412
  C      -1.249856     -0.407893     -0.570612
  O      -1.779918      0.715876      0.086844
  H      -0.334820     -0.245331      1.386114
  H       1.505325     -1.038781      1.277551
  H       1.424084      0.629273      1.984684
  H      -2.240543     -0.896885      1.388277
  H       2.053645      0.602430     -0.618956
  H       0.643207      1.550793     -0.135807
  H       0.565807     -1.313499     -1.206199
  H       0.140391      0.150745     -2.104717
  H      -1.957532     -0.939270     -1.203591
15
Coordinates from ORCA-job scan E -19.238635797660
  C       1.094806     -0.040555      1.201479
  C      -1.435919     -0.377735      0.875939
  C       1.047963      0.537751     -0.180843
  C       0.163888     -0.302224     -1.112715
  C      -1.248531     -0.407648     -0.570596
  O      -1.776927      0.716712      0.087062
  H      -0.328500     -0.244003      1.383531
  H       1.500526     -1.039972      1.277279
  H       1.417116      0.627433      1.985645
  H      -2.234878     -0.895176      1.390735
  H       2.052632      0.603288     -0.617146
  H       0.640740      1.550464     -0.136069
  H       0.566323     -1.313899     -1.207455
  H       0.140492      0.150225     -2.106045
  H      -1.957444     -0.939402     -1.201874
15
Coordinates from ORCA-job scan E -19.238646791440
  C       1.095170     -0.038693      1.202625
  C      -1.438817     -0.379548      0.875592
  C       1.049041      0.537741     -0.180792
  C       0.163427     -0.301867     -1.112075
  C      -1.249975     -0.407563     -0.570841
  O      -1.778588      0.716131      0.088023
  H      -0.327442     -0.247372      1.384176
  H       1.501727     -1.037821      1.278772
  H       1.421672      0.630151      1.984410
  H      -2.238399     -0.897371      1.389308
  H       2.053817      0.601394     -0.617113
  H       0.643201      1.551011     -0.137188
  H       0.565570     -1.313618     -1.206883
  H       0.140547      0.150555     -2.105426
  H      -1.958664     -0.937871     -1.203661
15
Coordinates from ORCA-job scan E -19.238528093230
  C       1.101259     -0.050044      1.203724
  C      -1.448791     -0.370119      0.872855
  C       1.048956      0.535902     -0.176503
  C       0.162368     -0.300774     -1.110126
  C      -1.253922     -0.411445     -0.572833
  O      -1.795607      0.713983      0.073392
  H      -0.326693     -0.218588      1.385048
  H       1.526117     -1.042719      1.269195
  H       1.429938      0.617354      1.986085
  H      -2.244923     -0.889659      1.390719
  H       2.052260      0.605942     -0.614980
  H       0.639247      1.547126     -0.124986
  H       0.566342     -1.311557     -1.206659
  H       0.141471      0.153555     -2.102635
  H      -1.955735     -0.953697     -1.203369
15
Coordinates from ORCA-job scan E -19.238652213880
  C       1.095565     -0.039657      1.202110
  C      -1.441881     -0.379728      0.875817
  C       1.050006      0.537531     -0.181252
  C       0.163432     -0.301488     -1.111674
  C      -1.250208     -0.408239     -0.570498
  O      -1.780315      0.715516      0.087612
  H      -0.326967     -0.245386      1.387612
  H       1.506422     -1.037274      1.277518
  H       1.421017      0.629766      1.983977
  H      -2.241896     -0.897231      1.388899
  H       2.054674      0.600604     -0.617603
  H       0.644442      1.550917     -0.137295
  H       0.565740     -1.313147     -1.206890
  H       0.140232      0.151309     -2.104841
  H      -1.957978     -0.938232     -1.204566
15
Coordinates from ORCA-job scan E -19.238652657230
  C       1.096167     -0.039592      1.202861
  C      -1.441550     -0.379294      0.875171
  C       1.049408      0.537485     -0.180641
  C       0.163109     -0.301628     -1.111531
  C      -1.250325     -0.408075     -0.570873
  O      -1.780697      0.715707      0.087079
  H      -0.326822     -0.245052      1.385129
  H       1.506005     -1.037576      1.278108
  H       1.422726      0.629700      1.984410
  H      -2.240832     -0.897091      1.388970
  H       2.053911      0.600741     -0.617239
  H       0.643769      1.550840     -0.136496
  H       0.565312     -1.313367     -1.206686
  H       0.140016      0.151174     -2.104711
  H      -1.957911     -0.938712     -1.204626
15
Coordinates from ORCA-job scan E -19.238532704350
  C       1.091218     -0.040854      1.202483
  C      -1.436973     -0.378092      0.875426
  C       1.047641      0.537427     -0.180696
  C       0.163488     -0.302077     -1.112832
  C      -1.248999     -0.407830     -0.570854
  O      -1.777707      0.716544      0.087300
  H      -0.320506     -0.243723      1.382526
  H       1.501207     -1.038768      1.277842
  H       1.415759      0.627859      1.985371
  H      -2.235167     -0.895380      1.391430
  H       2.052898      0.601598     -0.615428
  H       0.641306      1.550512     -0.136755
  H       0.565829     -1.313766     -1.207940
  H       0.140117      0.150655     -2.106037
  H      -1.957824     -0.938844     -1.202908
15
Coordinates from ORCA-job scan E -19.238544305860
  C       1.091560     -0.038987      1.203536
  C      -1.439924     -0.379960      0.875130
  C       1.048753      0.537439     -0.180716
  C       0.163066     -0.301730     -1.112198
  C      -1.250394     -0.407749     -0.571054
  O      -1.779272      0.715968      0.088332
  H      -0.319403     -0.247168      1.383486
  H       1.502417     -1.036599      1.279256
  H       1.420125      0.630582      1.984097
  H      -2.238826     -0.897584      1.389968
  H       2.054120      0.599737     -0.615457
  H       0.643778      1.551069     -0.137952
  H       0.565123     -1.313494     -1.207353
  H       0.140181      0.150948     -2.105436
  H      -1.959017     -0.937211     -1.204711
15
Coordinates from ORCA-job scan E -19.238398834250
  C       1.098291     -0.051181      1.204666
  C      -1.451275     -0.370031      0.872174
  C       1.048820      0.535490     -0.176174
  C       0.161948     -0.300563     -1.109999
  C      -1.254750     -0.411947     -0.573171
  O      -1.797745      0.713623      0.072637
  H      -0.318268     -0.216308      1.385307
  H       1.529071     -1.041658      1.268803
  H       1.429394      0.616922      1.985698
  H      -2.246727     -0.889435      1.391169
  H       2.052591      0.604655     -0.613307
  H       0.639664      1.546911     -0.124888
  H       0.565968     -1.311288     -1.206946
  H       0.141234      0.154072     -2.102374
  H      -1.955931     -0.954001     -1.204666
15
Coordinates from ORCA-job scan E -19.238550361610
  C       1.092110     -0.039995      1.203054
  C      -1.443205     -0.380111      0.875275
  C       1.049697      0.537232     -0.181137
  C       0.163050     -0.301373     -1.111744
  C      -1.250666     -0.408437     -0.570742
  O      -1.781124      0.715367      0.087812
  H      -0.318776     -0.245111      1.387079
  H       1.507348     -1.036050      1.277949
  H       1.419747      0.630157      1.983655
  H      -2.242567     -0.897401      1.389440
  H       2.054913      0.599036     -0.615974
  H       0.644935      1.550952     -0.137953
  H       0.565268     -1.313052     -1.207274
  H       0.139862      0.151649     -2.104813
  H      -1.958307     -0.937603     -1.205699
15
Coordinates from ORCA-job scan E -19.238550773480
  C       1.092741     -0.039899      1.203854
  C      -1.442919     -0.379680      0.874600
  C       1.049092      0.537188     -0.180495
  C       0.162718     -0.301510     -1.111583
  C      -1.250816     -0.408275     -0.571139
  O      -1.781580      0.715544      0.087258
  H      -0.318617     -0.244768      1.384502
  H       1.506884     -1.036356      1.278564
  H       1.421662      0.630106      1.984069
  H      -2.241517     -0.897284      1.389512
  H       2.054144      0.599173     -0.615584
  H       0.644258      1.550877     -0.137129
  H       0.564834     -1.313266     -1.207043
  H       0.139662      0.151513     -2.104668
  H      -1.958258     -0.938103     -1.205792
15
Coordinates from ORCA-job scan E -19.238439292200
  C       1.087792     -0.041164      1.203470
  C      -1.438345     -0.378478      0.874858
  C       1.047328      0.537131     -0.180549
  C       0.163097     -0.301958     -1.112882
  C      -1.249492     -0.408029     -0.571118
  O      -1.778592      0.716381      0.087480
  H      -0.312305     -0.243439      1.381877
  H       1.502086     -1.037548      1.278304
  H       1.414697      0.628264      1.985031
  H      -2.235854     -0.895572      1.391972
  H       2.053132      0.600030     -0.613771
  H       0.641799      1.550551     -0.137385
  H       0.565351     -1.313664     -1.208295
  H       0.139763      0.150994     -2.105992
  H      -1.958171     -0.938237     -1.204074
15
Coordinates from ORCA-job scan E -19.238451470870
  C       1.088121     -0.039289      1.204438
  C      -1.441347     -0.380396      0.874604
  C       1.048463      0.537164     -0.180634
  C       0.162711     -0.301625     -1.112252
  C      -1.250839     -0.407950     -0.571279
  O      -1.780060      0.715815      0.088578
  H      -0.311148     -0.246968      1.383136
  H       1.503306     -1.035363      1.279644
  H       1.418896      0.630993      1.983723
  H      -2.239645     -0.897782      1.390469
  H       2.054379      0.598209     -0.613861
  H       0.644267      1.551116     -0.138651
  H       0.564686     -1.313406     -1.207685
  H       0.139835      0.151241     -2.105409
  H      -1.959339     -0.936501     -1.205895
15
Coordinates from ORCA-job scan E -19.238275035450
  C       1.095566     -0.052331      1.205597
  C      -1.454236     -0.370005      0.871403
  C       1.048699      0.535114     -0.175840
  C       0.161532     -0.300395     -1.109768
  C      -1.255634     -0.412465     -0.573527
  O      -1.800035      0.713275      0.071804
  H      -0.309524     -0.214048      1.386109
  H       1.532362     -1.040541      1.268265
  H       1.429300      0.616482      1.985208
  H      -2.249136     -0.889214      1.391369
  H       2.052880      0.603530     -0.611724
  H       0.639986      1.546682     -0.124709
  H       0.565599     -1.311070     -1.207029
  H       0.141032      0.154446     -2.102057
  H      -1.956106     -0.954200     -1.206173
15
Coordinates from ORCA-job scan E -19.238458265860
  C       1.088853     -0.040345      1.203999
  C      -1.444879     -0.380511      0.874653
  C       1.049380      0.536961     -0.181005
  C       0.162670     -0.301294     -1.111734
  C      -1.251161     -0.408649     -0.571007
  O      -1.782062      0.715229      0.087928
  H      -0.310343     -0.244830      1.386895
  H       1.508502     -1.034814      1.278278
  H       1.418858      0.630522      1.983268
  H      -2.243661     -0.897547      1.389807
  H       2.055094      0.597613     -0.614405
  H       0.645322      1.550972     -0.138524
  H       0.564802     -1.312996     -1.207502
  H       0.139518      0.151880     -2.104740
  H      -1.958607     -0.936929     -1.206983
15
Coordinates from ORCA-job scan E -19.238458642760
  C       1.089497     -0.040218      1.204828
  C      -1.444635     -0.380094      0.873964
  C       1.048778      0.536924     -0.180348
  C       0.162338     -0.301425     -1.111561
  C      -1.251333     -0.408492     -0.571414
  O      -1.782573      0.715389      0.087372
  H      -0.310177     -0.244486      1.384276
  H       1.507979     -1.035124      1.278903
  H       1.420926      0.630484      1.983657
  H      -2.242636     -0.897456      1.389884
  H       2.054334      0.597750     -0.613998
  H       0.644650      1.550903     -0.137697
  H       0.564373     -1.313203     -1.207247
  H       0.139335      0.151743     -2.104588
  H      -1.958569     -0.937435     -1.207106
15
Coordinates from ORCA-job scan E -19.238357786560
  C       1.084549     -0.041485      1.204439
  C      -1.440066     -0.378891      0.874226
  C       1.047016      0.536866     -0.180401
  C       0.162717     -0.301873     -1.112857
  C      -1.250009     -0.408246     -0.571392
  O      -1.779587      0.716226      0.087595
  H      -0.303868     -0.243157      1.381627
  H       1.503183     -1.036316      1.278649
  H       1.413964      0.628641      1.984621
  H      -2.236976     -0.895743      1.392346
  H       2.053322      0.598607     -0.612184
  H       0.642196      1.550578     -0.137950
  H       0.564891     -1.313600     -1.208496
  H       0.139438      0.151224     -2.105910
  H      -1.958484     -0.937569     -1.205389
15
Coordinates from ORCA-job scan E -19.238370544140
  C       1.084876     -0.039602      1.205331
  C      -1.443122     -0.380854      0.874001
  C       1.048167      0.536922     -0.180541
  C       0.162362     -0.301557     -1.112226
  C      -1.251314     -0.408165     -0.571521
  O      -1.780966      0.715676      0.088748
  H      -0.302648     -0.246772      1.383166
  H       1.504415     -1.034115      1.279918
  H       1.418032      0.631373      1.983280
  H      -2.240896     -0.897955      1.390795
  H       2.054581      0.596836     -0.612330
  H       0.644646      1.551151     -0.139270
  H       0.564261     -1.313361     -1.207853
  H       0.139518      0.151418     -2.105342
  H      -1.959628     -0.935734     -1.207231
15
Coordinates from ORCA-job scan E -19.238158449220
  C       1.093125     -0.053502      1.206515
  C      -1.457729     -0.370033      0.870519
  C       1.048583      0.534782     -0.175487
  C       0.161119     -0.300279     -1.109413
  C      -1.256585     -0.412999     -0.573912
  O      -1.802503      0.712945      0.070863
  H      -0.300414     -0.211791      1.387514
  H       1.536027     -1.039371      1.267540
  H       1.429741      0.616009      1.984599
  H      -2.252214     -0.888984      1.391294
  H       2.053104      0.602613     -0.610233
  H       0.640171      1.546436     -0.124414
  H       0.565237     -1.310914     -1.206865
  H       0.140883      0.154648     -2.101673
  H      -1.956260     -0.954299     -1.207917
15
Coordinates from ORCA-job scan E -19.238378204390
  C       1.085820     -0.040707      1.204943
  C      -1.446954     -0.380935      0.873941
  C       1.049055      0.536725     -0.180854
  C       0.162293     -0.301256     -1.111632
  C      -1.251699     -0.408880     -0.571296
  O      -1.783145      0.715104      0.087950
  H      -0.301632     -0.244554      1.387132
  H       1.509919     -1.033561      1.278480
  H       1.418398      0.630856      1.982803
  H      -2.245247     -0.897666      1.389977
  H       2.055213      0.596359     -0.612907
  H       0.645586      1.550976     -0.139002
  H       0.564345     -1.312988     -1.207544
  H       0.139208      0.151984     -2.104619
  H      -1.958875     -0.936198     -1.208444
15
Coordinates from ORCA-job scan E -19.238378552970
  C       1.086466     -0.040552      1.205783
  C      -1.446741     -0.380536      0.873247
  C       1.048457      0.536697     -0.180194
  C       0.161969     -0.301383     -1.111452
  C      -1.251879     -0.408725     -0.571706
  O      -1.783685      0.715249      0.087407
  H      -0.301465     -0.244211      1.384498
  H       1.509319     -1.033881      1.279105
  H       1.420570      0.630825      1.983167
  H      -2.244239     -0.897599      1.390066
  H       2.054465      0.596503     -0.612489
  H       0.644917      1.550915     -0.138183
  H       0.563931     -1.313188     -1.207269
  H       0.139043      0.151841     -2.104465
  H      -1.958843     -0.936696     -1.208589
15
Coordinates from ORCA-job scan E -19.238291767720
  C       1.081501     -0.041444      1.205786
  C      -1.442021     -0.379636      0.873250
  C       1.046599      0.536471     -0.180156
  C       0.162159     -0.301686     -1.112657
  C      -1.250443     -0.408356     -0.571829
  O      -1.780595      0.716029      0.087709
  H      -0.295056     -0.243202      1.382359
  H       1.504123     -1.034850      1.279405
  H       1.414423      0.629700      1.983879
  H      -2.238491     -0.896399      1.391955
  H       2.053213      0.596590     -0.610998
  H       0.642473      1.550469     -0.138489
  H       0.563998     -1.313535     -1.208524
  H       0.139039      0.151666     -2.105607
  H      -1.958638     -0.936556     -1.207155
15
Coordinates from ORCA-job scan E -19.238306241220
  C       1.082642     -0.041163      1.206066
  C      -1.445049     -0.380134      0.873098
  C       1.047737      0.536521     -0.180170
  C       0.161964     -0.301354     -1.112233
  C      -1.251797     -0.408729     -0.571945
  O      -1.783215      0.715402      0.087380
  H      -0.293784     -0.243053      1.383508
  H       1.506486     -1.034174      1.279459
  H       1.416609      0.630250      1.983543
  H      -2.241739     -0.897159      1.391478
  H       2.054343      0.596107     -0.611099
  H       0.644305      1.550750     -0.138508
  H       0.563916     -1.313127     -1.208318
  H       0.139207      0.152012     -2.105192
  H      -1.959338     -0.936890     -1.208142
15
Coordinates from ORCA-job scan E -19.238313729050
  C       1.083732     -0.040933      1.206291
  C      -1.448907     -0.380933      0.872864
  C       1.048600      0.536562     -0.180294
  C       0.161739     -0.301102     -1.111399
  C      -1.252613     -0.409195     -0.571883
  O      -1.785354      0.714784      0.087260
  H      -0.292426     -0.243166      1.385413
  H       1.509703     -1.033157      1.279129
  H       1.419378      0.630856      1.982807
  H      -2.245938     -0.897832      1.390524
  H       2.055020      0.595410     -0.611419
  H       0.645751      1.551038     -0.138740
  H       0.563779     -1.312826     -1.207500
  H       0.139015      0.152242     -2.104344
  H      -1.959193     -0.936488     -1.209782
15
Coordinates from ORCA-job scan E -19.238314379390
  C       1.083651     -0.040912      1.206268
  C      -1.449570     -0.381184      0.872807
  C       1.048560      0.536583     -0.180380
  C       0.161759     -0.301184     -1.111261
  C      -1.252356     -0.409216     -0.571760
  O      -1.785159      0.714829      0.087521
  H      -0.292401     -0.243372      1.385949
  H       1.510342     -1.032846      1.278923
  H       1.419677      0.630983      1.982566
  H      -2.246640     -0.897923      1.390375
  H       2.054996      0.595269     -0.611436
  H       0.645710      1.551069     -0.138893
  H       0.563778     -1.312954     -1.207295
  H       0.138777      0.152132     -2.104239
  H      -1.958839     -0.936013     -1.210217
15
Coordinates from ORCA-job scan E -19.238247156860
  C       1.078689     -0.041805      1.206269
  C      -1.444857     -0.380284      0.872813
  C       1.046705      0.536356     -0.180340
  C       0.161950     -0.301487     -1.112465
  C      -1.250922     -0.408847     -0.571883
  O      -1.782073      0.715609      0.087823
  H      -0.285994     -0.242362      1.383788
  H       1.505150     -1.033816      1.279227
  H       1.413533      0.629858      1.983279
  H      -2.240897     -0.896725      1.392265
  H       2.053745      0.595356     -0.609942
  H       0.643270      1.550624     -0.139195
  H       0.563846     -1.313300     -1.208547
  H       0.138776      0.151958     -2.105379
  H      -1.958636     -0.935875     -1.208787
15
Coordinates from ORCA-job scan E -19.238261310490
  C       1.079958     -0.041521      1.206722
  C      -1.447841     -0.380701      0.872428
  C       1.047674      0.536388     -0.180186
  C       0.161646     -0.301250     -1.112007
  C      -1.252282     -0.409092     -0.572109
  O      -1.784653      0.715131      0.087369
  H      -0.284621     -0.242287      1.384796
  H       1.507799     -1.033066      1.279329
  H       1.416141      0.630446      1.983044
  H      -2.244096     -0.897472      1.391486
  H       2.054645      0.594932     -0.609915
  H       0.644880      1.550874     -0.139023
  H       0.563561     -1.313039     -1.208256
  H       0.138804      0.152140     -2.104964
  H      -1.959328     -0.936223     -1.209787
15
Coordinates from ORCA-job scan E -19.238269307920
  C       1.081251     -0.041307      1.207185
  C      -1.451929     -0.381420      0.871941
  C       1.048343      0.536419     -0.180120
  C       0.161351     -0.301094     -1.111090
  C      -1.253199     -0.409455     -0.572177
  O      -1.786923      0.714641      0.087066
  H      -0.283071     -0.242554      1.386681
  H       1.511542     -1.031938      1.279009
  H       1.419745      0.631046      1.982275
  H      -2.248566     -0.898073      1.390221
  H       2.055078      0.594393     -0.610125
  H       0.645966      1.551080     -0.139050
  H       0.563318     -1.312855     -1.207224
  H       0.138634      0.152165     -2.104093
  H      -1.959253     -0.935786     -1.211573
15
Coordinates from ORCA-job scan E -19.238270004280
  C       1.081173     -0.041306      1.207183
  C      -1.452637     -0.381656      0.871867
  C       1.048242      0.536450     -0.180186
  C       0.161398     -0.301206     -1.110942
  C      -1.252947     -0.409484     -0.572076
  O      -1.786705      0.714700      0.087299
  H      -0.283032     -0.242837      1.387253
  H       1.512224     -1.031635      1.278760
  H       1.420233      0.631141      1.981969
  H      -2.249336     -0.898080      1.390087
  H       2.054995      0.594373     -0.610126
  H       0.645753      1.551076     -0.139165
  H       0.563364     -1.313009     -1.206940
  H       0.138486      0.151986     -2.103997
  H      -1.958926     -0.935252     -1.212060
15
Coordinates from ORCA-job scan E -19.238226065250
  C       1.076212     -0.042200      1.207180
  C      -1.447932     -0.380755      0.871878
  C       1.046390      0.536223     -0.180144
  C       0.161590     -0.301507     -1.112143
  C      -1.251514     -0.409116     -0.572198
  O      -1.783624      0.715479      0.087601
  H      -0.276628     -0.241822      1.385072
  H       1.507035     -1.032606      1.279066
  H       1.414094      0.630014      1.982684
  H      -2.243599     -0.896882      1.391979
  H       2.053746      0.594459     -0.608630
  H       0.643319      1.550632     -0.139465
  H       0.563435     -1.313355     -1.208188
  H       0.138487      0.151812     -2.105134
  H      -1.958724     -0.935117     -1.210633
15
Coordinates from ORCA-job scan E -19.238241099590
  C       1.077561     -0.041925      1.207634
  C      -1.451033     -0.381169      0.871471
  C       1.047337      0.536274     -0.179977
  C       0.161296     -0.301293     -1.111649
  C      -1.252906     -0.409376     -0.572447
  O      -1.786233      0.715005      0.087096
  H      -0.275157     -0.241780      1.386188
  H       1.509749     -1.031869      1.279111
  H       1.416877      0.630579      1.982407
  H      -2.246949     -0.897583      1.391164
  H       2.054607      0.594150     -0.608626
  H       0.644824      1.550866     -0.139235
  H       0.563169     -1.313118     -1.207805
  H       0.138579      0.151928     -2.104702
  H      -1.959436     -0.935428     -1.211702
15
Coordinates from ORCA-job scan E -19.238250365130
  C       1.079080     -0.041715      1.208120
  C      -1.455537     -0.381920      0.870892
  C       1.047994      0.536344     -0.179884
  C       0.161002     -0.301182     -1.110622
  C      -1.253915     -0.409773     -0.572565
  O      -1.788650      0.714517      0.086692
  H      -0.273322     -0.242145      1.388415
  H       1.513799     -1.030711      1.278666
  H       1.420986      0.631168      1.981533
  H      -2.251936     -0.898115      1.389736
  H       2.054975      0.593821     -0.608892
  H       0.645757      1.551053     -0.139152
  H       0.562938     -1.312986     -1.206541
  H       0.138499      0.151810     -2.103769
  H      -1.959383     -0.934904     -1.213701
15
Coordinates from ORCA-job scan E -19.238251206970
  C       1.079048     -0.041718      1.208111
  C      -1.456335     -0.382167      0.870782
  C       1.047861      0.536390     -0.179950
  C       0.161061     -0.301326     -1.110452
  C      -1.253649     -0.409799     -0.572474
  O      -1.788400      0.714602      0.086924
  H      -0.273207     -0.242486      1.389131
  H       1.514538     -1.030406      1.278361
  H       1.421585      0.631251      1.981192
  H      -2.252829     -0.898082      1.389552
  H       2.054848      0.593896     -0.608910
  H       0.645441      1.551036     -0.139240
  H       0.562996     -1.313179     -1.206179
  H       0.138368      0.151558     -2.103671
  H      -1.959038     -0.934308     -1.214250
15
Coordinates from ORCA-job scan E -19.238235854140
  C       1.074089     -0.042613      1.208107
  C      -1.451638     -0.381266      0.870799
  C       1.046013      0.536164     -0.179907
  C       0.161254     -0.301626     -1.111650
  C      -1.252218     -0.409432     -0.572596
  O      -1.785327      0.715379      0.087226
  H      -0.266806     -0.241464      1.386927
  H       1.509353     -1.031378      1.278671
  H       1.415452      0.630124      1.981911
  H      -2.247100     -0.896886      1.391446
  H       2.053600      0.593982     -0.607414
  H       0.643011      1.550592     -0.139537
  H       0.563068     -1.313523     -1.207423
  H       0.138372      0.151385     -2.104806
  H      -1.958838     -0.934177     -1.212827
15
Coordinates from ORCA-job scan E -19.238251812380
  C       1.075536     -0.042343      1.208565
  C      -1.454849     -0.381679      0.870344
  C       1.046934      0.536228     -0.179723
  C       0.160958     -0.301440     -1.111123
  C      -1.253627     -0.409685     -0.572867
  O      -1.787958      0.714929      0.086677
  H      -0.265215     -0.241444      1.388183
  H       1.512153     -1.030647      1.278670
  H       1.418380      0.630674      1.981618
  H      -2.250592     -0.897565      1.390550
  H       2.054411      0.593764     -0.607437
  H       0.644425      1.550813     -0.139252
  H       0.562797     -1.313320     -1.206957
  H       0.138487      0.151426     -2.104364
  H      -1.959554     -0.934453     -1.213957
15
Coordinates from ORCA-job scan E -19.238262747660
  C       1.077351     -0.042132      1.209080
  C      -1.459871     -0.382473      0.869636
  C       1.047585      0.536337     -0.179598
  C       0.160652     -0.301377     -1.109974
  C      -1.254739     -0.410096     -0.573037
  O      -1.790579      0.714453      0.086163
  H      -0.263008     -0.241888      1.390888
  H       1.516614     -1.029436      1.278089
  H       1.423035      0.631258      1.980651
  H      -2.256206     -0.898066      1.388880
  H       2.054710      0.593624     -0.607787
  H       0.645223      1.550984     -0.139058
  H       0.562559     -1.313245     -1.205443
  H       0.138466      0.151147     -2.103361
  H      -1.959506     -0.933830     -1.216203
15
Coordinates from ORCA-job scan E -19.238263801520
  C       1.077378     -0.042143      1.209056
  C      -1.460793     -0.382734      0.869484
  C       1.047421      0.536400     -0.179666
  C       0.160725     -0.301553     -1.109777
  C      -1.254454     -0.410121     -0.572954
  O      -1.790312      0.714560      0.086389
  H      -0.262796     -0.242276      1.391808
  H       1.517431     -1.029128      1.277714
  H       1.423755      0.631326      1.980270
  H      -2.257258     -0.897994      1.388638
  H       2.054536      0.593796     -0.607831
  H       0.644799      1.550953     -0.139117
  H       0.562633     -1.313476     -1.204993
  H       0.138355      0.150815     -2.103262
  H      -1.959135     -0.933164     -1.216829
15
Coordinates from ORCA-job scan E -19.238234896630
  C       1.081122     -0.041466      1.209059
  C      -1.464334     -0.383415      0.869468
  C       1.048815      0.536571     -0.179701
  C       0.160578     -0.301327     -1.108875
  C      -1.255534     -0.410398     -0.572860
  O      -1.792627      0.713973      0.086162
  H      -0.267631     -0.243054      1.393493
  H       1.521343     -1.028393      1.277475
  H       1.428383      0.632179      1.979723
  H      -2.261580     -0.898896      1.387204
  H       2.055478      0.593731     -0.608962
  H       0.646631      1.551287     -0.138894
  H       0.562577     -1.313217     -1.204057
  H       0.138350      0.150945     -2.102407
  H      -1.959285     -0.933260     -1.217901
15
Coordinates from ORCA-job scan E -19.238245833820
  C       1.079569     -0.041699      1.208550
  C      -1.461740     -0.383234      0.869793
  C       1.047882      0.536562     -0.179965
  C       0.160974     -0.301671     -1.109395
  C      -1.253973     -0.410092     -0.572540
  O      -1.789826      0.714550      0.087002
  H      -0.269181     -0.243453      1.392826
  H       1.519077     -1.028847      1.277257
  H       1.425726      0.631767      1.979764
  H      -2.258651     -0.898306      1.388161
  H       2.054747      0.594079     -0.608801
  H       0.645068      1.551052     -0.139281
  H       0.562921     -1.313610     -1.204353
  H       0.138182      0.150574     -2.102932
  H      -1.958489     -0.932413     -1.217158
15
Coordinates from ORCA-job scan E -19.238251135360
  C       1.077822     -0.041835      1.208021
  C      -1.458379     -0.382917      0.870148
  C       1.047288      0.536545     -0.180205
  C       0.161405     -0.301973     -1.110377
  C      -1.252792     -0.409605     -0.572351
  O      -1.787308      0.715178      0.087877
  H      -0.271024     -0.243747      1.391418
  H       1.516092     -1.029444      1.277424
  H       1.422073      0.631484      1.980187
  H      -2.254542     -0.898050      1.389790
  H       2.054594      0.594409     -0.608244
  H       0.644105      1.550869     -0.139655
  H       0.563239     -1.313961     -1.205319
  H       0.138169      0.150230     -2.103939
  H      -1.958456     -0.931923     -1.215847
15
Coordinates from ORCA-job scan E -19.238251534360
  C       1.077840     -0.041817      1.208038
  C      -1.457965     -0.382798      0.870128
  C       1.047409      0.536509     -0.180167
  C       0.161371     -0.301894     -1.110512
  C      -1.253023     -0.409511     -0.572472
  O      -1.787542      0.715159      0.087739
  H      -0.271078     -0.243668      1.390968
  H       1.515757     -1.029568      1.277664
  H       1.421629      0.631502      1.980404
  H      -2.253867     -0.898182      1.390061
  H       2.054740      0.594352     -0.608152
  H       0.644348      1.550875     -0.139640
  H       0.563171     -1.313859     -1.205510
  H       0.138299      0.150293     -2.104058
  H      -1.958803     -0.932133     -1.215567
15
Coordinates from ORCA-job scan E -19.238251534360
  C       1.077840     -0.041817      1.208038
  C      -1.457965     -0.382798      0.870128
  C       1.047409      0.536509     -0.180167
  C       0.161371     -0.301894     -1.110512
  C      -1.253023     -0.409511     -0.572472
  O      -1.787542      0.715159      0.087739
  H      -0.271078     -0.243668      1.390968
  H       1.515757     -1.029568      1.277664
  H       1.421629      0.631502      1.980404
  H      -2.253867     -0.898182      1.390061
  H       2.054740      0.594352     -0.608152
  H       0.644348      1.550875     -0.139640
  H       0.563171     -1.313859     -1.205510
  H       0.138299      0.150293     -2.104058
  H      -1.958803     -0.932133     -1.215567
15
Coordinates from ORCA-job scan E -19.238250096100
  C       1.079104     -0.041696      1.208072
  C      -1.458866     -0.382897      0.870046
  C       1.047782      0.536588     -0.180105
  C       0.161299     -0.301851     -1.110164
  C      -1.253453     -0.409505     -0.572533
  O      -1.788242      0.715071      0.087495
  H      -0.272288     -0.243932      1.391219
  H       1.517010     -1.029457      1.277596
  H       1.422854      0.631680      1.980397
  H      -2.254979     -0.898385      1.389594
  H       2.054870      0.594562     -0.608634
  H       0.644681      1.550933     -0.139380
  H       0.563054     -1.313839     -1.205048
  H       0.138476      0.150130     -2.103801
  H      -1.959017     -0.932140     -1.215827
15
Coordinates from ORCA-job scan E -19.238247625140
  C       1.080805     -0.041523      1.207952
  C      -1.459828     -0.383103      0.870071
  C       1.048161      0.536722     -0.180118
  C       0.161327     -0.301896     -1.109719
  C      -1.253643     -0.409470     -0.572461
  O      -1.788552      0.715056      0.087468
  H      -0.275022     -0.244525      1.391651
  H       1.518596     -1.029311      1.277337
  H       1.424370      0.631901      1.980274
  H      -2.256342     -0.898542      1.388991
  H       2.054918      0.594974     -0.609403
  H       0.644836      1.550975     -0.139111
  H       0.563029     -1.313933     -1.204372
  H       0.138644      0.149796     -2.103495
  H      -1.959013     -0.931863     -1.216139
15
Coordinates from ORCA-job scan E -19.238248449880
  C       1.082606     -0.041302      1.207675
  C      -1.460395     -0.383336      0.870237
  C       1.048529      0.536872     -0.180205
  C       0.161451     -0.301994     -1.109356
  C      -1.253599     -0.409373     -0.572288
  O      -1.788412      0.715113      0.087673
  H      -0.279028     -0.245309      1.391970
  H       1.519984     -1.029219      1.277042
  H       1.425635      0.632143      1.980149
  H      -2.257337     -0.898682      1.388508
  H       2.054966      0.595469     -0.610265
  H       0.644903      1.551001     -0.138909
  H       0.563099     -1.314085     -1.203750
  H       0.138787      0.149408     -2.103274
  H      -1.958903     -0.931447     -1.216278
15
Coordinates from ORCA-job scan E -19.238258391460
  C       1.083841     -0.041103      1.207285
  C      -1.459963     -0.383459      0.870557
  C       1.048739      0.536965     -0.180357
  C       0.161649     -0.302093     -1.109291
  C      -1.253267     -0.409209     -0.572068
  O      -1.787701      0.715234      0.088080
  H      -0.283368     -0.246018      1.391825
  H       1.520366     -1.029303      1.276894
  H       1.425879      0.632300      1.980141
  H      -2.257137     -0.898748      1.388465
  H       2.055000      0.595846     -0.610921
  H       0.644867      1.550997     -0.138886
  H       0.563259     -1.314220     -1.203510
  H       0.138864      0.149163     -2.103280
  H      -1.958743     -0.931094     -1.216006
15
Coordinates from ORCA-job scan E -19.238274987610
  C       1.083578     -0.041035      1.206891
  C      -1.457949     -0.383303      0.870993
  C       1.048587      0.536910     -0.180534
  C       0.161863     -0.302121     -1.109763
  C      -1.252635     -0.409004     -0.571896
  O      -1.786386      0.715393      0.088587
  H      -0.286285     -0.246241      1.390880
  H       1.518805     -1.029686      1.277107
  H       1.424230      0.632230      1.980383
  H      -2.254891     -0.898647      1.389210
  H       2.054981      0.595830     -0.610948
  H       0.644693      1.550943     -0.139161
  H       0.563480     -1.314239     -1.204046
  H       0.138815      0.149320     -2.103662
  H      -1.958600     -0.931089     -1.215115
15
Coordinates from ORCA-job scan E -19.238275727130
  C       1.080779     -0.041237      1.206681
  C      -1.453992     -0.382698      0.871432
  C       1.047854      0.536607     -0.180664
  C       0.161993     -0.301995     -1.110975
  C      -1.251778     -0.408826     -0.571902
  O      -1.784615      0.715537      0.089008
  H      -0.285298     -0.245474      1.388905
  H       1.514456     -1.030448      1.277892
  H       1.419930      0.631777      1.980983
  H      -2.249972     -0.898279      1.391018
  H       2.054863      0.595106     -0.609859
  H       0.644364      1.550824     -0.139823
  H       0.563694     -1.314028     -1.205729
  H       0.138575      0.150153     -2.104531
  H      -1.958566     -0.931757     -1.213508
15
Coordinates from ORCA-job scan E -19.238222905310
  C       1.074566     -0.041843      1.206890
  C      -1.448194     -0.381530      0.871690
  C       1.046379      0.535979     -0.180652
  C       0.161909     -0.301637     -1.113003
  C      -1.250884     -0.408784     -0.572226
  O      -1.782781      0.715580      0.089094
  H      -0.277616     -0.243243      1.385880
  H       1.506906     -1.031571      1.279379
  H       1.412638      0.630829      1.981977
  H      -2.242301     -0.897565      1.393975
  H       2.054602      0.593390     -0.607218
  H       0.643906      1.550636     -0.140901
  H       0.563798     -1.313482     -1.208774
  H       0.138092      0.151877     -2.105898
  H      -1.958735     -0.933376     -1.211285
15
Coordinates from ORCA-job scan E -19.238209207330
  C       1.069610     -0.040024      1.210725
  C      -1.451372     -0.380276      0.871823
  C       1.050949      0.533128     -0.179830
  C       0.158871     -0.296039     -1.115091
  C      -1.254760     -0.414147     -0.572129
  O      -1.796820      0.708995      0.082830
  H      -0.263656     -0.231724      1.386070
  H       1.498872     -1.031220      1.287095
  H       1.413097      0.633356      1.983271
  H      -2.241551     -0.900932      1.396849
  H       2.061352      0.577638     -0.602506
  H       0.661606      1.553014     -0.144839
  H       0.563065     -1.305476     -1.224730
  H       0.131034      0.167982     -2.102873
  H      -1.958010     -0.949015     -1.207737
15
Coordinates from ORCA-job scan E -19.238241364970
  C       1.073205     -0.040299      1.210814
  C      -1.456543     -0.380349      0.871389
  C       1.050947      0.533687     -0.179547
  C       0.158857     -0.296330     -1.112694
  C      -1.254270     -0.414927     -0.571562
  O      -1.798103      0.708956      0.081347
  H      -0.265953     -0.231519      1.389498
  H       1.503824     -1.031047      1.284919
  H       1.420022      0.632812      1.982015
  H      -2.248213     -0.900303      1.393938
  H       2.060053      0.578818     -0.604911
  H       0.660190      1.553051     -0.143483
  H       0.563188     -1.305785     -1.222252
  H       0.130838      0.167315     -2.100732
  H      -1.955757     -0.948820     -1.209813
15
Coordinates from ORCA-job scan E -19.238249051550
  C       1.077045     -0.041593      1.208828
  C      -1.457382     -0.380944      0.870934
  C       1.048544      0.535750     -0.179758
  C       0.160687     -0.299882     -1.110914
  C      -1.252594     -0.412124     -0.571664
  O      -1.791521      0.712824      0.084304
  H      -0.272212     -0.237416      1.390912
  H       1.510281     -1.031272      1.279352
  H       1.422906      0.630871      1.980939
  H      -2.251825     -0.898181      1.391332
  H       2.056135      0.589269     -0.607921
  H       0.649340      1.551669     -0.140148
  H       0.563723     -1.310834     -1.212074
  H       0.135350      0.157135     -2.102321
  H      -1.956193     -0.940012     -1.212873
15
Coordinates from ORCA-job scan E -19.238250280780
  C       1.076868     -0.041968      1.208746
  C      -1.457688     -0.380608      0.870745
  C       1.048245      0.536027     -0.179626
  C       0.160889     -0.300165     -1.110864
  C      -1.252708     -0.412146     -0.571813
  O      -1.791605      0.713020      0.083876
  H      -0.270715     -0.236929      1.391048
  H       1.510096     -1.031742      1.278494
  H       1.423738      0.630012      1.980874
  H      -2.252191     -0.897601      1.391361
  H       2.055777      0.590741     -0.607652
  H       0.648027      1.551520     -0.139544
  H       0.563965     -1.311128     -1.211191
  H       0.135913      0.156208     -2.102520
  H      -1.956325     -0.939979     -1.213008
