17
Coordinates from ORCA-job freq E -421.423004704295
  C          -2.70944388083078     -0.50919602821702      0.78848701416641
  C          -0.21870107514044     -0.20119730716374      0.76552925906376
  C          -1.33379863659065     -1.14991997485388      1.02605615851394
  C           0.59600978225022     -0.26011740459643     -0.43416404556301
  C           1.94571448455483      0.31772052579962     -0.50795612479211
  O           3.71238110354106      0.69984637195353     -1.84112422199274
  O           0.89090932541556      0.99367202522317     -1.11454460016956
  O           2.82877677128086     -0.30682177680805     -1.35937014563358
  H          -3.50954113400712     -1.21824222155134      1.00034623177760
  H          -2.84406224613264      0.36009733000845      1.43199023556554
  H          -2.80622452282035     -0.17832168352333     -0.24525809946517
  H          -0.07085755848042      0.64225333733734      1.42843614958830
  H          -1.22698518916194     -2.02905512209677      0.38730363826641
  H          -1.28581564792915     -1.50385308688605      2.05934409384001
  H           0.40078953314498     -1.07498983258280     -1.12366860916350
  H           2.41472710433839      0.82233230595440      0.33037155538165
  H           3.21612278656758      1.05197454200291     -2.59177848938394
