17
Coordinates from ORCA-job freq E -421.369709113877
  C          -2.39701235814482     -0.40020496112196      0.65959079928480
  C           0.14806006841497     -0.29277410344727      0.35641750526470
  C           2.71692940270437      0.13015763127643     -0.12683072807277
  C           1.08238924374592      0.08791686524842     -0.76726507422835
  C          -1.22495588696928      0.34320656982159      0.06627292238696
  O          -0.18692442161146      0.93305404492656     -1.77687484656499
  O           1.94606520927728      1.16398549201093     -0.61308313780444
  O          -1.32365489949456      0.30614244281418     -1.34144534999332
  H           1.27047358866599     -0.58848443398672     -1.59374323621986
  H          -3.33373473559632      0.09134489979022      0.40324884158488
  H          -2.42265794145286     -1.42311020732211      0.28402794988178
  H          -2.30772265080674     -0.43002851713275      1.74520032491575
  H           0.04862717165604     -1.37793537336136      0.39838518668588
  H           0.53516154577916      0.05852203435144      1.31157279116616
  H           2.83208294474713      0.05965691821640      0.94674850297502
  H           3.49068596366407     -0.24929471385514     -0.78207479729012
  H          -1.20803124457891      1.38971141177111      0.38250434602790
