15
Coordinates from ORCA-job freq E -271.019931724108
  C       1.168265     -0.894560      0.964383
  C      -1.346243     -0.746534      0.328778
  C      -1.025519      0.352119     -0.649902
  C       1.277848      0.530939      0.546566
  C       0.191128      1.157282     -0.225122
  O       0.384239      1.442969      1.130424
  H      -0.116631     -1.088983      0.732411
  H       1.327238     -1.055379      2.022906
  H       1.750968     -1.565246      0.345397
  H      -1.831012     -0.400012      1.231893
  H      -1.824609     -1.615742     -0.100826
  H      -0.812390     -0.062617     -1.638666
  H      -1.871261      1.042558     -0.752126
  H       2.285604      0.925339      0.396644
  H       0.442374      1.977871     -0.895966
15
Coordinates from ORCA-job freq E -271.020204033425
  C       1.156918     -0.891360      0.958435
  C      -1.329366     -0.747722      0.335001
  C      -1.017258      0.355116     -0.650290
  C       1.277697      0.533360      0.539423
  C       0.195273      1.161752     -0.236146
  O       0.373097      1.442849      1.130719
  H      -0.140296     -1.083521      0.724417
  H       1.308677     -1.058661      2.021715
  H       1.729995     -1.574722      0.337774
  H      -1.803556     -0.407275      1.250076
  H      -1.805530     -1.626945     -0.086812
  H      -0.808433     -0.056715     -1.639466
  H      -1.866414      1.038305     -0.755767
  H       2.282954      0.929974      0.406997
  H       0.446243      1.985570     -0.899282
15
Coordinates from ORCA-job freq E -271.017579010016
  C       1.141733     -0.895235      0.954509
  C      -1.353858     -0.752771      0.334252
  C      -1.013979      0.346208     -0.639472
  C       1.267195      0.533939      0.549828
  C       0.182572      1.176402     -0.200426
  O       0.406783      1.452841      1.137935
  H      -0.132731     -1.079003      0.738285
  H       1.333692     -1.054279      2.010899
  H       1.750969     -1.543554      0.335149
  H      -1.850345     -0.406562      1.233391
  H      -1.826076     -1.622296     -0.106339
  H      -0.763107     -0.072790     -1.614520
  H      -1.859865      1.034055     -0.761777
  H       2.276719      0.907257      0.360924
  H       0.440296      1.975789     -0.895846
15
Coordinates from ORCA-job freq E -271.010383179336
  C       1.123515     -0.911401      0.946063
  C      -1.389502     -0.747453      0.343482
  C      -0.999179      0.334175     -0.642176
  C       1.254827      0.536053      0.559007
  C       0.169591      1.196346     -0.176968
  O       0.412389      1.442735      1.118369
  H      -0.127528     -1.083571      0.765818
  H       1.404814     -1.062851      1.996275
  H       1.754536     -1.528661      0.302899
  H      -1.879717     -0.392903      1.249783
  H      -1.878068     -1.609010     -0.107204
  H      -0.668199     -0.086414     -1.584747
  H      -1.833004      1.029503     -0.804066
  H       2.266414      0.897231      0.366816
  H       0.389109      1.986223     -0.896558
15
Coordinates from ORCA-job freq E -271.009371914995
  C       1.119450     -0.921422      0.925575
  C      -1.406779     -0.728096      0.357272
  C      -0.985671      0.318435     -0.650298
  C       1.248938      0.541681      0.572136
  C       0.166617      1.202049     -0.172409
  O       0.385324      1.428822      1.124683
  H      -0.111888     -1.084027      0.780239
  H       1.449313     -1.090510      1.961174
  H       1.734949     -1.520145      0.248159
  H      -1.873677     -0.354293      1.268216
  H      -1.919570     -1.584540     -0.078241
  H      -0.612120     -0.127876     -1.564209
  H      -1.812236      1.007783     -0.864137
  H       2.262068      0.915748      0.425357
  H       0.355281      1.996395     -0.896726
15
Coordinates from ORCA-job freq E -271.015322257880
  C       1.142159     -0.915613      0.930366
  C      -1.399497     -0.725108      0.353105
  C      -0.994559      0.326171     -0.656160
  C       1.258943      0.539006      0.562644
  C       0.171746      1.190537     -0.190206
  O       0.370765      1.419934      1.135159
  H      -0.118365     -1.087590      0.774938
  H       1.434558     -1.090684      1.972599
  H       1.738656     -1.537264      0.259158
  H      -1.859507     -0.351674      1.266514
  H      -1.908157     -1.589613     -0.069369
  H      -0.651881     -0.122094     -1.584146
  H      -1.825745      1.010118     -0.863630
  H       2.266487      0.930725      0.432950
  H       0.374395      2.003152     -0.887128
15
Coordinates from ORCA-job freq E -271.017748579826
  C       1.149390     -0.910584      0.934402
  C      -1.387672     -0.725475      0.349258
  C      -0.999662      0.332247     -0.657721
  C       1.262441      0.536972      0.556300
  C       0.174769      1.183530     -0.199066
  O       0.365290      1.419167      1.139702
  H      -0.118629     -1.088240      0.770319
  H       1.414014     -1.086915      1.980649
  H       1.735588     -1.547819      0.271476
  H      -1.847339     -0.355181      1.262562
  H      -1.889093     -1.595374     -0.067399
  H      -0.681557     -0.114365     -1.597463
  H      -1.835802      1.012971     -0.853791
  H       2.267762      0.934996      0.428595
  H       0.390500      2.004072     -0.881032
15
Coordinates from ORCA-job freq E -271.018752290737
  C       1.151133     -0.903867      0.949369
  C      -1.373505     -0.735642      0.338413
  C      -1.009255      0.345587     -0.655114
  C       1.266427      0.530708      0.543216
  C       0.173426      1.180572     -0.204334
  O       0.378406      1.426673      1.139998
  H      -0.129068     -1.091260      0.766867
  H       1.388798     -1.061861      2.002932
  H       1.739954     -1.563081      0.312483
  H      -1.845638     -0.383425      1.252002
  H      -1.855682     -1.611177     -0.086900
  H      -0.717677     -0.081952     -1.613328
  H      -1.853978      1.023855     -0.819957
  H       2.270295      0.922010      0.385286
  H       0.416365      2.002862     -0.874140
15
Coordinates from ORCA-job freq E -271.019540840527
  C       1.161401     -0.893020      0.968707
  C      -1.350789     -0.749248      0.324286
  C      -1.022225      0.363526     -0.648610
  C       1.276569      0.522430      0.519987
  C       0.173260      1.176426     -0.213148
  O       0.400634      1.433799      1.140468
  H      -0.156952     -1.093926      0.760006
  H       1.351448     -1.024468      2.033825
  H       1.746779     -1.589692      0.371050
  H      -1.848116     -0.424565      1.234302
  H      -1.807260     -1.630681     -0.115736
  H      -0.770989     -0.037222     -1.630740
  H      -1.877977      1.036016     -0.771716
  H       2.276271      0.908663      0.329271
  H       0.447947      2.001966     -0.865158
15
Coordinates from ORCA-job freq E -271.020817464032
  C       1.186077     -0.889491      0.960620
  C      -1.348837     -0.738060      0.328383
  C      -1.022077      0.360777     -0.656015
  C       1.285853      0.525572      0.518057
  C       0.185011      1.160417     -0.231921
  O       0.371297      1.416639      1.146244
  H      -0.158613     -1.097194      0.757655
  H       1.349980     -1.039069      2.024987
  H       1.737452     -1.600448      0.350523
  H      -1.831446     -0.400567      1.240587
  H      -1.815313     -1.623754     -0.091610
  H      -0.795909     -0.056522     -1.639780
  H      -1.875402      1.032514     -0.791106
  H       2.280617      0.942371      0.378055
  H       0.451307      2.006816     -0.857885
15
Coordinates from ORCA-job freq E -271.020871768693
  C       1.184721     -0.892902      0.950623
  C      -1.355179     -0.729927      0.335288
  C      -1.015718      0.352254     -0.660840
  C       1.281532      0.530987      0.529954
  C       0.187494      1.159465     -0.232070
  O       0.353814      1.413997      1.148633
  H      -0.142522     -1.097939      0.759610
  H       1.361369     -1.061088      2.009950
  H       1.727922     -1.590910      0.319064
  H      -1.821921     -0.377115      1.249475
  H      -1.834724     -1.614107     -0.072348
  H      -0.780875     -0.080410     -1.636224
  H      -1.864574      1.025979     -0.814040
  H       2.276365      0.954836      0.411446
  H       0.442294      2.006882     -0.861728
15
Coordinates from ORCA-job freq E -271.020915140537
  C       1.183447     -0.891866      0.945672
  C      -1.350975     -0.727958      0.339299
  C      -1.010907      0.347690     -0.662355
  C       1.279402      0.535477      0.536739
  C       0.191187      1.158218     -0.234749
  O       0.344347      1.417119      1.149923
  H      -0.139855     -1.098121      0.756783
  H       1.357283     -1.073222      2.002751
  H       1.715693     -1.586820      0.302397
  H      -1.811314     -0.368147      1.253530
  H      -1.835787     -1.612013     -0.061478
  H      -0.781415     -0.091704     -1.636406
  H      -1.858447      1.022664     -0.818664
  H       2.273896      0.963610      0.429515
  H       0.443444      2.005075     -0.866163
15
Coordinates from ORCA-job freq E -271.020953513252
  C       1.185240     -0.890982      0.947028
  C      -1.351409     -0.728979      0.339195
  C      -1.010546      0.347108     -0.662328
  C       1.279552      0.536523      0.538711
  C       0.192914      1.157305     -0.236518
  O       0.343710      1.418777      1.148403
  H      -0.138687     -1.100288      0.756086
  H       1.357351     -1.075307      2.004043
  H       1.715098     -1.585059      0.300709
  H      -1.812030     -0.368366      1.253201
  H      -1.837286     -1.612494     -0.062102
  H      -0.785369     -0.091539     -1.637449
  H      -1.856704      1.024659     -0.815330
  H       2.273690      0.965592      0.432652
  H       0.444475      2.003051     -0.869507
15
Coordinates from ORCA-job freq E -271.020967425825
  C       1.184625     -0.890877      0.948981
  C      -1.353057     -0.729585      0.338809
  C      -1.010372      0.346519     -0.662334
  C       1.278298      0.537130      0.541841
  C       0.193838      1.157019     -0.237509
  O       0.343228      1.420882      1.146238
  H      -0.132489     -1.103019      0.755883
  H       1.358865     -1.077998      2.005108
  H       1.714881     -1.581261      0.298956
  H      -1.812478     -0.368435      1.253151
  H      -1.840261     -1.611911     -0.063414
  H      -0.787071     -0.091031     -1.638156
  H      -1.854935      1.027069     -0.811943
  H       2.272892      0.965427      0.435757
  H       0.444036      2.000075     -0.874575
15
Coordinates from ORCA-job freq E -271.020977908018
  C       1.184494     -0.889077      0.953339
  C      -1.349821     -0.732469      0.336698
  C      -1.011746      0.348402     -0.661043
  C       1.278561      0.537009      0.542321
  C       0.195588      1.155422     -0.240461
  O       0.344796      1.424714      1.143023
  H      -0.132355     -1.105784      0.751902
  H       1.352852     -1.075309      2.010181
  H       1.715745     -1.580891      0.305771
  H      -1.810807     -0.375280      1.251658
  H      -1.835458     -1.614147     -0.068477
  H      -0.797640     -0.083555     -1.641486
  H      -1.856499      1.031150     -0.799776
  H       2.273594      0.964036      0.433049
  H       0.448696      1.995781     -0.879907
15
Coordinates from ORCA-job freq E -271.020984291523
  C       1.184717     -0.888361      0.957363
  C      -1.348914     -0.734844      0.333948
  C      -1.014198      0.350964     -0.659899
  C       1.279477      0.535988      0.540834
  C       0.196610      1.154229     -0.242724
  O       0.347451      1.426547      1.139953
  H      -0.131297     -1.108472      0.747868
  H       1.348206     -1.070253      2.015928
  H       1.720928     -1.581948      0.315528
  H      -1.810408     -0.382507      1.250694
  H      -1.833136     -1.616076     -0.074383
  H      -0.806916     -0.075169     -1.644220
  H      -1.858939      1.035528     -0.789443
  H       2.274756      0.961548      0.429120
  H       0.451660      1.992829     -0.883773
15
Coordinates from ORCA-job freq E -271.020997449997
  C       1.183653     -0.887874      0.961521
  C      -1.347077     -0.737873      0.330475
  C      -1.017166      0.354223     -0.658156
  C       1.280545      0.534410      0.538083
  C       0.197646      1.153238     -0.245161
  O       0.351324      1.428608      1.136443
  H      -0.129890     -1.111248      0.740950
  H       1.339132     -1.062457      2.022529
  H       1.728477     -1.583950      0.329608
  H      -1.807733     -0.392364      1.250191
  H      -1.829678     -1.618313     -0.081428
  H      -0.818174     -0.064667     -1.647244
  H      -1.861831      1.041001     -0.776196
  H       2.276545      0.957575      0.423689
  H       0.454227      1.989693     -0.888511
15
Coordinates from ORCA-job freq E -271.020995436057
  C       1.183523     -0.887865      0.962936
  C      -1.346325     -0.739399      0.328662
  C      -1.018748      0.355927     -0.657099
  C       1.281620      0.533341      0.535674
  C       0.198128      1.152920     -0.246149
  O       0.353826      1.428788      1.135118
  H      -0.129621     -1.112361      0.736520
  H       1.332579     -1.057228      2.025776
  H       1.734017     -1.585920      0.338157
  H      -1.805977     -0.397584      1.250288
  H      -1.828347     -1.619375     -0.084937
  H      -0.823775     -0.059656     -1.648380
  H      -1.863111      1.043965     -0.769951
  H       2.277903      0.955407      0.420280
  H       0.454304      1.989043     -0.890103
15
Coordinates from ORCA-job freq E -271.021013875384
  C       1.183494     -0.888075      0.963247
  C      -1.346065     -0.740245      0.327717
  C      -1.019583      0.356815     -0.656362
  C       1.282327      0.532626      0.534028
  C       0.198298      1.152991     -0.246393
  O       0.355538      1.428496      1.134657
  H      -0.128924     -1.113019      0.733253
  H       1.327161     -1.053808      2.027434
  H       1.738329     -1.587224      0.343609
  H      -1.804449     -0.400507      1.250751
  H      -1.828220     -1.619686     -0.086804
  H      -0.826478     -0.057196     -1.648651
  H      -1.863496      1.045837     -0.766747
  H       2.278825      0.953953      0.417976
  H       0.453243      1.989045     -0.890921
15
Coordinates from ORCA-job freq E -271.020994443032
  C       1.183616     -0.888270      0.962921
  C      -1.346069     -0.740479      0.327529
  C      -1.019812      0.357050     -0.656035
  C       1.282673      0.532329      0.533243
  C       0.198247      1.153229     -0.246193
  O       0.356310      1.428069      1.134821
  H      -0.128414     -1.113307      0.731664
  H       1.324010     -1.052405      2.027804
  H       1.740614     -1.587830      0.345777
  H      -1.803511     -0.401326      1.251249
  H      -1.828705     -1.619544     -0.087236
  H      -0.826871     -0.056732     -1.648470
  H      -1.863499      1.046404     -0.766158
  H       2.279237      0.953381      0.416827
  H       0.452172      1.989433     -0.890948
15
Coordinates from ORCA-job freq E -271.021013856708
  C       1.183708     -0.888338      0.962503
  C      -1.346177     -0.740259      0.327815
  C      -1.019603      0.356833     -0.656117
  C       1.282626      0.532414      0.533346
  C       0.198123      1.153381     -0.245936
  O       0.356123      1.427847      1.135144
  H      -0.128384     -1.113226      0.731908
  H       1.324027     -1.052868      2.027335
  H       1.740451     -1.587742      0.344980
  H      -1.803441     -0.400621      1.251436
  H      -1.829123     -1.619264     -0.086694
  H      -0.825919     -0.057500     -1.648179
  H      -1.863338      1.045976     -0.767199
  H       2.279139      0.953611      0.417017
  H       0.451787      1.989757     -0.890565
15
Coordinates from ORCA-job freq E -271.021012674060
  C       1.183774     -0.888402      0.962160
  C      -1.346274     -0.740075      0.328040
  C      -1.019440      0.356659     -0.656186
  C       1.282587      0.532476      0.533406
  C       0.198009      1.153507     -0.245717
  O       0.355975      1.427647      1.135416
  H      -0.128392     -1.113162      0.732117
  H       1.324082     -1.053217      2.026947
  H       1.740346     -1.587682      0.344359
  H      -1.803387     -0.400042      1.251590
  H      -1.829483     -1.619034     -0.086259
  H      -0.825119     -0.058108     -1.647949
  H      -1.863221      1.045615     -0.768057
  H       2.279060      0.953797      0.417158
  H       0.451481      1.990023     -0.890232
15
Coordinates from ORCA-job freq E -271.021010803613
  C       1.183810     -0.888449      0.961886
  C      -1.346343     -0.739943      0.328210
  C      -1.019310      0.356522     -0.656234
  C       1.282571      0.532523      0.533432
  C       0.197927      1.153617     -0.245547
  O       0.355892      1.427502      1.135626
  H      -0.128426     -1.113109      0.732261
  H       1.324094     -1.053457      2.026645
  H       1.740267     -1.587652      0.343907
  H      -1.803330     -0.399622      1.251715
  H      -1.829758     -1.618859     -0.085928
  H      -0.824495     -0.058581     -1.647762
  H      -1.863132      1.045327     -0.768720
  H       2.279019      0.953920      0.417259
  H       0.451212      1.990262     -0.889959
15
Coordinates from ORCA-job freq E -271.021010340940
  C       1.183835     -0.888485      0.961645
  C      -1.346393     -0.739816      0.328372
  C      -1.019177      0.356391     -0.656285
  C       1.282544      0.532573      0.533479
  C       0.197861      1.153706     -0.245403
  O       0.355778      1.427372      1.135813
  H      -0.128499     -1.113048      0.732421
  H       1.324186     -1.053720      2.026359
  H       1.740132     -1.587596      0.343431
  H      -1.803285     -0.399212      1.251820
  H      -1.829991     -1.618710     -0.085603
  H      -0.823929     -0.059028     -1.647602
  H      -1.863041      1.045049     -0.769330
  H       2.278967      0.954058      0.417393
  H       0.451010      1.990467     -0.889718
15
Coordinates from ORCA-job freq E -271.020998339971
  C       1.183864     -0.888520      0.961470
  C      -1.346456     -0.739723      0.328484
  C      -1.019093      0.356305     -0.656321
  C       1.282529      0.532604      0.533506
  C       0.197812      1.153774     -0.245299
  O       0.355700      1.427266      1.135943
  H      -0.128514     -1.113019      0.732535
  H       1.324247     -1.053894      2.026161
  H       1.740085     -1.587560      0.343113
  H      -1.803258     -0.398936      1.251911
  H      -1.830199     -1.618588     -0.085384
  H      -0.823514     -0.059338     -1.647476
  H      -1.862975      1.044874     -0.769782
  H       2.278929      0.954148      0.417491
  H       0.450841      1.990610     -0.889559
15
Coordinates from ORCA-job freq E -271.021011397448
  C       1.183884     -0.888548      0.961329
  C      -1.346496     -0.739663      0.328561
  C      -1.019036      0.356246     -0.656332
  C       1.282528      0.532620      0.533499
  C       0.197772      1.153834     -0.245214
  O       0.355674      1.427188      1.136041
  H      -0.128550     -1.112995      0.732588
  H       1.324224     -1.053978      2.026020
  H       1.740101     -1.587559      0.342940
  H      -1.803228     -0.398762      1.251981
  H      -1.830346     -1.618499     -0.085245
  H      -0.823213     -0.059555     -1.647375
  H      -1.862931      1.044745     -0.770088
  H       2.278919      0.954197      0.417522
  H       0.450696      1.990732     -0.889434
15
Coordinates from ORCA-job freq E -271.020997988572
  C       1.183888     -0.888579      0.961208
  C      -1.346522     -0.739591      0.328631
  C      -1.018975      0.356187     -0.656363
  C       1.282507      0.532632      0.533511
  C       0.197729      1.153878     -0.245141
  O       0.355610      1.427106      1.136134
  H      -0.128546     -1.112972      0.732660
  H       1.324257     -1.054091      2.025883
  H       1.740068     -1.587543      0.342736
  H      -1.803172     -0.398551      1.252037
  H      -1.830475     -1.618409     -0.085087
  H      -0.822930     -0.059761     -1.647304
  H      -1.862887      1.044619     -0.770386
  H       2.278886      0.954247      0.417592
  H       0.450561      1.990829     -0.889320
15
Coordinates from ORCA-job freq E -271.021008691508
  C       1.183904     -0.888594      0.961099
  C      -1.346551     -0.739511      0.328720
  C      -1.018899      0.356110     -0.656413
  C       1.282475      0.532666      0.533568
  C       0.197698      1.153913     -0.245079
  O       0.355502      1.427039      1.136227
  H      -0.128607     -1.112921      0.732818
  H       1.324463     -1.054283      2.025722
  H       1.739899     -1.587499      0.342395
  H      -1.803178     -0.398299      1.252073
  H      -1.830576     -1.618341     -0.084892
  H      -0.822626     -0.060010     -1.647241
  H      -1.862834      1.044466     -0.770734
  H       2.278834      0.954342      0.417731
  H       0.450494      1.990922     -0.889201
15
Coordinates from ORCA-job freq E -271.021000840875
  C       1.183911     -0.888611      0.961041
  C      -1.346584     -0.739502      0.328740
  C      -1.018891      0.356099     -0.656402
  C       1.282488      0.532663      0.533546
  C       0.197685      1.153943     -0.245041
  O       0.355527      1.427010      1.136264
  H      -0.128606     -1.112922      0.732813
  H       1.324391     -1.054266      2.025678
  H       1.739980     -1.587504      0.342394
  H      -1.803175     -0.398279      1.252113
  H      -1.830650     -1.618308     -0.084874
  H      -0.822525     -0.060065     -1.647199
  H      -1.862827      1.044441     -0.770821
  H       2.278851      0.954338      0.417712
  H       0.450424      1.990963     -0.889172
