15
Coordinates from ORCA-job freq E -271.021000840875
  C           1.18391097019662     -0.88861050394061      0.96104085007094
  C          -1.34658409311746     -0.73950190442369      0.32874039842029
  C          -1.01889084891229      0.35609907178958     -0.65640165155388
  C           1.28248821188733      0.53266343306942      0.53354557184419
  C           0.19768495802795      1.15394333094091     -0.24504122003200
  O           0.35552705337926      1.42700996417867      1.13626374408082
  H          -0.12860570270170     -1.11292193684206      0.73281333930922
  H           1.32439129302619     -1.05426558062682      2.02567823987565
  H           1.73997990562435     -1.58750370347955      0.34239413677769
  H          -1.80317529814197     -0.39827911445457      1.25211292720373
  H          -1.83065045808565     -1.61830816001898     -0.08487388022123
  H          -0.82252453892341     -0.06006545195186     -1.64719852196203
  H          -1.86282739131008      1.04444127672361     -0.77082139190019
  H           2.27885127690406      0.95433793159438      0.41771211692197
  H           0.45042366214680      1.99096334744155     -0.88917165883518
