17
Coordinates from ORCA-job freq E -421.374589661756
  C       1.239963      0.994481      0.221416
  C      -1.889143      0.555469      0.062787
  C      -1.393213     -0.461247     -0.954764
  C      -0.108733     -1.152836     -0.560598
  C       1.080028     -0.467043      0.005564
  O       3.276270     -0.087017     -0.387657
  O       0.253846     -1.240466      0.799072
  O       2.324069     -1.074142     -0.228024
  H       2.609186      0.802653      0.090649
  H       1.057474      1.637490     -0.627919
  H       0.899315      1.367064      1.175085
  H      -1.936884      0.099926      1.048652
  H      -1.226652      1.416675      0.111946
  H      -2.881124      0.902225     -0.214488
  H      -2.150071     -1.240467     -1.076086
  H      -1.246307      0.009098     -1.930533
  H       0.112512     -2.058061     -1.123247
17
Coordinates from ORCA-job freq E -421.376314767085
  C       1.256861      0.994265      0.218078
  C      -1.901456      0.545932      0.063519
  C      -1.383175     -0.454003     -0.961170
  C      -0.102699     -1.148763     -0.560565
  C       1.078796     -0.474873      0.013243
  O       3.249623     -0.090167     -0.442836
  O       0.243209     -1.225009      0.815643
  O       2.335008     -1.088026     -0.152661
  H       2.603664      0.812410      0.033918
  H       1.022787      1.637053     -0.620256
  H       0.969571      1.372614      1.189288
  H      -1.982900      0.073490      1.039749
  H      -1.240375      1.405336      0.156308
  H      -2.883515      0.906474     -0.233816
  H      -2.138760     -1.227989     -1.113361
  H      -1.222231      0.029426     -1.928382
  H       0.116131     -2.064367     -1.104843
17
Coordinates from ORCA-job freq E -421.377280200615
  C       1.276176      0.996491      0.219477
  C      -1.914393      0.537047      0.059162
  C      -1.375930     -0.451610     -0.967052
  C      -0.097277     -1.144210     -0.559812
  C       1.076298     -0.478116      0.021974
  O       3.222533     -0.098977     -0.494534
  O       0.233002     -1.208149      0.831192
  O       2.340488     -1.093709     -0.092648
  H       2.596521      0.822238     -0.024691
  H       0.975455      1.644926     -0.594040
  H       1.065596      1.373822      1.212694
  H      -2.035024      0.051944      1.025356
  H      -1.249986      1.389148      0.193564
  H      -2.882100      0.916507     -0.263018
  H      -2.127766     -1.223831     -1.142483
  H      -1.204732      0.040032     -1.928302
  H       0.121676     -2.069748     -1.084983
17
Coordinates from ORCA-job freq E -421.377555835040
  C       1.287161      1.001641      0.211980
  C      -1.927585      0.525208      0.061261
  C      -1.367234     -0.445175     -0.970966
  C      -0.094384     -1.141058     -0.550965
  C       1.076286     -0.476105      0.034013
  O       3.208859     -0.114697     -0.525516
  O       0.225099     -1.190190      0.847185
  O       2.340471     -1.095646     -0.059517
  H       2.593724      0.824666     -0.072330
  H       0.945062      1.646548     -0.588212
  H       1.127982      1.385437      1.213018
  H      -2.089107      0.018447      1.010268
  H      -1.257434      1.363995      0.243363
  H      -2.878104      0.927206     -0.284522
  H      -2.114729     -1.214192     -1.175072
  H      -1.179278      0.062378     -1.920895
  H       0.123748     -2.074660     -1.061236
17
Coordinates from ORCA-job freq E -421.377859923469
  C       1.299427      1.008474      0.199074
  C      -1.945152      0.507476      0.064454
  C      -1.352481     -0.434065     -0.976842
  C      -0.090464     -1.137478     -0.535536
  C       1.076044     -0.473130      0.052498
  O       3.187776     -0.139464     -0.566244
  O       0.213236     -1.163585      0.871187
  O       2.340639     -1.095384     -0.011311
  H       2.584102      0.825435     -0.146755
  H       0.896950      1.647956     -0.577238
  H       1.216837      1.400977      1.206834
  H      -2.160992     -0.030516      0.985075
  H      -1.270077      1.325092      0.313377
  H      -2.870754      0.941116     -0.310088
  H      -2.092601     -1.196251     -1.226695
  H      -1.136728      0.100107     -1.906167
  H       0.124773     -2.082958     -1.023766
17
Coordinates from ORCA-job freq E -421.378157988135
  C       1.317298      1.020447      0.173136
  C      -1.975557      0.475973      0.070590
  C      -1.329565     -0.415340     -0.983614
  C      -0.086431     -1.131523     -0.507209
  C       1.075905     -0.464091      0.078573
  O       3.161082     -0.180812     -0.615577
  O       0.197259     -1.116505      0.908580
  O       2.339263     -1.090377      0.050570
  H       2.566498      0.818017     -0.257472
  H       0.835426      1.653442     -0.562274
  H       1.351816      1.427125      1.178931
  H      -2.277398     -0.112132      0.934708
  H      -1.298066      1.250760      0.427518
  H      -2.856298      0.964569     -0.342836
  H      -2.053436     -1.164114     -1.308163
  H      -1.069461      0.163817     -1.873971
  H       0.122201     -2.095453     -0.959633
17
Coordinates from ORCA-job freq E -421.378265498819
  C       1.327366      1.022966      0.178240
  C      -1.988880      0.469067      0.061319
  C      -1.318747     -0.409747     -0.988978
  C      -0.081796     -1.126502     -0.496221
  C       1.074998     -0.459390      0.097732
  O       3.137704     -0.203489     -0.647818
  O       0.186565     -1.100986      0.924715
  O       2.339675     -1.083462      0.085746
  H       2.542255      0.811804     -0.331125
  H       0.784367      1.667420     -0.502390
  H       1.456272      1.416803      1.181916
  H      -2.300892     -0.127059      0.916573
  H      -1.322705      1.245686      0.435030
  H      -2.866636      0.954146     -0.362713
  H      -2.032266     -1.158192     -1.335985
  H      -1.044834      0.180291     -1.867774
  H       0.128091     -2.095552     -0.936411
17
Coordinates from ORCA-job freq E -421.378269349305
  C       1.330556      1.024087      0.176689
  C      -1.993679      0.465880      0.060746
  C      -1.316486     -0.407518     -0.989603
  C      -0.081500     -1.124901     -0.492480
  C       1.075166     -0.457662      0.101138
  O       3.134817     -0.209154     -0.652781
  O       0.184968     -1.095487      0.928983
  O       2.339098     -1.083027      0.090300
  H       2.540433      0.809880     -0.343590
  H       0.779256      1.669767     -0.495989
  H       1.475181      1.416806      1.178723
  H      -2.310034     -0.134390      0.911512
  H      -1.330406      1.241358      0.441906
  H      -2.869475      0.951952     -0.366186
  H      -2.027032     -1.155197     -1.344170
  H      -1.038293      0.186956     -1.864045
  H       0.127968     -2.095547     -0.929296
17
Coordinates from ORCA-job freq E -421.378271066155
  C       1.330547      1.023945      0.177019
  C      -1.993462      0.466215      0.060660
  C      -1.316792     -0.407750     -0.989518
  C      -0.081555     -1.124908     -0.492769
  C       1.075201     -0.457759      0.100853
  O       3.135180     -0.208702     -0.652324
  O       0.185178     -1.095952      0.928633
  O       2.339070     -1.083229      0.089473
  H       2.540890      0.810151     -0.342426
  H       0.779841      1.669663     -0.496130
  H       1.473854      1.416509      1.179290
  H      -2.308972     -0.133474      0.912152
  H      -1.330156      1.242258      0.440624
  H      -2.869745      0.951665     -0.365969
  H      -2.027476     -1.155681     -1.343288
  H      -1.039073      0.186224     -1.864451
  H       0.128008     -2.095369     -0.929974
