17
Coordinates from ORCA-job freq E -421.387811436004
  C          -2.02319991818877      0.92630026674348     -0.39332489914290
  C           2.39315980173928     -0.10041443314077     -0.15936891017621
  C          -1.34752310541627     -0.42875919311456     -0.21955978930533
  C           1.04004191630883      0.41623229293069     -0.21474027992547
  C          -0.03528858064455     -0.33694384278627      0.54038572967247
  O           1.56139136642140     -1.67624141815374      1.47847171127668
  O           1.64240049463516     -0.34453144638437     -1.28104060659326
  O           0.40371414339040     -1.67404263152852      0.72600517238451
  H           2.28862750397258     -1.10266590454408      0.74921054552078
  H          -2.18733860158302      1.41203664046579      0.56967564222918
  H          -2.99196955821021      0.80984012970223     -0.87588978120917
  H          -1.42945427582844      1.59775439049010     -1.01351220577537
  H           3.33982230144505      0.42422023777440     -0.23266284026035
  H          -1.14841518367247     -0.88893292437807     -1.18884907037034
  H          -1.99981904990968     -1.10676971499191      0.33178878261993
  H           0.85518789447597      1.45892260306815     -0.44530389973220
  H          -0.17538714893528      0.13998494784743      1.51747569878702
