17
Coordinates from ORCA-job scan E -27.283277172600
  C      -1.937279      0.899599     -0.439557
  C       2.334872     -0.130591     -0.139661
  C      -1.328721     -0.428292     -0.194722
  C       0.986193      0.396845     -0.293475
  C      -0.062321     -0.383080      0.521027
  O       1.422948     -1.697988      1.558268
  O       1.614335     -0.199616     -1.294105
  O       0.315277     -1.741995      0.792785
  H       2.503419     -1.012193      0.504117
  H      -1.898917      1.545656      0.444054
  H      -2.989723      0.828495     -0.738933
  H      -1.420327      1.445535     -1.247811
  H       3.173440      0.557928     -0.129982
  H      -1.210646     -0.956069     -1.168441
  H      -2.063086     -1.067743      0.346226
  H       0.834397      1.466715     -0.196794
  H      -0.087911      0.002784      1.565765
17
Coordinates from ORCA-job scan E -27.297791225950
  C      -1.990635      0.925438     -0.441083
  C       2.388698     -0.130090     -0.120729
  C      -1.363658     -0.429397     -0.202886
  C       1.019623      0.376130     -0.260434
  C      -0.060975     -0.380899      0.539662
  O       1.457663     -1.770602      1.515489
  O       1.646921     -0.266141     -1.276190
  O       0.342072     -1.740385      0.787719
  H       2.561990     -0.999189      0.548872
  H      -1.982826      1.543029      0.458530
  H      -3.026887      0.840332     -0.764313
  H      -1.464955      1.486364     -1.217094
  H       3.226310      0.564396     -0.152611
  H      -1.218261     -0.939897     -1.165405
  H      -2.078276     -1.068323      0.339004
  H       0.847036      1.448976     -0.249475
  H      -0.117889      0.066247      1.549705
17
Coordinates from ORCA-job scan E -27.303484884280
  C      -2.013032      0.930976     -0.436616
  C       2.405663     -0.142255     -0.125938
  C      -1.372244     -0.436361     -0.213326
  C       1.039090      0.381798     -0.215623
  C      -0.058961     -0.359568      0.560145
  O       1.459977     -1.781685      1.529809
  O       1.635337     -0.279942     -1.278337
  O       0.377176     -1.704531      0.782715
  H       2.544964     -1.040232      0.518861
  H      -2.054992      1.501970      0.488849
  H      -3.027314      0.818940     -0.804491
  H      -1.461365      1.514818     -1.166658
  H       3.260616      0.527480     -0.178516
  H      -1.179657     -0.922066     -1.168451
  H      -2.060614     -1.078038      0.336295
  H       0.863123      1.452269     -0.271198
  H      -0.171816      0.142418      1.531239
17
Coordinates from ORCA-job scan E -27.304367742980
  C      -2.008257      0.943933     -0.416738
  C       2.424373     -0.108394     -0.096959
  C      -1.385773     -0.435707     -0.214677
  C       1.044418      0.358550     -0.216680
  C      -0.064454     -0.365144      0.557267
  O       1.453094     -1.837328      1.460399
  O       1.664439     -0.364431     -1.242075
  O       0.345910     -1.713920      0.760026
  H       2.571281     -0.964127      0.602412
  H      -2.068483      1.481075      0.527164
  H      -3.013468      0.836143     -0.812305
  H      -1.429267      1.536369     -1.118185
  H       3.259342      0.575317     -0.200057
  H      -1.186844     -0.909141     -1.174702
  H      -2.067122     -1.071038      0.349270
  H       0.832013      1.408737     -0.392586
  H      -0.185251      0.155095      1.517186
17
Coordinates from ORCA-job scan E -27.304859596660
  C      -2.012438      0.937343     -0.417014
  C       2.419448     -0.121480     -0.112775
  C      -1.375470     -0.434585     -0.216616
  C       1.048802      0.372718     -0.204675
  C      -0.060173     -0.354050      0.564604
  O       1.447877     -1.811917      1.500267
  O       1.646826     -0.338315     -1.254436
  O       0.352156     -1.698656      0.773943
  H       2.545503     -1.005387      0.554914
  H      -2.101007      1.461324      0.532097
  H      -3.007517      0.817453     -0.836531
  H      -1.425869      1.544738     -1.100094
  H       3.269239      0.543485     -0.210083
  H      -1.163754     -0.902361     -1.178372
  H      -2.052363     -1.080035      0.344103
  H       0.851133      1.427073     -0.373908
  H      -0.196443      0.168643      1.523338
17
Coordinates from ORCA-job scan E -27.304990596480
  C      -2.017525      0.935832     -0.412130
  C       2.419956     -0.124698     -0.115719
  C      -1.369870     -0.429908     -0.218197
  C       1.051460      0.373611     -0.206912
  C      -0.056808     -0.350545      0.562981
  O       1.443549     -1.801053      1.513830
  O       1.647221     -0.343504     -1.253720
  O       0.348614     -1.694911      0.779225
  H       2.538484     -1.010450      0.552044
  H      -2.124919      1.449040      0.540920
  H      -3.005313      0.811892     -0.847732
  H      -1.428060      1.556923     -1.080489
  H       3.273650      0.534521     -0.216572
  H      -1.157716     -0.892119     -1.182901
  H      -2.043495     -1.084241      0.337056
  H       0.860315      1.427072     -0.387410
  H      -0.193594      0.168530      1.524486
17
Coordinates from ORCA-job scan E -27.305052529320
  C      -2.025241      0.936121     -0.403266
  C       2.423891     -0.126767     -0.115652
  C      -1.365804     -0.424296     -0.221627
  C       1.054982      0.369670     -0.213472
  C      -0.053735     -0.347147      0.559118
  O       1.438633     -1.793155      1.522938
  O       1.653315     -0.362769     -1.249485
  O       0.344228     -1.691504      0.784005
  H       2.537520     -1.005640      0.563130
  H      -2.154853      1.432535      0.555937
  H      -3.003861      0.809846     -0.858379
  H      -1.432139      1.575774     -1.050868
  H       3.278955      0.529202     -0.224321
  H      -1.153703     -0.877210     -1.191061
  H      -2.034959     -1.089906      0.326194
  H       0.868505      1.419699     -0.415865
  H      -0.189786      0.171536      1.521434
17
Coordinates from ORCA-job scan E -27.305078750040
  C      -2.032302      0.936514     -0.394979
  C       2.427695     -0.129973     -0.115461
  C      -1.363554     -0.420624     -0.225905
  C       1.058046      0.365062     -0.220442
  C      -0.052108     -0.343703      0.555489
  O       1.435326     -1.785800      1.530942
  O       1.659009     -0.380881     -1.246720
  O       0.342945     -1.687716      0.788830
  H       2.538964     -1.000927      0.574426
  H      -2.179187      1.417145      0.569787
  H      -3.003520      0.809682     -0.865367
  H      -1.436636      1.592251     -1.024052
  H       3.283415      0.524079     -0.229744
  H      -1.150420     -0.863915     -1.199673
  H      -2.028872     -1.096051      0.314749
  H       0.875120      1.412337     -0.439110
  H      -0.187975      0.178511      1.515990
17
Coordinates from ORCA-job scan E -27.305102691390
  C      -2.042161      0.936448     -0.382965
  C       2.432507     -0.136365     -0.115730
  C      -1.360807     -0.416606     -0.233131
  C       1.062588      0.358477     -0.231026
  C      -0.050675     -0.337854      0.550290
  O       1.431129     -1.773198      1.544117
  O       1.666282     -0.405015     -1.244343
  O       0.342585     -1.680931      0.797171
  H       2.541273     -0.996193      0.588707
  H      -2.211711      1.393502      0.589545
  H      -3.003346      0.810129     -0.873519
  H      -1.443505      1.614400     -0.985260
  H       3.289520      0.514825     -0.236258
  H      -1.144773     -0.844732     -1.213083
  H      -2.020557     -1.105981      0.296737
  H       0.884565      1.402458     -0.468528
  H      -0.186963      0.192628      1.506037
17
Coordinates from ORCA-job scan E -27.305115855960
  C      -2.049521      0.935721     -0.373568
  C       2.435513     -0.142609     -0.116316
  C      -1.358646     -0.414315     -0.239517
  C       1.066481      0.353692     -0.239563
  C      -0.050026     -0.332505      0.546221
  O       1.427870     -1.761704      1.555865
  O       1.671125     -0.421590     -1.243772
  O       0.342330     -1.674450      0.805078
  H       2.542523     -0.994691      0.597635
  H      -2.235060      1.373715      0.604778
  H      -3.003413      0.810574     -0.878449
  H      -1.449027      1.630019     -0.955143
  H       3.294062      0.505943     -0.240521
  H      -1.139173     -0.829522     -1.224214
  H      -2.013770     -1.114527      0.281734
  H       0.891727      1.395670     -0.488280
  H      -0.187045      0.206569      1.496793
17
Coordinates from ORCA-job scan E -27.305124205020
  C      -2.055229      0.934643     -0.366192
  C       2.437391     -0.148290     -0.116900
  C      -1.356662     -0.412895     -0.245026
  C       1.070078      0.350294     -0.246384
  C      -0.049559     -0.327708      0.542966
  O       1.424981     -1.751747      1.566046
  O       1.674488     -0.432735     -1.244191
  O       0.341263     -1.668425      0.812505
  H       2.542723     -0.995337      0.602998
  H      -2.251998      1.357268      0.616679
  H      -3.003895      0.810570     -0.881140
  H      -1.453757      1.640968     -0.932080
  H       3.297640      0.497699     -0.243478
  H      -1.133591     -0.817067     -1.233418
  H      -2.007682     -1.121810      0.269375
  H       0.897025      1.391085     -0.501585
  H      -0.187266      0.219476      1.488585
17
Coordinates from ORCA-job scan E -27.305128104470
  C      -2.058351      0.933835     -0.362466
  C       2.438262     -0.151549     -0.117161
  C      -1.355274     -0.412121     -0.248080
  C       1.072472      0.348810     -0.249831
  C      -0.049062     -0.324915      0.541285
  O       1.423061     -1.746494      1.571636
  O       1.676133     -0.437289     -1.244808
  O       0.339593     -1.664786      0.817174
  H       2.542124     -0.996827      0.604857
  H      -2.259984      1.348518      0.622752
  H      -3.004737      0.809957     -0.881668
  H      -1.456867      1.645837     -0.921159
  H       3.299706      0.492700     -0.245010
  H      -1.129783     -0.810061     -1.238392
  H      -2.003699     -1.125870      0.262748
  H       0.899421      1.389156     -0.507136
  H      -0.187066      0.227089      1.484021
17
Coordinates from ORCA-job scan E -27.305129602740
  C      -2.059777      0.933468     -0.361194
  C       2.438756     -0.152815     -0.117174
  C      -1.354437     -0.411560     -0.249252
  C       1.073748      0.348399     -0.250932
  C      -0.048539     -0.323777      0.540728
  O       1.421998     -1.744872      1.573669
  O       1.676815     -0.438449     -1.245101
  O       0.338069     -1.663239      0.819400
  H       2.541414     -0.997908      0.605207
  H      -2.262637      1.345419      0.624879
  H      -3.005599      0.809146     -0.881297
  H      -1.458793      1.647300     -0.918073
  H       3.300764      0.490528     -0.245828
  H      -1.127767     -0.806936     -1.240312
  H      -2.001531     -1.127480      0.260166
  H       0.900050      1.388596     -0.508526
  H      -0.186584      0.230171      1.482400
17
Coordinates from ORCA-job scan E -27.305130024110
  C      -2.060294      0.933399     -0.360966
  C       2.439103     -0.153064     -0.117129
  C      -1.354047     -0.411158     -0.249518
  C       1.074204      0.348314     -0.251036
  C      -0.048194     -0.323533      0.540687
  O       1.421584     -1.744828      1.574012
  O       1.677046     -0.438708     -1.245078
  O       0.337276     -1.662883      0.820162
  H       2.541027     -0.998239      0.605293
  H      -2.263180      1.344941      0.625260
  H      -3.006122      0.808624     -0.880917
  H      -1.459804      1.647600     -0.917917
  H       3.301206      0.489996     -0.246309
  H      -1.127016     -0.805847     -1.240786
  H      -2.000643     -1.127877      0.259429
  H       0.900055      1.388435     -0.508629
  H      -0.186251      0.230819      1.482200
17
Coordinates from ORCA-job scan E -27.304956038900
  C      -2.061295      0.933293     -0.360618
  C       2.438421     -0.154361     -0.115599
  C      -1.354332     -0.410938     -0.249778
  C       1.074552      0.348525     -0.251492
  C      -0.047972     -0.322763      0.539528
  O       1.425054     -1.741641      1.571087
  O       1.677507     -0.439504     -1.244581
  O       0.339457     -1.661672      0.818392
  H       2.537760     -0.999601      0.607640
  H      -2.263692      1.344652      0.625786
  H      -3.007425      0.808116     -0.879923
  H      -1.461531      1.647828     -0.917923
  H       3.301555      0.487519     -0.243761
  H      -1.127803     -0.805433     -1.241239
  H      -2.000235     -1.128008      0.259555
  H       0.901581      1.388715     -0.509602
  H      -0.185651      0.231262      1.481289
17
Coordinates from ORCA-job scan E -27.304957544290
  C      -2.060886      0.933419     -0.360484
  C       2.438643     -0.153509     -0.115769
  C      -1.354286     -0.410956     -0.249603
  C       1.074324      0.348551     -0.252078
  C      -0.048001     -0.323133      0.539690
  O       1.424735     -1.743301      1.570597
  O       1.678102     -0.440024     -1.244513
  O       0.338686     -1.662475      0.818340
  H       2.537206     -0.998135      0.609293
  H      -2.263098      1.344972      0.625878
  H      -3.007084      0.808470     -0.879712
  H      -1.460978      1.647779     -0.917890
  H       3.301647      0.488476     -0.244367
  H      -1.127855     -0.805539     -1.241061
  H      -2.000295     -1.127950      0.259698
  H       0.900811      1.388518     -0.510798
  H      -0.185720      0.230826      1.481541
17
Coordinates from ORCA-job scan E -27.304957742690
  C      -2.060744      0.933082     -0.360768
  C       2.438478     -0.153854     -0.116914
  C      -1.353721     -0.411009     -0.249538
  C       1.074227      0.349480     -0.251622
  C      -0.047817     -0.322876      0.540350
  O       1.424479     -1.742625      1.572494
  O       1.677206     -0.438296     -1.245440
  O       0.339027     -1.662200      0.819021
  H       2.535401     -0.999903      0.607513
  H      -2.263331      1.344790      0.625456
  H      -3.006781      0.807766     -0.880200
  H      -1.460981      1.647606     -0.918135
  H       3.302215      0.487151     -0.245103
  H      -1.126779     -0.805563     -1.240901
  H      -1.999667     -1.128319      0.259417
  H       0.900985      1.389774     -0.509012
  H      -0.186249      0.230986      1.482143
17
Coordinates from ORCA-job scan E -27.304778689820
  C      -2.061744      0.932976     -0.360419
  C       2.437795     -0.155152     -0.115382
  C      -1.354006     -0.410790     -0.249798
  C       1.074577      0.349690     -0.252078
  C      -0.047595     -0.322107      0.539190
  O       1.427945     -1.739434      1.569564
  O       1.677669     -0.439093     -1.244941
  O       0.341208     -1.660987      0.817249
  H       2.532127     -1.001257      0.609856
  H      -2.263841      1.344501      0.625982
  H      -3.008083      0.807256     -0.879204
  H      -1.462707      1.647834     -0.918140
  H       3.302560      0.484672     -0.242551
  H      -1.127565     -0.805148     -1.241354
  H      -1.999258     -1.128451      0.259542
  H       0.902514      1.390052     -0.509985
  H      -0.185646      0.231429      1.481231
17
Coordinates from ORCA-job scan E -27.304779106180
  C      -2.061126      0.933584     -0.360003
  C       2.438484     -0.153144     -0.114509
  C      -1.354517     -0.410770     -0.249552
  C       1.074229      0.348765     -0.253075
  C      -0.047858     -0.323052      0.539034
  O       1.427816     -1.742804      1.566388
  O       1.679408     -0.441867     -1.243383
  O       0.339371     -1.662584      0.816455
  H       2.533246     -0.996785      0.614211
  H      -2.262625      1.345297      0.626444
  H      -3.007698      0.808681     -0.878563
  H      -1.461586      1.647921     -0.917862
  H       3.302325      0.487581     -0.243145
  H      -1.128664     -0.805344     -1.241159
  H      -2.000171     -1.127914      0.260007
  H       0.900554      1.388135     -0.513800
  H      -0.185238      0.230289      1.481274
17
Coordinates from ORCA-job scan E -27.304780459300
  C      -2.061078      0.933187     -0.360338
  C       2.438117     -0.153795     -0.115620
  C      -1.353989     -0.410887     -0.249516
  C       1.074204      0.349713     -0.252459
  C      -0.047676     -0.322643      0.539595
  O       1.427675     -1.741529      1.568520
  O       1.678254     -0.439828     -1.244441
  O       0.340043     -1.661998      0.817080
  H       2.531571     -0.999135      0.611739
  H      -2.263105      1.344904      0.625999
  H      -3.007411      0.807889     -0.879244
  H      -1.461607      1.647720     -0.918020
  H       3.302805      0.485906     -0.243494
  H      -1.127600     -0.805460     -1.241000
  H      -1.999557     -1.128255      0.259834
  H       0.901031      1.389531     -0.511627
  H      -0.185726      0.230667      1.481751
17
Coordinates from ORCA-job scan E -27.304595079820
  C      -2.062075      0.933081     -0.359988
  C       2.437432     -0.155094     -0.114090
  C      -1.354273     -0.410668     -0.249775
  C       1.074553      0.349921     -0.252915
  C      -0.047454     -0.321874      0.538436
  O       1.431139     -1.738327      1.565592
  O       1.678714     -0.440627     -1.243942
  O       0.342224     -1.660784      0.815310
  H       2.528293     -1.000488      0.614072
  H      -2.263612      1.344616      0.626525
  H      -3.008709      0.807380     -0.878248
  H      -1.463331      1.647946     -0.918025
  H       3.303146      0.483425     -0.240941
  H      -1.128385     -0.805048     -1.241451
  H      -1.999147     -1.128387      0.259960
  H       0.902561      1.389807     -0.512598
  H      -0.185124      0.231110      1.480839
17
Coordinates from ORCA-job scan E -27.304596862390
  C      -2.061644      0.933080     -0.360014
  C       2.437475     -0.154447     -0.114611
  C      -1.354111     -0.410785     -0.249564
  C       1.074320      0.350263     -0.253144
  C      -0.047439     -0.322085      0.538791
  O       1.430866     -1.739377      1.565712
  O       1.678820     -0.440379     -1.244136
  O       0.341737     -1.661290      0.815358
  H       2.527303     -0.999892      0.614644
  H      -2.263290      1.344724      0.626430
  H      -3.008200      0.807526     -0.878452
  H      -1.462640      1.647797     -0.917973
  H       3.303426      0.483724     -0.241524
  H      -1.128140     -0.805324     -1.241158
  H      -1.999125     -1.128360      0.260179
  H       0.901889      1.390021     -0.513025
  H      -0.185299      0.230793      1.481249
17
Coordinates from ORCA-job scan E -27.304597537190
  C      -2.061378      0.932978     -0.360249
  C       2.437526     -0.154143     -0.115395
  C      -1.353816     -0.410853     -0.249401
  C       1.074129      0.350807     -0.252718
  C      -0.047356     -0.322115      0.539423
  O       1.430766     -1.739464      1.566305
  O       1.678361     -0.439576     -1.244351
  O       0.341583     -1.661359      0.815650
  H       2.526230     -1.000312      0.613858
  H      -2.263339      1.344742      0.626080
  H      -3.007774      0.807336     -0.878959
  H      -1.462240      1.647653     -0.918108
  H       3.304020      0.483172     -0.242209
  H      -1.127522     -0.805528     -1.240865
  H      -1.998991     -1.128403      0.260182
  H       0.901328      1.390486     -0.512366
  H      -0.185578      0.230571      1.481884
17
Coordinates from ORCA-job scan E -27.304406857170
  C      -2.062375      0.932871     -0.359899
  C       2.436840     -0.155443     -0.113864
  C      -1.354098     -0.410635     -0.249660
  C       1.074480      0.351014     -0.253174
  C      -0.047132     -0.321347      0.538264
  O       1.434226     -1.736258      1.563372
  O       1.678821     -0.440377     -1.243849
  O       0.343764     -1.660144      0.813878
  H       2.522947     -1.001658      0.616187
  H      -2.263846      1.344453      0.626606
  H      -3.009071      0.806826     -0.877962
  H      -1.463964      1.647879     -0.918112
  H       3.304357      0.480687     -0.239652
  H      -1.128307     -0.805116     -1.241316
  H      -1.998579     -1.128535      0.260308
  H       0.902861      1.390761     -0.513337
  H      -0.184974      0.231013      1.480972
17
Coordinates from ORCA-job scan E -27.304408188690
  C      -2.061828      0.933157     -0.359693
  C       2.437137     -0.154115     -0.113746
  C      -1.354243     -0.410689     -0.249422
  C       1.074176      0.350750     -0.253883
  C      -0.047230     -0.321922      0.538326
  O       1.433987     -1.738548      1.561978
  O       1.679743     -0.441548     -1.243318
  O       0.342653     -1.661212      0.813492
  H       2.522822     -0.999166      0.618654
  H      -2.263046      1.344881      0.626804
  H      -3.008605      0.807572     -0.877720
  H      -1.463051      1.647836     -0.917951
  H       3.304374      0.482288     -0.240105
  H      -1.128713     -0.805374     -1.241057
  H      -1.998971     -1.128247      0.260698
  H       0.901588      1.389994     -0.515460
  H      -0.184843      0.230335      1.481165
17
Coordinates from ORCA-job scan E -27.304408698360
  C      -2.061519      0.932781     -0.360052
  C       2.436807     -0.154295     -0.115168
  C      -1.353641     -0.410863     -0.249240
  C       1.073995      0.351862     -0.253403
  C      -0.047034     -0.321677      0.539092
  O       1.433713     -1.737971      1.564078
  O       1.678691     -0.439412     -1.244482
  O       0.343009     -1.660956      0.814115
  H       2.520586     -1.001073      0.616555
  H      -2.263299      1.344598      0.626290
  H      -3.008022      0.806876     -0.878502
  H      -1.462667      1.647542     -0.918131
  H       3.305074      0.480819     -0.240693
  H      -1.127548     -0.805686     -1.240690
  H      -1.998388     -1.128512      0.260713
  H       0.901587      1.391458     -0.513604
  H      -0.185393      0.230499      1.481882
17
Coordinates from ORCA-job scan E -27.304213123520
  C      -2.062515      0.932673     -0.359701
  C       2.436122     -0.155597     -0.113636
  C      -1.353923     -0.410645     -0.249499
  C       1.074348      0.352069     -0.253858
  C      -0.046811     -0.320909      0.537932
  O       1.437171     -1.734760      1.561142
  O       1.679152     -0.440215     -1.243978
  O       0.345190     -1.659739      0.812342
  H       2.517297     -1.002413      0.618878
  H      -2.263804      1.344309      0.626816
  H      -3.009319      0.806365     -0.877505
  H      -1.464389      1.647767     -0.918134
  H       3.305405      0.478331     -0.238132
  H      -1.128332     -0.805274     -1.241141
  H      -1.997976     -1.128644      0.260840
  H       0.903122      1.391731     -0.514575
  H      -0.184788      0.230940      1.480970
17
Coordinates from ORCA-job scan E -27.304213604930
  C      -2.062043      0.933173     -0.359406
  C       2.436741     -0.153901     -0.112990
  C      -1.354347     -0.410623     -0.249278
  C       1.074062      0.351356     -0.254593
  C      -0.047009     -0.321695      0.537859
  O       1.437088     -1.737488      1.558541
  O       1.680572     -0.442372     -1.242708
  O       0.343686     -1.661037      0.811694
  H       2.518196     -0.998858      0.622328
  H      -2.262865      1.344985      0.627133
  H      -3.009028      0.807498     -0.877033
  H      -1.463520      1.647833     -0.917969
  H       3.305377      0.480617     -0.238583
  H      -1.129230     -0.805468     -1.240943
  H      -1.998757     -1.128177      0.261241
  H       0.901462      1.390182     -0.517589
  H      -0.184433      0.229967      1.481057
17
Coordinates from ORCA-job scan E -27.304214803700
  C      -2.061947      0.932842     -0.359740
  C       2.436474     -0.154300     -0.114067
  C      -1.353887     -0.410735     -0.249191
  C       1.073994      0.352232     -0.254009
  C      -0.046848     -0.321398      0.538444
  O       1.436968     -1.736525      1.560338
  O       1.679585     -0.440538     -1.243625
  O       0.344165     -1.660604      0.812249
  H       2.516653     -1.000821      0.620187
  H      -2.263242      1.344711      0.626678
  H      -3.008711      0.806829     -0.877690
  H      -1.463446      1.647620     -0.918170
  H       3.305940      0.479155     -0.238956
  H      -1.128297     -0.805654     -1.240718
  H      -1.998280     -1.128422      0.261164
  H       0.901687      1.391397     -0.515707
  H      -0.184857      0.230202      1.481574
17
Coordinates from ORCA-job scan E -27.304012475310
  C      -2.062941      0.932734     -0.359389
  C       2.435787     -0.155603     -0.112537
  C      -1.354168     -0.410518     -0.249449
  C       1.074347      0.352437     -0.254464
  C      -0.046624     -0.320631      0.537285
  O       1.440423     -1.733303      1.557403
  O       1.680043     -0.441342     -1.243120
  O       0.346346     -1.659386      0.810477
  H       2.513360     -1.002159      0.622501
  H      -2.263745      1.344422      0.627205
  H      -3.010005      0.806318     -0.876692
  H      -1.465166      1.647844     -0.918173
  H       3.306267      0.476664     -0.236393
  H      -1.129080     -0.805244     -1.241168
  H      -1.997867     -1.128555      0.261290
  H       0.903225      1.391669     -0.516677
  H      -0.184252      0.230643      1.480662
17
Coordinates from ORCA-job scan E -27.304014285850
  C      -2.062490      0.932728     -0.359410
  C       2.435785     -0.154937     -0.113074
  C      -1.353997     -0.410639     -0.249237
  C       1.074101      0.352771     -0.254737
  C      -0.046587     -0.320852      0.537596
  O       1.440143     -1.734407      1.557576
  O       1.680148     -0.441046     -1.243384
  O       0.345884     -1.659896      0.810509
  H       2.512279     -1.001567      0.623083
  H      -2.263368      1.344536      0.627117
  H      -3.009493      0.806449     -0.876858
  H      -1.464472      1.647679     -0.918150
  H       3.306529      0.476980     -0.236862
  H      -1.128854     -0.805543     -1.240873
  H      -1.997826     -1.128513      0.261546
  H       0.902552      1.391897     -0.517106
  H      -0.184381      0.230348      1.481025
17
Coordinates from ORCA-job scan E -27.304014979600
  C      -2.062226      0.932641     -0.359641
  C       2.435848     -0.154576     -0.113817
  C      -1.353749     -0.410712     -0.249065
  C       1.073910      0.353262     -0.254337
  C      -0.046522     -0.320916      0.538180
  O       1.440063     -1.734529      1.558055
  O       1.679762     -0.440267     -1.243598
  O       0.345680     -1.659992      0.810779
  H       2.511324     -1.001946      0.622357
  H      -2.263360      1.344600      0.626771
  H      -3.009096      0.806283     -0.877315
  H      -1.464078      1.647516     -0.918333
  H       3.307132      0.476497     -0.237423
  H      -1.128330     -0.805787     -1.240568
  H      -1.997746     -1.128520      0.261608
  H       0.901966      1.392310     -0.516503
  H      -0.184628      0.230125      1.481612
17
Coordinates from ORCA-job scan E -27.303806939910
  C      -2.063218      0.932533     -0.359290
  C       2.435161     -0.155880     -0.112286
  C      -1.354029     -0.410495     -0.249323
  C       1.074264      0.353466     -0.254792
  C      -0.046298     -0.320149      0.537021
  O       1.443516     -1.731302      1.555116
  O       1.680220     -0.441073     -1.243092
  O       0.347861     -1.658772      0.809006
  H       2.508025     -1.003278      0.624667
  H      -2.263862      1.344310      0.627298
  H      -3.010389      0.805771     -0.876316
  H      -1.465798      1.647739     -0.918335
  H       3.307454      0.474003     -0.234857
  H      -1.129112     -0.805376     -1.241018
  H      -1.997332     -1.128652      0.261735
  H       0.903506      1.392581     -0.517472
  H      -0.184021      0.230566      1.480699
17
Coordinates from ORCA-job scan E -27.303808514410
  C      -2.062668      0.932783     -0.359106
  C       2.435416     -0.154586     -0.112270
  C      -1.354131     -0.410566     -0.249085
  C       1.073963      0.353286     -0.255497
  C      -0.046360     -0.320698      0.537092
  O       1.443250     -1.733553      1.553946
  O       1.681076     -0.442021     -1.242702
  O       0.346814     -1.659805      0.808661
  H       2.507692     -1.000993      0.626986
  H      -2.263071      1.344712      0.627467
  H      -3.009916      0.806447     -0.876094
  H      -1.464903      1.647670     -0.918207
  H       3.307513      0.475492     -0.235272
  H      -1.129461     -0.805658     -1.240751
  H      -1.997663     -1.128392      0.262130
  H       0.902287      1.391944     -0.519425
  H      -0.183887      0.229926      1.480888
17
Coordinates from ORCA-job scan E -27.303808776370
  C      -2.062326      0.932345     -0.359530
  C       2.435037     -0.154801     -0.113915
  C      -1.353457     -0.410775     -0.248875
  C       1.073769      0.354565     -0.254937
  C      -0.046131     -0.320415      0.537943
  O       1.442951     -1.732859      1.556402
  O       1.679872     -0.439484     -1.244091
  O       0.347222     -1.659489      0.809408
  H       2.505150     -1.003282      0.624530
  H      -2.263341      1.344408      0.626860
  H      -3.009277      0.805633     -0.876972
  H      -1.464489      1.647306     -0.918464
  H       3.308312      0.473783     -0.235904
  H      -1.128166     -0.806045     -1.240330
  H      -1.997008     -1.128692      0.262175
  H       0.902318      1.393652     -0.517209
  H      -0.184486      0.230141      1.481670
17
Coordinates from ORCA-job scan E -27.303596062160
  C      -2.063318      0.932236     -0.359178
  C       2.434350     -0.156105     -0.112382
  C      -1.353736     -0.410559     -0.249134
  C       1.074126      0.354768     -0.255391
  C      -0.045906     -0.319648      0.536784
  O       1.446401     -1.729629      1.553458
  O       1.680332     -0.440292     -1.243583
  O       0.349402     -1.658267      0.807633
  H       2.501846     -1.004607      0.626835
  H      -2.263842      1.344117      0.627388
  H      -3.010569      0.805121     -0.875972
  H      -1.466208      1.647528     -0.918466
  H       3.308628      0.471285     -0.233333
  H      -1.128948     -0.805635     -1.240779
  H      -1.996592     -1.128825      0.262301
  H       0.903861      1.393921     -0.518178
  H      -0.183878      0.230581      1.480758
17
Coordinates from ORCA-job scan E -27.303595532740
  C      -2.062766      0.932993     -0.358696
  C       2.435259     -0.153781     -0.111177
  C      -1.354439     -0.410481     -0.248893
  C       1.073784      0.353531     -0.256483
  C      -0.046208     -0.320765      0.536494
  O       1.446356     -1.733420      1.549454
  O       1.682486     -0.443676     -1.241601
  O       0.347298     -1.660063      0.806610
  H       2.503560     -0.999417      0.631951
  H      -2.262518      1.345084      0.627939
  H      -3.010331      0.806789     -0.875136
  H      -1.465162      1.647695     -0.918213
  H       3.308449      0.474720     -0.233736
  H      -1.130417     -0.805804     -1.240615
  H      -1.997760     -1.128138      0.262817
  H       0.901620      1.391475     -0.522647
  H      -0.183261      0.229247      1.480693
17
Coordinates from ORCA-job scan E -27.303597872780
  C      -2.062821      0.932491     -0.359134
  C       2.434784     -0.154750     -0.112486
  C      -1.353841     -0.410609     -0.248875
  C       1.073814      0.354649     -0.255655
  C      -0.045987     -0.320205      0.537101
  O       1.446262     -1.731540      1.552155
  O       1.681021     -0.441088     -1.242980
  O       0.348261     -1.659192      0.807417
  H       2.501737     -1.002614      0.628633
  H      -2.263197      1.344590      0.627371
  H      -3.010107      0.805739     -0.875952
  H      -1.465365      1.647445     -0.918482
  H       3.309001      0.472493     -0.233973
  H      -1.129190     -0.805942     -1.240449
  H      -1.997027     -1.128539      0.262621
  H       0.902412      1.393234     -0.519721
  H      -0.183807      0.229829      1.481171
17
Coordinates from ORCA-job scan E -27.303377281910
  C      -2.063810      0.932381     -0.358781
  C       2.434095     -0.156057     -0.110956
  C      -1.354119     -0.410393     -0.249132
  C       1.074171      0.354851     -0.256109
  C      -0.045761     -0.319439      0.535942
  O       1.449710     -1.728298      1.549214
  O       1.681478     -0.441897     -1.242471
  O       0.350443     -1.657970      0.805644
  H       2.498428     -1.003938      0.630928
  H      -2.263696      1.344300      0.627898
  H      -3.011396      0.805226     -0.874953
  H      -1.467082      1.647667     -0.918483
  H       3.309313      0.469993     -0.231401
  H      -1.129971     -0.805533     -1.240897
  H      -1.996610     -1.128671      0.262749
  H       0.903956      1.393501     -0.520688
  H      -0.183199      0.230269      1.480258
17
Coordinates from ORCA-job scan E -27.303379845460
  C      -2.063315      0.932292     -0.358855
  C       2.434010     -0.155457     -0.111760
  C      -1.353840     -0.410558     -0.248899
  C       1.073917      0.355400     -0.256354
  C      -0.045670     -0.319600      0.536332
  O       1.449358     -1.729314      1.549886
  O       1.681407     -0.441129     -1.243039
  O       0.350070     -1.658418      0.805811
  H       2.496886     -1.003787      0.631164
  H      -2.263352      1.344345      0.627736
  H      -3.010804      0.805215     -0.875224
  H      -1.466345      1.647437     -0.918495
  H       3.309654      0.470056     -0.231935
  H      -1.129565     -0.805895     -1.240558
  H      -1.996439     -1.128696      0.263019
  H       0.903367      1.394047     -0.520744
  H      -0.183389      0.230052      1.480676
17
Coordinates from ORCA-job scan E -27.303380652100
  C      -2.062915      0.932451     -0.358927
  C       2.434387     -0.154398     -0.112056
  C      -1.353850     -0.410601     -0.248670
  C       1.073645      0.355439     -0.256290
  C      -0.045719     -0.320013      0.536779
  O       1.449291     -1.730566      1.549026
  O       1.681738     -0.441458     -1.242601
  O       0.349172     -1.659052      0.805782
  H       2.496658     -1.002580      0.632068
  H      -2.262944      1.344714      0.627578
  H      -3.010382      0.805586     -0.875389
  H      -1.465672      1.647335     -0.918600
  H       3.310157      0.470703     -0.232591
  H      -1.129563     -0.806173     -1.240232
  H      -1.996754     -1.128486      0.263230
  H       0.902122      1.393638     -0.521530
  H      -0.183421      0.229450      1.481184
17
Coordinates from ORCA-job scan E -27.303154934640
  C      -2.063904      0.932341     -0.358574
  C       2.433698     -0.155707     -0.110526
  C      -1.354127     -0.410386     -0.248927
  C       1.074003      0.355640     -0.256743
  C      -0.045493     -0.319247      0.535621
  O       1.452736     -1.727315      1.546085
  O       1.682194     -0.442269     -1.242090
  O       0.351354     -1.657829      0.804010
  H       2.493344     -1.003901      0.634354
  H      -2.263441      1.344424      0.628106
  H      -3.011669      0.805073     -0.874389
  H      -1.467387      1.647556     -0.918600
  H       3.310465      0.468199     -0.230017
  H      -1.130343     -0.805765     -1.240679
  H      -1.996336     -1.128619      0.263358
  H       0.903668      1.393904     -0.522497
  H      -0.182812      0.229889      1.480271
17
Coordinates from ORCA-job scan E -27.303156437390
  C      -2.063599      0.931905     -0.358904
  C       2.433213     -0.156050     -0.112009
  C      -1.353485     -0.410592     -0.248770
  C       1.073862      0.356810     -0.256437
  C      -0.045243     -0.318932      0.536239
  O       1.452403     -1.726718      1.548619
  O       1.681098     -0.439872     -1.243586
  O       0.351870     -1.657502      0.804692
  H       2.490832     -1.006093      0.632207
  H      -2.263657      1.344065      0.627637
  H      -3.011114      0.804289     -0.875092
  H      -1.467051      1.647222     -0.918778
  H       3.310986      0.466665     -0.230452
  H      -1.129188     -0.806093     -1.240357
  H      -1.995626     -1.128940      0.263416
  H       0.903947      1.395591     -0.520476
  H      -0.183298      0.230234      1.480812
17
Coordinates from ORCA-job scan E -27.303157198330
  C      -2.062908      0.932324     -0.358688
  C       2.433755     -0.154123     -0.111869
  C      -1.353706     -0.410636     -0.248457
  C       1.073451      0.356397     -0.257179
  C      -0.045352     -0.319761      0.536400
  O       1.452171     -1.729791      1.546528
  O       1.682342     -0.441448     -1.242706
  O       0.350252     -1.658921      0.804218
  H       2.490818     -1.002762      0.635436
  H      -2.262594      1.344729      0.627824
  H      -3.010553      0.805295     -0.874783
  H      -1.465911      1.647174     -0.918690
  H       3.311208      0.468820     -0.231061
  H      -1.129755     -0.806437     -1.240002
  H      -1.996238     -1.128506      0.263897
  H       0.902013      1.394391     -0.523230
  H      -0.183042      0.229244      1.481123
17
Coordinates from ORCA-job scan E -27.302926929000
  C      -2.063895      0.932214     -0.358335
  C       2.433067     -0.155433     -0.110339
  C      -1.353982     -0.410420     -0.248713
  C       1.073810      0.356596     -0.257632
  C      -0.045126     -0.318996      0.535242
  O       1.455615     -1.726532      1.543586
  O       1.682797     -0.442261     -1.242193
  O       0.352434     -1.657696      0.802446
  H       2.487498     -1.004078      0.637714
  H      -2.263090      1.344439      0.628352
  H      -3.011839      0.804782     -0.873782
  H      -1.467625      1.647394     -0.918690
  H       3.311511      0.466313     -0.228484
  H      -1.130533     -0.806030     -1.240448
  H      -1.995820     -1.128639      0.264025
  H       0.903562      1.394655     -0.524197
  H      -0.182433      0.229683      1.480211
17
Coordinates from ORCA-job scan E -27.302927334300
  C      -2.063831      0.931683     -0.358822
  C       2.432632     -0.156220     -0.111903
  C      -1.353328     -0.410601     -0.248621
  C       1.073791      0.357890     -0.256780
  C      -0.044902     -0.318478      0.536000
  O       1.455451     -1.724822      1.546447
  O       1.681305     -0.439390     -1.243701
  O       0.353227     -1.656921      0.803367
  H       2.485360     -1.007384      0.634365
  H      -2.263710      1.343974      0.627698
  H      -3.011461      0.803717     -0.874717
  H      -1.467634      1.647063     -0.918994
  H       3.312221      0.464045     -0.228964
  H      -1.129200     -0.806290     -1.240171
  H      -1.995081     -1.129047      0.263904
  H       0.904176      1.396573     -0.521178
  H      -0.183066      0.230199      1.480832
17
Coordinates from ORCA-job scan E -27.302928887140
  C      -2.063446      0.932023     -0.358694
  C       2.433156     -0.154864     -0.111651
  C      -1.353575     -0.410594     -0.248428
  C       1.073541      0.357472     -0.257116
  C      -0.045030     -0.319076      0.536127
  O       1.455397     -1.726775      1.544625
  O       1.682225     -0.440701     -1.242812
  O       0.352010     -1.657859      0.803032
  H       2.485863     -1.005031      0.636578
  H      -2.263046      1.344494      0.627807
  H      -3.011179      0.804471     -0.874503
  H      -1.466953      1.647072     -0.918971
  H       3.312441      0.465579     -0.229412
  H      -1.129699     -0.806482     -1.239955
  H      -1.995642     -1.128706      0.264178
  H       0.902757      1.395511     -0.523101
  H      -0.182870      0.229455      1.481055
17
Coordinates from ORCA-job scan E -27.302691235460
  C      -2.064432      0.931912     -0.358340
  C       2.432467     -0.156174     -0.110119
  C      -1.353850     -0.410379     -0.248684
  C       1.073902      0.357670     -0.257569
  C      -0.044803     -0.318311      0.534969
  O       1.458837     -1.723513      1.541676
  O       1.682682     -0.441516     -1.242297
  O       0.354192     -1.656633      0.801257
  H       2.482538     -1.006340      0.638854
  H      -2.263542      1.344203      0.628336
  H      -3.012463      0.803957     -0.873501
  H      -1.468667      1.647292     -0.918970
  H       3.312739      0.463069     -0.226830
  H      -1.130477     -0.806075     -1.240402
  H      -1.995222     -1.128839      0.264305
  H       0.904309      1.395774     -0.524067
  H      -0.182259      0.229894      1.480142
17
Coordinates from ORCA-job scan E -27.302693380120
  C      -2.063930      0.931957     -0.358303
  C       2.432488     -0.155314     -0.110597
  C      -1.353704     -0.410492     -0.248474
  C       1.073634      0.357893     -0.258012
  C      -0.044733     -0.318620      0.535189
  O       1.458532     -1.725059      1.541674
  O       1.682964     -0.441429     -1.242521
  O       0.353590     -1.657286      0.801232
  H       2.481400     -1.005346      0.639928
  H      -2.263005      1.344380      0.628323
  H      -3.011951      0.804197     -0.873529
  H      -1.467925      1.647141     -0.918943
  H       3.312933      0.463709     -0.227237
  H      -1.130366     -0.806372     -1.240126
  H      -1.995211     -1.128753      0.264602
  H       0.903483      1.395828     -0.524858
  H      -0.182250      0.229555      1.480412
17
Coordinates from ORCA-job scan E -27.302693847670
  C      -2.063700      0.931676     -0.358680
  C       2.432381     -0.155324     -0.111818
  C      -1.353254     -0.410619     -0.248311
  C       1.073484      0.358748     -0.257350
  C      -0.044599     -0.318473      0.535937
  O       1.458422     -1.724474      1.543172
  O       1.682085     -0.439655     -1.243329
  O       0.353670     -1.657044      0.801892
  H       2.479862     -1.007033      0.638004
  H      -2.263227      1.344250      0.627792
  H      -3.011505      0.803633     -0.874236
  H      -1.467638      1.646877     -0.919231
  H       3.313683      0.462464     -0.227840
  H      -1.129426     -0.806660     -1.239786
  H      -1.994854     -1.128919      0.264597
  H       0.903255      1.396893     -0.523136
  H      -0.182691      0.229651      1.481083
17
Coordinates from ORCA-job scan E -27.302450387690
  C      -2.064686      0.931564     -0.358325
  C       2.431693     -0.156636     -0.110284
  C      -1.353529     -0.410405     -0.248567
  C       1.073847      0.358946     -0.257801
  C      -0.044371     -0.317709      0.534778
  O       1.461859     -1.721210      1.540215
  O       1.682544     -0.440472     -1.242813
  O       0.355851     -1.655816      0.800114
  H       2.476532     -1.008333      0.640278
  H      -2.263721      1.343958      0.628321
  H      -3.012789      0.803118     -0.873233
  H      -1.469352      1.647096     -0.919229
  H       3.313976      0.459951     -0.225253
  H      -1.130203     -0.806253     -1.240233
  H      -1.994432     -1.129053      0.264725
  H       0.904810      1.397154     -0.524100
  H      -0.182078      0.230088      1.480170
17
Coordinates from ORCA-job scan E -27.302450208120
  C      -2.063957      0.932333     -0.357745
  C       2.432531     -0.154024     -0.109183
  C      -1.354172     -0.410369     -0.248291
  C       1.073432      0.357739     -0.259300
  C      -0.044612     -0.318932      0.534399
  O       1.461627     -1.725765      1.536291
  O       1.684913     -0.443867     -1.241036
  O       0.353583     -1.657892      0.799008
  H       2.477682     -1.002689      0.646102
  H      -2.262137      1.344931      0.628988
  H      -3.012407      0.804884     -0.872259
  H      -1.468085      1.647238     -0.918892
  H       3.313740      0.463809     -0.225589
  H      -1.131692     -0.806480     -1.240043
  H      -1.995517     -1.128363      0.265349
  H       0.902402      1.394726     -0.529072
  H      -0.181382      0.228713      1.480033
17
Coordinates from ORCA-job scan E -27.302453382710
  C      -2.063875      0.931723     -0.358258
  C       2.431946     -0.154977     -0.110934
  C      -1.353408     -0.410570     -0.248206
  C       1.073411      0.359171     -0.258465
  C      -0.044327     -0.318326      0.535171
  O       1.461414     -1.723922      1.539670
  O       1.683224     -0.440640     -1.242868
  O       0.354559     -1.657012      0.800051
  H       2.475146     -1.006389      0.642376
  H      -2.262794      1.344372      0.628304
  H      -3.011988      0.803666     -0.873244
  H      -1.468110      1.646872     -0.919209
  H       3.314409      0.461288     -0.226014
  H      -1.130184     -0.806748     -1.239763
  H      -1.994613     -1.128836      0.265220
  H       0.903192      1.396933     -0.525711
  H      -0.182050      0.229385      1.480642
17
Coordinates from ORCA-job scan E -27.302453708040
  C      -2.063958      0.931720     -0.358406
  C       2.432110     -0.154979     -0.111045
  C      -1.353402     -0.410528     -0.248203
  C       1.073408      0.359177     -0.257955
  C      -0.044363     -0.318313      0.535431
  O       1.461589     -1.723416      1.539504
  O       1.683004     -0.440521     -1.242656
  O       0.354480     -1.656840      0.800234
  H       2.475474     -1.006777      0.641669
  H      -2.262980      1.344425      0.628113
  H      -3.012028      0.803564     -0.873448
  H      -1.468226      1.646877     -0.919367
  H       3.314727      0.460925     -0.226170
  H      -1.130025     -0.806729     -1.239715
  H      -1.994697     -1.128812      0.265104
  H       0.902994      1.396861     -0.525197
  H      -0.182157      0.229353      1.480868
17
Coordinates from ORCA-job scan E -27.302203645690
  C      -2.064942      0.931608     -0.358051
  C       2.431421     -0.156292     -0.109513
  C      -1.353676     -0.410314     -0.248459
  C       1.073771      0.359373     -0.258406
  C      -0.044136     -0.317549      0.534272
  O       1.465024     -1.720141      1.536549
  O       1.683461     -0.441339     -1.242138
  O       0.356662     -1.655611      0.798457
  H       2.472140     -1.008075      0.643933
  H      -2.263473      1.344133      0.628642
  H      -3.013310      0.803049     -0.872444
  H      -1.469938      1.647095     -0.919365
  H       3.315015      0.458409     -0.223581
  H      -1.130802     -0.806324     -1.240160
  H      -1.994275     -1.128945      0.265232
  H       0.904550      1.397121     -0.526161
  H      -0.181544      0.229790      1.479955
17
Coordinates from ORCA-job scan E -27.302206377050
  C      -2.064356      0.931683     -0.357939
  C       2.431446     -0.155245     -0.109970
  C      -1.353549     -0.410451     -0.248227
  C       1.073483      0.359575     -0.259110
  C      -0.044054     -0.317931      0.534404
  O       1.464620     -1.722155      1.536476
  O       1.683945     -0.441370     -1.242406
  O       0.355923     -1.656448      0.798359
  H       2.470853     -1.006728      0.645554
  H      -2.262774      1.344342      0.628718
  H      -3.012747      0.803398     -0.872358
  H      -1.469074      1.646934     -0.919279
  H       3.315144      0.459370     -0.223975
  H      -1.130794     -0.806657     -1.239878
  H      -1.994278     -1.128842      0.265609
  H       0.903637      1.397118     -0.527364
  H      -0.181473      0.229398      1.480147
17
Coordinates from ORCA-job scan E -27.302206465140
  C      -2.064153      0.931275     -0.358379
  C       2.431214     -0.155528     -0.111454
  C      -1.352990     -0.410628     -0.248071
  C       1.073378      0.360687     -0.258371
  C      -0.043886     -0.317635      0.535203
  O       1.464450     -1.721137      1.538671
  O       1.682795     -0.438972     -1.243611
  O       0.356223     -1.656005      0.799220
  H       2.468960     -1.009235      0.642994
  H      -2.263146      1.344065      0.628107
  H      -3.012272      0.802608     -0.873207
  H      -1.468839      1.646606     -0.919580
  H       3.315921      0.457679     -0.224623
  H      -1.129645     -0.806981     -1.239529
  H      -1.993748     -1.129127      0.265581
  H       0.903726      1.398634     -0.525017
  H      -0.182039      0.229685      1.480827
17
Coordinates from ORCA-job scan E -27.301951265980
  C      -2.065137      0.931163     -0.358023
  C       2.430526     -0.156842     -0.109919
  C      -1.353264     -0.410415     -0.248327
  C       1.073744      0.360882     -0.258821
  C      -0.043657     -0.316871      0.534043
  O       1.467881     -1.717861      1.535708
  O       1.683256     -0.439793     -1.243091
  O       0.358404     -1.654775      0.797439
  H       2.465619     -1.010524      0.645256
  H      -2.263638      1.343773      0.628637
  H      -3.013553      0.802092     -0.872202
  H      -1.470551      1.646823     -0.919577
  H       3.316204      0.455160     -0.222029
  H      -1.130421     -0.806576     -1.239975
  H      -1.993324     -1.129260      0.265708
  H       0.905286      1.398893     -0.525980
  H      -0.181424      0.230121      1.479914
17
Coordinates from ORCA-job scan E -27.301948277520
  C      -2.064304      0.932280     -0.357192
  C       2.431769     -0.153377     -0.108071
  C      -1.354276     -0.410303     -0.248027
  C       1.073251      0.358983     -0.260787
  C      -0.044035     -0.318540      0.533389
  O       1.467695     -1.723854      1.529877
  O       1.686613     -0.444844     -1.240321
  O       0.355331     -1.657527      0.795808
  H       2.467850     -1.002659      0.653362
  H      -2.261569      1.345120      0.629620
  H      -3.013234      0.804591     -0.870766
  H      -1.469039      1.647116     -0.919088
  H       3.315789      0.460570     -0.222343
  H      -1.132667     -0.806757     -1.239837
  H      -1.994930     -1.128285      0.266464
  H       0.902080      1.395246     -0.532920
  H      -0.180375      0.228232      1.479594
17
Coordinates from ORCA-job scan E -27.301954738290
  C      -2.064401      0.931443     -0.357881
  C       2.430937     -0.155056     -0.110194
  C      -1.353311     -0.410526     -0.248008
  C       1.073336      0.360789     -0.259531
  C      -0.043674     -0.317589      0.534291
  O       1.467530     -1.720760      1.534462
  O       1.684229     -0.440587     -1.242720
  O       0.356926     -1.656067      0.797216
  H       2.464926     -1.008008      0.647953
  H      -2.262664      1.344287      0.628729
  H      -3.012886      0.802866     -0.872056
  H      -1.469378      1.646691     -0.919507
  H       3.316512      0.456947     -0.222737
  H      -1.130712     -0.806986     -1.239592
  H      -1.993706     -1.128955      0.266175
  H       0.903532      1.398195     -0.528099
  H      -0.181246      0.229306      1.480258
17
Coordinates from ORCA-job scan E -27.301955107620
  C      -2.064396      0.931406     -0.358047
  C       2.431056     -0.154994     -0.110494
  C      -1.353233     -0.410518     -0.247969
  C       1.073292      0.360917     -0.259064
  C      -0.043682     -0.317583      0.534619
  O       1.467634     -1.720392      1.534535
  O       1.683953     -0.440243     -1.242688
  O       0.356810     -1.655945      0.797473
  H       2.464909     -1.008488      0.647209
  H      -2.262807      1.344319      0.628504
  H      -3.012812      0.802726     -0.872325
  H      -1.469368      1.646650     -0.919664
  H       3.316872      0.456549     -0.222988
  H      -1.130443     -0.807029     -1.239488
  H      -1.993721     -1.128954      0.266100
  H       0.903279      1.398283     -0.527498
  H      -0.181392      0.229286      1.480547
17
Coordinates from ORCA-job scan E -27.301693025410
  C      -2.065378      0.931293     -0.357691
  C       2.430367     -0.156310     -0.108961
  C      -1.353505     -0.410305     -0.248224
  C       1.073658      0.361110     -0.259514
  C      -0.043454     -0.316820      0.533461
  O       1.471064     -1.717104      1.531574
  O       1.684411     -0.441065     -1.242168
  O       0.358991     -1.654714      0.795695
  H       2.461563     -1.009776      0.649461
  H      -2.263298      1.344026      0.629034
  H      -3.014091      0.802210     -0.871320
  H      -1.471078      1.646866     -0.919660
  H       3.317151      0.454027     -0.220394
  H      -1.131218     -0.806625     -1.239933
  H      -1.993296     -1.129088      0.266228
  H       0.904840      1.398540     -0.528460
  H      -0.180778      0.229722      1.479633
17
Coordinates from ORCA-job scan E -27.301696178980
  C      -2.064787      0.931330     -0.357611
  C       2.430370     -0.155300     -0.109542
  C      -1.353328     -0.410454     -0.247990
  C       1.073374      0.361401     -0.260171
  C      -0.043343     -0.317169      0.533634
  O       1.470642     -1.719048      1.531725
  O       1.684800     -0.440878     -1.242559
  O       0.358290     -1.655501      0.795679
  H       2.460103     -1.008679      0.650891
  H      -2.262636      1.344201      0.629069
  H      -3.013505      0.802485     -0.871290
  H      -1.470220      1.646684     -0.919596
  H       3.317324      0.454863     -0.220828
  H      -1.131123     -0.806974     -1.239638
  H      -1.993242     -1.129014      0.266595
  H       0.903960      1.398667     -0.529457
  H      -0.180727      0.229376      1.479849
17
Coordinates from ORCA-job scan E -27.301696645290
  C      -2.064589      0.931002     -0.358021
  C       2.430276     -0.155409     -0.110866
  C      -1.352867     -0.410606     -0.247833
  C       1.073266      0.362336     -0.259432
  C      -0.043227     -0.316966      0.534409
  O       1.470521     -1.718217      1.533451
  O       1.683840     -0.438841     -1.243505
  O       0.358364     -1.655164      0.796497
  H       2.458624     -1.010826      0.648705
  H      -2.262951      1.344014      0.628496
  H      -3.013062      0.801844     -0.872077
  H      -1.469960      1.646393     -0.919886
  H       3.318089      0.453480     -0.221527
  H      -1.130132     -0.807279     -1.239299
  H      -1.992858     -1.129229      0.266571
  H       0.903859      1.399888     -0.527431
  H      -0.181243      0.229572      1.480509
17
Coordinates from ORCA-job scan E -27.301429447900
  C      -2.065571      0.930888     -0.357664
  C       2.429588     -0.156725     -0.109331
  C      -1.353139     -0.410393     -0.248088
  C       1.073634      0.362529     -0.259881
  C      -0.042998     -0.316203      0.533250
  O       1.473949     -1.714928      1.530483
  O       1.684301     -0.439665     -1.242982
  O       0.360544     -1.653932      0.794716
  H       2.455273     -1.012104      0.650954
  H      -2.263440      1.343721      0.629027
  H      -3.014340      0.801327     -0.871072
  H      -1.471670      1.646609     -0.919881
  H       3.318362      0.450955     -0.218927
  H      -1.130906     -0.806875     -1.239744
  H      -1.992432     -1.129363      0.266699
  H       0.905423      1.400143     -0.528393
  H      -0.180627      0.230007      1.479596
17
Coordinates from ORCA-job scan E -27.301428076850
  C      -2.064751      0.931824     -0.356943
  C       2.430606     -0.153621     -0.107926
  C      -1.353926     -0.410327     -0.247802
  C       1.073162      0.361001     -0.261695
  C      -0.043263     -0.317667      0.532716
  O       1.473687     -1.720400      1.525702
  O       1.687184     -0.443819     -1.240794
  O       0.357855     -1.656395      0.793344
  H       2.456735     -1.005312      0.658066
  H      -2.261568      1.344864      0.629872
  H      -3.013956      0.803458     -0.869845
  H      -1.470248      1.646826     -0.919451
  H       3.318045      0.455674     -0.219231
  H      -1.132746     -0.807081     -1.239586
  H      -1.993725     -1.128544      0.267391
  H       0.902567      1.397131     -0.534403
  H      -0.179708      0.228378      1.479345
17
Coordinates from ORCA-job scan E -27.301433266890
  C      -2.064699      0.931069     -0.357575
  C       2.429871     -0.154894     -0.110039
  C      -1.353001     -0.410564     -0.247723
  C       1.073171      0.362721     -0.260638
  C      -0.042910     -0.316884      0.533620
  O       1.473463     -1.717996      1.529920
  O       1.685072     -0.439860     -1.243066
  O       0.359106     -1.655231      0.794683
  H       2.453750     -1.010000      0.653389
  H      -2.262423      1.344157      0.629036
  H      -3.013492      0.801939     -0.871048
  H      -1.470348      1.646388     -0.919843
  H       3.318771      0.452528     -0.219755
  H      -1.130918     -0.807380     -1.239279
  H      -1.992607     -1.129132      0.267210
  H       0.903644      1.399847     -0.530162
  H      -0.180500      0.229283      1.480029
17
Coordinates from ORCA-job scan E -27.301433692870
  C      -2.064801      0.931056     -0.357755
  C       2.430078     -0.154918     -0.110189
  C      -1.353000     -0.410522     -0.247718
  C       1.073175      0.362730     -0.260017
  C      -0.042980     -0.316860      0.533942
  O       1.473666     -1.717322      1.529734
  O       1.684809     -0.439677     -1.242843
  O       0.358970     -1.655016      0.794955
  H       2.454224     -1.010572      0.652501
  H      -2.262675      1.344200      0.628804
  H      -3.013528      0.801810     -0.871321
  H      -1.470472      1.646390     -0.920012
  H       3.319146      0.452095     -0.219981
  H      -1.130718     -0.807361     -1.239219
  H      -1.992710     -1.129116      0.267068
  H       0.903439      1.399788     -0.529487
  H      -0.180673      0.229284      1.480301
17
Coordinates from ORCA-job scan E -27.301160045250
  C      -2.065781      0.930942     -0.357398
  C       2.429390     -0.156237     -0.108656
  C      -1.353270     -0.410309     -0.247973
  C       1.073544      0.362921     -0.260465
  C      -0.042751     -0.316098      0.532784
  O       1.477091     -1.714021      1.526767
  O       1.685268     -0.440503     -1.242319
  O       0.361151     -1.653783      0.793176
  H       2.450867     -1.011849      0.654740
  H      -2.263163      1.343907      0.629335
  H      -3.014804      0.801294     -0.870315
  H      -1.472180      1.646606     -0.920007
  H       3.319416      0.449567     -0.217381
  H      -1.131491     -0.806958     -1.239662
  H      -1.992284     -1.129250      0.267196
  H       0.905005      1.400042     -0.530448
  H      -0.180057      0.229719      1.479388
17
Coordinates from ORCA-job scan E -27.301163472390
  C      -2.065157      0.931002     -0.357278
  C       2.429384     -0.155132     -0.109216
  C      -1.353093     -0.410455     -0.247741
  C       1.073246      0.363168     -0.261243
  C      -0.042610     -0.316485      0.532900
  O       1.476639     -1.716231      1.526873
  O       1.685746     -0.440418     -1.242714
  O       0.360406     -1.654648      0.793115
  H       2.449302     -1.010526      0.656457
  H      -2.262417      1.344100      0.629422
  H      -3.014210      0.801619     -0.870207
  H      -1.471293      1.646435     -0.919923
  H       3.319542      0.450568     -0.217775
  H      -1.131443     -0.807300     -1.239382
  H      -1.992222     -1.129160      0.267584
  H       0.904059      1.400099     -0.531660
  H      -0.179930      0.229355      1.479548
17
Coordinates from ORCA-job scan E -27.301163661070
  C      -2.064972      0.930590     -0.357745
  C       2.429212     -0.155401     -0.110749
  C      -1.352545     -0.410631     -0.247587
  C       1.073158      0.364263     -0.260408
  C      -0.042464     -0.316186      0.533739
  O       1.476497     -1.715107      1.529062
  O       1.684575     -0.437961     -1.243926
  O       0.360606     -1.654169      0.794106
  H       2.447578     -1.013245      0.653785
  H      -2.262832      1.343824      0.628777
  H      -3.013740      0.800813     -0.871102
  H      -1.471071      1.646103     -0.920245
  H       3.320350      0.448870     -0.218514
  H      -1.130276     -0.807623     -1.239029
  H      -1.991717     -1.129445      0.267534
  H       0.904124      1.401606     -0.529175
  H      -0.180533      0.229692      1.480238
17
Coordinates from ORCA-job scan E -27.300885294550
  C      -2.065951      0.930476     -0.357387
  C       2.428525     -0.156720     -0.109213
  C      -1.352815     -0.410419     -0.247842
  C       1.073529      0.364453     -0.260855
  C      -0.042235     -0.315424      0.532580
  O       1.479920     -1.711806      1.526086
  O       1.685037     -0.438790     -1.243399
  O       0.362787     -1.652935      0.792323
  H       2.444215     -1.014512      0.656024
  H      -2.263319      1.343531      0.629309
  H      -3.015016      0.800295     -0.870095
  H      -1.472779      1.646317     -0.920238
  H       3.320614      0.446339     -0.215907
  H      -1.131049     -0.807220     -1.239473
  H      -1.991289     -1.129579      0.267662
  H       0.905692      1.401858     -0.530135
  H      -0.179915      0.230126      1.479324
17
Coordinates from ORCA-job scan E -27.300880611920
  C      -2.065054      0.931702     -0.356443
  C       2.429882     -0.152901     -0.107177
  C      -1.353912     -0.410288     -0.247547
  C       1.073000      0.362342     -0.263089
  C      -0.042613     -0.317258      0.531793
  O       1.479680     -1.718497      1.519712
  O       1.688766     -0.444325     -1.240397
  O       0.359429     -1.655966      0.790497
  H       2.446574     -1.005878      0.665088
  H      -2.261040      1.344974      0.630437
  H      -3.014700      0.803032     -0.868457
  H      -1.471176      1.646670     -0.919671
  H       3.320157      0.452385     -0.216142
  H      -1.133524     -0.807374     -1.239373
  H      -1.993006     -1.128529      0.268454
  H       0.902190      1.397824     -0.537821
  H      -0.178703      0.228078      1.478897
17
Coordinates from ORCA-job scan E -27.300889574310
  C      -2.065149      0.930744     -0.357232
  C       2.428928     -0.154802     -0.109636
  C      -1.352809     -0.410548     -0.247517
  C       1.073101      0.364404     -0.261666
  C      -0.042198     -0.316171      0.532823
  O       1.479493     -1.715000      1.525013
  O       1.686042     -0.439443     -1.243187
  O       0.361213     -1.654299      0.792174
  H       2.443236     -1.012032      0.658914
  H      -2.262269      1.344032      0.629414
  H      -3.014289      0.801064     -0.869930
  H      -1.471538      1.646170     -0.920160
  H       3.320937      0.448257     -0.216654
  H      -1.131295     -0.807651     -1.239084
  H      -1.991608     -1.129289      0.268147
  H       0.903846      1.401212     -0.532299
  H      -0.179690      0.229342      1.479637
17
Coordinates from ORCA-job scan E -27.300890033840
  C      -2.065183      0.930706     -0.357421
  C       2.429102     -0.154765     -0.109935
  C      -1.352752     -0.410532     -0.247487
  C       1.073075      0.364500     -0.261090
  C      -0.042242     -0.316155      0.533190
  O       1.479636     -1.714454      1.525016
  O       1.685747     -0.439091     -1.243110
  O       0.361038     -1.654126      0.792508
  H       2.443443     -1.012670      0.658028
  H      -2.262481      1.344059      0.629163
  H      -3.014240      0.800911     -0.870244
  H      -1.471567      1.646139     -0.920326
  H       3.321340      0.447812     -0.216954
  H      -1.131015     -0.807677     -1.238986
  H      -1.991657     -1.129291      0.268034
  H       0.903593      1.401268     -0.531572
  H      -0.179887      0.229356      1.479946
17
Coordinates from ORCA-job scan E -27.300607520610
  C      -2.065387      0.930385     -0.357077
  C       2.427720     -0.154992     -0.109490
  C      -1.352209     -0.410489     -0.247537
  C       1.073396      0.365612     -0.262153
  C      -0.041345     -0.315454      0.532464
  O       1.482160     -1.713948      1.523408
  O       1.685567     -0.438999     -1.243575
  O       0.362932     -1.653388      0.791510
  H       2.436509     -1.013783      0.661061
  H      -2.262388      1.343616      0.629617
  H      -3.014641      0.800111     -0.869412
  H      -1.472430      1.646134     -0.920274
  H       3.321240      0.445908     -0.215253
  H      -1.130780     -0.807500     -1.239159
  H      -1.990478     -1.129587      0.268300
  H       0.904845      1.402438     -0.532998
  H      -0.178762      0.229925      1.479330
17
Coordinates from ORCA-job scan E -27.300607907270
  C      -2.065351      0.930928     -0.356863
  C       2.429052     -0.153732     -0.108571
  C      -1.353002     -0.410381     -0.247428
  C       1.073159      0.364523     -0.262184
  C      -0.042054     -0.316176      0.532477
  O       1.482548     -1.714858      1.520131
  O       1.687198     -0.441264     -1.241812
  O       0.361088     -1.654325      0.790889
  H       2.439624     -1.011247      0.663630
  H      -2.262051      1.344224      0.629863
  H      -3.014707      0.801257     -0.869160
  H      -1.471981      1.646352     -0.920048
  H       3.321909      0.447775     -0.215713
  H      -1.131841     -0.807494     -1.239061
  H      -1.991652     -1.129130      0.268409
  H       0.903062      1.400487     -0.535314
  H      -0.179051      0.229051      1.479516
17
Coordinates from ORCA-job scan E -27.300609429120
  C      -2.065619      0.930348     -0.357488
  C       2.429000     -0.155158     -0.110203
  C      -1.352515     -0.410504     -0.247411
  C       1.073134      0.365669     -0.260662
  C      -0.042175     -0.315484      0.533392
  O       1.482844     -1.711298      1.523193
  O       1.685561     -0.438082     -1.243294
  O       0.361913     -1.653070      0.791990
  H       2.438787     -1.015760      0.658870
  H      -2.263235      1.343632      0.629057
  H      -3.014552      0.800021     -0.870403
  H      -1.472330      1.646092     -0.920359
  H       3.323123      0.444553     -0.216284
  H      -1.130408     -0.807625     -1.238826
  H      -1.991053     -1.129594      0.268068
  H       0.903745      1.402432     -0.531143
  H      -0.180269      0.229817      1.480262
17
Coordinates from ORCA-job scan E -27.300610319970
  C      -2.065376      0.930510     -0.357246
  C       2.428642     -0.154615     -0.109988
  C      -1.352426     -0.410453     -0.247426
  C       1.073014      0.365365     -0.261480
  C      -0.041804     -0.315738      0.533021
  O       1.482655     -1.713122      1.522877
  O       1.686002     -0.438908     -1.243252
  O       0.361979     -1.653571      0.791550
  H       2.437641     -1.013749      0.660592
  H      -2.262587      1.343814      0.629374
  H      -3.014511      0.800335     -0.869834
  H      -1.472182      1.646170     -0.920315
  H       3.322585      0.445458     -0.215749
  H      -1.130703     -0.807588     -1.238931
  H      -1.990919     -1.129458      0.268242
  H       0.903448      1.401929     -0.532565
  H      -0.179508      0.229610      1.479889
17
Coordinates from ORCA-job scan E -27.300610446840
  C      -2.065358      0.930549     -0.357249
  C       2.428754     -0.154429     -0.110038
  C      -1.352470     -0.410438     -0.247410
  C       1.072976      0.365271     -0.261443
  C      -0.041813     -0.315832      0.533062
  O       1.482680     -1.713206      1.522625
  O       1.686143     -0.438996     -1.243166
  O       0.361782     -1.653663      0.791564
  H       2.437754     -1.013530      0.660683
  H      -2.262501      1.343901      0.629365
  H      -3.014524      0.800391     -0.869781
  H      -1.472172      1.646166     -0.920382
  H       3.322771      0.445528     -0.215650
  H      -1.130769     -0.807613     -1.238903
  H      -1.991006     -1.129405      0.268268
  H       0.903211      1.401757     -0.532694
  H      -0.179508      0.229539      1.479911
17
Coordinates from ORCA-job scan E -27.300323074760
  C      -2.065560      0.930228     -0.356904
  C       2.427373     -0.154658     -0.109594
  C      -1.351926     -0.410396     -0.247461
  C       1.073297      0.366380     -0.262504
  C      -0.040915     -0.315132      0.532335
  O       1.485207     -1.712689      1.521016
  O       1.685962     -0.438905     -1.243631
  O       0.363680     -1.652925      0.790565
  H       2.430809     -1.014640      0.663711
  H      -2.262406      1.343457      0.629821
  H      -3.014924      0.799592     -0.868949
  H      -1.473033      1.646161     -0.920329
  H       3.322664      0.443622     -0.213948
  H      -1.130533     -0.807436     -1.239077
  H      -1.989826     -1.129701      0.268532
  H       0.904463      1.402924     -0.534117
  H      -0.178382      0.230106      1.479294
17
Coordinates from ORCA-job scan E -27.300323656790
  C      -2.065580      0.930674     -0.356741
  C       2.428626     -0.153644     -0.108827
  C      -1.352691     -0.410337     -0.247360
  C       1.073126      0.365491     -0.262468
  C      -0.041625     -0.315734      0.532342
  O       1.485531     -1.713132      1.518225
  O       1.687410     -0.440667     -1.242150
  O       0.362028     -1.653693      0.790078
  H       2.433865     -1.012869      0.665758
  H      -2.262184      1.343971      0.630001
  H      -3.015019      0.800571     -0.868778
  H      -1.472663      1.646311     -0.920144
  H       3.323350      0.445172     -0.214361
  H      -1.131527     -0.807487     -1.238976
  H      -1.990920     -1.129326      0.268651
  H       0.903015      1.401333     -0.535942
  H      -0.178793      0.229357      1.479453
17
Coordinates from ORCA-job scan E -27.300324277980
  C      -2.065863      0.930089     -0.357342
  C       2.428572     -0.155095     -0.110411
  C      -1.352268     -0.410492     -0.247342
  C       1.073135      0.366657     -0.261049
  C      -0.041770     -0.315041      0.533157
  O       1.485775     -1.709534      1.521307
  O       1.685865     -0.437426     -1.243679
  O       0.362863     -1.652460      0.791147
  H       2.433173     -1.017489      0.661122
  H      -2.263327      1.343389      0.629225
  H      -3.014903      0.799369     -0.869963
  H      -1.473010      1.646016     -0.920453
  H       3.324500      0.442036     -0.214857
  H      -1.130241     -0.807672     -1.238749
  H      -1.990364     -1.129794      0.268377
  H       0.903828      1.403328     -0.531834
  H      -0.180016      0.230108      1.480107
17
Coordinates from ORCA-job scan E -27.300325431950
  C      -2.065595      0.930319     -0.357042
  C       2.428235     -0.154418     -0.110005
  C      -1.352233     -0.410423     -0.247357
  C       1.072999      0.366217     -0.261992
  C      -0.041402     -0.315366      0.532706
  O       1.485594     -1.711710      1.520630
  O       1.686472     -0.438623     -1.243437
  O       0.362845     -1.653081      0.790560
  H       2.432147     -1.014947      0.663329
  H      -2.262579      1.343635      0.629617
  H      -3.014870      0.799825     -0.869291
  H      -1.472814      1.646129     -0.920366
  H       3.323845      0.443250     -0.214300
  H      -1.130680     -0.807613     -1.238877
  H      -1.990301     -1.129605      0.268575
  H       0.903418      1.402595     -0.533673
  H      -0.179132      0.229807      1.479686
17
Coordinates from ORCA-job scan E -27.300325525400
  C      -2.065583      0.930352     -0.357050
  C       2.428339     -0.154277     -0.110045
  C      -1.352292     -0.410421     -0.247339
  C       1.072962      0.366140     -0.261958
  C      -0.041425     -0.315450      0.532727
  O       1.485621     -1.711734      1.520410
  O       1.686610     -0.438668     -1.243368
  O       0.362679     -1.653161      0.790554
  H       2.432305     -1.014788      0.663401
  H      -2.262505      1.343718      0.629600
  H      -3.014885      0.799885     -0.869253
  H      -1.472794      1.646111     -0.920431
  H       3.324004      0.443307     -0.214206
  H      -1.130779     -0.807659     -1.238847
  H      -1.990397     -1.129557      0.268619
  H       0.903229      1.402461     -0.533751
  H      -0.179141      0.229730      1.479699
17
Coordinates from ORCA-job scan E -27.300033184180
  C      -2.065783      0.930030     -0.356705
  C       2.426959     -0.154507     -0.109601
  C      -1.351746     -0.410379     -0.247390
  C       1.073284      0.367247     -0.263018
  C      -0.040526     -0.314750      0.532000
  O       1.488151     -1.711210      1.518798
  O       1.686430     -0.438579     -1.243830
  O       0.364578     -1.652422      0.789553
  H       2.425348     -1.015892      0.666425
  H      -2.262408      1.343274      0.630056
  H      -3.015283      0.799086     -0.868420
  H      -1.473653      1.646106     -0.920377
  H       3.323890      0.441400     -0.212502
  H      -1.130542     -0.807482     -1.239022
  H      -1.989216     -1.129853      0.268883
  H       0.904481      1.403625     -0.535172
  H      -0.178014      0.230296      1.479082
17
Coordinates from ORCA-job scan E -27.300033676490
  C      -2.065786      0.930489     -0.356539
  C       2.428215     -0.153458     -0.108831
  C      -1.352523     -0.410324     -0.247284
  C       1.073099      0.366340     -0.263012
  C      -0.041235     -0.315378      0.531991
  O       1.488465     -1.711733      1.515979
  O       1.687909     -0.440364     -1.242346
  O       0.362901     -1.653229      0.789043
  H       2.428432     -1.014068      0.668588
  H      -2.262154      1.343808      0.630240
  H      -3.015367      0.800100     -0.868242
  H      -1.473249      1.646251     -0.920193
  H       3.324547      0.443044     -0.212927
  H      -1.131575     -0.807549     -1.238918
  H      -1.990328     -1.129464      0.269022
  H       0.903001      1.402008     -0.537041
  H      -0.178403      0.229516      1.479230
17
Coordinates from ORCA-job scan E -27.300034386280
  C      -2.066057      0.929899     -0.357156
  C       2.428158     -0.154917     -0.110454
  C      -1.352099     -0.410490     -0.247257
  C       1.073100      0.367527     -0.261581
  C      -0.041382     -0.314685      0.532812
  O       1.488709     -1.708117      1.519124
  O       1.686347     -0.437053     -1.243915
  O       0.363735     -1.651996      0.790127
  H       2.427743     -1.018770      0.663927
  H      -2.263295      1.343236      0.629440
  H      -3.015234      0.798897     -0.869454
  H      -1.473568      1.645936     -0.920519
  H       3.325683      0.439907     -0.213464
  H      -1.130295     -0.807763     -1.238676
  H      -1.989776     -1.129929      0.268770
  H       0.903815      1.404044     -0.532856
  H      -0.179633      0.230264      1.479892
17
Coordinates from ORCA-job scan E -27.300035564410
  C      -2.065791      0.930123     -0.356853
  C       2.427802     -0.154252     -0.110047
  C      -1.352053     -0.410419     -0.247274
  C       1.072968      0.367096     -0.262532
  C      -0.040998     -0.315003      0.532355
  O       1.488524     -1.710309      1.518464
  O       1.686949     -0.438240     -1.243684
  O       0.363744     -1.652608      0.789532
  H       2.426645     -1.016202      0.666119
  H      -2.262544      1.343475      0.629835
  H      -3.015205      0.799338     -0.868772
  H      -1.473385      1.646049     -0.920436
  H       3.325022      0.441095     -0.212878
  H      -1.130725     -0.807701     -1.238807
  H      -1.989696     -1.129743      0.268968
  H       0.903423      1.403324     -0.534693
  H      -0.178730      0.229970      1.479466
17
Coordinates from ORCA-job scan E -27.300035660510
  C      -2.065778      0.930156     -0.356869
  C       2.427913     -0.154113     -0.110087
  C      -1.352118     -0.410420     -0.247251
  C       1.072931      0.367019     -0.262484
  C      -0.041028     -0.315089      0.532382
  O       1.488556     -1.710319      1.518226
  O       1.687087     -0.438272     -1.243611
  O       0.363566     -1.652688      0.789531
  H       2.426836     -1.016064      0.666177
  H      -2.262471      1.343566      0.629808
  H      -3.015218      0.799400     -0.868745
  H      -1.473358      1.646024     -0.920511
  H       3.325181      0.441159     -0.212794
  H      -1.130833     -0.807757     -1.238769
  H      -1.989804     -1.129691      0.269021
  H       0.903233      1.403192     -0.534746
  H      -0.178746      0.229889      1.479484
17
Coordinates from ORCA-job scan E -27.299738543760
  C      -2.065977      0.929834     -0.356522
  C       2.426535     -0.154345     -0.109644
  C      -1.351572     -0.410379     -0.247302
  C       1.073254      0.368124     -0.263542
  C      -0.040127     -0.314391      0.531655
  O       1.491088     -1.709789      1.516612
  O       1.686907     -0.438185     -1.244072
  O       0.365468     -1.651949      0.788529
  H       2.419866     -1.017162      0.669197
  H      -2.262373      1.343121      0.630265
  H      -3.015614      0.798601     -0.867911
  H      -1.474216      1.646018     -0.920455
  H       3.325058      0.439251     -0.211089
  H      -1.130594     -0.807580     -1.238944
  H      -1.988621     -1.129988      0.269283
  H       0.904486      1.404354     -0.536165
  H      -0.177618      0.230453      1.478868
17
Coordinates from ORCA-job scan E -27.299738985820
  C      -2.065971      0.930300     -0.356359
  C       2.427805     -0.153266     -0.108879
  C      -1.352356     -0.410326     -0.247194
  C       1.073066      0.367208     -0.263539
  C      -0.040843     -0.315033      0.531645
  O       1.491393     -1.710350      1.513768
  O       1.688398     -0.439972     -1.242585
  O       0.363756     -1.652777      0.788026
  H       2.423003     -1.015354      0.671417
  H      -2.262105      1.343669      0.630444
  H      -3.015692      0.799631     -0.867734
  H      -1.473795      1.646160     -0.920278
  H       3.325710      0.440963     -0.211533
  H      -1.131643     -0.807656     -1.238836
  H      -1.989749     -1.129591      0.269430
  H       0.902982      1.402722     -0.538045
  H      -0.178009      0.229662      1.479014
17
Coordinates from ORCA-job scan E -27.299739718950
  C      -2.066239      0.929696     -0.357000
  C       2.427746     -0.154743     -0.110559
  C      -1.351922     -0.410499     -0.247160
  C       1.073067      0.368429     -0.262069
  C      -0.040992     -0.314328      0.532490
  O       1.491637     -1.706675      1.517002
  O       1.686791     -0.436559     -1.244208
  O       0.364590     -1.651521      0.789161
  H       2.422314     -1.020215      0.666657
  H      -2.263260      1.343095      0.629612
  H      -3.015546      0.798400     -0.868982
  H      -1.474106      1.645827     -0.920628
  H       3.326855      0.437784     -0.212115
  H      -1.130336     -0.807890     -1.238579
  H      -1.989190     -1.130060      0.269185
  H       0.903810      1.404817     -0.533741
  H      -0.179267      0.230430      1.479693
17
Coordinates from ORCA-job scan E -27.299740986530
  C      -2.065969      0.929924     -0.356683
  C       2.427375     -0.154067     -0.110132
  C      -1.351871     -0.410425     -0.247179
  C       1.072933      0.367987     -0.263056
  C      -0.040591     -0.314649      0.532014
  O       1.491448     -1.708941      1.516321
  O       1.687415     -0.437787     -1.243969
  O       0.364615     -1.652145      0.788533
  H       2.421143     -1.017538      0.668913
  H      -2.262489      1.343335      0.630026
  H      -3.015522      0.798847     -0.868272
  H      -1.473929      1.645946     -0.920538
  H       3.326176      0.438986     -0.211493
  H      -1.130775     -0.807820     -1.238718
  H      -1.989097     -1.129873      0.269386
  H       0.903415      1.404078     -0.535643
  H      -0.178327      0.230132      1.479251
17
Coordinates from ORCA-job scan E -27.299741089300
  C      -2.065957      0.929958     -0.356703
  C       2.427495     -0.153925     -0.110173
  C      -1.351941     -0.410427     -0.247154
  C       1.072898      0.367907     -0.262995
  C      -0.040627     -0.314737      0.532046
  O       1.491483     -1.708941      1.516066
  O       1.687556     -0.437814     -1.243891
  O       0.364422     -1.652225      0.788541
  H       2.421362     -1.017415      0.668960
  H      -2.262419      1.343431      0.629992
  H      -3.015535      0.798910     -0.868250
  H      -1.473900      1.645917     -0.920619
  H       3.326341      0.439055     -0.211416
  H      -1.130885     -0.807881     -1.238677
  H      -1.989213     -1.129818      0.269441
  H       0.903221      1.403943     -0.535681
  H      -0.178351      0.230050      1.479275
17
Coordinates from ORCA-job scan E -27.299439443470
  C      -2.066154      0.929636     -0.356356
  C       2.426118     -0.154158     -0.109729
  C      -1.351393     -0.410385     -0.247206
  C       1.073221      0.369010     -0.264051
  C      -0.039725     -0.314040      0.531319
  O       1.494018     -1.708404      1.514450
  O       1.687376     -0.437728     -1.244350
  O       0.366326     -1.651485      0.787538
  H       2.414379     -1.018506      0.671976
  H      -2.262318      1.342985      0.630450
  H      -3.015929      0.798111     -0.867415
  H      -1.474757      1.645911     -0.920562
  H       3.326211      0.437146     -0.209712
  H      -1.130646     -0.807704     -1.238852
  H      -1.988029     -1.130115      0.269702
  H       0.904474      1.405103     -0.537098
  H      -0.177222      0.230613      1.478657
17
Coordinates from ORCA-job scan E -27.299439843160
  C      -2.066142      0.930108     -0.356194
  C       2.427403     -0.153048     -0.108972
  C      -1.352184     -0.410333     -0.247097
  C       1.073030      0.368084     -0.264050
  C      -0.040446     -0.314695      0.531308
  O       1.494312     -1.709003      1.511584
  O       1.688878     -0.439520     -1.242860
  O       0.364579     -1.652333      0.787045
  H       2.417569     -1.016717      0.674254
  H      -2.262038      1.343544      0.630627
  H      -3.016003      0.799156     -0.867238
  H      -1.474323      1.646053     -0.920389
  H       3.326861      0.438923     -0.210175
  H      -1.131706     -0.807784     -1.238742
  H      -1.989171     -1.129712      0.269851
  H       0.902945      1.403454     -0.538993
  H      -0.177613      0.229814      1.478802
17
Coordinates from ORCA-job scan E -27.299440594310
  C      -2.066408      0.929489     -0.356856
  C       2.427346     -0.154541     -0.110714
  C      -1.351739     -0.410513     -0.247058
  C       1.073032      0.369339     -0.262540
  C      -0.040598     -0.313977      0.532181
  O       1.494554     -1.705260      1.514915
  O       1.687225     -0.436003     -1.244540
  O       0.365409     -1.651051      0.788237
  H       2.416880     -1.021749      0.669391
  H      -2.263212      1.342964      0.629766
  H      -3.015846      0.797896     -0.868522
  H      -1.474630      1.645704     -0.920760
  H       3.328022      0.435696     -0.210804
  H      -1.130366     -0.808033     -1.238473
  H      -1.988601     -1.130188      0.269608
  H       0.903786      1.405608     -0.534567
  H      -0.178903      0.230608      1.479498
17
Coordinates from ORCA-job scan E -27.299441967640
  C      -2.066134      0.929723     -0.356523
  C       2.426958     -0.153854     -0.110261
  C      -1.351682     -0.410435     -0.247081
  C       1.072897      0.368884     -0.263566
  C      -0.040178     -0.314302      0.531683
  O       1.494360     -1.707605      1.514210
  O       1.687876     -0.437278     -1.244289
  O       0.365449     -1.651687      0.787573
  H       2.415634     -1.018950      0.671717
  H      -2.262420      1.343204      0.630200
  H      -3.015827      0.798351     -0.867780
  H      -1.474459      1.645830     -0.920662
  H       3.327324      0.436915     -0.210144
  H      -1.130817     -0.807954     -1.238621
  H      -1.988496     -1.130000      0.269811
  H       0.903387      1.404845     -0.536544
  H      -0.177924      0.230303      1.479037
17
Coordinates from ORCA-job scan E -27.299442078900
  C      -2.066124      0.929757     -0.356547
  C       2.427088     -0.153707     -0.110303
  C      -1.351755     -0.410437     -0.247055
  C       1.072863      0.368800     -0.263494
  C      -0.040220     -0.314392      0.531720
  O       1.494398     -1.707597      1.513938
  O       1.688020     -0.437304     -1.244206
  O       0.365242     -1.651767      0.787591
  H       2.415880     -1.018839      0.671758
  H      -2.262352      1.343303      0.630162
  H      -3.015842      0.798414     -0.867762
  H      -1.474430      1.645801     -0.920746
  H       3.327497      0.436987     -0.210073
  H      -1.130928     -0.808016     -1.238577
  H      -1.988619     -1.129944      0.269866
  H       0.903186      1.404705     -0.536573
  H      -0.177954      0.230224      1.479064
17
Coordinates from ORCA-job scan E -27.299136188990
  C      -2.066320      0.929434     -0.356199
  C       2.425713     -0.153942     -0.109860
  C      -1.351206     -0.410396     -0.247107
  C       1.073187      0.369900     -0.264549
  C      -0.039317     -0.313695      0.530992
  O       1.496935     -1.707053      1.512319
  O       1.687840     -0.437219     -1.244663
  O       0.367148     -1.651027      0.786586
  H       2.408884     -1.019924      0.674770
  H      -2.262250      1.342857      0.630621
  H      -3.016234      0.797616     -0.866927
  H      -1.475285      1.645794     -0.920688
  H       3.327360      0.435078     -0.208368
  H      -1.130687     -0.807839     -1.238753
  H      -1.987434     -1.130241      0.270126
  H       0.904439      1.405862     -0.537987
  H      -0.176824      0.230785      1.478447
17
Coordinates from ORCA-job scan E -27.299136551310
  C      -2.066302      0.929913     -0.356037
  C       2.427013     -0.152799     -0.109111
  C      -1.352005     -0.410344     -0.246998
  C       1.072995      0.368964     -0.264551
  C      -0.040043     -0.314364      0.530981
  O       1.497217     -1.707689      1.509433
  O       1.689355     -0.439018     -1.243170
  O       0.365364     -1.651894      0.786105
  H       2.412129     -1.018156      0.677107
  H      -2.261958      1.343425      0.630798
  H      -3.016304      0.798676     -0.866748
  H      -1.474840      1.645937     -0.920516
  H       3.328010      0.436921     -0.208851
  H      -1.131759     -0.807922     -1.238644
  H      -1.988589     -1.129832      0.270276
  H       0.902886      1.404194     -0.539900
  H      -0.177218      0.229979      1.478587
17
Coordinates from ORCA-job scan E -27.299137311840
  C      -2.066568      0.929279     -0.356721
  C       2.426960     -0.154310     -0.110918
  C      -1.351547     -0.410530     -0.246956
  C       1.072998      0.370254     -0.262999
  C      -0.040199     -0.313629      0.531881
  O       1.497457     -1.703870      1.512871
  O       1.687653     -0.435391     -1.244909
  O       0.366191     -1.650583      0.787359
  H       2.411442     -1.023373      0.672133
  H      -2.263155      1.342835      0.629908
  H      -3.016136      0.797384     -0.868070
  H      -1.475145      1.645574     -0.920905
  H       3.329191      0.433640     -0.209532
  H      -1.130382     -0.808183     -1.238363
  H      -1.988007     -1.130318      0.270030
  H       0.903740      1.406410     -0.535347
  H      -0.178542      0.230803      1.479300
17
Coordinates from ORCA-job scan E -27.299138809070
  C      -2.066290      0.929518     -0.356371
  C       2.426556     -0.153609     -0.110438
  C      -1.351485     -0.410448     -0.246982
  C       1.072862      0.369783     -0.264068
  C      -0.039760     -0.313959      0.531359
  O       1.497258     -1.706302      1.512136
  O       1.688335     -0.436721     -1.244645
  O       0.366247     -1.651234      0.786655
  H       2.410118     -1.020439      0.674542
  H      -2.262340      1.343077      0.630366
  H      -3.016123      0.797849     -0.867293
  H      -1.474980      1.645708     -0.920796
  H       3.328473      0.434879     -0.208830
  H      -1.130846     -0.808093     -1.238521
  H      -1.987890     -1.130127      0.270236
  H       0.903335      1.405619     -0.537408
  H      -0.177520      0.230491      1.478821
17
Coordinates from ORCA-job scan E -27.299138929970
  C      -2.066283      0.929553     -0.356396
  C       2.426695     -0.153458     -0.110481
  C      -1.351562     -0.410450     -0.246956
  C       1.072830      0.369694     -0.263986
  C      -0.039807     -0.314051      0.531401
  O       1.497297     -1.706285      1.511847
  O       1.688483     -0.436748     -1.244556
  O       0.366023     -1.651313      0.786683
  H       2.410392     -1.020340      0.674576
  H      -2.262277      1.343177      0.630325
  H      -3.016139      0.797913     -0.867280
  H      -1.474953      1.645679     -0.920882
  H       3.328653      0.434955     -0.208766
  H      -1.130958     -0.808155     -1.238477
  H      -1.988018     -1.130071      0.270288
  H       0.903129      1.405473     -0.537430
  H      -0.177556      0.230414      1.478849
17
Coordinates from ORCA-job scan E -27.298829120030
  C      -2.066476      0.929230     -0.356047
  C       2.425321     -0.153694     -0.110038
  C      -1.351011     -0.410409     -0.247009
  C       1.073155      0.370792     -0.265039
  C      -0.038903     -0.313355      0.530672
  O       1.499837     -1.705734      1.510226
  O       1.688304     -0.436665     -1.245011
  O       0.367932     -1.650573      0.785677
  H       2.403381     -1.021419      0.677584
  H      -2.262173      1.342730      0.630785
  H      -3.016529      0.797115     -0.866443
  H      -1.475806      1.645672     -0.920822
  H       3.328509      0.433045     -0.207060
  H      -1.130716     -0.807978     -1.238653
  H      -1.986831     -1.130369      0.270548
  H       0.904383      1.406628     -0.538842
  H      -0.176425      0.230974      1.478232
17
Coordinates from ORCA-job scan E -27.298829450530
  C      -2.066454      0.929715     -0.355885
  C       2.426638     -0.152518     -0.109297
  C      -1.351817     -0.410358     -0.246901
  C       1.072960      0.369844     -0.265045
  C      -0.039635     -0.314037      0.530661
  O       1.500106     -1.706405      1.507321
  O       1.689831     -0.438472     -1.243516
  O       0.366110     -1.651459      0.785209
  H       2.406684     -1.019674      0.679983
  H      -2.261872      1.343305      0.630963
  H      -3.016596      0.798191     -0.866263
  H      -1.475349      1.645817     -0.920651
  H       3.329159      0.434954     -0.207565
  H      -1.131799     -0.808062     -1.238545
  H      -1.987999     -1.129955      0.270697
  H       0.902804      1.404940     -0.540774
  H      -0.176821      0.230162      1.478369
17
Coordinates from ORCA-job scan E -27.298830211580
  C      -2.066721      0.929064     -0.356592
  C       2.426590     -0.154048     -0.111175
  C      -1.351345     -0.410550     -0.246855
  C       1.072966      0.371172     -0.263447
  C      -0.039795     -0.313285      0.531590
  O       1.500342     -1.702502      1.510874
  O       1.688077     -0.434728     -1.245318
  O       0.366934     -1.650116      0.786529
  H       2.406002     -1.025093      0.674890
  H      -2.263095      1.342704      0.630042
  H      -3.016417      0.796864     -0.867626
  H      -1.475653      1.645440     -0.921056
  H       3.330363      0.431616     -0.208301
  H      -1.130381     -0.808335     -1.238253
  H      -1.987404     -1.130451      0.270447
  H       0.903671      1.407221     -0.536087
  H      -0.178184      0.231018      1.479099
17
Coordinates from ORCA-job scan E -27.298831852390
  C      -2.066438      0.929311     -0.356223
  C       2.426169     -0.153331     -0.110663
  C      -1.351279     -0.410463     -0.246885
  C       1.072829      0.370682     -0.264564
  C      -0.039336     -0.313621      0.531043
  O       1.500139     -1.705031      1.510103
  O       1.688794     -0.436121     -1.245037
  O       0.367005     -1.650785      0.785781
  H       2.404597     -1.022008      0.677391
  H      -2.262255      1.342948      0.630526
  H      -3.016410      0.797342     -0.866812
  H      -1.475494      1.645584     -0.920936
  H       3.329623      0.432880     -0.207554
  H      -1.130862     -0.808234     -1.238422
  H      -1.987275     -1.130258      0.270656
  H       0.903259      1.406399     -0.538242
  H      -0.177115      0.230696      1.478598
17
Coordinates from ORCA-job scan E -27.298831982500
  C      -2.066434      0.929347     -0.356249
  C       2.426318     -0.153175     -0.110707
  C      -1.351359     -0.410464     -0.246859
  C       1.072799      0.370589     -0.264472
  C      -0.039387     -0.313714      0.531088
  O       1.500179     -1.705003      1.509799
  O       1.688946     -0.436149     -1.244941
  O       0.366765     -1.650862      0.785820
  H       2.404898     -1.021922      0.677420
  H      -2.262197      1.343048      0.630484
  H      -3.016428      0.797407     -0.866802
  H      -1.475469      1.645556     -0.921022
  H       3.329811      0.432959     -0.207496
  H      -1.130975     -0.808294     -1.238378
  H      -1.987409     -1.130201      0.270705
  H       0.903048      1.406245     -0.538258
  H      -0.177157      0.230624      1.478628
17
Coordinates from ORCA-job scan E -27.298518617970
  C      -2.066626      0.929023     -0.355900
  C       2.424946     -0.153412     -0.110264
  C      -1.350808     -0.410424     -0.246912
  C       1.073124      0.371684     -0.265523
  C      -0.038483     -0.313019      0.530359
  O       1.502721     -1.704446      1.508175
  O       1.688767     -0.436068     -1.245395
  O       0.368676     -1.650122      0.784813
  H       2.397874     -1.022993      0.680425
  H      -2.262091      1.342600      0.630944
  H      -3.016816      0.796608     -0.865964
  H      -1.476320      1.645549     -0.920960
  H       3.329660      0.431048     -0.205790
  H      -1.130732     -0.808117     -1.238554
  H      -1.986221     -1.130500      0.270964
  H       0.904302      1.407397     -0.539668
  H      -0.176025      0.231182      1.478011
17
Coordinates from ORCA-job scan E -27.298518922500
  C      -2.066598      0.929515     -0.355737
  C       2.426280     -0.152202     -0.109532
  C      -1.351620     -0.410372     -0.246805
  C       1.072928      0.370724     -0.265532
  C      -0.039220     -0.313714      0.530347
  O       1.502975     -1.705152      1.505251
  O       1.690306     -0.437883     -1.243897
  O       0.366816     -1.651026      0.784358
  H       2.401238     -1.021275      0.682886
  H      -2.261781      1.343183      0.631123
  H      -3.016880      0.797700     -0.865784
  H      -1.475853      1.645695     -0.920788
  H       3.330311      0.433026     -0.206319
  H      -1.131825     -0.808202     -1.238448
  H      -1.987402     -1.130080      0.271111
  H       0.902698      1.405689     -0.541619
  H      -0.176423      0.230365      1.478143
17
Coordinates from ORCA-job scan E -27.298519672350
  C      -2.066867      0.928845     -0.356468
  C       2.426237     -0.153753     -0.111487
  C      -1.351133     -0.410571     -0.246757
  C       1.072936      0.372092     -0.263886
  C      -0.039385     -0.312943      0.531308
  O       1.503208     -1.701157      1.508931
  O       1.688497     -0.434015     -1.245767
  O       0.367637     -1.649650      0.785750
  H       2.400561     -1.026912      0.677668
  H      -2.263035      1.342568      0.630171
  H      -3.016689      0.796338     -0.867192
  H      -1.476155      1.645304     -0.921210
  H       3.331541      0.429625     -0.207115
  H      -1.130363     -0.808487     -1.238144
  H      -1.986791     -1.130589      0.270857
  H       0.903579      1.408040     -0.536789
  H      -0.177828      0.231255      1.478893
17
Coordinates from ORCA-job scan E -27.298521477530
  C      -2.066580      0.929100     -0.356077
  C       2.425799     -0.153017     -0.110939
  C      -1.351064     -0.410479     -0.246791
  C       1.072797      0.371582     -0.265054
  C      -0.038905     -0.313286      0.530732
  O       1.502999     -1.703790      1.508116
  O       1.689254     -0.435479     -1.245465
  O       0.367722     -1.650338      0.784953
  H       2.399073     -1.023662      0.680272
  H      -2.262167      1.342814      0.630683
  H      -3.016689      0.796831     -0.866336
  H      -1.476002      1.645459     -0.921076
  H       3.330776      0.430918     -0.206320
  H      -1.130863     -0.808373     -1.238325
  H      -1.986651     -1.130392      0.271069
  H       0.903159      1.407180     -0.539049
  H      -0.176709      0.230923      1.478369
17
Coordinates from ORCA-job scan E -27.298521618810
  C      -2.066578      0.929137     -0.356105
  C       2.425958     -0.152857     -0.110984
  C      -1.351147     -0.410480     -0.246766
  C       1.072770      0.371483     -0.264953
  C      -0.038961     -0.313380      0.530782
  O       1.503040     -1.703752      1.507797
  O       1.689410     -0.435509     -1.245364
  O       0.367467     -1.650414      0.785005
  H       2.399403     -1.023589      0.680296
  H      -2.262115      1.342914      0.630639
  H      -3.016708      0.796896     -0.866329
  H      -1.475979      1.645432     -0.921161
  H       3.330972      0.431001     -0.206269
  H      -1.130976     -0.808431     -1.238282
  H      -1.986791     -1.130335      0.271114
  H       0.902943      1.407019     -0.539060
  H      -0.176756      0.230855      1.478400
17
Coordinates from ORCA-job scan E -27.298205109320
  C      -2.066769      0.928813     -0.355755
  C       2.424588     -0.153096     -0.110541
  C      -1.350595     -0.410440     -0.246819
  C       1.073097      0.372575     -0.266002
  C      -0.038056     -0.312687      0.530052
  O       1.505584     -1.703189      1.506170
  O       1.689232     -0.435430     -1.245816
  O       0.369380     -1.649673      0.783996
  H       2.392364     -1.024652      0.683297
  H      -2.262007      1.342465      0.631101
  H      -3.017095      0.796097     -0.865491
  H      -1.476830      1.645425     -0.921098
  H       3.330814      0.429090     -0.204563
  H      -1.130732     -0.808254     -1.238459
  H      -1.985601     -1.130634      0.271372
  H       0.904198      1.408169     -0.540467
  H      -0.175623      0.231411      1.477782
17
Coordinates from ORCA-job scan E -27.298205392920
  C      -2.066736      0.929312     -0.355591
  C       2.425940     -0.151852     -0.109819
  C      -1.351414     -0.410388     -0.246714
  C       1.072899      0.371603     -0.266014
  C      -0.038800     -0.313395      0.530040
  O       1.505823     -1.703930      1.503228
  O       1.690783     -0.437254     -1.244314
  O       0.367481     -1.650596      0.783555
  H       2.395792     -1.022964      0.685824
  H      -2.261689      1.343055      0.631281
  H      -3.017155      0.797206     -0.865310
  H      -1.476350      1.645575     -0.920924
  H       3.331466      0.431137     -0.205116
  H      -1.131836     -0.808338     -1.238354
  H      -1.986795     -1.130210      0.271516
  H       0.902566      1.406440     -0.542439
  H      -0.176025      0.230588      1.477911
17
Coordinates from ORCA-job scan E -27.298206118730
  C      -2.067007      0.928623     -0.356349
  C       2.425902     -0.153424     -0.111856
  C      -1.350911     -0.410594     -0.246663
  C       1.072909      0.373013     -0.264315
  C      -0.038970     -0.312602      0.531035
  O       1.506051     -1.699835      1.507043
  O       1.688914     -0.433253     -1.246257
  O       0.368299     -1.649183      0.785023
  H       2.395124     -1.028838      0.680471
  H      -2.262976      1.342425      0.630295
  H      -3.016950      0.795804     -0.866767
  H      -1.476652      1.645169     -0.921363
  H       3.332723      0.427671     -0.205979
  H      -1.130327     -0.808635     -1.238040
  H      -1.986168     -1.130732      0.271256
  H       0.903463      1.408864     -0.537454
  H      -0.177475      0.231517      1.478680
17
Coordinates from ORCA-job scan E -27.298208113710
  C      -2.066715      0.928888     -0.355934
  C       2.425448     -0.152667     -0.111268
  C      -1.350839     -0.410496     -0.246700
  C       1.072768      0.372480     -0.265540
  C      -0.038468     -0.312955      0.530427
  O       1.505837     -1.702582      1.506178
  O       1.689716     -0.434796     -1.245931
  O       0.368398     -1.649894      0.784173
  H       2.393549     -1.025406      0.683190
  H      -2.262078      1.342674      0.630839
  H      -3.016958      0.796315     -0.865866
  H      -1.476505      1.645335     -0.921214
  H       3.331932      0.428999     -0.205132
  H      -1.130849     -0.808508     -1.238233
  H      -1.986018     -1.130530      0.271472
  H       0.903033      1.407964     -0.539831
  H      -0.176303      0.231171      1.478132
17
Coordinates from ORCA-job scan E -27.298208266840
  C      -2.066718      0.928925     -0.355962
  C       2.425617     -0.152502     -0.111312
  C      -1.350926     -0.410495     -0.246677
  C       1.072745      0.372374     -0.265430
  C      -0.038528     -0.313049      0.530480
  O       1.505877     -1.702535      1.505844
  O       1.689877     -0.434831     -1.245822
  O       0.368128     -1.649968      0.784235
  H       2.393907     -1.025344      0.683211
  H      -2.262032      1.342773      0.630795
  H      -3.016982      0.796381     -0.865861
  H      -1.476487      1.645311     -0.921297
  H       3.332136      0.429085     -0.205085
  H      -1.130963     -0.808563     -1.238191
  H      -1.986161     -1.130474      0.271513
  H       0.902813      1.407793     -0.539841
  H      -0.176353      0.231108      1.478162
17
Coordinates from ORCA-job scan E -27.297889067300
  C      -2.066907      0.928600     -0.355611
  C       2.424249     -0.152742     -0.110870
  C      -1.350372     -0.410456     -0.246730
  C       1.073072      0.373464     -0.266478
  C      -0.037622     -0.312357      0.529750
  O       1.508424     -1.701966      1.504214
  O       1.689701     -0.434754     -1.246273
  O       0.370043     -1.649227      0.783225
  H       2.386854     -1.026400      0.686210
  H      -2.261922      1.342323      0.631258
  H      -3.017367      0.795582     -0.865021
  H      -1.477336      1.645303     -0.921233
  H       3.331972      0.427174     -0.203380
  H      -1.130719     -0.808386     -1.238368
  H      -1.984970     -1.130773      0.271770
  H       0.904068      1.408940     -0.541246
  H      -0.175219      0.231663      1.477544
17
Coordinates from ORCA-job scan E -27.297889343700
  C      -2.066869      0.929107     -0.355448
  C       2.425618     -0.151464     -0.110159
  C      -1.351198     -0.410404     -0.246626
  C       1.072872      0.372481     -0.266490
  C      -0.038372     -0.313078      0.529738
  O       1.508647     -1.702737      1.501258
  O       1.691261     -0.436583     -1.244769
  O       0.368105     -1.650168      0.782801
  H       2.390349     -1.024748      0.688798
  H      -2.261597      1.342919      0.631438
  H      -3.017422      0.796706     -0.864843
  H      -1.476845      1.645456     -0.921057
  H       3.332624      0.429290     -0.203961
  H      -1.131831     -0.808470     -1.238266
  H      -1.986177     -1.130345      0.271911
  H       0.902411      1.407193     -0.543232
  H      -0.175626      0.230835      1.477669
17
Coordinates from ORCA-job scan E -27.297890015750
  C      -2.067141      0.928396     -0.356233
  C       2.425588     -0.153059     -0.112287
  C      -1.350678     -0.410618     -0.246573
  C       1.072885      0.373937     -0.264734
  C      -0.038548     -0.312263      0.530770
  O       1.508870     -1.698531      1.505221
  O       1.689326     -0.432438     -1.246790
  O       0.368919     -1.648714      0.784352
  H       2.389693     -1.030883      0.683299
  H      -2.262922      1.342273      0.630416
  H      -3.017202      0.795263     -0.866355
  H      -1.477144      1.645035     -0.921513
  H       3.333912      0.425753     -0.204898
  H      -1.130270     -0.808780     -1.237939
  H      -1.985533     -1.130881      0.271643
  H       0.903323      1.409697     -0.538080
  H      -0.177126      0.231804      1.478461
17
Coordinates from ORCA-job scan E -27.297892237450
  C      -2.066844      0.928673     -0.355792
  C       2.425117     -0.152278     -0.111652
  C      -1.350604     -0.410513     -0.246614
  C       1.072743      0.373376     -0.266022
  C      -0.038024     -0.312627      0.530128
  O       1.508651     -1.701406      1.504293
  O       1.690180     -0.434073     -1.246434
  O       0.369031     -1.649453      0.783441
  H       2.388030     -1.027245      0.686151
  H      -2.261989      1.342526      0.630994
  H      -3.017219      0.795795     -0.865402
  H      -1.477003      1.645214     -0.921347
  H       3.333093      0.427124     -0.203994
  H      -1.130820     -0.808638     -1.238147
  H      -1.985374     -1.130674      0.271863
  H       0.902879      1.408747     -0.540591
  H      -0.175895      0.231441      1.477886
17
Coordinates from ORCA-job scan E -27.297892403130
  C      -2.066851      0.928711     -0.355821
  C       2.425295     -0.152108     -0.111697
  C      -1.350694     -0.410511     -0.246592
  C       1.072722      0.373264     -0.265902
  C      -0.038089     -0.312721      0.530184
  O       1.508690     -1.701349      1.503944
  O       1.690345     -0.434111     -1.246320
  O       0.368746     -1.649525      0.783516
  H       2.388416     -1.027197      0.686167
  H      -2.261950      1.342624      0.630950
  H      -3.017244      0.795862     -0.865401
  H      -1.476988      1.645192     -0.921429
  H       3.333304      0.427214     -0.203954
  H      -1.130934     -0.808690     -1.238106
  H      -1.985522     -1.130618      0.271900
  H       0.902656      1.408568     -0.540595
  H      -0.175951      0.231384      1.477916
17
Coordinates from ORCA-job scan E -27.297571939270
  C      -2.067414      0.928494     -0.355521
  C       2.424396     -0.152419     -0.111123
  C      -1.350520     -0.410368     -0.246709
  C       1.073087      0.373998     -0.266525
  C      -0.037552     -0.311934      0.529373
  O       1.511253     -1.699755      1.501711
  O       1.690746     -0.434422     -1.245869
  O       0.370556     -1.648522      0.782212
  H       2.383577     -1.029400      0.689141
  H      -2.262199      1.342281      0.631364
  H      -3.018011      0.795176     -0.864601
  H      -1.478215      1.645290     -0.921423
  H       3.333345      0.425557     -0.202580
  H      -1.131084     -0.808408     -1.238351
  H      -1.984707     -1.130811      0.272099
  H       0.903828      1.409302     -0.541721
  H      -0.175134      0.231930      1.477284
17
Coordinates from ORCA-job scan E -27.297573713050
  C      -2.067181      0.928498     -0.355587
  C       2.424714     -0.152116     -0.111561
  C      -1.350566     -0.410484     -0.246583
  C       1.072888      0.374127     -0.266536
  C      -0.037728     -0.312151      0.529589
  O       1.511387     -1.699860      1.501930
  O       1.690801     -0.433917     -1.246398
  O       0.369948     -1.648860      0.782429
  H       2.383555     -1.029471      0.689220
  H      -2.262041      1.342374      0.631244
  H      -3.017720      0.795332     -0.864814
  H      -1.477740      1.645155     -0.921428
  H       3.333835      0.425652     -0.202738
  H      -1.131077     -0.808667     -1.238151
  H      -1.984866     -1.130785      0.272258
  H       0.903250      1.409422     -0.541608
  H      -0.175513      0.231742      1.477494
17
Coordinates from ORCA-job scan E -27.297574426070
  C      -2.066966      0.928508     -0.355709
  C       2.424964     -0.151760     -0.112106
  C      -1.350534     -0.410564     -0.246483
  C       1.072675      0.374189     -0.266380
  C      -0.037745     -0.312395      0.529862
  O       1.511523     -1.699973      1.502126
  O       1.690769     -0.433315     -1.246899
  O       0.369385     -1.649121      0.782747
  H       2.383337     -1.029441      0.689155
  H      -2.261861      1.342517      0.631060
  H      -3.017477      0.795419     -0.865012
  H      -1.477381      1.645029     -0.921568
  H       3.334326      0.425550     -0.202849
  H      -1.131014     -0.808907     -1.237985
  H      -1.984964     -1.130741      0.272368
  H       0.902579      1.409424     -0.541254
  H      -0.175666      0.231570      1.477687
17
Coordinates from ORCA-job scan E -27.297252355450
  C      -2.067531      0.928291     -0.355409
  C       2.424075     -0.152071     -0.111532
  C      -1.350362     -0.410420     -0.246601
  C       1.073041      0.374918     -0.266999
  C      -0.037211     -0.311607      0.529050
  O       1.514082     -1.698372      1.499883
  O       1.691175     -0.433632     -1.246438
  O       0.371193     -1.648118      0.781439
  H       2.378504     -1.031642      0.692130
  H      -2.262112      1.342175      0.631474
  H      -3.018244      0.794735     -0.864212
  H      -1.478609      1.645127     -0.921561
  H       3.334367      0.423898     -0.201480
  H      -1.131166     -0.808625     -1.238230
  H      -1.984152     -1.130933      0.272567
  H       0.903750      1.410152     -0.542377
  H      -0.174851      0.232115      1.477056
17
Coordinates from ORCA-job scan E -27.297254195830
  C      -2.067288      0.928290     -0.355489
  C       2.424369     -0.151732     -0.112012
  C      -1.350369     -0.410527     -0.246480
  C       1.072843      0.375040     -0.266980
  C      -0.037330     -0.311830      0.529288
  O       1.514195     -1.698571      1.500120
  O       1.691205     -0.433078     -1.246976
  O       0.370575     -1.648437      0.781729
  H       2.378360     -1.031712      0.692198
  H      -2.261939      1.342272      0.631337
  H      -3.017948      0.794857     -0.864423
  H      -1.478153      1.644991     -0.921603
  H       3.334844      0.423981     -0.201679
  H      -1.131116     -0.808874     -1.238035
  H      -1.984281     -1.130904      0.272706
  H       0.903141      1.410265     -0.542203
  H      -0.175158      0.231959      1.477264
17
Coordinates from ORCA-job scan E -27.297255137580
  C      -2.067040      0.928287     -0.355633
  C       2.424654     -0.151289     -0.112684
  C      -1.350290     -0.410605     -0.246372
  C       1.072614      0.375109     -0.266778
  C      -0.037305     -0.312101      0.529626
  O       1.514322     -1.698822      1.500356
  O       1.691162     -0.432343     -1.247566
  O       0.369892     -1.648709      0.782182
  H       2.377949     -1.031662      0.692107
  H      -2.261734      1.342420      0.631121
  H      -3.017669      0.794902     -0.864639
  H      -1.477780      1.644851     -0.921786
  H       3.335442      0.423825     -0.201858
  H      -1.130973     -0.809120     -1.237849
  H      -1.984351     -1.130862      0.272801
  H       0.902346      1.410273     -0.541752
  H      -0.175289      0.231836      1.477483
17
Coordinates from ORCA-job scan E -27.296932212900
  C      -2.067607      0.928071     -0.355334
  C       2.423775     -0.151600     -0.112109
  C      -1.350121     -0.410461     -0.246490
  C       1.072983      0.375832     -0.267392
  C      -0.036773     -0.311314      0.528814
  O       1.516878     -1.697212      1.498103
  O       1.691572     -0.432668     -1.247094
  O       0.371698     -1.647705      0.780870
  H       2.373123     -1.033862      0.695082
  H      -2.261987      1.342079      0.631536
  H      -3.018439      0.794219     -0.863839
  H      -1.479010      1.644949     -0.921779
  H       3.335483      0.422180     -0.200493
  H      -1.131128     -0.808837     -1.238094
  H      -1.983542     -1.131053      0.273000
  H       0.903518      1.410994     -0.542873
  H      -0.174476      0.232379      1.476853
17
Coordinates from ORCA-job scan E -27.296934105010
  C      -2.067371      0.928066     -0.355405
  C       2.424073     -0.151243     -0.112601
  C      -1.350117     -0.410562     -0.246376
  C       1.072799      0.375953     -0.267384
  C      -0.036882     -0.311527      0.529043
  O       1.516966     -1.697458      1.498361
  O       1.691609     -0.432121     -1.247634
  O       0.371077     -1.648017      0.781174
  H       2.372947     -1.033956      0.695185
  H      -2.261818      1.342163      0.631413
  H      -3.018153      0.794326     -0.864031
  H      -1.478578      1.644823     -0.921813
  H       3.335968      0.422276     -0.200705
  H      -1.131059     -0.809065     -1.237910
  H      -1.983650     -1.131031      0.273125
  H       0.902914      1.411104     -0.542722
  H      -0.174774      0.232257      1.477041
17
Coordinates from ORCA-job scan E -27.296935117060
  C      -2.067134      0.928060     -0.355534
  C       2.424381     -0.150767     -0.113299
  C      -1.350025     -0.410632     -0.246280
  C       1.072587      0.376017     -0.267192
  C      -0.036846     -0.311787      0.529377
  O       1.517065     -1.697763      1.498631
  O       1.691584     -0.431393     -1.248236
  O       0.370367     -1.648278      0.781653
  H       2.372490     -1.033925      0.695140
  H      -2.261624      1.342290      0.631219
  H      -3.017887      0.794354     -0.864226
  H      -1.478237      1.644700     -0.921977
  H       3.336604      0.422118     -0.200904
  H      -1.130886     -0.809280     -1.237742
  H      -1.983693     -1.131003      0.273194
  H       0.902103      1.411099     -0.542303
  H      -0.174900      0.232180      1.477240
17
Coordinates from ORCA-job scan E -27.296611941390
  C      -2.067702      0.927845     -0.355234
  C       2.423514     -0.151078     -0.112723
  C      -1.349859     -0.410488     -0.246398
  C       1.072958      0.376735     -0.267802
  C      -0.036318     -0.311000      0.528565
  O       1.519618     -1.696144      1.496368
  O       1.691999     -0.431724     -1.247755
  O       0.372170     -1.647274      0.780337
  H       2.367672     -1.036124      0.698115
  H      -2.261878      1.341949      0.631634
  H      -3.018658      0.793672     -0.863425
  H      -1.479469      1.644799     -0.921970
  H       3.336647      0.420478     -0.199544
  H      -1.131045     -0.808997     -1.237987
  H      -1.982887     -1.131193      0.273393
  H       0.903275      1.411813     -0.543421
  H      -0.174087      0.232721      1.476610
17
Coordinates from ORCA-job scan E -27.296613960550
  C      -2.067463      0.927841     -0.355298
  C       2.423817     -0.150694     -0.113233
  C      -1.349850     -0.410587     -0.246290
  C       1.072776      0.376856     -0.267807
  C      -0.036420     -0.311215      0.528788
  O       1.519684     -1.696424      1.496662
  O       1.692042     -0.431174     -1.248309
  O       0.371536     -1.647593      0.780653
  H       2.367490     -1.036256      0.698269
  H      -2.261705      1.342026      0.631520
  H      -3.018369      0.793784     -0.863612
  H      -1.479035      1.644680     -0.921992
  H       3.337129      0.420612     -0.199781
  H      -1.130972     -0.809216     -1.237812
  H      -1.982986     -1.131175      0.273509
  H       0.902654      1.411919     -0.543294
  H      -0.174378      0.232605      1.476788
17
Coordinates from ORCA-job scan E -27.296615032330
  C      -2.067230      0.927836     -0.355415
  C       2.424140     -0.150188     -0.113951
  C      -1.349750     -0.410652     -0.246205
  C       1.072571      0.376911     -0.267629
  C      -0.036375     -0.311473      0.529114
  O       1.519754     -1.696754      1.496977
  O       1.692032     -0.430457     -1.248920
  O       0.370810     -1.647851      0.781144
  H       2.367032     -1.036263      0.698291
  H      -2.261520      1.342134      0.631347
  H      -3.018107      0.793813     -0.863797
  H      -1.478706      1.644575     -0.922131
  H       3.337772      0.420482     -0.200016
  H      -1.130790     -0.809405     -1.237663
  H      -1.983016     -1.131156      0.273553
  H       0.901824      1.411897     -0.542909
  H      -0.174492      0.232542      1.476971
17
Coordinates from ORCA-job scan E -27.296292308530
  C      -2.067801      0.927621     -0.355115
  C       2.423284     -0.150500     -0.113375
  C      -1.349586     -0.410507     -0.246324
  C       1.072945      0.377622     -0.268234
  C      -0.035851     -0.310687      0.528301
  O       1.522304     -1.695125      1.494703
  O       1.692453     -0.430796     -1.248428
  O       0.372611     -1.646847      0.779824
  H       2.362222     -1.038461      0.701266
  H      -2.261775      1.341795      0.631762
  H      -3.018880      0.793133     -0.862996
  H      -1.479940      1.644673     -0.922123
  H       3.337815      0.418849     -0.198660
  H      -1.130952     -0.809122     -1.237909
  H      -1.982213     -1.131345      0.273751
  H       0.902996      1.412604     -0.544025
  H      -0.173682      0.233081      1.476341
17
Coordinates from ORCA-job scan E -27.296294496630
  C      -2.067556      0.927619     -0.355175
  C       2.423595     -0.150087     -0.113909
  C      -1.349572     -0.410606     -0.246219
  C       1.072762      0.377745     -0.268251
  C      -0.035947     -0.310906      0.528521
  O       1.522348     -1.695438      1.495039
  O       1.692499     -0.430234     -1.249003
  O       0.371958     -1.647175      0.780157
  H       2.362039     -1.038638      0.701473
  H      -2.261597      1.341866      0.631655
  H      -3.018584      0.793250     -0.863181
  H      -1.479498      1.644559     -0.922135
  H       3.338298      0.419024     -0.198929
  H      -1.130873     -0.809335     -1.237740
  H      -1.982306     -1.131329      0.273860
  H       0.902355      1.412708     -0.543913
  H      -0.173969      0.232969      1.476511
17
Coordinates from ORCA-job scan E -27.296295642540
  C      -2.067326      0.927614     -0.355283
  C       2.423933     -0.149551     -0.114656
  C      -1.349464     -0.410667     -0.246146
  C       1.072564      0.377792     -0.268080
  C      -0.035896     -0.311165      0.528842
  O       1.522389     -1.695789      1.495402
  O       1.692501     -0.429518     -1.249631
  O       0.371213     -1.647432      0.780667
  H       2.361590     -1.038698      0.701559
  H      -2.261422      1.341957      0.631497
  H      -3.018322      0.793282     -0.863362
  H      -1.479177      1.644470     -0.922250
  H       3.338946      0.418924     -0.199207
  H      -1.130681     -0.809503     -1.237608
  H      -1.982325     -1.131318      0.273882
  H       0.901504      1.412671     -0.543548
  H      -0.174076      0.232919      1.476682
17
Coordinates from ORCA-job scan E -27.295974162770
  C      -2.067898      0.927401     -0.354982
  C       2.423089     -0.149864     -0.114080
  C      -1.349304     -0.410521     -0.246264
  C       1.072940      0.378497     -0.268680
  C      -0.035374     -0.310378      0.528029
  O       1.524936     -1.694151      1.493119
  O       1.692926     -0.429863     -1.249128
  O       0.373010     -1.646427      0.779343
  H       2.356788     -1.040894      0.704534
  H      -2.261680      1.341618      0.631912
  H      -3.019096      0.792603     -0.862560
  H      -1.480412      1.644569     -0.922242
  H       3.338990      0.417297     -0.197856
  H      -1.130846     -0.809219     -1.237854
  H      -1.981525     -1.131506      0.274079
  H       0.902675      1.413371     -0.544661
  H      -0.173268      0.233457      1.476054
17
Coordinates from ORCA-job scan E -27.295976544770
  C      -2.067646      0.927399     -0.355040
  C       2.423407     -0.149420     -0.114643
  C      -1.349284     -0.410621     -0.246163
  C       1.072756      0.378622     -0.268707
  C      -0.035465     -0.310603      0.528247
  O       1.524958     -1.694499      1.493497
  O       1.692973     -0.429286     -1.249727
  O       0.372339     -1.646765      0.779695
  H       2.356604     -1.041123      0.704793
  H      -2.261497      1.341684      0.631811
  H      -3.018793      0.792724     -0.862746
  H      -1.479962      1.644460     -0.922245
  H       3.339472      0.417514     -0.198160
  H      -1.130761     -0.809427     -1.237690
  H      -1.981612     -1.131493      0.274181
  H       0.902013      1.413475     -0.544560
  H      -0.173553      0.233350      1.476217
17
Coordinates from ORCA-job scan E -27.295977779400
  C      -2.067418      0.927395     -0.355140
  C       2.423759     -0.148852     -0.115427
  C      -1.349168     -0.410677     -0.246099
  C       1.072563      0.378663     -0.268539
  C      -0.035406     -0.310862      0.528567
  O       1.524972     -1.694873      1.493912
  O       1.692982     -0.428561     -1.250377
  O       0.371570     -1.647021      0.780230
  H       2.356167     -1.041247      0.704941
  H      -2.261332      1.341758      0.631665
  H      -3.018529      0.792756     -0.862927
  H      -1.479647      1.644385     -0.922340
  H       3.340128      0.417445     -0.198485
  H      -1.130556     -0.809576     -1.237573
  H      -1.981619     -1.131488      0.274181
  H       0.901139      1.413427     -0.544204
  H      -0.173654      0.233315      1.476377
17
Coordinates from ORCA-job scan E -27.295658413310
  C      -2.067992      0.927183     -0.354840
  C       2.422927     -0.149165     -0.114850
  C      -1.349011     -0.410531     -0.246218
  C       1.072940      0.379362     -0.269135
  C      -0.034888     -0.310076      0.527753
  O       1.527515     -1.693225      1.491618
  O       1.693413     -0.428913     -1.249864
  O       0.373364     -1.646015      0.778902
  H       2.351372     -1.043442      0.707916
  H      -2.261591      1.341421      0.632080
  H      -3.019305      0.792079     -0.862125
  H      -1.480883      1.644484     -0.922332
  H       3.340173      0.415824     -0.197139
  H      -1.130725     -0.809292     -1.237819
  H      -1.980823     -1.131675      0.274379
  H       0.902310      1.414120     -0.545314
  H      -0.172848      0.233851      1.475749
17
Coordinates from ORCA-job scan E -27.295661010980
  C      -2.067733      0.927182     -0.354895
  C       2.423252     -0.148690     -0.115444
  C      -1.348984     -0.410630     -0.246121
  C       1.072757      0.379489     -0.269170
  C      -0.034974     -0.310306      0.527971
  O       1.527514     -1.693607      1.492041
  O       1.693461     -0.428318     -1.250488
  O       0.372673     -1.646362      0.779275
  H       2.351190     -1.043729      0.708228
  H      -2.261404      1.341481      0.631983
  H      -3.018993      0.792203     -0.862312
  H      -1.480424      1.644379     -0.922326
  H       3.340655      0.416085     -0.197478
  H      -1.130632     -0.809495     -1.237660
  H      -1.980904     -1.131665      0.274474
  H       0.901628      1.414224     -0.545221
  H      -0.173131      0.233750      1.475905
17
Coordinates from ORCA-job scan E -27.295662348240
  C      -2.067506      0.927178     -0.354990
  C       2.423621     -0.148088     -0.116270
  C      -1.348859     -0.410682     -0.246066
  C       1.072567      0.379524     -0.269003
  C      -0.034908     -0.310565      0.528290
  O       1.527497     -1.694006      1.492512
  O       1.693475     -0.427579     -1.251165
  O       0.371879     -1.646616      0.779838
  H       2.350767     -1.043926      0.708439
  H      -2.261248      1.341541      0.631847
  H      -3.018726      0.792235     -0.862494
  H      -1.480114      1.644318     -0.922403
  H       3.341318      0.416049     -0.197856
  H      -1.130414     -0.809626     -1.237557
  H      -1.980899     -1.131667      0.274453
  H       0.900729      1.414166     -0.544869
  H      -0.173228      0.233732      1.476056
17
Coordinates from ORCA-job scan E -27.295346043200
  C      -2.068083      0.926966     -0.354690
  C       2.422801     -0.148401     -0.115692
  C      -1.348705     -0.410536     -0.246185
  C       1.072947      0.380218     -0.269594
  C      -0.034393     -0.309780      0.527477
  O       1.530038     -1.692349      1.490208
  O       1.693911     -0.427938     -1.250641
  O       0.373671     -1.645610      0.778507
  H       2.345979     -1.046119      0.711413
  H      -2.261509      1.341204      0.632262
  H      -3.019504      0.791559     -0.861692
  H      -1.481352      1.644417     -0.922394
  H       3.341366      0.414435     -0.196515
  H      -1.130586     -0.809342     -1.237803
  H      -1.980106     -1.131853      0.274649
  H       0.901900      1.414853     -0.545977
  H      -0.172423      0.234266      1.475429
17
Coordinates from ORCA-job scan E -27.295348879530
  C      -2.067816      0.926966     -0.354742
  C       2.423134     -0.147895     -0.116320
  C      -1.348671     -0.410636     -0.246091
  C       1.072763      0.380347     -0.269638
  C      -0.034473     -0.310013      0.527693
  O       1.530011     -1.692767      1.490677
  O       1.693957     -0.427324     -1.251291
  O       0.372960     -1.645966      0.778901
  H       2.345799     -1.046468      0.711779
  H      -2.261318      1.341259      0.632169
  H      -3.019183      0.791687     -0.861880
  H      -1.480885      1.644315     -0.922381
  H       3.341847      0.414741     -0.196892
  H      -1.130486     -0.809541     -1.237650
  H      -1.980181     -1.131845      0.274738
  H       0.901196      1.414958     -0.545890
  H      -0.172705      0.234172      1.475578
17
Coordinates from ORCA-job scan E -27.295350336820
  C      -2.067590      0.926962     -0.354833
  C       2.423519     -0.147255     -0.117193
  C      -1.348538     -0.410683     -0.246046
  C       1.072577      0.380377     -0.269471
  C      -0.034399     -0.310273      0.528014
  O       1.529961     -1.693191      1.491209
  O       1.693976     -0.426565     -1.251999
  O       0.372138     -1.646218      0.779495
  H       2.345394     -1.046750      0.712057
  H      -2.261171      1.341305      0.632042
  H      -3.018914      0.791718     -0.862064
  H      -1.480578      1.644267     -0.922442
  H       3.342519      0.414742     -0.197326
  H      -1.130253     -0.809654     -1.237560
  H      -1.980165     -1.131854      0.274695
  H       0.900270      1.414891     -0.545537
  H      -0.172798      0.234171      1.475719
17
Coordinates from ORCA-job scan E -27.295038123540
  C      -2.068168      0.926751     -0.354533
  C       2.422712     -0.147569     -0.116615
  C      -1.348387     -0.410537     -0.246164
  C       1.072960      0.381065     -0.270057
  C      -0.033887     -0.309488      0.527200
  O       1.532499     -1.691526      1.488895
  O       1.694417     -0.426932     -1.251465
  O       0.373927     -1.645212      0.778160
  H       2.340613     -1.048941      0.715030
  H      -2.261433      1.340969      0.632457
  H      -3.019694      0.791043     -0.861262
  H      -1.481818      1.644367     -0.922432
  H       3.342568      0.413134     -0.195989
  H      -1.130428     -0.809370     -1.237806
  H      -1.979375     -1.132038      0.274891
  H       0.901440      1.415571     -0.546642
  H      -0.171995      0.234702      1.475093
17
Coordinates from ORCA-job scan E -27.295041222750
  C      -2.067894      0.926751     -0.354583
  C       2.423052     -0.147029     -0.117276
  C      -1.348346     -0.410636     -0.246074
  C       1.072775      0.381197     -0.270109
  C      -0.033961     -0.309726      0.527416
  O       1.532445     -1.691980      1.489413
  O       1.694462     -0.426297     -1.252142
  O       0.373197     -1.645577      0.778576
  H       2.340438     -1.049357      0.715452
  H      -2.261237      1.341019      0.632368
  H      -3.019364      0.791174     -0.861451
  H      -1.481342      1.644269     -0.922411
  H       3.343048      0.413488     -0.196406
  H      -1.130321     -0.809564     -1.237658
  H      -1.979443     -1.132033      0.274973
  H       0.900716      1.415678     -0.546561
  H      -0.172275      0.234615      1.475236
17
Coordinates from ORCA-job scan E -27.295042818380
  C      -2.067668      0.926748     -0.354671
  C       2.423457     -0.146347     -0.118202
  C      -1.348202     -0.410680     -0.246038
  C       1.072593      0.381222     -0.269941
  C      -0.033880     -0.309987      0.527738
  O       1.532359     -1.692433      1.490011
  O       1.694484     -0.425516     -1.252883
  O       0.372345     -1.645828      0.779203
  H       2.340054     -1.049734      0.715803
  H      -2.261100      1.341050      0.632249
  H      -3.019091      0.791204     -0.861640
  H      -1.481039      1.644234     -0.922456
  H       3.343730      0.413531     -0.196902
  H      -1.130071     -0.809659     -1.237582
  H      -1.979415     -1.132048      0.274908
  H       0.899759      1.415602     -0.546205
  H      -0.172364      0.234631      1.475368
17
Coordinates from ORCA-job scan E -27.294735818910
  C      -2.068248      0.926537     -0.354370
  C       2.422662     -0.146662     -0.117624
  C      -1.348054     -0.410533     -0.246157
  C       1.072977      0.381903     -0.270522
  C      -0.033372     -0.309203      0.526924
  O       1.534894     -1.690759      1.487688
  O       1.694930     -0.425889     -1.252339
  O       0.374131     -1.644822      0.777864
  H       2.335278     -1.051923      0.718776
  H      -2.261364      1.340715      0.632664
  H      -3.019872      0.790531     -0.860837
  H      -1.482281      1.644334     -0.922446
  H       3.343782      0.411930     -0.195572
  H      -1.130250     -0.809374     -1.237828
  H      -1.978629     -1.132232      0.275104
  H       0.900929      1.416275     -0.547308
  H      -0.171562      0.235161      1.474743
17
Coordinates from ORCA-job scan E -27.294739206390
  C      -2.067967      0.926537     -0.354418
  C       2.423010     -0.146088     -0.118321
  C      -1.348007     -0.410632     -0.246070
  C       1.072792      0.382038     -0.270583
  C      -0.033440     -0.309444      0.527138
  O       1.534811     -1.691249      1.488256
  O       1.694974     -0.425233     -1.253043
  O       0.373382     -1.645196      0.778302
  H       2.335109     -1.052410      0.719257
  H      -2.261163      1.340760      0.632579
  H      -3.019534      0.790665     -0.861028
  H      -1.481795      1.644240     -0.922417
  H       3.344260      0.412333     -0.196031
  H      -1.130134     -0.809564     -1.237685
  H      -1.978690     -1.132228      0.275178
  H       0.900183      1.416383     -0.547232
  H      -0.171840      0.235080      1.474878
17
Coordinates from ORCA-job scan E -27.294740963690
  C      -2.067740      0.926535     -0.354502
  C       2.423436     -0.145360     -0.119306
  C      -1.347853     -0.410672     -0.246045
  C       1.072614      0.382058     -0.270413
  C      -0.033351     -0.309707      0.527463
  O       1.534683     -1.691733      1.488928
  O       1.694999     -0.424426     -1.253822
  O       0.372497     -1.645446      0.778964
  H       2.334750     -1.052894      0.719689
  H      -2.261034      1.340776      0.632468
  H      -3.019256      0.790695     -0.861220
  H      -1.481496      1.644219     -0.922445
  H       3.344953      0.412425     -0.196596
  H      -1.129868     -0.809640     -1.237624
  H      -1.978650     -1.132250      0.275090
  H       0.899192      1.416298     -0.546871
  H      -0.171925      0.235113      1.475001
17
Coordinates from ORCA-job scan E -27.294440388000
  C      -2.068322      0.926325     -0.354201
  C       2.422654     -0.145674     -0.118727
  C      -1.347708     -0.410524     -0.246164
  C       1.073001      0.382733     -0.270990
  C      -0.032846     -0.308923      0.526648
  O       1.537214     -1.690051      1.486595
  O       1.695450     -0.424806     -1.253268
  O       0.374280     -1.644440      0.777622
  H       2.329979     -1.055079      0.722661
  H      -2.261300      1.340442      0.632884
  H      -3.020040      0.790023     -0.860417
  H      -1.482739      1.644319     -0.922435
  H       3.345008      0.410830     -0.195271
  H      -1.130050     -0.809355     -1.237870
  H      -1.977868     -1.132433      0.275286
  H       0.900362      1.416965     -0.547972
  H      -0.171126      0.235641      1.474377
17
Coordinates from ORCA-job scan E -27.294444090440
  C      -2.068033      0.926326     -0.354247
  C       2.423010     -0.145066     -0.119461
  C      -1.347653     -0.410624     -0.246081
  C       1.072815      0.382870     -0.271058
  C      -0.032908     -0.309168      0.526862
  O       1.537099     -1.690579      1.487216
  O       1.695492     -0.424129     -1.253999
  O       0.373514     -1.644823      0.778081
  H       2.329818     -1.055643      0.723204
  H      -2.261094      1.340482      0.632803
  H      -3.019693      0.790160     -0.860608
  H      -1.482245      1.644229     -0.922399
  H       3.345483      0.411286     -0.195774
  H      -1.129926     -0.809539     -1.237733
  H      -1.977921     -1.132432      0.275352
  H       0.899594      1.417074     -0.547901
  H      -0.171401      0.235567      1.474505
17
Coordinates from ORCA-job scan E -27.294446037930
  C      -2.067805      0.926324     -0.354327
  C       2.423460     -0.144285     -0.120511
  C      -1.347488     -0.410658     -0.246066
  C       1.072640      0.382885     -0.270887
  C      -0.032811     -0.309433      0.527189
  O       1.536924     -1.691096      1.487971
  O       1.695520     -0.423293     -1.254820
  O       0.372593     -1.645074      0.778780
  H       2.329489     -1.056247      0.723728
  H      -2.260974      1.340483      0.632699
  H      -3.019409      0.790190     -0.860805
  H      -1.481948      1.644222     -0.922409
  H       3.346189      0.411432     -0.196417
  H      -1.129642     -0.809596     -1.237687
  H      -1.977869     -1.132461      0.275240
  H       0.898565      1.416979     -0.547535
  H      -0.171483      0.235618      1.474619
17
Coordinates from ORCA-job scan E -27.294446291440
  C      -2.067846      0.926302     -0.354320
  C       2.423539     -0.144145     -0.120768
  C      -1.347410     -0.410613     -0.246111
  C       1.072646      0.382801     -0.270765
  C      -0.032741     -0.309437      0.527275
  O       1.536887     -1.691103      1.488042
  O       1.695556     -0.423183     -1.254935
  O       0.372414     -1.644999      0.779016
  H       2.329322     -1.056255      0.723662
  H      -2.261053      1.340404      0.632724
  H      -3.019440      0.790084     -0.860793
  H      -1.482083      1.644287     -0.922388
  H       3.346490      0.411145     -0.196421
  H      -1.129483     -0.809477     -1.237742
  H      -1.977770     -1.132503      0.275105
  H       0.898366      1.416872     -0.547422
  H      -0.171445      0.235810      1.474602
17
Coordinates from ORCA-job scan E -27.294154113330
  C      -2.068430      0.926093     -0.354018
  C       2.422771     -0.144460     -0.120189
  C      -1.347268     -0.410465     -0.246230
  C       1.073036      0.383470     -0.271337
  C      -0.032239     -0.308654      0.526460
  O       1.539416     -1.689414      1.485698
  O       1.696013     -0.423570     -1.254371
  O       0.374194     -1.643994      0.777670
  H       2.324557     -1.058436      0.726634
  H      -2.261320      1.340070      0.633140
  H      -3.020225      0.789414     -0.859989
  H      -1.483327      1.644387     -0.922377
  H       3.346548      0.409558     -0.195101
  H      -1.129669     -0.809191     -1.237988
  H      -1.976991     -1.132685      0.275299
  H       0.899535      1.417532     -0.548520
  H      -0.170648      0.236335      1.473979
17
Coordinates from ORCA-job scan E -27.294157769890
  C      -2.068132      0.926096     -0.354048
  C       2.423120     -0.143850     -0.120894
  C      -1.347233     -0.410578     -0.246140
  C       1.072851      0.383642     -0.271481
  C      -0.032330     -0.308894      0.526640
  O       1.539294     -1.689980      1.486354
  O       1.696061     -0.422906     -1.255121
  O       0.373445     -1.644414      0.778111
  H       2.324443     -1.059067      0.727244
  H      -2.261104      1.340107      0.633078
  H      -3.019867      0.789582     -0.860177
  H      -1.482796      1.644292     -0.922308
  H       3.346985      0.410111     -0.195586
  H      -1.129575     -0.809392     -1.237846
  H      -1.977057     -1.132688      0.275394
  H       0.898810      1.417678     -0.548542
  H      -0.170963      0.236249      1.474083
17
Coordinates from ORCA-job scan E -27.294159492750
  C      -2.067914      0.926100     -0.354109
  C       2.423533     -0.143120     -0.121846
  C      -1.347099     -0.410624     -0.246126
  C       1.072691      0.383689     -0.271393
  C      -0.032259     -0.309129      0.526902
  O       1.539099     -1.690485      1.487132
  O       1.696083     -0.422141     -1.255899
  O       0.372621     -1.644670      0.778719
  H       2.324223     -1.059746      0.727851
  H      -2.260987      1.340105      0.632999
  H      -3.019595      0.789649     -0.860361
  H      -1.482483      1.644285     -0.922281
  H       3.347565      0.410374     -0.196212
  H      -1.129355     -0.809459     -1.237810
  H      -1.977022     -1.132718      0.275307
  H       0.897896      1.417621     -0.548278
  H      -0.171048      0.236260      1.474164
17
Coordinates from ORCA-job scan E -27.294159710380
  C      -2.067950      0.926081     -0.354104
  C       2.423609     -0.142986     -0.122094
  C      -1.347026     -0.410583     -0.246171
  C       1.072696      0.383611     -0.271278
  C      -0.032192     -0.309133      0.526979
  O       1.539046     -1.690480      1.487230
  O       1.696110     -0.422036     -1.256010
  O       0.372456     -1.644596      0.778928
  H       2.324104     -1.059803      0.727830
  H      -2.261065      1.340027      0.633021
  H      -3.019618      0.789560     -0.860360
  H      -1.482599      1.644348     -0.922253
  H       3.347822      0.410138     -0.196259
  H      -1.129214     -0.809346     -1.237866
  H      -1.976933     -1.132757      0.275175
  H       0.897708      1.417522     -0.548162
  H      -0.171002      0.236423      1.474153
17
Coordinates from ORCA-job scan E -27.293876526240
  C      -2.068536      0.925873     -0.353801
  C       2.422854     -0.143302     -0.121514
  C      -1.346888     -0.410434     -0.246290
  C       1.073087      0.384274     -0.271845
  C      -0.031694     -0.308350      0.526164
  O       1.541571     -1.688783      1.484876
  O       1.696571     -0.422430     -1.255436
  O       0.374233     -1.643592      0.777579
  H       2.319343     -1.061979      0.730801
  H      -2.261334      1.339694      0.633438
  H      -3.020405      0.788891     -0.859556
  H      -1.483845      1.644448     -0.922241
  H       3.347883      0.408558     -0.194944
  H      -1.129403     -0.809060     -1.238112
  H      -1.976157     -1.132938      0.275370
  H       0.898876      1.418175     -0.549258
  H      -0.170207      0.236946      1.473531
17
Coordinates from ORCA-job scan E -27.293880625330
  C      -2.068219      0.925879     -0.353837
  C       2.423213     -0.142648     -0.122265
  C      -1.346844     -0.410551     -0.246200
  C       1.072896      0.384453     -0.271993
  C      -0.031775     -0.308603      0.526347
  O       1.541406     -1.689398      1.485602
  O       1.696608     -0.421730     -1.256220
  O       0.373461     -1.644030      0.778034
  H       2.319242     -1.062708      0.731498
  H      -2.261101      1.339736      0.633369
  H      -3.020025      0.789071     -0.859756
  H      -1.483284      1.644351     -0.922173
  H       3.348299      0.409200     -0.195512
  H      -1.129305     -0.809268     -1.237969
  H      -1.976223     -1.132937      0.275464
  H       0.898115      1.418329     -0.549267
  H      -0.170513      0.236845      1.473639
17
Coordinates from ORCA-job scan E -27.293882595650
  C      -2.067982      0.925889     -0.353907
  C       2.423654     -0.141852     -0.123296
  C      -1.346699     -0.410596     -0.246190
  C       1.072731      0.384500     -0.271893
  C      -0.031691     -0.308856      0.526619
  O       1.541148     -1.689956      1.486485
  O       1.696619     -0.420914     -1.257046
  O       0.372596     -1.644302      0.778668
  H       2.319065     -1.063543      0.732235
  H      -2.260975      1.339735      0.633281
  H      -3.019729      0.789150     -0.859960
  H      -1.482943      1.644347     -0.922147
  H       3.348864      0.409579     -0.196279
  H      -1.129073     -0.809335     -1.237937
  H      -1.976189     -1.132963      0.275364
  H       0.897142      1.418268     -0.548967
  H      -0.170589      0.236839      1.473729
17
Coordinates from ORCA-job scan E -27.293882816970
  C      -2.068023      0.925871     -0.353902
  C       2.423732     -0.141719     -0.123547
  C      -1.346625     -0.410550     -0.246238
  C       1.072740      0.384413     -0.271768
  C      -0.031627     -0.308857      0.526696
  O       1.541083     -1.689940      1.486590
  O       1.696647     -0.420818     -1.257151
  O       0.372436     -1.644222      0.778874
  H       2.318978     -1.063630      0.732231
  H      -2.261062      1.339655      0.633304
  H      -3.019755      0.789059     -0.859962
  H      -1.483066      1.644417     -0.922116
  H       3.349111      0.409358     -0.196355
  H      -1.128929     -0.809214     -1.237998
  H      -1.976100     -1.133001      0.275223
  H       0.896955      1.418163     -0.548840
  H      -0.170545      0.237005      1.473719
17
Coordinates from ORCA-job scan E -27.293610150920
  C      -2.068610      0.925663     -0.353599
  C       2.422991     -0.142034     -0.122967
  C      -1.346490     -0.410402     -0.246357
  C       1.073134      0.385071     -0.272331
  C      -0.031131     -0.308076      0.525881
  O       1.543605     -1.688236      1.484227
  O       1.697113     -0.421219     -1.256568
  O       0.374209     -1.643218      0.777522
  H       2.314219     -1.065801      0.735201
  H      -2.261331      1.339322      0.633721
  H      -3.020544      0.788391     -0.859157
  H      -1.484314      1.644517     -0.922103
  H       3.349176      0.407785     -0.195047
  H      -1.129121     -0.808928     -1.238244
  H      -1.975328     -1.133181      0.275417
  H       0.898123      1.418810     -0.549934
  H      -0.169751      0.237526      1.473099
17
Coordinates from ORCA-job scan E -27.293614659570
  C      -2.068281      0.925671     -0.353635
  C       2.423359     -0.141339     -0.123758
  C      -1.346439     -0.410519     -0.246270
  C       1.072941      0.385256     -0.272488
  C      -0.031206     -0.308335      0.526063
  O       1.543403     -1.688899      1.485012
  O       1.697145     -0.420491     -1.257383
  O       0.373418     -1.643671      0.777998
  H       2.314128     -1.066618      0.735971
  H      -2.261087      1.339363      0.633653
  H      -3.020152      0.788577     -0.859359
  H      -1.483737      1.644421     -0.922033
  H       3.349585      0.408498     -0.195669
  H      -1.129015     -0.809136     -1.238104
  H      -1.975389     -1.133180      0.275508
  H       0.897336      1.418967     -0.549948
  H      -0.170057      0.237425      1.473201
17
Coordinates from ORCA-job scan E -27.293616919060
  C      -2.068032      0.925684     -0.353705
  C       2.423833     -0.140469     -0.124875
  C      -1.346281     -0.410562     -0.246268
  C       1.072775      0.385303     -0.272387
  C      -0.031113     -0.308599      0.526341
  O       1.543079     -1.689519      1.486005
  O       1.697156     -0.419626     -1.258267
  O       0.372507     -1.643957      0.778669
  H       2.313988     -1.067612      0.736843
  H      -2.260954      1.339358      0.633567
  H      -3.019841      0.788662     -0.859569
  H      -1.483384      1.644427     -0.921998
  H       3.350159      0.408974     -0.196550
  H      -1.128765     -0.809191     -1.238082
  H      -1.975347     -1.133208      0.275389
  H       0.896303      1.418900     -0.549636
  H      -0.170131      0.237424      1.473287
17
Coordinates from ORCA-job scan E -27.293617156140
  C      -2.068080      0.925667     -0.353698
  C       2.423916     -0.140330     -0.125136
  C      -1.346207     -0.410512     -0.246322
  C       1.072788      0.385208     -0.272256
  C      -0.031049     -0.308596      0.526417
  O       1.542998     -1.689491      1.486123
  O       1.697186     -0.419535     -1.258371
  O       0.372346     -1.643868      0.778877
  H       2.313929     -1.067734      0.736859
  H      -2.261050      1.339270      0.633594
  H      -3.019873      0.788568     -0.859570
  H      -1.483519      1.644505     -0.921961
  H       3.350407      0.408759     -0.196648
  H      -1.128616     -0.809057     -1.238151
  H      -1.975255     -1.133248      0.275235
  H       0.896115      1.418787     -0.549505
  H      -0.170086      0.237598      1.473274
17
Coordinates from ORCA-job scan E -27.293356531080
  C      -2.068669      0.925460     -0.353394
  C       2.423189     -0.140646     -0.124556
  C      -1.346074     -0.410363     -0.246441
  C       1.073184      0.385860     -0.272815
  C      -0.030557     -0.307816      0.525602
  O       1.545517     -1.687782      1.483752
  O       1.697658     -0.419942     -1.257779
  O       0.374116     -1.642866      0.777521
  H       2.309172     -1.069898      0.739828
  H      -2.261322      1.338938      0.634012
  H      -3.020663      0.787902     -0.858765
  H      -1.484768      1.644605     -0.921947
  H       3.350476      0.407193     -0.195345
  H      -1.128811     -0.808771     -1.238398
  H      -1.974485     -1.133428      0.275429
  H       0.897282      1.419428     -0.550597
  H      -0.169294      0.238117      1.472654
17
Coordinates from ORCA-job scan E -27.293361461660
  C      -2.068330      0.925469     -0.353429
  C       2.423564     -0.139910     -0.125388
  C      -1.346016     -0.410481     -0.246357
  C       1.072990      0.386050     -0.272982
  C      -0.030624     -0.308080      0.525782
  O       1.545274     -1.688489      1.484598
  O       1.697684     -0.419190     -1.258623
  O       0.373310     -1.643331      0.778014
  H       2.309090     -1.070804      0.740674
  H      -2.261067      1.338977      0.633947
  H      -3.020261      0.788092     -0.858966
  H      -1.484180      1.644512     -0.921872
  H       3.350879      0.407971     -0.196020
  H      -1.128698     -0.808975     -1.238263
  H      -1.974539     -1.133428      0.275514
  H       0.896470      1.419588     -0.550618
  H      -0.169596      0.238019      1.472749
17
Coordinates from ORCA-job scan E -27.293364069560
  C      -2.068069      0.925485     -0.353498
  C       2.424076     -0.138952     -0.126604
  C      -1.345844     -0.410520     -0.246366
  C       1.072822      0.386099     -0.272885
  C      -0.030520     -0.308355      0.526063
  O       1.544872     -1.689175      1.485721
  O       1.697696     -0.418271     -1.259573
  O       0.372348     -1.643631      0.778724
  H       2.308991     -1.071980      0.741703
  H      -2.260929      1.338962      0.633867
  H      -3.019936      0.788185     -0.859182
  H      -1.483815      1.644530     -0.921824
  H       3.351469      0.408552     -0.197023
  H      -1.128429     -0.809015     -1.238256
  H      -1.974487     -1.133460      0.275370
  H       0.895370      1.419514     -0.550302
  H      -0.169665      0.238022      1.472827
17
Coordinates from ORCA-job scan E -27.293364329370
  C      -2.068126      0.925469     -0.353487
  C       2.424164     -0.138807     -0.126878
  C      -1.345768     -0.410465     -0.246428
  C       1.072840      0.385994     -0.272748
  C      -0.030456     -0.308348      0.526136
  O       1.544774     -1.689135      1.485857
  O       1.697730     -0.418187     -1.259677
  O       0.372187     -1.643532      0.778933
  H       2.308963     -1.072139      0.741746
  H      -2.261038      1.338864      0.633902
  H      -3.019975      0.788088     -0.859181
  H      -1.483966      1.644619     -0.921777
  H       3.351721      0.408340     -0.197142
  H      -1.128273     -0.808865     -1.238336
  H      -1.974389     -1.133504      0.275201
  H       0.895179      1.419391     -0.550170
  H      -0.169618      0.238206      1.472810
17
Coordinates from ORCA-job scan E -27.293117323040
  C      -2.068717      0.925262     -0.353183
  C       2.423451     -0.139122     -0.126297
  C      -1.345638     -0.410316     -0.246547
  C       1.073239      0.386641     -0.273303
  C      -0.029967     -0.307568      0.525322
  O       1.547289     -1.687421      1.483477
  O       1.698207     -0.418601     -1.259077
  O       0.373955     -1.642531      0.777574
  H       2.304206     -1.074295      0.744713
  H      -2.261310      1.338532      0.634320
  H      -3.020766      0.787422     -0.858375
  H      -1.485216      1.644719     -0.921762
  H       3.351795      0.406781     -0.195845
  H      -1.128472     -0.808578     -1.238582
  H      -1.973623     -1.133683      0.275395
  H       0.896346      1.420026     -0.551261
  H      -0.168828      0.238723      1.472192
17
Coordinates from ORCA-job scan E -27.293122707630
  C      -2.068369      0.925272     -0.353215
  C       2.423834     -0.138343     -0.127170
  C      -1.345572     -0.410434     -0.246467
  C       1.073044      0.386836     -0.273482
  C      -0.030026     -0.307837      0.525497
  O       1.547002     -1.688172      1.484387
  O       1.698229     -0.417826     -1.259949
  O       0.373135     -1.643007      0.778083
  H       2.304138     -1.075296      0.745641
  H      -2.261047      1.338568      0.634260
  H      -3.020356      0.787618     -0.858575
  H      -1.484618      1.644630     -0.921681
  H       3.352193      0.407627     -0.196574
  H      -1.128352     -0.808777     -1.238453
  H      -1.973669     -1.133685      0.275473
  H       0.895510      1.420189     -0.551292
  H      -0.169125      0.238627      1.472278
17
Coordinates from ORCA-job scan E -27.293125746400
  C      -2.068095      0.925292     -0.353280
  C       2.424388     -0.137284     -0.128502
  C      -1.345385     -0.410469     -0.246489
  C       1.072873      0.386888     -0.273395
  C      -0.029908     -0.308124      0.525780
  O       1.546505     -1.688933      1.485664
  O       1.698242     -0.416846     -1.260976
  O       0.372117     -1.643325      0.778834
  H       2.304088     -1.076684      0.746858
  H      -2.260903      1.338540      0.634188
  H      -3.020014      0.787719     -0.858796
  H      -1.484240      1.644664     -0.921614
  H       3.352802      0.408329     -0.197717
  H      -1.128062     -0.808799     -1.238465
  H      -1.973603     -1.133722      0.275300
  H       0.894331      1.420107     -0.550977
  H      -0.169187      0.238636      1.472346
17
Coordinates from ORCA-job scan E -27.293126036450
  C      -2.068161      0.925277     -0.353265
  C       2.424483     -0.137128     -0.128792
  C      -1.345307     -0.410408     -0.246559
  C       1.072895      0.386773     -0.273252
  C      -0.029844     -0.308112      0.525850
  O       1.546385     -1.688879      1.485825
  O       1.698281     -0.416769     -1.261081
  O       0.371956     -1.643216      0.779043
  H       2.304096     -1.076888      0.746936
  H      -2.261026      1.338432      0.634231
  H      -3.020061      0.787619     -0.858792
  H      -1.484406      1.644764     -0.921556
  H       3.353060      0.408122     -0.197863
  H      -1.127900     -0.808630     -1.238556
  H      -1.973500     -1.133770      0.275114
  H       0.894136      1.419973     -0.550845
  H      -0.169138      0.238830      1.472324
17
Coordinates from ORCA-job scan E -27.292894329080
  C      -2.068753      0.925070     -0.352960
  C       2.423784     -0.137443     -0.128211
  C      -1.345180     -0.410259     -0.246678
  C       1.073297      0.387415     -0.273803
  C      -0.029358     -0.307333      0.525037
  O       1.548897     -1.687161      1.483436
  O       1.698763     -0.417189     -1.260474
  O       0.373720     -1.642217      0.777682
  H       2.299336     -1.079035      0.749900
  H      -2.261299      1.338100      0.634651
  H      -3.020853      0.786955     -0.857986
  H      -1.485657      1.644864     -0.921539
  H       3.353140      0.406570     -0.196572
  H      -1.128101     -0.808344     -1.238802
  H      -1.972737     -1.133949      0.275307
  H       0.895302      1.420603     -0.551934
  H      -0.168350      0.239344      1.471708
17
Coordinates from ORCA-job scan E -27.292900206900
  C      -2.068397      0.925082     -0.352989
  C       2.424175     -0.136620     -0.129127
  C      -1.345106     -0.410376     -0.246603
  C       1.073102      0.387616     -0.273995
  C      -0.029409     -0.307606      0.525207
  O       1.548561     -1.687956      1.484415
  O       1.698781     -0.416392     -1.261374
  O       0.372890     -1.642703      0.778203
  H       2.299284     -1.080136      0.750918
  H      -2.261028      1.338130      0.634596
  H      -3.020434      0.787155     -0.858184
  H      -1.485051      1.644780     -0.921451
  H       3.353531      0.407485     -0.197356
  H      -1.127974     -0.808536     -1.238681
  H      -1.972775     -1.133952      0.275377
  H       0.894441      1.420767     -0.551978
  H      -0.168640      0.239251      1.471784
17
Coordinates from ORCA-job scan E -27.292903785560
  C      -2.068107      0.925107     -0.353049
  C       2.424778     -0.135439     -0.130596
  C      -1.344900     -0.410408     -0.246641
  C       1.072928      0.387671     -0.273921
  C      -0.029276     -0.307908      0.525490
  O       1.547949     -1.688806      1.485877
  O       1.698795     -0.415341     -1.262491
  O       0.371809     -1.643042      0.778998
  H       2.299296     -1.081776      0.752363
  H      -2.260876      1.338088      0.634536
  H      -3.020074      0.787269     -0.858409
  H      -1.484657      1.644833     -0.921361
  H       3.354165      0.408332     -0.198664
  H      -1.127661     -0.808535     -1.238715
  H      -1.972694     -1.133996      0.275171
  H       0.893170      1.420677     -0.551668
  H      -0.168695      0.239263      1.471840
17
Coordinates from ORCA-job scan E -27.292904117310
  C      -2.068183      0.925092     -0.353029
  C       2.424881     -0.135269     -0.130908
  C      -1.344820     -0.410339     -0.246721
  C       1.072955      0.387546     -0.273773
  C      -0.029211     -0.307892      0.525556
  O       1.547800     -1.688738      1.486069
  O       1.698840     -0.415269     -1.262599
  O       0.371647     -1.642922      0.779205
  H       2.299345     -1.082036      0.752486
  H      -2.261014      1.337968      0.634588
  H      -3.020129      0.787166     -0.858402
  H      -1.484841      1.644947     -0.921289
  H       3.354430      0.408132     -0.198843
  H      -1.127492     -0.808346     -1.238820
  H      -1.972584     -1.134048      0.274964
  H       0.892967      1.420531     -0.551537
  H      -0.168642      0.239466      1.471812
17
Coordinates from ORCA-job scan E -27.292689546570
  C      -2.068777      0.924885     -0.352723
  C       2.424196     -0.135583     -0.130327
  C      -1.344695     -0.410191     -0.246839
  C       1.073359      0.388183     -0.274320
  C      -0.028727     -0.307115      0.524743
  O       1.550310     -1.687017      1.483673
  O       1.699326     -0.415696     -1.261985
  O       0.373408     -1.641925      0.777842
  H       2.294581     -1.084172      0.755449
  H      -2.261288      1.337636      0.635009
  H      -3.020922      0.786502     -0.857596
  H      -1.486093      1.645047     -0.921272
  H       3.354516      0.406588     -0.197558
  H      -1.127696     -0.808060     -1.239066
  H      -1.971824     -1.134226      0.275158
  H       0.894131      1.421156     -0.552624
  H      -0.167855      0.239978      1.471198
17
Coordinates from ORCA-job scan E -27.292695960310
  C      -2.068413      0.924900     -0.352748
  C       2.424596     -0.134715     -0.131287
  C      -1.344614     -0.410306     -0.246770
  C       1.073163      0.388389     -0.274527
  C      -0.028769     -0.307391      0.524906
  O       1.549919     -1.687855      1.484725
  O       1.699340     -0.414878     -1.262913
  O       0.372569     -1.642421      0.778374
  H       2.294550     -1.085380      0.756562
  H      -2.261009      1.337661      0.634961
  H      -3.020496      0.786707     -0.857790
  H      -1.485480      1.644969     -0.921174
  H       3.354900      0.407574     -0.198402
  H      -1.127562     -0.808243     -1.238954
  H      -1.971854     -1.134232      0.275218
  H       0.893246      1.421322     -0.552684
  H      -0.168138      0.239887      1.471264
17
Coordinates from ORCA-job scan E -27.292700220660
  C      -2.068105      0.924931     -0.352802
  C       2.425257     -0.133386     -0.132919
  C      -1.344387     -0.410333     -0.246826
  C       1.072985      0.388451     -0.274470
  C      -0.028617     -0.307711      0.525188
  O       1.549167     -1.688809      1.486410
  O       1.699356     -0.413742     -1.264136
  O       0.371415     -1.642787      0.779214
  H       2.294637     -1.087324      0.758289
  H      -2.260847      1.337602      0.634915
  H      -3.020113      0.786836     -0.858019
  H      -1.485066      1.645043     -0.921057
  H       3.355563      0.408595     -0.199906
  H      -1.127222     -0.808217     -1.239013
  H      -1.971754     -1.134283      0.274974
  H       0.891864      1.421223     -0.552383
  H      -0.168182      0.239900      1.471304
17
Coordinates from ORCA-job scan E -27.292700609800
  C      -2.068191      0.924917     -0.352776
  C       2.425369     -0.133196     -0.133259
  C      -1.344304     -0.410256     -0.246917
  C       1.073016      0.388315     -0.274318
  C      -0.028551     -0.307691      0.525249
  O       1.548982     -1.688726      1.486644
  O       1.699408     -0.413677     -1.264251
  O       0.371253     -1.642655      0.779419
  H       2.294734     -1.087653      0.758471
  H      -2.260999      1.337467      0.634979
  H      -3.020177      0.786731     -0.858008
  H      -1.485270      1.645174     -0.920971
  H       3.355837      0.408407     -0.200124
  H      -1.127046     -0.808004     -1.239135
  H      -1.971637     -1.134340      0.274743
  H       0.891649      1.421063     -0.552255
  H      -0.168124      0.240113      1.471269
17
Coordinates from ORCA-job scan E -27.292505228440
  C      -2.068786      0.924710     -0.352469
  C       2.424699     -0.133511     -0.132679
  C      -1.344182     -0.410108     -0.247035
  C       1.073423      0.388947     -0.274862
  C      -0.028070     -0.306915      0.524437
  O       1.551489     -1.687003      1.484241
  O       1.699899     -0.414109     -1.263630
  O       0.373010     -1.641661      0.778053
  H       2.289962     -1.089776      0.761430
  H      -2.261275      1.337135      0.635401
  H      -3.020971      0.786068     -0.857201
  H      -1.486522      1.645273     -0.920951
  H       3.355929      0.406870     -0.198847
  H      -1.127252     -0.807718     -1.239380
  H      -1.970879     -1.134518      0.274936
  H       0.892813      1.421683     -0.553341
  H      -0.167338      0.240622      1.470657
17
Coordinates from ORCA-job scan E -27.292512215850
  C      -2.068415      0.924727     -0.352490
  C       2.425107     -0.132594     -0.133684
  C      -1.344092     -0.410221     -0.246973
  C       1.073227      0.389159     -0.275083
  C      -0.028102     -0.307194      0.524591
  O       1.551040     -1.687884      1.485369
  O       1.699908     -0.413270     -1.264585
  O       0.372165     -1.642166      0.778592
  H       2.289956     -1.091098      0.762648
  H      -2.260988      1.337154      0.635361
  H      -3.020539      0.786278     -0.857390
  H      -1.485904      1.645202     -0.920845
  H       3.356307      0.407930     -0.199751
  H      -1.127111     -0.807891     -1.239279
  H      -1.970899     -1.134525      0.274986
  H       0.891903      1.421850     -0.553417
  H      -0.167612      0.240533      1.470711
17
Coordinates from ORCA-job scan E -27.292517324900
  C      -2.068085      0.924765     -0.352536
  C       2.425833     -0.131091     -0.135509
  C      -1.343840     -0.410242     -0.247050
  C       1.073042      0.389231     -0.275050
  C      -0.027928     -0.307536      0.524869
  O       1.550116     -1.688961      1.487324
  O       1.699925     -0.412036     -1.265934
  O       0.370932     -1.642564      0.779478
  H       2.290136     -1.093407      0.764714
  H      -2.260812      1.337076      0.635333
  H      -3.020129      0.786426     -0.857623
  H      -1.485467      1.645303     -0.920696
  H       3.357003      0.409158     -0.201489
  H      -1.126742     -0.807834     -1.239369
  H      -1.970778     -1.134584      0.274697
  H       0.890390      1.421742     -0.553132
  H      -0.167645      0.240545      1.470734
17
Coordinates from ORCA-job scan E -27.292517791440
  C      -2.068183      0.924754     -0.352503
  C       2.425956     -0.130877     -0.135883
  C      -1.343755     -0.410157     -0.247155
  C       1.073078      0.389083     -0.274893
  C      -0.027860     -0.307512      0.524924
  O       1.549889     -1.688862      1.487607
  O       1.699983     -0.411974     -1.266056
  O       0.370770     -1.642420      0.779678
  H       2.290290     -1.093818      0.764969
  H      -2.260981      1.336926      0.635410
  H      -3.020204      0.786317     -0.857606
  H      -1.485693      1.645451     -0.920593
  H       3.357287      0.408985     -0.201754
  H      -1.126557     -0.807595     -1.239510
  H      -1.970653     -1.134646      0.274441
  H       0.890161      1.421568     -0.553006
  H      -0.167579      0.240766      1.470691
17
Coordinates from ORCA-job scan E -27.292343857090
  C      -2.068778      0.924546     -0.352195
  C       2.425302     -0.131191     -0.135304
  C      -1.343634     -0.410009     -0.247272
  C       1.073487      0.389711     -0.275434
  C      -0.027381     -0.306737      0.524113
  O       1.552393     -1.687139      1.485198
  O       1.700478     -0.412411     -1.265430
  O       0.372524     -1.641429      0.778312
  H       2.285508     -1.095925      0.767923
  H      -2.261256      1.336593      0.635832
  H      -3.020998      0.785655     -0.856799
  H      -1.486946      1.645549     -0.920572
  H       3.357387      0.407456     -0.200483
  H      -1.126766     -0.807309     -1.239754
  H      -1.969898     -1.134825      0.274633
  H       0.891324      1.422183     -0.554091
  H      -0.166795      0.241272      1.470082
17
Coordinates from ORCA-job scan E -27.292351432150
  C      -2.068402      0.924565     -0.352211
  C       2.425716     -0.130226     -0.136355
  C      -1.343536     -0.410120     -0.247218
  C       1.073292      0.389928     -0.275670
  C      -0.027403     -0.307017      0.524257
  O       1.551880     -1.688059      1.486406
  O       1.700483     -0.411554     -1.266411
  O       0.371676     -1.641940      0.778853
  H       2.285531     -1.097366      0.769250
  H      -2.260962      1.336606      0.635801
  H      -3.020561      0.785869     -0.856982
  H      -1.486325      1.645486     -0.920456
  H       3.357756      0.408588     -0.201451
  H      -1.126618     -0.807471     -1.239664
  H      -1.969908     -1.134834      0.274672
  H       0.890389      1.422352     -0.554184
  H      -0.167059      0.241184      1.470124
17
Coordinates from ORCA-job scan E -27.292357519590
  C      -2.068048      0.924612     -0.352247
  C       2.426513     -0.128529     -0.138398
  C      -1.343258     -0.410134     -0.247319
  C       1.073098      0.390012     -0.275666
  C      -0.027205     -0.307383      0.524528
  O       1.550760     -1.689265      1.488665
  O       1.700499     -0.410209     -1.267899
  O       0.370361     -1.642373      0.779783
  H       2.285824     -1.100093      0.771706
  H      -2.260771      1.336506      0.635793
  H      -3.020123      0.786038     -0.857217
  H      -1.485863      1.645616     -0.920272
  H       3.358487      0.410048     -0.203449
  H      -1.126218     -0.807379     -1.239789
  H      -1.969763     -1.134902      0.274332
  H       0.888734      1.422236     -0.553917
  H      -0.167076      0.241191      1.470126
17
Coordinates from ORCA-job scan E -27.292358075170
  C      -2.068158      0.924602     -0.352208
  C       2.426644     -0.128294     -0.138805
  C      -1.343170     -0.410040     -0.247437
  C       1.073139      0.389852     -0.275503
  C      -0.027135     -0.307354      0.524577
  O       1.550490     -1.689144      1.488999
  O       1.700562     -0.410153     -1.268028
  O       0.370202     -1.642216      0.779974
  H       2.286040     -1.100586      0.772033
  H      -2.260955      1.336341      0.635882
  H      -3.020209      0.785928     -0.857195
  H      -1.486112      1.645782     -0.920154
  H       3.358779      0.409888     -0.203761
  H      -1.126025     -0.807114     -1.239949
  H      -1.969630     -1.134969      0.274049
  H       0.888493      1.422048     -0.553791
  H      -0.167005      0.241420      1.470076
17
Coordinates from ORCA-job scan E -27.292207814160
  C      -2.068754      0.924395     -0.351899
  C       2.426005     -0.128607     -0.138226
  C      -1.343051     -0.409893     -0.247553
  C       1.073551      0.390476     -0.276041
  C      -0.026658     -0.306581      0.523768
  O       1.552992     -1.687423      1.486584
  O       1.701061     -0.410594     -1.267399
  O       0.371953     -1.641229      0.778607
  H       2.281242     -1.102676      0.774982
  H      -2.261231      1.336008      0.636306
  H      -3.021003      0.785265     -0.856387
  H      -1.487364      1.645879     -0.920130
  H       3.358886      0.408365     -0.202497
  H      -1.126235     -0.806829     -1.240192
  H      -1.968876     -1.135148      0.274242
  H       0.889655      1.422660     -0.554874
  H      -0.166221      0.241923      1.469469
17
Coordinates from ORCA-job scan E -27.292215911300
  C      -2.068373      0.924415     -0.351911
  C       2.426424     -0.127598     -0.139322
  C      -1.342945     -0.410001     -0.247507
  C       1.073356      0.390699     -0.276291
  C      -0.026671     -0.306863      0.523902
  O       1.552418     -1.688377      1.487869
  O       1.701059     -0.409718     -1.268403
  O       0.371106     -1.641745      0.779150
  H       2.281297     -1.104234      0.776414
  H      -2.260931      1.336015      0.636283
  H      -3.020563      0.785483     -0.856565
  H      -1.486741      1.645824     -0.920006
  H       3.359247      0.409565     -0.203525
  H      -1.126081     -0.806979     -1.240114
  H      -1.968877     -1.135160      0.274270
  H       0.888699      1.422829     -0.554983
  H      -0.166475      0.241835      1.469501
17
Coordinates from ORCA-job scan E -27.292222868480
  C      -2.067999      0.924470     -0.351939
  C       2.427278     -0.125731     -0.141564
  C      -1.342643     -0.410008     -0.247634
  C       1.073156      0.390794     -0.276310
  C      -0.026452     -0.307247      0.524164
  O       1.551112     -1.689685      1.490413
  O       1.701065     -0.408274     -1.270016
  O       0.369729     -1.642205      0.780112
  H       2.281713     -1.107360      0.779235
  H      -2.260728      1.335893      0.636294
  H      -3.020101      0.785671     -0.856802
  H      -1.486262      1.645982     -0.919789
  H       3.360000      0.411234     -0.205768
  H      -1.125651     -0.806852     -1.240274
  H      -1.968710     -1.135236      0.273880
  H       0.886923      1.422708     -0.554724
  H      -0.166479      0.241836      1.469483
17
Coordinates from ORCA-job scan E -27.292223495610
  C      -2.068122      0.924461     -0.351897
  C       2.427408     -0.125497     -0.141985
  C      -1.342556     -0.409907     -0.247761
  C       1.073201      0.390623     -0.276139
  C      -0.026385     -0.307211      0.524207
  O       1.550821     -1.689527      1.490772
  O       1.701127     -0.408225     -1.270144
  O       0.369584     -1.642032      0.780291
  H       2.281985     -1.107904      0.779597
  H      -2.260930      1.335717      0.636390
  H      -3.020199      0.785557     -0.856779
  H      -1.486531      1.646160     -0.919660
  H       3.360292      0.411065     -0.206103
  H      -1.125455     -0.806567     -1.240448
  H      -1.968573     -1.135306      0.273578
  H       0.886688      1.422513     -0.554589
  H      -0.166406      0.242070      1.469430
17
Coordinates from ORCA-job scan E -27.292098276750
  C      -2.068717      0.924252     -0.351586
  C       2.426784     -0.125809     -0.141408
  C      -1.342438     -0.409761     -0.247876
  C       1.073615      0.391244     -0.276675
  C      -0.025909     -0.306440      0.523399
  O       1.553319     -1.687809      1.488353
  O       1.701630     -0.408671     -1.269512
  O       0.371331     -1.641050      0.778923
  H       2.277169     -1.109972      0.782540
  H      -2.261206      1.335382      0.636816
  H      -3.020992      0.784894     -0.855969
  H      -1.487782      1.646256     -0.919634
  H       3.360407      0.409550     -0.204846
  H      -1.125666     -0.806283     -1.240690
  H      -1.967821     -1.135486      0.273771
  H       0.887849      1.423121     -0.555672
  H      -0.165624      0.242570      1.468826
17
Coordinates from ORCA-job scan E -27.292106699760
  C      -2.068331      0.924274     -0.351596
  C       2.427206     -0.124766     -0.142544
  C      -1.342325     -0.409867     -0.247836
  C       1.073420      0.391473     -0.276933
  C      -0.025914     -0.306722      0.523528
  O       1.552697     -1.688787      1.489703
  O       1.701616     -0.407771     -1.270541
  O       0.370484     -1.641570      0.779470
  H       2.277252     -1.111633      0.784055
  H      -2.260900      1.335385      0.636796
  H      -3.020546      0.785115     -0.856147
  H      -1.487154      1.646205     -0.919505
  H       3.360757      0.410803     -0.205928
  H      -1.125504     -0.806426     -1.240620
  H      -1.967814     -1.135499      0.273790
  H       0.886876      1.423295     -0.555782
  H      -0.165871      0.242483      1.468850
17
Coordinates from ORCA-job scan E -27.292113963630
  C      -2.067954      0.924332     -0.351624
  C       2.428074     -0.122838     -0.144886
  C      -1.342011     -0.409868     -0.247979
  C       1.073220      0.391569     -0.276953
  C      -0.025687     -0.307105      0.523783
  O       1.551294     -1.690108      1.492394
  O       1.701596     -0.406277     -1.272213
  O       0.369099     -1.642027      0.780443
  H       2.277767     -1.114989      0.787057
  H      -2.260704      1.335248      0.636813
  H      -3.020078      0.785306     -0.856392
  H      -1.486674      1.646380     -0.919271
  H       3.361502      0.412563     -0.208304
  H      -1.125055     -0.806275     -1.240802
  H      -1.967635     -1.135582      0.273369
  H       0.885067      1.423176     -0.555497
  H      -0.165871      0.242485      1.468824
17
Coordinates from ORCA-job scan E -27.292114607030
  C      -2.068086      0.924321     -0.351585
  C       2.428191     -0.122639     -0.145294
  C      -1.341929     -0.409766     -0.248108
  C       1.073266      0.391393     -0.276769
  C      -0.025629     -0.307061      0.523827
  O       1.551021     -1.689899      1.492734
  O       1.701645     -0.406234     -1.272334
  O       0.368972     -1.641841      0.780616
  H       2.278072     -1.115525      0.787386
  H      -2.260920      1.335069      0.636906
  H      -3.020181      0.785188     -0.856377
  H      -1.486951      1.646559     -0.919142
  H       3.361782      0.412359     -0.208628
  H      -1.124858     -0.805987     -1.240977
  H      -1.967501     -1.135653      0.273063
  H       0.884862      1.422986     -0.555333
  H      -0.165807      0.242721      1.468775
17
Coordinates from ORCA-job scan E -27.292013742210
  C      -2.068681      0.924111     -0.351272
  C       2.427582     -0.122949     -0.144718
  C      -1.341811     -0.409621     -0.248222
  C       1.073684      0.392011     -0.277303
  C      -0.025154     -0.306293      0.523021
  O       1.553517     -1.688186      1.490312
  O       1.702152     -0.406683     -1.271700
  O       0.370717     -1.640864      0.779248
  H       2.273236     -1.117570      0.790323
  H      -2.261195      1.334732      0.637333
  H      -3.020974      0.784525     -0.855566
  H      -1.488202      1.646654     -0.919113
  H       3.361906      0.410850     -0.207379
  H      -1.125070     -0.805703     -1.241218
  H      -1.966751     -1.135833      0.273256
  H       0.886021      1.423591     -0.556416
  H      -0.165025      0.243218      1.468174
17
Coordinates from ORCA-job scan E -27.292022244880
  C      -2.068285      0.924132     -0.351286
  C       2.428003     -0.121886     -0.145891
  C      -1.341691     -0.409729     -0.248183
  C       1.073485      0.392248     -0.277563
  C      -0.025154     -0.306575      0.523152
  O       1.552864     -1.689184      1.491712
  O       1.702117     -0.405751     -1.272757
  O       0.369865     -1.641387      0.779811
  H       2.273334     -1.119312      0.791889
  H      -2.260884      1.334734      0.637309
  H      -3.020516      0.784746     -0.855752
  H      -1.487561      1.646601     -0.918985
  H       3.362244      0.412143     -0.208506
  H      -1.124899     -0.805849     -1.241149
  H      -1.966738     -1.135848      0.273273
  H       0.885038      1.423775     -0.556508
  H      -0.165273      0.243132      1.468196
17
Coordinates from ORCA-job scan E -27.292029144660
  C      -2.067923      0.924184     -0.351326
  C       2.428835     -0.120040     -0.148202
  C      -1.341381     -0.409729     -0.248328
  C       1.073294      0.392337     -0.277552
  C      -0.024935     -0.306936      0.523411
  O       1.551492     -1.690419      1.494361
  O       1.702048     -0.404260     -1.274408
  O       0.368529     -1.641810      0.780778
  H       2.273892     -1.122656      0.794814
  H      -2.260714      1.334594      0.637310
  H      -3.020057      0.784922     -0.856016
  H      -1.487096      1.646772     -0.918762
  H       3.362944      0.413842     -0.210871
  H      -1.124442     -0.805695     -1.241330
  H      -1.966560     -1.135931      0.272849
  H       0.883307      1.423672     -0.556145
  H      -0.165283      0.243144      1.468180
17
Coordinates from ORCA-job scan E -27.292029769800
  C      -2.068054      0.924170     -0.351297
  C       2.428941     -0.119877     -0.148607
  C      -1.341300     -0.409631     -0.248452
  C       1.073339      0.392163     -0.277354
  C      -0.024886     -0.306888      0.523465
  O       1.551249     -1.690176      1.494682
  O       1.702075     -0.404197     -1.274540
  O       0.368403     -1.641620      0.780968
  H       2.274207     -1.123180      0.795090
  H      -2.260938      1.334416      0.637389
  H      -3.020154      0.784800     -0.856020
  H      -1.487364      1.646943     -0.918640
  H       3.363214      0.413606     -0.211188
  H      -1.124240     -0.805418     -1.241496
  H      -1.966431     -1.136003      0.272550
  H       0.883127      1.423499     -0.555931
  H      -0.165238      0.243384      1.468140
17
Coordinates from ORCA-job scan E -27.291950563100
  C      -2.068648      0.923959     -0.350983
  C       2.428347     -0.120186     -0.148032
  C      -1.341184     -0.409488     -0.248565
  C       1.073759      0.392778     -0.277886
  C      -0.024413     -0.306121      0.522662
  O       1.553742     -1.688468      1.492257
  O       1.702585     -0.404650     -1.273904
  O       0.370144     -1.640648      0.779600
  H       2.269350     -1.125203      0.798021
  H      -2.261213      1.334078      0.637819
  H      -3.020946      0.784137     -0.855208
  H      -1.488613      1.647037     -0.918608
  H       3.363346      0.412104     -0.209947
  H      -1.124452     -0.805135     -1.241736
  H      -1.965682     -1.136184      0.272743
  H       0.884285      1.424102     -0.557013
  H      -0.164456      0.243878      1.467542
17
Coordinates from ORCA-job scan E -27.291959070230
  C      -2.068239      0.923977     -0.351004
  C       2.428768     -0.119108     -0.149242
  C      -1.341055     -0.409600     -0.248524
  C       1.073557      0.393027     -0.278145
  C      -0.024407     -0.306405      0.522798
  O       1.553067     -1.689492      1.493701
  O       1.702523     -0.403674     -1.274995
  O       0.369282     -1.641178      0.780187
  H       2.269449     -1.127018      0.799622
  H      -2.260894      1.334082      0.637784
  H      -3.020472      0.784357     -0.855408
  H      -1.487952      1.646977     -0.918486
  H       3.363671      0.413435     -0.211121
  H      -1.124269     -0.805289     -1.241662
  H      -1.965665     -1.136199      0.272763
  H       0.883293      1.424303     -0.557074
  H      -0.164708      0.243794      1.467567
17
Coordinates from ORCA-job scan E -27.291965523350
  C      -2.067890      0.924021     -0.351064
  C       2.429559     -0.117377     -0.151498
  C      -1.340749     -0.409602     -0.248663
  C       1.073377      0.393113     -0.278095
  C      -0.024198     -0.306740      0.523070
  O       1.551759     -1.690639      1.496264
  O       1.702397     -0.402185     -1.276614
  O       0.367997     -1.641564      0.781158
  H       2.270011     -1.130288      0.802401
  H      -2.260750      1.333946      0.637758
  H      -3.020021      0.784510     -0.855699
  H      -1.487498      1.647133     -0.918288
  H       3.364319      0.415046     -0.213450
  H      -1.123804     -0.805148     -1.241831
  H      -1.965491     -1.136282      0.272349
  H       0.881666      1.424228     -0.556604
  H      -0.164733      0.243820      1.467567
17
Coordinates from ORCA-job scan E -27.291966148150
  C      -2.068014      0.924002     -0.351046
  C       2.429666     -0.117223     -0.151937
  C      -1.340663     -0.409509     -0.248784
  C       1.073419      0.392944     -0.277881
  C      -0.024152     -0.306692      0.523141
  O       1.551520     -1.690389      1.496610
  O       1.702395     -0.402073     -1.276783
  O       0.367852     -1.641375      0.781383
  H       2.270335     -1.130856      0.802670
  H      -2.260979      1.333769      0.637821
  H      -3.020104      0.784383     -0.855727
  H      -1.487750      1.647296     -0.918172
  H       3.364588      0.414808     -0.213806
  H      -1.123587     -0.804880     -1.241989
  H      -1.965362     -1.136355      0.272051
  H       0.881489      1.424073     -0.556327
  H      -0.164704      0.244068      1.467538
17
Coordinates from ORCA-job scan E -27.291905628770
  C      -2.068608      0.923791     -0.350730
  C       2.429087     -0.117530     -0.151364
  C      -1.340547     -0.409366     -0.248896
  C       1.073841      0.393556     -0.278410
  C      -0.023680     -0.305928      0.522339
  O       1.554010     -1.688688      1.494180
  O       1.702908     -0.402530     -1.276146
  O       0.369590     -1.640409      0.780014
  H       2.265459     -1.132855      0.805597
  H      -2.261254      1.333429      0.638252
  H      -3.020895      0.783720     -0.854914
  H      -1.488998      1.647389     -0.918138
  H       3.364728      0.413314     -0.212572
  H      -1.123800     -0.804598     -1.242229
  H      -1.964614     -1.136537      0.272244
  H       0.882645      1.424673     -0.557408
  H      -0.163922      0.244558      1.466942
17
Coordinates from ORCA-job scan E -27.291914284050
  C      -2.068185      0.923806     -0.350759
  C       2.429510     -0.116430     -0.152616
  C      -1.340409     -0.409482     -0.248853
  C       1.073637      0.393819     -0.278672
  C      -0.023667     -0.306212      0.522481
  O       1.553300     -1.689748      1.495679
  O       1.702821     -0.401508     -1.277273
  O       0.368718     -1.640946      0.780624
  H       2.265556     -1.134757      0.807250
  H      -2.260925      1.333435      0.638208
  H      -3.020404      0.783939     -0.855126
  H      -1.488317      1.647323     -0.918023
  H       3.365040      0.414695     -0.213803
  H      -1.123604     -0.804760     -1.242151
  H      -1.964591     -1.136552      0.272268
  H       0.881644      1.424894     -0.557441
  H      -0.164175      0.244476      1.466968
17
Coordinates from ORCA-job scan E -27.291920765730
  C      -2.067833      0.923844     -0.350835
  C       2.430296     -0.114726     -0.154911
  C      -1.340093     -0.409486     -0.248992
  C       1.073464      0.393912     -0.278600
  C      -0.023454     -0.306536      0.522764
  O       1.551972     -1.690887      1.498285
  O       1.702640     -0.399967     -1.278922
  O       0.367440     -1.641320      0.781617
  H       2.266136     -1.138114      0.810048
  H      -2.260790      1.333300      0.638160
  H      -3.019944      0.784078     -0.855442
  H      -1.487858      1.647470     -0.917841
  H       3.365659      0.416326     -0.216209
  H      -1.123118     -0.804624     -1.242315
  H      -1.964411     -1.136636      0.271852
  H       0.880052      1.424848     -0.556876
  H      -0.164207      0.244510      1.466979
17
Coordinates from ORCA-job scan E -27.291921441330
  C      -2.067951      0.923822     -0.350826
  C       2.430415     -0.114556     -0.155413
  C      -1.339998     -0.409393     -0.249117
  C       1.073505      0.393745     -0.278370
  C      -0.023406     -0.306489      0.522847
  O       1.551703     -1.690641      1.498695
  O       1.702614     -0.399802     -1.279139
  O       0.367272     -1.641130      0.781873
  H       2.266487     -1.138781      0.810369
  H      -2.261026      1.333117      0.638213
  H      -3.020016      0.783944     -0.855488
  H      -1.488102      1.647634     -0.917727
  H       3.365932      0.416112     -0.216641
  H      -1.122880     -0.804353     -1.242476
  H      -1.964274     -1.136713      0.271542
  H       0.879860      1.424707     -0.556538
  H      -0.164186      0.244767      1.466955
17
Coordinates from ORCA-job scan E -27.291870766720
  C      -2.067969      0.923604     -0.350362
  C       2.431605     -0.114894     -0.155845
  C      -1.339826     -0.409547     -0.249168
  C       1.074320      0.393646     -0.278749
  C      -0.023028     -0.306662      0.522448
  O       1.553484     -1.688705      1.497493
  O       1.703580     -0.399792     -1.279625
  O       0.368582     -1.641401      0.781051
  H       2.257121     -1.137604      0.812980
  H      -2.260815      1.332644      0.638827
  H      -3.020160      0.783727     -0.854788
  H      -1.488368      1.647617     -0.917258
  H       3.367166      0.415705     -0.217003
  H      -1.122940     -0.804250     -1.242681
  H      -1.963867     -1.137064      0.271497
  H       0.880743      1.424654     -0.556795
  H      -0.163679      0.244312      1.466739
17
Coordinates from ORCA-job scan E -27.291850419320
  C      -2.069315      0.923507     -0.351783
  C       2.429257     -0.112786     -0.152414
  C      -1.340181     -0.408926     -0.248462
  C       1.072858      0.395840     -0.278200
  C      -0.023723     -0.303878      0.523309
  O       1.556662     -1.685297      1.497708
  O       1.703783     -0.398142     -1.277549
  O       0.368706     -1.637877      0.784393
  H       2.268454     -1.160613      0.800976
  H      -2.262739      1.333834      0.636759
  H      -3.021260      0.782155     -0.856259
  H      -1.490120      1.647149     -0.919577
  H       3.365430      0.416840     -0.211440
  H      -1.122753     -0.804938     -1.241332
  H      -1.963724     -1.136159      0.273175
  H       0.879551      1.426687     -0.557166
  H      -0.164937      0.248594      1.466623
17
Coordinates from ORCA-job scan E -27.291886106970
  C      -2.068585      0.923362     -0.350999
  C       2.428592     -0.115884     -0.158583
  C      -1.339453     -0.409212     -0.249719
  C       1.073028      0.395442     -0.278683
  C      -0.023049     -0.305277      0.522211
  O       1.554023     -1.687748      1.500582
  O       1.699892     -0.396044     -1.282577
  O       0.369214     -1.639488      0.781278
  H       2.267005     -1.146275      0.818059
  H      -2.262035      1.332158      0.638171
  H      -3.020514      0.782777     -0.855722
  H      -1.489375      1.647889     -0.917657
  H       3.365796      0.411842     -0.217806
  H      -1.122018     -0.803709     -1.243192
  H      -1.962949     -1.137257      0.270838
  H       0.880734      1.427544     -0.553707
  H      -0.164356      0.245870      1.466269
17
Coordinates from ORCA-job scan E -27.291890383170
  C      -2.067216      0.923725     -0.350589
  C       2.431811     -0.111245     -0.157920
  C      -1.339503     -0.409611     -0.249085
  C       1.073862      0.394209     -0.278774
  C      -0.022797     -0.306832      0.522653
  O       1.551453     -1.691378      1.499460
  O       1.703362     -0.398692     -1.280165
  O       0.366334     -1.641788      0.782246
  H       2.259969     -1.144729      0.816412
  H      -2.260124      1.332954      0.638509
  H      -3.019349      0.784054     -0.855189
  H      -1.487276      1.647493     -0.917470
  H       3.366974      0.419954     -0.219872
  H      -1.122605     -0.804545     -1.242505
  H      -1.963734     -1.136901      0.271682
  H       0.878418      1.424799     -0.557314
  H      -0.163630      0.244523      1.466684
17
Coordinates from ORCA-job scan E -27.291894863840
  C      -2.067887      0.923517     -0.350950
  C       2.430693     -0.112515     -0.158829
  C      -1.339383     -0.409397     -0.249319
  C       1.073547      0.394892     -0.278411
  C      -0.022844     -0.306043      0.522745
  O       1.552190     -1.689748      1.500670
  O       1.701949     -0.396866     -1.281518
  O       0.367092     -1.640589      0.782674
  H       2.263540     -1.148186      0.816515
  H      -2.261183      1.332638      0.638116
  H      -3.019867      0.783275     -0.855683
  H      -1.488322      1.647638     -0.917757
  H       3.366826      0.416926     -0.219472
  H      -1.122091     -0.804208     -1.242701
  H      -1.963302     -1.137040      0.271302
  H       0.879033      1.426138     -0.555227
  H      -0.164040      0.245558      1.466607
17
Coordinates from ORCA-job scan E -27.291895479240
  C      -2.068010      0.923441     -0.351040
  C       2.430650     -0.112509     -0.159587
  C      -1.339271     -0.409340     -0.249395
  C       1.073523      0.394972     -0.278193
  C      -0.022803     -0.305924      0.522877
  O       1.552084     -1.689536      1.501280
  O       1.701678     -0.396164     -1.282158
  O       0.366990     -1.640367      0.783115
  H       2.264045     -1.149201      0.816792
  H      -2.261468      1.332484      0.638026
  H      -3.019921      0.783038     -0.855859
  H      -1.488547      1.647700     -0.917775
  H       3.367114      0.416286     -0.219774
  H      -1.121800     -0.804061     -1.242774
  H      -1.963127     -1.137118      0.271106
  H       0.878936      1.426370     -0.554478
  H      -0.164123      0.245919      1.466598
17
Coordinates from ORCA-job scan E -27.291862139330
  C      -2.068033      0.923221     -0.350573
  C       2.431839     -0.112844     -0.160019
  C      -1.339102     -0.409495     -0.249448
  C       1.074338      0.394873     -0.278571
  C      -0.022427     -0.306098      0.522476
  O       1.553860     -1.687619      1.500061
  O       1.702645     -0.396159     -1.282636
  O       0.368297     -1.640638      0.782283
  H       2.254722     -1.147994      0.819415
  H      -2.261261      1.332008      0.638643
  H      -3.020070      0.782820     -0.855156
  H      -1.488819      1.647684     -0.917303
  H       3.368345      0.415883     -0.220140
  H      -1.121863     -0.803955     -1.242981
  H      -1.962721     -1.137471      0.271059
  H       0.879818      1.426314     -0.554736
  H      -0.163617      0.245460      1.466385
17
Coordinates from ORCA-job scan E -27.291863241790
  C      -2.068707      0.923311     -0.351417
  C       2.430337     -0.110587     -0.157906
  C      -1.339306     -0.409033     -0.249001
  C       1.073148      0.396286     -0.278576
  C      -0.022811     -0.304393      0.522908
  O       1.555649     -1.686700      1.500430
  O       1.702976     -0.395387     -1.281199
  O       0.367990     -1.638591      0.784237
  H       2.262726     -1.163649      0.813304
  H      -2.262198      1.332924      0.637406
  H      -3.020630      0.782094     -0.855981
  H      -1.489688      1.647474     -0.918738
  H       3.366965      0.417917     -0.216926
  H      -1.121844     -0.804349     -1.242143
  H      -1.962623     -1.136764      0.272190
  H       0.878195      1.427324     -0.556028
  H      -0.164229      0.248113      1.466200
17
Coordinates from ORCA-job scan E -27.291878727330
  C      -2.068038      0.923338     -0.350840
  C       2.429391     -0.111772     -0.163279
  C      -1.338630     -0.409105     -0.250076
  C       1.072763      0.396366     -0.279375
  C      -0.022191     -0.305299      0.521885
  O       1.553280     -1.690016      1.503690
  O       1.699696     -0.393344     -1.285458
  O       0.367933     -1.639737      0.781722
  H       2.264282     -1.156027      0.829144
  H      -2.261528      1.331724      0.638490
  H      -3.019956      0.782720     -0.855579
  H      -1.489025      1.648216     -0.917265
  H       3.366747      0.415274     -0.222444
  H      -1.121209     -0.803231     -1.243701
  H      -1.961824     -1.137493      0.270329
  H       0.877927      1.428147     -0.554187
  H      -0.163666      0.246229      1.465705
17
Coordinates from ORCA-job scan E -27.291885825910
  C      -2.067210      0.923481     -0.350647
  C       2.432069     -0.108333     -0.162872
  C      -1.338638     -0.409415     -0.249546
  C       1.073636      0.395582     -0.279120
  C      -0.021975     -0.306299      0.522422
  O       1.551146     -1.691849      1.503208
  O       1.702437     -0.394843     -1.283750
  O       0.365721     -1.641152      0.783000
  H       2.258763     -1.156384      0.826276
  H      -2.260398      1.332264      0.638578
  H      -3.019244      0.783331     -0.855308
  H      -1.487777      1.647840     -0.917302
  H       3.368030      0.421080     -0.223953
  H      -1.121494     -0.803925     -1.243080
  H      -1.962363     -1.137284      0.270988
  H       0.876511      1.426330     -0.556250
  H      -0.163264      0.245564      1.466115
17
Coordinates from ORCA-job scan E -27.291887535790
  C      -2.067793      0.923274     -0.350917
  C       2.431611     -0.109296     -0.163602
  C      -1.338533     -0.409262     -0.249701
  C       1.073628      0.395961     -0.278645
  C      -0.021980     -0.305755      0.522624
  O       1.551545     -1.690205      1.504195
  O       1.701680     -0.393421     -1.284764
  O       0.366240     -1.640244      0.783620
  H       2.260494     -1.158880      0.825397
  H      -2.261313      1.331966      0.638279
  H      -3.019701      0.782627     -0.855684
  H      -1.488705      1.647943     -0.917518
  H       3.368315      0.418735     -0.223687
  H      -1.121032     -0.803656     -1.243202
  H      -1.962041     -1.137429      0.270655
  H       0.877116      1.427207     -0.554416
  H      -0.163581      0.246425      1.466128
17
Coordinates from ORCA-job scan E -27.291887933220
  C      -2.067935      0.923194     -0.350971
  C       2.431566     -0.109378     -0.164288
  C      -1.338436     -0.409197     -0.249792
  C       1.073612      0.395971     -0.278442
  C      -0.021958     -0.305649      0.522734
  O       1.551504     -1.689851      1.504751
  O       1.701477     -0.392806     -1.285384
  O       0.366223     -1.640024      0.784039
  H       2.260818     -1.159597      0.825496
  H      -2.261613      1.331771      0.638242
  H      -3.019775      0.782390     -0.855821
  H      -1.488959      1.648028     -0.917480
  H       3.368648      0.417942     -0.223815
  H      -1.120751     -0.803465     -1.243303
  H      -1.961865     -1.137522      0.270432
  H       0.877053      1.427370     -0.553708
  H      -0.163658      0.246816      1.466071
17
Coordinates from ORCA-job scan E -27.291871907880
  C      -2.068593      0.923044     -0.350540
  C       2.431580     -0.110559     -0.163319
  C      -1.338577     -0.409113     -0.250000
  C       1.074131      0.395917     -0.278784
  C      -0.021693     -0.305240      0.521791
  O       1.554486     -1.686799      1.502142
  O       1.702144     -0.393491     -1.285108
  O       0.368163     -1.639274      0.782472
  H       2.255286     -1.159397      0.827678
  H      -2.261846      1.331390      0.638851
  H      -3.020673      0.781996     -0.854870
  H      -1.490190      1.648171     -0.917260
  H       3.369164      0.415955     -0.222075
  H      -1.121324     -0.803142     -1.243700
  H      -1.961458     -1.137739      0.270460
  H       0.878423      1.427396     -0.554357
  H      -0.163072      0.246877      1.465379
17
Coordinates from ORCA-job scan E -27.291887016070
  C      -2.067689      0.923263     -0.350517
  C       2.432419     -0.107182     -0.163884
  C      -1.338379     -0.409229     -0.249690
  C       1.073818      0.396179     -0.279442
  C      -0.021573     -0.305669      0.522039
  O       1.553005     -1.689856      1.503442
  O       1.703150     -0.393516     -1.284809
  O       0.366493     -1.640294      0.783368
  H       2.254790     -1.163902      0.828872
  H      -2.260856      1.331857      0.638790
  H      -3.019769      0.782618     -0.854954
  H      -1.488814      1.648004     -0.917264
  H       3.368984      0.421074     -0.223749
  H      -1.121266     -0.803571     -1.243298
  H      -1.961524     -1.137463      0.270986
  H       0.876166      1.426906     -0.556585
  H      -0.163005      0.246772      1.465456
17
Coordinates from ORCA-job scan E -27.291887855510
  C      -2.066738      0.923167     -0.350165
  C       2.432479     -0.106646     -0.170931
  C      -1.337318     -0.409374     -0.250623
  C       1.073577      0.396841     -0.280202
  C      -0.020782     -0.306623      0.521687
  O       1.549214     -1.693803      1.509549
  O       1.700138     -0.389678     -1.290131
  O       0.365639     -1.641733      0.782488
  H       2.255169     -1.161694      0.844221
  H      -2.260279      1.330598      0.639545
  H      -3.018635      0.783003     -0.855087
  H      -1.487769      1.648642     -0.915873
  H       3.369414      0.420604     -0.231343
  H      -1.119917     -0.802615     -1.244609
  H      -1.960483     -1.138258      0.269092
  H       0.875008      1.428254     -0.554181
  H      -0.162766      0.245307      1.465322
17
Coordinates from ORCA-job scan E -27.291886619210
  C      -2.068189      0.922867     -0.351560
  C       2.431307     -0.104983     -0.169897
  C      -1.337345     -0.408804     -0.250187
  C       1.072821      0.398816     -0.279038
  C      -0.021161     -0.304150      0.522877
  O       1.550856     -1.689792      1.511808
  O       1.699967     -0.386785     -1.289666
  O       0.365588     -1.638347      0.786114
  H       2.264030     -1.183043      0.834488
  H      -2.262595      1.331208      0.637603
  H      -3.019731      0.781093     -0.856714
  H      -1.489841      1.648361     -0.917859
  H       3.369057      0.420654     -0.228543
  H      -1.119100     -0.802923     -1.243639
  H      -1.960096     -1.137762      0.269923
  H       0.874278      1.430379     -0.552473
  H      -0.163895      0.249201      1.465524
17
Coordinates from ORCA-job scan E -27.291900017430
  C      -2.067677      0.923026     -0.350828
  C       2.432782     -0.105631     -0.168537
  C      -1.337662     -0.409117     -0.250127
  C       1.073761      0.396989     -0.278953
  C      -0.021084     -0.305488      0.522466
  O       1.550410     -1.690507      1.508425
  O       1.701634     -0.390008     -1.287999
  O       0.365424     -1.639900      0.784659
  H       2.257214     -1.170701      0.834331
  H      -2.261440      1.331205      0.638531
  H      -3.019501      0.781996     -0.855654
  H      -1.489068      1.648301     -0.917155
  H       3.369923      0.421228     -0.228239
  H      -1.119969     -0.803018     -1.243782
  H      -1.960755     -1.137852      0.269926
  H       0.875007      1.428135     -0.553825
  H      -0.163048      0.247331      1.465525
17
Coordinates from ORCA-job scan E -27.291900442350
  C      -2.067710      0.922995     -0.350815
  C       2.432544     -0.105830     -0.169307
  C      -1.337564     -0.409076     -0.250261
  C       1.073638      0.397020     -0.278984
  C      -0.021068     -0.305473      0.522433
  O       1.550373     -1.690595      1.508948
  O       1.701218     -0.389479     -1.288738
  O       0.365479     -1.639877      0.784688
  H       2.257751     -1.170541      0.835646
  H      -2.261576      1.331009      0.638592
  H      -3.019488      0.781928     -0.855718
  H      -1.489151      1.648419     -0.917006
  H       3.370011      0.420436     -0.228525
  H      -1.119752     -0.802816     -1.243953
  H      -1.960579     -1.137948      0.269673
  H       0.874918      1.428343     -0.553358
  H      -0.163094      0.247473      1.465447
17
Coordinates from ORCA-job scan E -27.291900612070
  C      -2.067788      0.922968     -0.350814
  C       2.432544     -0.105782     -0.169546
  C      -1.337548     -0.409046     -0.250290
  C       1.073637      0.396957     -0.278904
  C      -0.021082     -0.305430      0.522469
  O       1.550429     -1.690459      1.509000
  O       1.701243     -0.389311     -1.288950
  O       0.365401     -1.639798      0.784930
  H       2.257837     -1.170698      0.835504
  H      -2.261708      1.330934      0.638602
  H      -3.019543      0.781838     -0.855743
  H      -1.489281      1.648461     -0.916974
  H       3.370250      0.420059     -0.228324
  H      -1.119659     -0.802731     -1.243987
  H      -1.960517     -1.137988      0.269601
  H       0.874837      1.428308     -0.553197
  H      -0.163102      0.247707      1.465384
17
Coordinates from ORCA-job scan E -27.291862384340
  C      -2.067161      0.923113     -0.351226
  C       2.432524     -0.104662     -0.170466
  C      -1.337413     -0.409125     -0.250093
  C       1.073143      0.397007     -0.278580
  C      -0.021335     -0.305819      0.523366
  O       1.547590     -1.693349      1.511490
  O       1.700605     -0.388661     -1.289213
  O       0.363558     -1.640507      0.786423
  H       2.263111     -1.170906      0.833430
  H      -2.261487      1.331300      0.638020
  H      -3.018688      0.782216     -0.856651
  H      -1.488108      1.648326     -0.917186
  H       3.369755      0.421943     -0.229978
  H      -1.119113     -0.803038     -1.243610
  H      -1.960905     -1.137780      0.269574
  H       0.873535      1.428281     -0.552580
  H      -0.163662      0.247650      1.466041
17
Coordinates from ORCA-job scan E -27.291876816690
  C      -2.068010      0.922902     -0.351180
  C       2.431895     -0.107640     -0.169934
  C      -1.337616     -0.409022     -0.250370
  C       1.073492      0.396586     -0.277943
  C      -0.021467     -0.305468      0.523151
  O       1.549037     -1.690575      1.509984
  O       1.699953     -0.388778     -1.289446
  O       0.364913     -1.639629      0.785803
  H       2.263033     -1.166101      0.831885
  H      -2.262406      1.330826      0.638160
  H      -3.019541      0.781640     -0.856500
  H      -1.489406      1.648496     -0.917100
  H       3.370237      0.417068     -0.228027
  H      -1.119179     -0.802603     -1.243988
  H      -1.960847     -1.138069      0.269085
  H       0.875532      1.428480     -0.550706
  H      -0.163670      0.247877      1.465887
17
Coordinates from ORCA-job scan E -27.291869688200
  C      -2.069345      0.922913     -0.351524
  C       2.431713     -0.108188     -0.162394
  C      -1.338768     -0.408776     -0.249395
  C       1.073721      0.395782     -0.277025
  C      -0.022410     -0.304146      0.523603
  O       1.553756     -1.685740      1.503048
  O       1.703448     -0.392710     -1.283933
  O       0.365696     -1.637675      0.787469
  H       2.262794     -1.169001      0.813898
  H      -2.263486      1.331981      0.637398
  H      -3.021015      0.780922     -0.856371
  H      -1.491007      1.647902     -0.918497
  H       3.370421      0.416267     -0.218358
  H      -1.120477     -0.803426     -1.242617
  H      -1.961786     -1.137328      0.271050
  H       0.876680      1.426910     -0.553380
  H      -0.163985      0.250304      1.465788
17
Coordinates from ORCA-job scan E -27.291877451810
  C      -2.067868      0.923142     -0.350169
  C       2.432850     -0.109234     -0.165022
  C      -1.338481     -0.409303     -0.249982
  C       1.074341      0.394191     -0.278346
  C      -0.021877     -0.306489      0.522455
  O       1.551374     -1.690434      1.502507
  O       1.703086     -0.394411     -1.285590
  O       0.365352     -1.640994      0.784238
  H       2.254893     -1.149891      0.826078
  H      -2.261343      1.331116      0.639336
  H      -3.019805      0.782662     -0.854927
  H      -1.488980      1.648315     -0.916367
  H       3.371057      0.416189     -0.222377
  H      -1.120874     -0.802911     -1.243768
  H      -1.961809     -1.137970      0.269918
  H       0.876902      1.425257     -0.554713
  H      -0.162870      0.246755      1.465490
17
Coordinates from ORCA-job scan E -27.291885933230
  C      -2.068203      0.922983     -0.350921
  C       2.431297     -0.108827     -0.167122
  C      -1.338025     -0.409041     -0.250155
  C       1.073371      0.396270     -0.278532
  C      -0.021814     -0.305300      0.522798
  O       1.551063     -1.690130      1.506933
  O       1.700697     -0.390699     -1.287819
  O       0.365697     -1.639632      0.785188
  H       2.262158     -1.162094      0.828551
  H      -2.262349      1.331024      0.638420
  H      -3.019842      0.781859     -0.856066
  H      -1.489514      1.648405     -0.916984
  H       3.369805      0.415886     -0.224278
  H      -1.119874     -0.802783     -1.243773
  H      -1.961087     -1.137941      0.269684
  H       0.876303      1.427937     -0.552791
  H      -0.163733      0.248074      1.465629
17
Coordinates from ORCA-job scan E -27.291888083380
  C      -2.068294      0.923035     -0.350826
  C       2.431797     -0.108673     -0.165301
  C      -1.338309     -0.409080     -0.249910
  C       1.073679      0.395772     -0.278365
  C      -0.021942     -0.305350      0.522833
  O       1.551649     -1.689544      1.504997
  O       1.701920     -0.392249     -1.286182
  O       0.365606     -1.639640      0.785289
  H       2.260432     -1.160652      0.824864
  H      -2.262242      1.331298      0.638464
  H      -3.020025      0.781963     -0.855811
  H      -1.489566      1.648253     -0.917109
  H       3.370065      0.416536     -0.222566
  H      -1.120351     -0.803026     -1.243489
  H      -1.961446     -1.137798      0.270128
  H       0.876547      1.427066     -0.553895
  H      -0.163570      0.248079      1.465638
17
Coordinates from ORCA-job scan E -27.291888210070
  C      -2.068244      0.923045     -0.350770
  C       2.431760     -0.108837     -0.165335
  C      -1.338295     -0.409099     -0.249946
  C       1.073679      0.395786     -0.278479
  C      -0.021918     -0.305409      0.522756
  O       1.551576     -1.689686      1.505047
  O       1.701794     -0.392328     -1.286222
  O       0.365697     -1.639737      0.785034
  H       2.260301     -1.159966      0.825498
  H      -2.262183      1.331242      0.638549
  H      -3.019977      0.782041     -0.855769
  H      -1.489485      1.648283     -0.916995
  H       3.369958      0.416495     -0.222782
  H      -1.120380     -0.802996     -1.243553
  H      -1.961433     -1.137827      0.270069
  H       0.876649      1.427099     -0.553978
  H      -0.163550      0.247884      1.465638
17
Coordinates from ORCA-job scan E -27.291888210070
  C      -2.068244      0.923045     -0.350770
  C       2.431760     -0.108837     -0.165335
  C      -1.338295     -0.409099     -0.249946
  C       1.073679      0.395786     -0.278479
  C      -0.021918     -0.305409      0.522756
  O       1.551576     -1.689686      1.505047
  O       1.701794     -0.392328     -1.286222
  O       0.365697     -1.639737      0.785034
  H       2.260301     -1.159966      0.825498
  H      -2.262183      1.331242      0.638549
  H      -3.019977      0.782041     -0.855769
  H      -1.489485      1.648283     -0.916995
  H       3.369958      0.416495     -0.222782
  H      -1.120380     -0.802996     -1.243553
  H      -1.961433     -1.137827      0.270069
  H       0.876649      1.427099     -0.553978
  H      -0.163550      0.247884      1.465638
17
Coordinates from ORCA-job scan E -27.291887207250
  C      -2.068204      0.923089     -0.350802
  C       2.431741     -0.108682     -0.165283
  C      -1.338322     -0.409092     -0.249944
  C       1.073607      0.395837     -0.278504
  C      -0.021959     -0.305436      0.522780
  O       1.551088     -1.689991      1.505632
  O       1.701733     -0.392369     -1.286117
  O       0.365550     -1.639812      0.785054
  H       2.261436     -1.160308      0.825148
  H      -2.262167      1.331296      0.638507
  H      -3.019921      0.782137     -0.855846
  H      -1.489377      1.648296     -0.916997
  H       3.369791      0.416901     -0.222983
  H      -1.120410     -0.803013     -1.243543
  H      -1.961511     -1.137782      0.270064
  H       0.876515      1.427111     -0.554082
  H      -0.163639      0.247809      1.465678
