17
Coordinates from ORCA-job freq E -421.412135348709
  C          -0.59163764570150     -1.24248072594897     -0.56255414253210
  C           0.47652844604359     -0.69453826810908      0.31574152983679
  C           1.44076811338194      0.19090715925535     -0.46775743249278
  C          -2.30096581500833      0.63621676824088     -0.15007046416962
  C          -1.96547953301006     -0.76332268421769     -0.50078822577699
  O           3.37125337537159      1.38687565366674     -0.28733729739849
  O          -2.47607533594809     -0.39759968683404      0.78745415052055
  O           2.42261711508896      0.63089484555271      0.44917118009680
  H          -0.34229535904966     -1.98269950315734     -1.30949131633701
  H           0.03502201568229     -0.12265831899765      1.13342688614941
  H           1.05530757883941     -1.50500090077640      0.76595573537368
  H           0.91923260212413      1.05031600046645     -0.90182525629152
  H           1.91910076931280     -0.36894793799499     -1.27524905539161
  H          -1.49378338434790      1.32816075064555      0.06841059296641
  H          -3.21131888371471      1.07658347657017     -0.54125753676989
  H          -2.68534763385826     -1.29218751393534     -1.11490840527662
  H           3.21280657479378      2.27681688557365      0.04699505749299
