15
Coordinates from ORCA-job freq E -270.999674107099
  C       1.597016     -0.458611     -0.738267
  C       1.384503      0.037505      0.672903
  C      -0.061668      0.573944      0.746452
  C      -2.192221     -0.110249     -0.721700
  C      -0.830082     -0.278608     -0.236088
  O      -1.816041     -1.170995      0.133355
  H       0.218453     -0.675406     -0.923745
  H       2.154808     -1.374665     -0.854461
  H       1.855094      0.299142     -1.464994
  H       2.099344      0.814465      0.952784
  H       1.492890     -0.792178      1.371968
  H      -0.098532      1.613623      0.414203
  H      -0.471388      0.512796      1.754654
  H      -2.442817     -0.397952     -1.736305
  H      -2.844752      0.632518     -0.273979
15
Coordinates from ORCA-job freq E -270.999738024820
  C       1.577103     -0.454880     -0.739837
  C       1.381509      0.033728      0.681575
  C      -0.058117      0.584821      0.753134
  C      -2.179893     -0.117484     -0.728223
  C      -0.818127     -0.266088     -0.234829
  O      -1.792965     -1.171600      0.145513
  H       0.228923     -0.662683     -0.917443
  H       2.126030     -1.379268     -0.878092
  H       1.822929      0.307346     -1.474202
  H       2.108248      0.795634      0.967333
  H       1.481100     -0.801365      1.374901
  H      -0.087221      1.623449      0.419394
  H      -0.480626      0.529106      1.756129
  H      -2.425528     -0.419812     -1.740103
  H      -2.838759      0.624423     -0.288471
15
Coordinates from ORCA-job freq E -270.999512599027
  C       1.581968     -0.468772     -0.738204
  C       1.388874      0.054068      0.669400
  C      -0.065665      0.560417      0.764258
  C      -2.177362     -0.100034     -0.734105
  C      -0.824328     -0.287519     -0.229197
  O      -1.824849     -1.172981      0.124410
  H       0.211128     -0.680422     -0.910088
  H       2.131512     -1.395883     -0.845951
  H       1.837542      0.274567     -1.487080
  H       2.091628      0.851364      0.917688
  H       1.531516     -0.756557      1.384034
  H      -0.128657      1.604933      0.454346
  H      -0.466938      0.470270      1.773661
  H      -2.415432     -0.377012     -1.755217
  H      -2.826329      0.648889     -0.291176
15
Coordinates from ORCA-job freq E -270.999491352517
  C       1.573344     -0.460358     -0.739966
  C       1.382127      0.039558      0.677380
  C      -0.060746      0.580058      0.756347
  C      -2.178993     -0.112710     -0.728771
  C      -0.819953     -0.270604     -0.231641
  O      -1.800015     -1.174145      0.138493
  H       0.236872     -0.665750     -0.917871
  H       2.123738     -1.384406     -0.868450
  H       1.826053      0.296725     -1.476209
  H       2.104647      0.809554      0.952954
  H       1.492096     -0.789904      1.376088
  H      -0.098110      1.620173      0.427365
  H      -0.477673      0.515596      1.761202
  H      -2.420145     -0.404937     -1.744603
  H      -2.838633      0.626479     -0.285539
15
Coordinates from ORCA-job freq E -270.999868083616
  C       1.577793     -0.455135     -0.740859
  C       1.379203      0.029828      0.681872
  C      -0.057815      0.589995      0.748103
  C      -2.187819     -0.119443     -0.723268
  C      -0.823987     -0.258984     -0.235254
  O      -1.789463     -1.172452      0.149073
  H       0.251884     -0.660147     -0.929516
  H       2.132471     -1.375686     -0.879667
  H       1.831729      0.312137     -1.467011
  H       2.111088      0.783078      0.977581
  H       1.467587     -0.810348      1.370907
  H      -0.077836      1.626981      0.407911
  H      -0.483773      0.543437      1.750110
  H      -2.434268     -0.422594     -1.734568
  H      -2.852186      0.614662     -0.278637
15
Coordinates from ORCA-job freq E -271.000230704521
  C       1.589921     -0.451405     -0.740545
  C       1.378800      0.023205      0.684948
  C      -0.055549      0.594252      0.739997
  C      -2.199214     -0.122715     -0.718699
  C      -0.831275     -0.249748     -0.240409
  O      -1.784988     -1.169391      0.157925
  H       0.254823     -0.659064     -0.943324
  H       2.148096     -1.369558     -0.885299
  H       1.845842      0.322912     -1.459527
  H       2.114053      0.766501      0.996114
  H       1.453252     -0.822826      1.368493
  H      -0.063470      1.629789      0.394851
  H      -0.488330      0.559760      1.739604
  H      -2.452501     -0.435334     -1.725320
  H      -2.864852      0.608950     -0.272030
15
Coordinates from ORCA-job freq E -271.000331239194
  C       1.602919     -0.449602     -0.738681
  C       1.380286      0.020783      0.687104
  C      -0.053812      0.594481      0.734747
  C      -2.207072     -0.122747     -0.717294
  C      -0.837074     -0.242569     -0.245416
  O      -1.782248     -1.167061      0.164029
  H       0.245056     -0.659232     -0.956529
  H       2.158715     -1.368887     -0.887648
  H       1.860213      0.326262     -1.456137
  H       2.114790      0.761122      1.005977
  H       1.450737     -0.826005      1.370085
  H      -0.056630      1.631168      0.392439
  H      -0.492920      0.563456      1.731779
  H      -2.465722     -0.442785     -1.719869
  H      -2.872630      0.606945     -0.267807
15
Coordinates from ORCA-job freq E -271.000839650359
  C       1.616846     -0.445882     -0.731463
  C       1.376449      0.015306      0.690931
  C      -0.048146      0.602585      0.721624
  C      -2.209626     -0.128092     -0.710551
  C      -0.833216     -0.229106     -0.258156
  O      -1.755077     -1.174709      0.161292
  H       0.210794     -0.635900     -0.982124
  H       2.150388     -1.375919     -0.887950
  H       1.888604      0.328573     -1.443661
  H       2.112535      0.748866      1.022761
  H       1.433425     -0.833840      1.372327
  H      -0.037061      1.640293      0.380537
  H      -0.502433      0.580008      1.712565
  H      -2.477608     -0.450127     -1.709248
  H      -2.881268      0.583273     -0.242106
15
Coordinates from ORCA-job freq E -271.001439021564
  C       1.610607     -0.433807     -0.723876
  C       1.356768     -0.006926      0.700987
  C      -0.034916      0.636493      0.697339
  C      -2.202855     -0.149735     -0.693547
  C      -0.815511     -0.198582     -0.274338
  O      -1.685759     -1.188024      0.162976
  H       0.196316     -0.590542     -1.008138
  H       2.122141     -1.369098     -0.908177
  H       1.895883      0.353242     -1.414257
  H       2.113363      0.685550      1.074603
  H       1.358100     -0.876269      1.359282
  H       0.021171      1.665189      0.331566
  H      -0.517905      0.654868      1.675446
  H      -2.479698     -0.479861     -1.686191
  H      -2.893097      0.522829     -0.196896
15
Coordinates from ORCA-job freq E -271.000665726501
  C       1.597105     -0.434525     -0.732036
  C       1.359269     -0.005779      0.699401
  C      -0.039521      0.633959      0.707486
  C      -2.202444     -0.147559     -0.697904
  C      -0.819122     -0.208190     -0.262131
  O      -1.708174     -1.181146      0.170941
  H       0.235698     -0.613941     -0.985418
  H       2.133907     -1.357622     -0.913458
  H       1.866255      0.359081     -1.423414
  H       2.119110      0.684671      1.069086
  H       1.363551     -0.877984      1.353832
  H       0.010945      1.658883      0.332602
  H      -0.511104      0.653311      1.690585
  H      -2.470606     -0.478954     -1.693328
  H      -2.890261      0.541125     -0.219467
15
Coordinates from ORCA-job freq E -271.000640996379
  C       1.598396     -0.436736     -0.736027
  C       1.363935     -0.002432      0.697122
  C      -0.043737      0.628720      0.713087
  C      -2.207864     -0.143906     -0.700120
  C      -0.826537     -0.215771     -0.255954
  O      -1.728530     -1.177353      0.172301
  H       0.251675     -0.629866     -0.974862
  H       2.151070     -1.353063     -0.910727
  H       1.860331      0.358665     -1.429872
  H       2.122135      0.691322      1.062745
  H       1.374483     -0.874305      1.351911
  H      -0.001077      1.652291      0.335117
  H      -0.505345      0.644986      1.700507
  H      -2.472758     -0.472613     -1.697895
  H      -2.891569      0.555390     -0.230555
15
Coordinates from ORCA-job freq E -271.000648330392
  C       1.598376     -0.435217     -0.735325
  C       1.361231     -0.005300      0.698357
  C      -0.042155      0.632939      0.709599
  C      -2.208110     -0.146813     -0.697303
  C      -0.825045     -0.211698     -0.258228
  O      -1.719869     -1.179235      0.172298
  H       0.251311     -0.623513     -0.979462
  H       2.148871     -1.352093     -0.912561
  H       1.863348      0.361951     -1.425704
  H       2.121783      0.682741      1.070055
  H       1.363861     -0.879761      1.349863
  H       0.006625      1.654876      0.327680
  H      -0.506814      0.655074      1.695537
  H      -2.474717     -0.476026     -1.694343
  H      -2.894088      0.547403     -0.223683
15
Coordinates from ORCA-job freq E -271.000682800104
  C       1.600490     -0.432563     -0.734387
  C       1.356304     -0.010926      0.700557
  C      -0.039882      0.641573      0.702443
  C      -2.211262     -0.152948     -0.690592
  C      -0.824097     -0.203345     -0.263187
  O      -1.703740     -1.183176      0.171112
  H       0.252979     -0.610486     -0.989052
  H       2.148350     -1.350412     -0.914817
  H       1.873258      0.368609     -1.417194
  H       2.121393      0.664746      1.085477
  H       1.342153     -0.890924      1.344592
  H       0.021240      1.659193      0.310797
  H      -0.509100      0.676583      1.685912
  H      -2.481987     -0.481489     -1.686719
  H      -2.901490      0.530894     -0.208165
15
Coordinates from ORCA-job freq E -271.000699660403
  C       1.603101     -0.431169     -0.733427
  C       1.351994     -0.014968      0.702180
  C      -0.038459      0.649064      0.696259
  C      -2.214864     -0.158711     -0.684099
  C      -0.823463     -0.194763     -0.269254
  O      -1.687446     -1.187449      0.167146
  H       0.254236     -0.594933     -0.999053
  H       2.145453     -1.352145     -0.914563
  H       1.887179      0.371739     -1.409692
  H       2.120390      0.650835      1.097474
  H       1.323972     -0.898802      1.340594
  H       0.033050      1.663195      0.297290
  H      -0.511222      0.693921      1.677612
  H      -2.490364     -0.484700     -1.679752
  H      -2.908951      0.514215     -0.191934
15
Coordinates from ORCA-job freq E -271.000710195339
  C       1.604320     -0.431369     -0.732882
  C       1.350047     -0.015976      0.702694
  C      -0.038288      0.652367      0.693690
  C      -2.216799     -0.161600     -0.680863
  C      -0.822927     -0.189657     -0.273612
  O      -1.677919     -1.190164      0.162802
  H       0.255034     -0.584254     -1.004891
  H       2.140549     -1.356136     -0.912761
  H       1.897722      0.370448     -1.406442
  H       2.119428      0.646832      1.101005
  H       1.317018     -0.900531      1.339901
  H       0.037411      1.665643      0.293211
  H      -0.512710      0.699827      1.674095
  H      -2.495409     -0.484901     -1.676543
  H      -2.912869      0.504799     -0.182626
15
Coordinates from ORCA-job freq E -271.000722428514
  C       1.605478     -0.432152     -0.732336
  C       1.348387     -0.016192      0.702941
  C      -0.038610      0.655112      0.691503
  C      -2.218763     -0.164205     -0.677757
  C      -0.822329     -0.184239     -0.278755
  O      -1.668117     -1.193093      0.157083
  H       0.256414     -0.572607     -1.011189
  H       2.133207     -1.362213     -0.909920
  H       1.910653      0.367067     -1.403718
  H       2.118076      0.645523      1.102409
  H       1.312274     -0.900467      1.340302
  H       0.040251      1.668427      0.291658
  H      -0.514757      0.703044      1.671031
  H      -2.500910     -0.483976     -1.673608
  H      -2.916647      0.495300     -0.172865
15
Coordinates from ORCA-job freq E -271.000705321304
  C       1.606218     -0.432926     -0.732034
  C       1.348012     -0.015563      0.702812
  C      -0.039157      0.655719      0.690819
  C      -2.219684     -0.164940     -0.676551
  C      -0.822062     -0.181860     -0.281556
  O      -1.663981     -1.194574      0.153559
  H       0.257039     -0.567214     -1.014510
  H       2.128269     -1.366533     -0.907795
  H       1.918397      0.363908     -1.402955
  H       2.117124      0.647420      1.101184
  H       1.312346     -0.898834      1.341475
  H       0.040040      1.669879      0.293156
  H      -0.516156      0.701937      1.670035
  H      -2.503683     -0.482489     -1.672607
  H      -2.918114      0.491399     -0.168252
15
Coordinates from ORCA-job freq E -271.000709367684
  C       1.606803     -0.433819     -0.731787
  C       1.348152     -0.014370      0.702511
  C      -0.039896      0.655533      0.690737
  C      -2.220257     -0.165033     -0.675981
  C      -0.821829     -0.180416     -0.283745
  O      -1.661493     -1.195794      0.150285
  H       0.257376     -0.563429     -1.017134
  H       2.123205     -1.370938     -0.905600
  H       1.925271      0.360229     -1.402972
  H       2.116290      0.651084      1.098654
  H       1.314465     -0.896190      1.343188
  H       0.038428      1.670955      0.296185
  H      -0.517478      0.698804      1.669840
  H      -2.505608     -0.480427     -1.672364
  H      -2.918820      0.489139     -0.165038
15
Coordinates from ORCA-job freq E -271.000730390393
  C       1.606893     -0.434272     -0.731729
  C       1.348612     -0.013447      0.702248
  C      -0.040343      0.654830      0.691220
  C      -2.220248     -0.164581     -0.676277
  C      -0.821791     -0.180552     -0.284108
  O      -1.661776     -1.196087      0.149153
  H       0.257296     -0.563052     -1.017602
  H       2.121067     -1.372783     -0.904612
  H       1.927370      0.358375     -1.403561
  H       2.116055      0.653845      1.096599
  H       1.316924     -0.894327      1.344237
  H       0.036687      1.671049      0.298505
  H      -0.517826      0.696029      1.670470
  H      -2.505706     -0.479159     -1.672884
  H      -2.918606      0.489460     -0.164880
15
Coordinates from ORCA-job freq E -271.000721160710
  C       1.606871     -0.434313     -0.731777
  C       1.348960     -0.013132      0.702139
  C      -0.040455      0.654292      0.691612
  C      -2.220105     -0.164167     -0.676696
  C      -0.821903     -0.181187     -0.283643
  O      -1.662959     -1.195882      0.149404
  H       0.257080     -0.564129     -1.017063
  H       2.121286     -1.372714     -0.904567
  H       1.926746      0.358196     -1.404044
  H       2.116148      0.654825      1.095851
  H       1.318196     -0.893779      1.344498
  H       0.035812      1.670710      0.299271
  H      -0.517635      0.694866      1.671037
  H      -2.505204     -0.478829     -1.673374
  H      -2.918229      0.490572     -0.165870
15
Coordinates from ORCA-job freq E -271.000724884608
  C       1.606852     -0.434339     -0.731826
  C       1.349256     -0.012876      0.702045
  C      -0.040541      0.653817      0.691956
  C      -2.219981     -0.163809     -0.677062
  C      -0.822003     -0.181758     -0.283226
  O      -1.664017     -1.195693      0.149642
  H       0.256884     -0.565083     -1.016554
  H       2.121532     -1.372608     -0.904532
  H       1.926159      0.358076     -1.404464
  H       2.116211      0.655653      1.095217
  H       1.319286     -0.893330      1.344701
  H       0.035074      1.670389      0.299904
  H      -0.517437      0.693887      1.671543
  H      -2.504775     -0.478568     -1.673798
  H      -2.917893      0.491571     -0.166767
15
Coordinates from ORCA-job freq E -271.000723036578
  C       1.606834     -0.434380     -0.731866
  C       1.349515     -0.012633      0.701960
  C      -0.040627      0.653399      0.692264
  C      -2.219882     -0.163503     -0.677383
  C      -0.822093     -0.182231     -0.282897
  O      -1.664905     -1.195546      0.149795
  H       0.256726     -0.565859     -1.016118
  H       2.121687     -1.372577     -0.904471
  H       1.925705      0.357914     -1.404846
  H       2.116266      0.656425      1.094630
  H       1.320273     -0.892899      1.344907
  H       0.034418      1.670131      0.300510
  H      -0.517270      0.692990      1.671990
  H      -2.504430     -0.478310     -1.674175
  H      -2.917610      0.492405     -0.167521
15
Coordinates from ORCA-job freq E -271.000730647406
  C       1.606821     -0.434415     -0.731908
  C       1.349729     -0.012433      0.701882
  C      -0.040692      0.653041      0.692519
  C      -2.219793     -0.163241     -0.677650
  C      -0.822165     -0.182635     -0.282618
  O      -1.665664     -1.195406      0.149944
  H       0.256594     -0.566523     -1.015746
  H       2.121839     -1.372539     -0.904421
  H       1.925317      0.357782     -1.405169
  H       2.116299      0.657078      1.094136
  H       1.321087     -0.892534      1.345078
  H       0.033851      1.669902      0.301024
  H      -0.517114      0.692224      1.672365
  H      -2.504134     -0.478093     -1.674486
  H      -2.917367      0.493120     -0.168171
15
Coordinates from ORCA-job freq E -271.000733484811
  C       1.606774     -0.434440     -0.731955
  C       1.349934     -0.012263      0.701820
  C      -0.040750      0.652709      0.692782
  C      -2.219691     -0.163000     -0.677920
  C      -0.822235     -0.183028     -0.282309
  O      -1.666421     -1.195248      0.150148
  H       0.256493     -0.567188     -1.015330
  H       2.122042     -1.372437     -0.904421
  H       1.924795      0.357711     -1.405495
  H       2.116368      0.657627      1.093702
  H       1.321843     -0.892238      1.345206
  H       0.033338      1.669677      0.301474
  H      -0.516966      0.691549      1.672744
  H      -2.503794     -0.477948     -1.674794
  H      -2.917123      0.493846     -0.168872
15
Coordinates from ORCA-job freq E -271.000730865634
  C       1.606755     -0.434462     -0.731989
  C       1.350114     -0.012113      0.701763
  C      -0.040797      0.652408      0.692996
  C      -2.219618     -0.162785     -0.678146
  C      -0.822303     -0.183379     -0.282061
  O      -1.667084     -1.195124      0.150299
  H       0.256404     -0.567772     -1.014986
  H       2.122243     -1.372352     -0.904402
  H       1.924376      0.357646     -1.405762
  H       2.116407      0.658124      1.093314
  H       1.322498     -0.891966      1.345330
  H       0.032903      1.669463      0.301862
  H      -0.516835      0.690960      1.673056
  H      -2.503542     -0.477795     -1.675050
  H      -2.916914      0.494474     -0.169446
15
Coordinates from ORCA-job freq E -271.000730539841
  C       1.606767     -0.434492     -0.732014
  C       1.350260     -0.011973      0.701707
  C      -0.040848      0.652157      0.693157
  C      -2.219574     -0.162609     -0.678313
  C      -0.822359     -0.183650     -0.281894
  O      -1.667597     -1.195040      0.150374
  H       0.256311     -0.568200     -1.014754
  H       2.122347     -1.372346     -0.904334
  H       1.924172      0.357536     -1.405974
  H       2.116417      0.658591      1.092963
  H       1.323069     -0.891709      1.345448
  H       0.032511      1.669316      0.302217
  H      -0.516734      0.690420      1.673302
  H      -2.503373     -0.477625     -1.675250
  H      -2.916762      0.494952     -0.169856
15
Coordinates from ORCA-job freq E -271.000727163080
  C       1.606775     -0.434509     -0.732032
  C       1.350389     -0.011862      0.701670
  C      -0.040882      0.651951      0.693297
  C      -2.219531     -0.162458     -0.678465
  C      -0.822402     -0.183884     -0.281746
  O      -1.668037     -1.194961      0.150447
  H       0.256226     -0.568588     -1.014526
  H       2.122460     -1.372316     -0.904299
  H       1.923937      0.357469     -1.406164
  H       2.116444      0.658956      1.092693
  H       1.323539     -0.891506      1.345544
  H       0.032202      1.669191      0.302503
  H      -0.516645      0.689984      1.673508
  H      -2.503233     -0.477506     -1.675426
  H      -2.916635      0.495366     -0.170226
15
Coordinates from ORCA-job freq E -271.000729892909
  C       1.606773     -0.434509     -0.732061
  C       1.350486     -0.011793      0.701638
  C      -0.040902      0.651782      0.693416
  C      -2.219483     -0.162334     -0.678599
  C      -0.822440     -0.184100     -0.281580
  O      -1.668450     -1.194861      0.150590
  H       0.256170     -0.568979     -1.014292
  H       2.122653     -1.372212     -0.904324
  H       1.923624      0.357477     -1.406325
  H       2.116469      0.659201      1.092510
  H       1.323883     -0.891391      1.345591
  H       0.031960      1.669064      0.302699
  H      -0.516555      0.689671      1.673687
  H      -2.503077     -0.477457     -1.675565
  H      -2.916502      0.495771     -0.170607
15
Coordinates from ORCA-job freq E -271.000726344737
  C       1.606771     -0.434530     -0.732080
  C       1.350571     -0.011706      0.701602
  C      -0.040939      0.651635      0.693520
  C      -2.219447     -0.162231     -0.678701
  C      -0.822469     -0.184260     -0.281482
  O      -1.668749     -1.194810      0.150633
  H       0.256129     -0.569231     -1.014138
  H       2.122694     -1.372219     -0.904288
  H       1.923501      0.357400     -1.406466
  H       2.116475      0.659486      1.092287
  H       1.324232     -0.891230      1.345665
  H       0.031719      1.668979      0.302933
  H      -0.516507      0.689340      1.673842
  H      -2.502967     -0.477353     -1.675690
  H      -2.916406      0.496058     -0.170859
15
Coordinates from ORCA-job freq E -271.000718377688
  C       1.606773     -0.434553     -0.732094
  C       1.350650     -0.011618      0.701570
  C      -0.040972      0.651505      0.693614
  C      -2.219420     -0.162138     -0.678791
  C      -0.822492     -0.184383     -0.281412
  O      -1.668994     -1.194765      0.150651
  H       0.256090     -0.569426     -1.014022
  H       2.122699     -1.372254     -0.904240
  H       1.923430      0.357312     -1.406592
  H       2.116482      0.659755      1.092086
  H       1.324546     -0.891073      1.345732
  H       0.031492      1.668911      0.303153
  H      -0.516466      0.689024      1.673982
  H      -2.502880     -0.477263     -1.675789
  H      -2.916329      0.496295     -0.171070
15
Coordinates from ORCA-job freq E -271.000732658566
  C       1.606754     -0.434572     -0.732110
  C       1.350719     -0.011548      0.701543
  C      -0.040996      0.651390      0.693707
  C      -2.219383     -0.162053     -0.678879
  C      -0.822514     -0.184516     -0.281317
  O      -1.669246     -1.194712      0.150705
  H       0.256068     -0.569655     -1.013875
  H       2.122762     -1.372236     -0.904220
  H       1.923257      0.357263     -1.406714
  H       2.116493      0.659966      1.091918
  H       1.324816     -0.890951      1.345776
  H       0.031299      1.668842      0.303337
  H      -0.516414      0.688759      1.674109
  H      -2.502771     -0.477196     -1.675899
  H      -2.916237      0.496546     -0.171300
15
Coordinates from ORCA-job freq E -271.000728584973
  C       1.606722     -0.434579     -0.732132
  C       1.350797     -0.011498      0.701526
  C      -0.041007      0.651262      0.693809
  C      -2.219344     -0.161959     -0.678990
  C      -0.822546     -0.184687     -0.281181
  O      -1.669575     -1.194648      0.150811
  H       0.256051     -0.569953     -1.013683
  H       2.122918     -1.372141     -0.904247
  H       1.922955      0.357277     -1.406837
  H       2.116528      0.660138      1.091781
  H       1.325095     -0.890871      1.345819
  H       0.031134      1.668738      0.303474
  H      -0.516346      0.688549      1.674254
  H      -2.502635     -0.477154     -1.676020
  H      -2.916138      0.496854     -0.171604
15
Coordinates from ORCA-job freq E -271.000723007001
  C       1.606781     -0.434595     -0.732131
  C       1.350838     -0.011444      0.701501
  C      -0.041032      0.651184      0.693826
  C      -2.219361     -0.161906     -0.679012
  C      -0.822566     -0.184745     -0.281190
  O      -1.669683     -1.194643      0.150767
  H       0.256011     -0.570038     -1.013675
  H       2.122923     -1.372197     -0.904176
  H       1.923060      0.357197     -1.406885
  H       2.116499      0.660326      1.091664
  H       1.325261     -0.890758      1.345874
  H       0.030995      1.668710      0.303594
  H      -0.516332      0.688342      1.674299
  H      -2.502679     -0.477061     -1.676047
  H      -2.916105      0.496957     -0.171629
15
Coordinates from ORCA-job freq E -271.000724849454
  C       1.606779     -0.434603     -0.732138
  C       1.350874     -0.011407      0.701484
  C      -0.041044      0.651117      0.693868
  C      -2.219343     -0.161859     -0.679061
  C      -0.822575     -0.184821     -0.281147
  O      -1.669816     -1.194618      0.150790
  H       0.255994     -0.570168     -1.013595
  H       2.122960     -1.372188     -0.904157
  H       1.922974      0.357171     -1.406955
  H       2.116501      0.660447      1.091570
  H       1.325406     -0.890687      1.345906
  H       0.030887      1.668673      0.303700
  H      -0.516304      0.688190      1.674361
  H      -2.502634     -0.477019     -1.676103
  H      -2.916051      0.497101     -0.171744
15
Coordinates from ORCA-job freq E -271.000720228703
  C       1.606788     -0.434611     -0.732141
  C       1.350906     -0.011374      0.701471
  C      -0.041057      0.651065      0.693898
  C      -2.219338     -0.161819     -0.679095
  C      -0.822583     -0.184873     -0.281126
  O      -1.669917     -1.194600      0.150790
  H       0.255983     -0.570261     -1.013543
  H       2.122983     -1.372192     -0.904132
  H       1.922940      0.357138     -1.407003
  H       2.116501      0.660552      1.091486
  H       1.325530     -0.890625      1.345940
  H       0.030807      1.668644      0.303786
  H      -0.516296      0.688064      1.674404
  H      -2.502619     -0.476975     -1.676141
  H      -2.916019      0.497195     -0.171814
