15
Coordinates from ORCA-job freq E -271.000720228703
  C           1.60678843538934     -0.43461115370907     -0.73214149570614
  C           1.35090563410684     -0.01137449808394      0.70147106400802
  C          -0.04105730869734      0.65106456666055      0.69389820041535
  C          -2.21933803279910     -0.16181869413585     -0.67909533028962
  C          -0.82258295373052     -0.18487266090748     -0.28112625266227
  O          -1.66991686343529     -1.19460020408650      0.15078978654260
  H           0.25598311492052     -0.57026073988993     -1.01354299741023
  H           2.12298263058741     -1.37219182114770     -0.90413211049407
  H           1.92294032871015      0.35713816369326     -1.40700339201661
  H           2.11650056713482      0.66055222312565      1.09148645393578
  H           1.32552987041368     -0.89062542562556      1.34594040406448
  H           0.03080687830175      1.66864364707834      0.30378554005154
  H          -0.51629614658338      0.68806364832419      1.67440394552165
  H          -2.50261931054811     -0.47697454402341     -1.67614072554006
  H          -2.91601884377075      0.49719549272743     -0.17181409042041
