17
* (null), Energy   -1000.0000000
C     2.930805    0.285359   -0.460215    0.011917    0.021387    0.001499
C     1.642331    0.125882    0.297893   -0.046881   -0.112677   -0.023334
C     0.502839    1.047847   -0.067587    0.002435    0.012520    0.002299
C    -2.127443    0.920333    0.123376   -0.002341   -0.001064   -0.001335
C    -0.818073    0.305969   -0.036491   -0.002188    0.011009    0.014716
O     0.114137   -1.737282   -0.197697   -0.098652   -0.014677   -0.027885
O    -1.485151    0.208942    1.182072    0.001001   -0.001789   -0.001357
O    -0.765614   -0.847557   -0.806817    0.034920   -0.031426    0.012467
H     1.085890   -1.027356   -0.015248    1.396595    1.353652    0.356131
H     3.375415    1.264755   -0.254079    0.018427   -0.004796   -0.009484
H     2.760789    0.223313   -1.535491   -0.000929   -0.012112    0.006969
H     3.659012   -0.473512   -0.180127   -0.011048   -0.003633   -0.003922
H     1.755921   -0.016583    1.371053    0.071561    0.228583    0.020398
H     0.432843    1.891819    0.622594   -0.030718    0.014358   -0.028588
H     0.643488    1.437590   -1.077070   -0.001657    0.005098   -0.002936
H    -2.200637    1.992912    0.259669    0.001656   -0.001855   -0.002966
H    -2.985970    0.419120   -0.305278   -0.006652    0.000941    0.003990
17
* Frequency(6) -1829.4393
C     2.932160    0.287790   -0.460045    0.011917    0.021387    0.001499
C     1.637004    0.113077    0.295241   -0.046881   -0.112677   -0.023334
C     0.503116    1.049270   -0.067326    0.002435    0.012520    0.002299
C    -2.127709    0.920212    0.123224   -0.002341   -0.001064   -0.001335
C    -0.818322    0.307220   -0.034819   -0.002188    0.011009    0.014716
O     0.102925   -1.738950   -0.200866   -0.098652   -0.014677   -0.027885
O    -1.485038    0.208739    1.181918    0.001001   -0.001789   -0.001357
O    -0.761645   -0.851128   -0.805400    0.034920   -0.031426    0.012467
H     1.244606   -0.873520    0.025225    1.396595    1.353652    0.356131
H     3.377510    1.264210   -0.255157    0.018427   -0.004796   -0.009484
H     2.760683    0.221937   -1.534699   -0.000929   -0.012112    0.006969
H     3.657756   -0.473925   -0.180573   -0.011048   -0.003633   -0.003922
H     1.764054    0.009395    1.373371    0.071561    0.228583    0.020398
H     0.429352    1.893450    0.619345   -0.030718    0.014358   -0.028588
H     0.643300    1.438169   -1.077404   -0.001657    0.005098   -0.002936
H    -2.200449    1.992701    0.259332    0.001656   -0.001855   -0.002966
H    -2.986726    0.419227   -0.304825   -0.006652    0.000941    0.003990
17
* Frequency(6) -1829.4393
C     2.933367    0.289957   -0.459893    0.011917    0.021387    0.001499
C     1.632253    0.101659    0.292877   -0.046881   -0.112677   -0.023334
C     0.503362    1.050539   -0.067093    0.002435    0.012520    0.002299
C    -2.127946    0.920104    0.123089   -0.002341   -0.001064   -0.001335
C    -0.818543    0.308336   -0.033328   -0.002188    0.011009    0.014716
O     0.092929   -1.740438   -0.203692   -0.098652   -0.014677   -0.027885
O    -1.484936    0.208558    1.181781    0.001001   -0.001789   -0.001357
O    -0.758107   -0.854313   -0.804137    0.034920   -0.031426    0.012467
H     1.386122   -0.736355    0.061311    1.396595    1.353652    0.356131
H     3.379377    1.263724   -0.256118    0.018427   -0.004796   -0.009484
H     2.760589    0.220709   -1.533993   -0.000929   -0.012112    0.006969
H     3.656637   -0.474293   -0.180970   -0.011048   -0.003633   -0.003922
H     1.771305    0.032557    1.375438    0.071561    0.228583    0.020398
H     0.426239    1.894905    0.616448   -0.030718    0.014358   -0.028588
H     0.643132    1.438686   -1.077701   -0.001657    0.005098   -0.002936
H    -2.200281    1.992513    0.259031    0.001656   -0.001855   -0.002966
H    -2.987400    0.419323   -0.304420   -0.006652    0.000941    0.003990
17
* Frequency(6) -1829.4393
C     2.934297    0.291626   -0.459776    0.011917    0.021387    0.001499
C     1.628595    0.092867    0.291056   -0.046881   -0.112677   -0.023334
C     0.503552    1.051516   -0.066913    0.002435    0.012520    0.002299
C    -2.128129    0.920021    0.122985   -0.002341   -0.001064   -0.001335
C    -0.818714    0.309195   -0.032179   -0.002188    0.011009    0.014716
O     0.085231   -1.741583   -0.205868   -0.098652   -0.014677   -0.027885
O    -1.484858    0.208418    1.181675    0.001001   -0.001789   -0.001357
O    -0.755382   -0.856765   -0.803164    0.034920   -0.031426    0.012467
H     1.495104   -0.630725    0.089101    1.396595    1.353652    0.356131
H     3.380815    1.263350   -0.256858    0.018427   -0.004796   -0.009484
H     2.760517    0.219764   -1.533449   -0.000929   -0.012112    0.006969
H     3.655775   -0.474576   -0.181276   -0.011048   -0.003633   -0.003922
H     1.776889    0.050394    1.377030    0.071561    0.228583    0.020398
H     0.423842    1.896026    0.614217   -0.030718    0.014358   -0.028588
H     0.643003    1.439084   -1.077931   -0.001657    0.005098   -0.002936
H    -2.200152    1.992368    0.258800    0.001656   -0.001855   -0.002966
H    -2.987919    0.419396   -0.304109   -0.006652    0.000941    0.003990
17
* Frequency(6) -1829.4393
C     2.934849    0.292616   -0.459706    0.011917    0.021387    0.001499
C     1.626425    0.087652    0.289976   -0.046881   -0.112677   -0.023334
C     0.503665    1.052095   -0.066807    0.002435    0.012520    0.002299
C    -2.128237    0.919972    0.122923   -0.002341   -0.001064   -0.001335
C    -0.818815    0.309704   -0.031498   -0.002188    0.011009    0.014716
O     0.080665   -1.742262   -0.207158   -0.098652   -0.014677   -0.027885
O    -1.484812    0.208335    1.181612    0.001001   -0.001789   -0.001357
O    -0.753766   -0.858219   -0.802587    0.034920   -0.031426    0.012467
H     1.559741   -0.568075    0.105584    1.396595    1.353652    0.356131
H     3.381668    1.263128   -0.257297    0.018427   -0.004796   -0.009484
H     2.760474    0.219204   -1.533126   -0.000929   -0.012112    0.006969
H     3.655263   -0.474744   -0.181458   -0.011048   -0.003633   -0.003922
H     1.780201    0.060973    1.377974    0.071561    0.228583    0.020398
H     0.422421    1.896690    0.612894   -0.030718    0.014358   -0.028588
H     0.642926    1.439320   -1.078066   -0.001657    0.005098   -0.002936
H    -2.200075    1.992282    0.258662    0.001656   -0.001855   -0.002966
H    -2.988227    0.419440   -0.303925   -0.006652    0.000941    0.003990
17
* Frequency(6) -1829.4393
C     2.934962    0.292819   -0.459692    0.011917    0.021387    0.001499
C     1.625979    0.086580    0.289754   -0.046881   -0.112677   -0.023334
C     0.503688    1.052214   -0.066785    0.002435    0.012520    0.002299
C    -2.128259    0.919961    0.122910   -0.002341   -0.001064   -0.001335
C    -0.818836    0.309809   -0.031358   -0.002188    0.011009    0.014716
O     0.079726   -1.742402   -0.207424   -0.098652   -0.014677   -0.027885
O    -1.484802    0.208318    1.181599    0.001001   -0.001789   -0.001357
O    -0.753434   -0.858518   -0.802469    0.034920   -0.031426    0.012467
H     1.573029   -0.555196    0.108972    1.396595    1.353652    0.356131
H     3.381843    1.263082   -0.257388    0.018427   -0.004796   -0.009484
H     2.760465    0.219088   -1.533060   -0.000929   -0.012112    0.006969
H     3.655158   -0.474779   -0.181495   -0.011048   -0.003633   -0.003922
H     1.780882    0.063148    1.378168    0.071561    0.228583    0.020398
H     0.422129    1.896827    0.612622   -0.030718    0.014358   -0.028588
H     0.642910    1.439368   -1.078094   -0.001657    0.005098   -0.002936
H    -2.200059    1.992265    0.258634    0.001656   -0.001855   -0.002966
H    -2.988290    0.419449   -0.303887   -0.006652    0.000941    0.003990
17
* Frequency(6) -1829.4393
C     2.934625    0.292214   -0.459734    0.011917    0.021387    0.001499
C     1.627305    0.089767    0.290414   -0.046881   -0.112677   -0.023334
C     0.503619    1.051860   -0.066850    0.002435    0.012520    0.002299
C    -2.128193    0.919991    0.122948   -0.002341   -0.001064   -0.001335
C    -0.818774    0.309498   -0.031774   -0.002188    0.011009    0.014716
O     0.082517   -1.741987   -0.206635   -0.098652   -0.014677   -0.027885
O    -1.484831    0.208369    1.181638    0.001001   -0.001789   -0.001357
O    -0.754421   -0.857630   -0.802821    0.034920   -0.031426    0.012467
H     1.533527   -0.593482    0.098899    1.396595    1.353652    0.356131
H     3.381322    1.263218   -0.257119    0.018427   -0.004796   -0.009484
H     2.760491    0.219431   -1.533257   -0.000929   -0.012112    0.006969
H     3.655471   -0.474676   -0.181384   -0.011048   -0.003633   -0.003922
H     1.778858    0.056683    1.377591    0.071561    0.228583    0.020398
H     0.422997    1.896421    0.613431   -0.030718    0.014358   -0.028588
H     0.642957    1.439224   -1.078011   -0.001657    0.005098   -0.002936
H    -2.200106    1.992317    0.258718    0.001656   -0.001855   -0.002966
H    -2.988102    0.419422   -0.303999   -0.006652    0.000941    0.003990
17
* Frequency(6) -1829.4393
C     2.933874    0.290867   -0.459829    0.011917    0.021387    0.001499
C     1.630259    0.096867    0.291885   -0.046881   -0.112677   -0.023334
C     0.503466    1.051071   -0.066995    0.002435    0.012520    0.002299
C    -2.128046    0.920059    0.123032   -0.002341   -0.001064   -0.001335
C    -0.818636    0.308804   -0.032702   -0.002188    0.011009    0.014716
O     0.088733   -1.741062   -0.204878   -0.098652   -0.014677   -0.027885
O    -1.484894    0.208482    1.181723    0.001001   -0.001789   -0.001357
O    -0.756622   -0.855649   -0.803607    0.034920   -0.031426    0.012467
H     1.445518   -0.678786    0.076457    1.396595    1.353652    0.356131
H     3.380161    1.263520   -0.256522    0.018427   -0.004796   -0.009484
H     2.760550    0.220194   -1.533696   -0.000929   -0.012112    0.006969
H     3.656167   -0.474447   -0.181137   -0.011048   -0.003633   -0.003922
H     1.774348    0.042278    1.376306    0.071561    0.228583    0.020398
H     0.424933    1.895516    0.615232   -0.030718    0.014358   -0.028588
H     0.643062    1.438903   -1.077826   -0.001657    0.005098   -0.002936
H    -2.200210    1.992434    0.258905    0.001656   -0.001855   -0.002966
H    -2.987683    0.419363   -0.304251   -0.006652    0.000941    0.003990
17
* Frequency(6) -1829.4393
C     2.932791    0.288922   -0.459965    0.011917    0.021387    0.001499
C     1.634522    0.107112    0.294006   -0.046881   -0.112677   -0.023334
C     0.503245    1.049933   -0.067204    0.002435    0.012520    0.002299
C    -2.127833    0.920155    0.123153   -0.002341   -0.001064   -0.001335
C    -0.818437    0.307803   -0.034040   -0.002188    0.011009    0.014716
O     0.097703   -1.739727   -0.202342   -0.098652   -0.014677   -0.027885
O    -1.484985    0.208644    1.181846    0.001001   -0.001789   -0.001357
O    -0.759797   -0.852792   -0.804740    0.034920   -0.031426    0.012467
H     1.318537   -0.801862    0.044077    1.396595    1.353652    0.356131
H     3.378485    1.263956   -0.255659    0.018427   -0.004796   -0.009484
H     2.760634    0.221296   -1.534330   -0.000929   -0.012112    0.006969
H     3.657171   -0.474117   -0.180781   -0.011048   -0.003633   -0.003922
H     1.767842    0.021495    1.374451    0.071561    0.228583    0.020398
H     0.427726    1.894210    0.617831   -0.030718    0.014358   -0.028588
H     0.643212    1.438439   -1.077559   -0.001657    0.005098   -0.002936
H    -2.200361    1.992603    0.259175    0.001656   -0.001855   -0.002966
H    -2.987078    0.419277   -0.304614   -0.006652    0.000941    0.003990
17
* Frequency(6) -1829.4393
C     2.931492    0.286591   -0.460129    0.011917    0.021387    0.001499
C     1.639631    0.119391    0.296549   -0.046881   -0.112677   -0.023334
C     0.502979    1.048569   -0.067454    0.002435    0.012520    0.002299
C    -2.127578    0.920271    0.123299   -0.002341   -0.001064   -0.001335
C    -0.818199    0.306603   -0.035643   -0.002188    0.011009    0.014716
O     0.108454   -1.738128   -0.199304   -0.098652   -0.014677   -0.027885
O    -1.485094    0.208839    1.181994    0.001001   -0.001789   -0.001357
O    -0.763602   -0.849367   -0.806099    0.034920   -0.031426    0.012467
H     1.166345   -0.949374    0.005268    1.396595    1.353652    0.356131
H     3.376477    1.264479   -0.254626    0.018427   -0.004796   -0.009484
H     2.760735    0.222615   -1.535089   -0.000929   -0.012112    0.006969
H     3.658375   -0.473721   -0.180353   -0.011048   -0.003633   -0.003922
H     1.760044   -0.003414    1.372228    0.071561    0.228583    0.020398
H     0.431073    1.892646    0.620947   -0.030718    0.014358   -0.028588
H     0.643393    1.437884   -1.077239   -0.001657    0.005098   -0.002936
H    -2.200541    1.992805    0.259498    0.001656   -0.001855   -0.002966
H    -2.986353    0.419175   -0.305048   -0.006652    0.000941    0.003990
17
* Frequency(6) -1829.4393
C     2.930119    0.284127   -0.460301    0.011917    0.021387    0.001499
C     1.645032    0.132373    0.299237   -0.046881   -0.112677   -0.023334
C     0.502699    1.047126   -0.067719    0.002435    0.012520    0.002299
C    -2.127308    0.920394    0.123453   -0.002341   -0.001064   -0.001335
C    -0.817947    0.305335   -0.037339   -0.002188    0.011009    0.014716
O     0.119820   -1.736437   -0.196091   -0.098652   -0.014677   -0.027885
O    -1.485209    0.209045    1.182151    0.001001   -0.001789   -0.001357
O    -0.767625   -0.845747   -0.807535    0.034920   -0.031426    0.012467
H     1.005435   -1.105337   -0.035764    1.396595    1.353652    0.356131
H     3.374354    1.265032   -0.253533    0.018427   -0.004796   -0.009484
H     2.760842    0.224011   -1.535892   -0.000929   -0.012112    0.006969
H     3.659648   -0.473302   -0.179901   -0.011048   -0.003633   -0.003922
H     1.751799   -0.029751    1.369878    0.071561    0.228583    0.020398
H     0.434613    1.890992    0.624240   -0.030718    0.014358   -0.028588
H     0.643584    1.437296   -1.076901   -0.001657    0.005098   -0.002936
H    -2.200732    1.993019    0.259840    0.001656   -0.001855   -0.002966
H    -2.985587    0.419066   -0.305508   -0.006652    0.000941    0.003990
17
* Frequency(6) -1829.4393
C     2.928820    0.281797   -0.460465    0.011917    0.021387    0.001499
C     1.650141    0.144652    0.301780   -0.046881   -0.112677   -0.023334
C     0.502433    1.045762   -0.067970    0.002435    0.012520    0.002299
C    -2.127053    0.920510    0.123598   -0.002341   -0.001064   -0.001335
C    -0.817709    0.304135   -0.038942   -0.002188    0.011009    0.014716
O     0.130570   -1.734837   -0.193052   -0.098652   -0.014677   -0.027885
O    -1.485318    0.209240    1.182298    0.001001   -0.001789   -0.001357
O    -0.771431   -0.842322   -0.808894    0.034920   -0.031426    0.012467
H     0.853243   -1.252849   -0.074573    1.396595    1.353652    0.356131
H     3.372346    1.265554   -0.252499    0.018427   -0.004796   -0.009484
H     2.760944    0.225331   -1.536652   -0.000929   -0.012112    0.006969
H     3.660852   -0.472906   -0.179474   -0.011048   -0.003633   -0.003922
H     1.744000   -0.054660    1.367655    0.071561    0.228583    0.020398
H     0.437960    1.889427    0.627356   -0.030718    0.014358   -0.028588
H     0.643765    1.436741   -1.076581   -0.001657    0.005098   -0.002936
H    -2.200913    1.993221    0.260163    0.001656   -0.001855   -0.002966
H    -2.984862    0.418964   -0.305943   -0.006652    0.000941    0.003990
17
* Frequency(6) -1829.4393
C     2.927737    0.279852   -0.460601    0.011917    0.021387    0.001499
C     1.654403    0.154897    0.303902   -0.046881   -0.112677   -0.023334
C     0.502212    1.044623   -0.068179    0.002435    0.012520    0.002299
C    -2.126840    0.920607    0.123720   -0.002341   -0.001064   -0.001335
C    -0.817510    0.303134   -0.040280   -0.002188    0.011009    0.014716
O     0.139540   -1.733503   -0.190517   -0.098652   -0.014677   -0.027885
O    -1.485409    0.209403    1.182422    0.001001   -0.001789   -0.001357
O    -0.774606   -0.839465   -0.810027    0.034920   -0.031426    0.012467
H     0.726262   -1.375926   -0.106953    1.396595    1.353652    0.356131
H     3.370670    1.265990   -0.251637    0.018427   -0.004796   -0.009484
H     2.761028    0.226432   -1.537285   -0.000929   -0.012112    0.006969
H     3.661857   -0.472576   -0.179117   -0.011048   -0.003633   -0.003922
H     1.737494   -0.075444    1.365800    0.071561    0.228583    0.020398
H     0.440753    1.888122    0.629955   -0.030718    0.014358   -0.028588
H     0.643915    1.436277   -1.076314   -0.001657    0.005098   -0.002936
H    -2.201063    1.993389    0.260433    0.001656   -0.001855   -0.002966
H    -2.984257    0.418878   -0.306305   -0.006652    0.000941    0.003990
17
* Frequency(6) -1829.4393
C     2.926986    0.278504   -0.460695    0.011917    0.021387    0.001499
C     1.657358    0.161997    0.305372   -0.046881   -0.112677   -0.023334
C     0.502058    1.043834   -0.068324    0.002435    0.012520    0.002299
C    -2.126693    0.920674    0.123804   -0.002341   -0.001064   -0.001335
C    -0.817372    0.302440   -0.041208   -0.002188    0.011009    0.014716
O     0.145757   -1.732578   -0.188760   -0.098652   -0.014677   -0.027885
O    -1.485472    0.209516    1.182507    0.001001   -0.001789   -0.001357
O    -0.776806   -0.837484   -0.810813    0.034920   -0.031426    0.012467
H     0.638252   -1.461229   -0.129395    1.396595    1.353652    0.356131
H     3.369509    1.266293   -0.251039    0.018427   -0.004796   -0.009484
H     2.761087    0.227195   -1.537725   -0.000929   -0.012112    0.006969
H     3.662553   -0.472347   -0.178870   -0.011048   -0.003633   -0.003922
H     1.732984   -0.089848    1.364515    0.071561    0.228583    0.020398
H     0.442689    1.887217    0.631756   -0.030718    0.014358   -0.028588
H     0.644020    1.435956   -1.076129   -0.001657    0.005098   -0.002936
H    -2.201168    1.993506    0.260620    0.001656   -0.001855   -0.002966
H    -2.983838    0.418819   -0.306557   -0.006652    0.000941    0.003990
17
* Frequency(6) -1829.4393
C     2.926649    0.277899   -0.460738    0.011917    0.021387    0.001499
C     1.658684    0.165184    0.306032   -0.046881   -0.112677   -0.023334
C     0.501989    1.043480   -0.068389    0.002435    0.012520    0.002299
C    -2.126626    0.920704    0.123841   -0.002341   -0.001064   -0.001335
C    -0.817310    0.302129   -0.041624   -0.002188    0.011009    0.014716
O     0.148547   -1.732163   -0.187971   -0.098652   -0.014677   -0.027885
O    -1.485500    0.209566    1.182546    0.001001   -0.001789   -0.001357
O    -0.777794   -0.836596   -0.811166    0.034920   -0.031426    0.012467
H     0.598751   -1.499516   -0.139468    1.396595    1.353652    0.356131
H     3.368988    1.266428   -0.250771    0.018427   -0.004796   -0.009484
H     2.761113    0.227538   -1.537922   -0.000929   -0.012112    0.006969
H     3.662865   -0.472244   -0.178759   -0.011048   -0.003633   -0.003922
H     1.730960   -0.096314    1.363938    0.071561    0.228583    0.020398
H     0.443557    1.886811    0.632565   -0.030718    0.014358   -0.028588
H     0.644066    1.435812   -1.076046   -0.001657    0.005098   -0.002936
H    -2.201214    1.993559    0.260703    0.001656   -0.001855   -0.002966
H    -2.983650    0.418792   -0.306670   -0.006652    0.000941    0.003990
17
* Frequency(6) -1829.4393
C     2.926762    0.278103   -0.460724    0.011917    0.021387    0.001499
C     1.658237    0.164112    0.305810   -0.046881   -0.112677   -0.023334
C     0.502013    1.043599   -0.068367    0.002435    0.012520    0.002299
C    -2.126649    0.920694    0.123829   -0.002341   -0.001064   -0.001335
C    -0.817331    0.302234   -0.041484   -0.002188    0.011009    0.014716
O     0.147609   -1.732303   -0.188236   -0.098652   -0.014677   -0.027885
O    -1.485491    0.209549    1.182533    0.001001   -0.001789   -0.001357
O    -0.777462   -0.836895   -0.811047    0.034920   -0.031426    0.012467
H     0.612039   -1.486637   -0.136079    1.396595    1.353652    0.356131
H     3.369163    1.266383   -0.250861    0.018427   -0.004796   -0.009484
H     2.761104    0.227423   -1.537855   -0.000929   -0.012112    0.006969
H     3.662760   -0.472279   -0.178796   -0.011048   -0.003633   -0.003922
H     1.731641   -0.094139    1.364132    0.071561    0.228583    0.020398
H     0.443265    1.886947    0.632293   -0.030718    0.014358   -0.028588
H     0.644051    1.435860   -1.076074   -0.001657    0.005098   -0.002936
H    -2.201199    1.993541    0.260675    0.001656   -0.001855   -0.002966
H    -2.983713    0.418801   -0.306632   -0.006652    0.000941    0.003990
17
* Frequency(6) -1829.4393
C     2.927314    0.279093   -0.460654    0.011917    0.021387    0.001499
C     1.656068    0.158897    0.304730   -0.046881   -0.112677   -0.023334
C     0.502125    1.044179   -0.068260    0.002435    0.012520    0.002299
C    -2.126757    0.920645    0.123767   -0.002341   -0.001064   -0.001335
C    -0.817432    0.302743   -0.040803   -0.002188    0.011009    0.014716
O     0.143043   -1.732982   -0.189527   -0.098652   -0.014677   -0.027885
O    -1.485444    0.209466    1.182470    0.001001   -0.001789   -0.001357
O    -0.775846   -0.838349   -0.810470    0.034920   -0.031426    0.012467
H     0.676676   -1.423987   -0.119597    1.396595    1.353652    0.356131
H     3.370016    1.266161   -0.251300    0.018427   -0.004796   -0.009484
H     2.761061    0.226862   -1.537533   -0.000929   -0.012112    0.006969
H     3.662249   -0.472447   -0.178978   -0.011048   -0.003633   -0.003922
H     1.734953   -0.083559    1.365076    0.071561    0.228583    0.020398
H     0.441843    1.887612    0.630970   -0.030718    0.014358   -0.028588
H     0.643974    1.436096   -1.076210   -0.001657    0.005098   -0.002936
H    -2.201122    1.993455    0.260538    0.001656   -0.001855   -0.002966
H    -2.984021    0.418845   -0.306447   -0.006652    0.000941    0.003990
17
* Frequency(6) -1829.4393
C     2.928244    0.280762   -0.460537    0.011917    0.021387    0.001499
C     1.652409    0.150105    0.302909   -0.046881   -0.112677   -0.023334
C     0.502315    1.045156   -0.068081    0.002435    0.012520    0.002299
C    -2.126940    0.920561    0.123663   -0.002341   -0.001064   -0.001335
C    -0.817603    0.303602   -0.039654   -0.002188    0.011009    0.014716
O     0.135345   -1.734127   -0.191703   -0.098652   -0.014677   -0.027885
O    -1.485366    0.209327    1.182364    0.001001   -0.001789   -0.001357
O    -0.773121   -0.840801   -0.809497    0.034920   -0.031426    0.012467
H     0.785658   -1.318356   -0.091807    1.396595    1.353652    0.356131
H     3.371454    1.265786   -0.252040    0.018427   -0.004796   -0.009484
H     2.760989    0.225917   -1.536989   -0.000929   -0.012112    0.006969
H     3.661387   -0.472731   -0.179284   -0.011048   -0.003633   -0.003922
H     1.740537   -0.065722    1.366668    0.071561    0.228583    0.020398
H     0.439446    1.888732    0.628739   -0.030718    0.014358   -0.028588
H     0.643845    1.436494   -1.076439   -0.001657    0.005098   -0.002936
H    -2.200993    1.993310    0.260306    0.001656   -0.001855   -0.002966
H    -2.984540    0.418918   -0.306136   -0.006652    0.000941    0.003990
17
* Frequency(6) -1829.4393
C     2.929451    0.282929   -0.460385    0.011917    0.021387    0.001499
C     1.647659    0.138687    0.300545   -0.046881   -0.112677   -0.023334
C     0.502562    1.046424   -0.067848    0.002435    0.012520    0.002299
C    -2.127177    0.920454    0.123527   -0.002341   -0.001064   -0.001335
C    -0.817824    0.304718   -0.038163   -0.002188    0.011009    0.014716
O     0.125348   -1.735614   -0.194528   -0.098652   -0.014677   -0.027885
O    -1.485265    0.209146    1.182227    0.001001   -0.001789   -0.001357
O    -0.769582   -0.843986   -0.808234    0.034920   -0.031426    0.012467
H     0.927174   -1.181191   -0.055720    1.396595    1.353652    0.356131
H     3.373321    1.265300   -0.253002    0.018427   -0.004796   -0.009484
H     2.760895    0.224690   -1.536283   -0.000929   -0.012112    0.006969
H     3.660267   -0.473099   -0.179681   -0.011048   -0.003633   -0.003922
H     1.747789   -0.042560    1.368735    0.071561    0.228583    0.020398
H     0.436334    1.890187    0.625842   -0.030718    0.014358   -0.028588
H     0.643677    1.437011   -1.076737   -0.001657    0.005098   -0.002936
H    -2.200825    1.993122    0.260006    0.001656   -0.001855   -0.002966
H    -2.985214    0.419014   -0.305732   -0.006652    0.000941    0.003990
17
* Frequency(6) -1829.4393
C     2.930805    0.285359   -0.460215    0.011917    0.021387    0.001499
C     1.642331    0.125882    0.297893   -0.046881   -0.112677   -0.023334
C     0.502839    1.047847   -0.067587    0.002435    0.012520    0.002299
C    -2.127443    0.920333    0.123376   -0.002341   -0.001064   -0.001335
C    -0.818073    0.305969   -0.036491   -0.002188    0.011009    0.014716
O     0.114137   -1.737282   -0.197697   -0.098652   -0.014677   -0.027885
O    -1.485151    0.208942    1.182072    0.001001   -0.001789   -0.001357
O    -0.765614   -0.847557   -0.806817    0.034920   -0.031426    0.012467
H     1.085890   -1.027356   -0.015248    1.396595    1.353652    0.356131
H     3.375415    1.264755   -0.254079    0.018427   -0.004796   -0.009484
H     2.760789    0.223313   -1.535491   -0.000929   -0.012112    0.006969
H     3.659012   -0.473512   -0.180127   -0.011048   -0.003633   -0.003922
H     1.755921   -0.016583    1.371053    0.071561    0.228583    0.020398
H     0.432843    1.891819    0.622594   -0.030718    0.014358   -0.028588
H     0.643488    1.437590   -1.077070   -0.001657    0.005098   -0.002936
H    -2.200637    1.992912    0.259669    0.001656   -0.001855   -0.002966
H    -2.985970    0.419120   -0.305278   -0.006652    0.000941    0.003990
