15
* (null), Energy   -1000.0000000
C     2.792272   -0.111705    0.405947    0.043148   -0.087950   -0.106926
C    -2.380071   -0.153480    0.034494    0.000303   -0.000458    0.000152
C    -1.089893    0.634187    0.234719    0.001607   -0.000420    0.001347
C     1.354948   -0.144119    0.604978    0.089347    0.063603    0.036747
C     0.113783   -0.182492   -0.133449    0.011000    0.001793    0.011366
O     0.501526   -1.207909    0.816645    0.003239    0.013220    0.009563
H     2.123901    0.630028    1.307251   -1.939049   -0.073149    0.423135
H     3.389973   -0.847598    0.922628    0.048271    0.050727    0.062925
H     3.206635    0.448706   -0.419885    0.058946    0.068059    0.027552
H    -2.370596   -1.055880    0.645254   -0.002201    0.000123    0.000194
H    -2.498427   -0.452670   -1.007813    0.000841    0.001666   -0.000390
H    -3.249701    0.439246    0.314372    0.003025    0.001818    0.000857
H    -1.095431    1.538219   -0.379078    0.001962   -0.002181    0.000364
H    -0.986083    0.945840    1.274728   -0.004346    0.002201    0.002310
H     0.150039   -0.542107   -1.160668    0.048540    0.020117    0.014212
15
* Frequency(6) -2005.0882
C     2.797176   -0.121700    0.393796    0.043148   -0.087950   -0.106926
C    -2.380037   -0.153532    0.034512    0.000303   -0.000458    0.000152
C    -1.089711    0.634139    0.234872    0.001607   -0.000420    0.001347
C     1.365101   -0.136891    0.609154    0.089347    0.063603    0.036747
C     0.115034   -0.182288   -0.132158    0.011000    0.001793    0.011366
O     0.501894   -1.206407    0.817732    0.003239    0.013220    0.009563
H     1.903538    0.621715    1.355338   -1.939049   -0.073149    0.423135
H     3.395458   -0.841833    0.929779    0.048271    0.050727    0.062925
H     3.213333    0.456441   -0.416754    0.058946    0.068059    0.027552
H    -2.370847   -1.055866    0.645276   -0.002201    0.000123    0.000194
H    -2.498331   -0.452481   -1.007857    0.000841    0.001666   -0.000390
H    -3.249357    0.439453    0.314470    0.003025    0.001818    0.000857
H    -1.095208    1.537972   -0.379037    0.001962   -0.002181    0.000364
H    -0.986577    0.946090    1.274990   -0.004346    0.002201    0.002310
H     0.155555   -0.539821   -1.159053    0.048540    0.020117    0.014212
15
* Frequency(6) -2005.0882
C     2.801548   -0.130612    0.382961    0.043148   -0.087950   -0.106926
C    -2.380006   -0.153579    0.034527    0.000303   -0.000458    0.000152
C    -1.089548    0.634097    0.235009    0.001607   -0.000420    0.001347
C     1.374155   -0.130446    0.612878    0.089347    0.063603    0.036747
C     0.116148   -0.182107   -0.131006    0.011000    0.001793    0.011366
O     0.502223   -1.205067    0.818701    0.003239    0.013220    0.009563
H     1.707055    0.614302    1.398214   -1.939049   -0.073149    0.423135
H     3.400349   -0.836693    0.936155    0.048271    0.050727    0.062925
H     3.219306    0.463337   -0.413962    0.058946    0.068059    0.027552
H    -2.371070   -1.055853    0.645296   -0.002201    0.000123    0.000194
H    -2.498246   -0.452312   -1.007897    0.000841    0.001666   -0.000390
H    -3.249051    0.439637    0.314556    0.003025    0.001818    0.000857
H    -1.095009    1.537751   -0.379000    0.001962   -0.002181    0.000364
H    -0.987017    0.946313    1.275224   -0.004346    0.002201    0.002310
H     0.160474   -0.537782   -1.157613    0.048540    0.020117    0.014212
15
* Frequency(6) -2005.0882
C     2.804915   -0.137475    0.374617    0.043148   -0.087950   -0.106926
C    -2.379983   -0.153615    0.034539    0.000303   -0.000458    0.000152
C    -1.089423    0.634064    0.235114    0.001607   -0.000420    0.001347
C     1.381127   -0.125483    0.615745    0.089347    0.063603    0.036747
C     0.117007   -0.181967   -0.130119    0.011000    0.001793    0.011366
O     0.502476   -1.204036    0.819447    0.003239    0.013220    0.009563
H     1.555744    0.608594    1.431233   -1.939049   -0.073149    0.423135
H     3.404116   -0.832735    0.941066    0.048271    0.050727    0.062925
H     3.223906    0.468648   -0.411812    0.058946    0.068059    0.027552
H    -2.371241   -1.055844    0.645311   -0.002201    0.000123    0.000194
H    -2.498180   -0.452182   -1.007927    0.000841    0.001666   -0.000390
H    -3.248815    0.439779    0.314623    0.003025    0.001818    0.000857
H    -1.094856    1.537581   -0.378971    0.001962   -0.002181    0.000364
H    -0.987356    0.946485    1.275404   -0.004346    0.002201    0.002310
H     0.164261   -0.536213   -1.156504    0.048540    0.020117    0.014212
15
* Frequency(6) -2005.0882
C     2.806912   -0.141546    0.369668    0.043148   -0.087950   -0.106926
C    -2.379969   -0.153636    0.034546    0.000303   -0.000458    0.000152
C    -1.089348    0.634044    0.235176    0.001607   -0.000420    0.001347
C     1.385262   -0.122539    0.617446    0.089347    0.063603    0.036747
C     0.117516   -0.181884   -0.129593    0.011000    0.001793    0.011366
O     0.502625   -1.203424    0.819889    0.003239    0.013220    0.009563
H     1.466001    0.605209    1.450816   -1.939049   -0.073149    0.423135
H     3.406350   -0.830387    0.943978    0.048271    0.050727    0.062925
H     3.226634    0.471798   -0.410537    0.058946    0.068059    0.027552
H    -2.371343   -1.055838    0.645320   -0.002201    0.000123    0.000194
H    -2.498141   -0.452105   -1.007945    0.000841    0.001666   -0.000390
H    -3.248675    0.439863    0.314663    0.003025    0.001818    0.000857
H    -1.094765    1.537480   -0.378954    0.001962   -0.002181    0.000364
H    -0.987558    0.946587    1.275511   -0.004346    0.002201    0.002310
H     0.166508   -0.535282   -1.155847    0.048540    0.020117    0.014212
15
* Frequency(6) -2005.0882
C     2.807322   -0.142383    0.368651    0.043148   -0.087950   -0.106926
C    -2.379966   -0.153640    0.034547    0.000303   -0.000458    0.000152
C    -1.089333    0.634040    0.235189    0.001607   -0.000420    0.001347
C     1.386112   -0.121934    0.617795    0.089347    0.063603    0.036747
C     0.117620   -0.181867   -0.129485    0.011000    0.001793    0.011366
O     0.502656   -1.203298    0.819980    0.003239    0.013220    0.009563
H     1.447552    0.604513    1.454842   -1.939049   -0.073149    0.423135
H     3.406810   -0.829904    0.944577    0.048271    0.050727    0.062925
H     3.227195    0.472445   -0.410275    0.058946    0.068059    0.027552
H    -2.371364   -1.055837    0.645322   -0.002201    0.000123    0.000194
H    -2.498133   -0.452089   -1.007949    0.000841    0.001666   -0.000390
H    -3.248646    0.439881    0.314671    0.003025    0.001818    0.000857
H    -1.094746    1.537459   -0.378951    0.001962   -0.002181    0.000364
H    -0.987599    0.946608    1.275533   -0.004346    0.002201    0.002310
H     0.166970   -0.535090   -1.155711    0.048540    0.020117    0.014212
15
* Frequency(6) -2005.0882
C     2.806102   -0.139895    0.371675    0.043148   -0.087950   -0.106926
C    -2.379974   -0.153627    0.034543    0.000303   -0.000458    0.000152
C    -1.089378    0.634052    0.235151    0.001607   -0.000420    0.001347
C     1.383585   -0.123733    0.616756    0.089347    0.063603    0.036747
C     0.117309   -0.181917   -0.129806    0.011000    0.001793    0.011366
O     0.502565   -1.203672    0.819710    0.003239    0.013220    0.009563
H     1.502396    0.606582    1.442874   -1.939049   -0.073149    0.423135
H     3.405444   -0.831339    0.942797    0.048271    0.050727    0.062925
H     3.225528    0.470520   -0.411054    0.058946    0.068059    0.027552
H    -2.371302   -1.055840    0.645316   -0.002201    0.000123    0.000194
H    -2.498157   -0.452136   -1.007938    0.000841    0.001666   -0.000390
H    -3.248731    0.439829    0.314647    0.003025    0.001818    0.000857
H    -1.094802    1.537521   -0.378961    0.001962   -0.002181    0.000364
H    -0.987476    0.946545    1.275468   -0.004346    0.002201    0.002310
H     0.165597   -0.535659   -1.156113    0.048540    0.020117    0.014212
15
* Frequency(6) -2005.0882
C     2.803383   -0.134353    0.378413    0.043148   -0.087950   -0.106926
C    -2.379993   -0.153598    0.034533    0.000303   -0.000458    0.000152
C    -1.089480    0.634079    0.235066    0.001607   -0.000420    0.001347
C     1.377955   -0.127741    0.614440    0.089347    0.063603    0.036747
C     0.116616   -0.182030   -0.130523    0.011000    0.001793    0.011366
O     0.502360   -1.204505    0.819107    0.003239    0.013220    0.009563
H     1.624589    0.611192    1.416210   -1.939049   -0.073149    0.423135
H     3.402402   -0.834536    0.938831    0.048271    0.050727    0.062925
H     3.221813    0.466231   -0.412790    0.058946    0.068059    0.027552
H    -2.371163   -1.055848    0.645304   -0.002201    0.000123    0.000194
H    -2.498210   -0.452241   -1.007913    0.000841    0.001666   -0.000390
H    -3.248922    0.439715    0.314593    0.003025    0.001818    0.000857
H    -1.094925    1.537658   -0.378984    0.001962   -0.002181    0.000364
H    -0.987202    0.946407    1.275322   -0.004346    0.002201    0.002310
H     0.162538   -0.536927   -1.157009    0.048540    0.020117    0.014212
15
* Frequency(6) -2005.0882
C     2.799460   -0.126356    0.388135    0.043148   -0.087950   -0.106926
C    -2.380021   -0.153557    0.034520    0.000303   -0.000458    0.000152
C    -1.089626    0.634117    0.234944    0.001607   -0.000420    0.001347
C     1.369831   -0.133524    0.611099    0.089347    0.063603    0.036747
C     0.115616   -0.182193   -0.131556    0.011000    0.001793    0.011366
O     0.502066   -1.205707    0.818238    0.003239    0.013220    0.009563
H     1.800891    0.617842    1.377737   -1.939049   -0.073149    0.423135
H     3.398014   -0.839148    0.933110    0.048271    0.050727    0.062925
H     3.216454    0.460043   -0.415295    0.058946    0.068059    0.027552
H    -2.370963   -1.055859    0.645286   -0.002201    0.000123    0.000194
H    -2.498286   -0.452393   -1.007878    0.000841    0.001666   -0.000390
H    -3.249197    0.439549    0.314515    0.003025    0.001818    0.000857
H    -1.095104    1.537856   -0.379017    0.001962   -0.002181    0.000364
H    -0.986807    0.946206    1.275112   -0.004346    0.002201    0.002310
H     0.158125   -0.538756   -1.158301    0.048540    0.020117    0.014212
15
* Frequency(6) -2005.0882
C     2.794758   -0.116772    0.399787    0.043148   -0.087950   -0.106926
C    -2.380054   -0.153507    0.034503    0.000303   -0.000458    0.000152
C    -1.089801    0.634163    0.234797    0.001607   -0.000420    0.001347
C     1.360095   -0.140455    0.607095    0.089347    0.063603    0.036747
C     0.114417   -0.182389   -0.132795    0.011000    0.001793    0.011366
O     0.501713   -1.207148    0.817196    0.003239    0.013220    0.009563
H     2.012196    0.625814    1.331627   -1.939049   -0.073149    0.423135
H     3.392753   -0.844676    0.926253    0.048271    0.050727    0.062925
H     3.210030    0.452627   -0.418298    0.058946    0.068059    0.027552
H    -2.370723   -1.055873    0.645265   -0.002201    0.000123    0.000194
H    -2.498378   -0.452574   -1.007835    0.000841    0.001666   -0.000390
H    -3.249527    0.439351    0.314422    0.003025    0.001818    0.000857
H    -1.095317    1.538094   -0.379057    0.001962   -0.002181    0.000364
H    -0.986333    0.945967    1.274861   -0.004346    0.002201    0.002310
H     0.152835   -0.540948   -1.159850    0.048540    0.020117    0.014212
15
* Frequency(6) -2005.0882
C     2.789786   -0.106638    0.412107    0.043148   -0.087950   -0.106926
C    -2.380089   -0.153454    0.034485    0.000303   -0.000458    0.000152
C    -1.089986    0.634211    0.234642    0.001607   -0.000420    0.001347
C     1.349801   -0.147783    0.602861    0.089347    0.063603    0.036747
C     0.113150   -0.182595   -0.134104    0.011000    0.001793    0.011366
O     0.501340   -1.208671    0.816094    0.003239    0.013220    0.009563
H     2.235606    0.634242    1.282875   -1.939049   -0.073149    0.423135
H     3.387192   -0.850520    0.919003    0.048271    0.050727    0.062925
H     3.203239    0.444785   -0.421472    0.058946    0.068059    0.027552
H    -2.370470   -1.055887    0.645243   -0.002201    0.000123    0.000194
H    -2.498475   -0.452766   -1.007790    0.000841    0.001666   -0.000390
H    -3.249875    0.439142    0.314323    0.003025    0.001818    0.000857
H    -1.095544    1.538345   -0.379099    0.001962   -0.002181    0.000364
H    -0.985833    0.945713    1.274595   -0.004346    0.002201    0.002310
H     0.147242   -0.543266   -1.161487    0.048540    0.020117    0.014212
15
* Frequency(6) -2005.0882
C     2.785084   -0.097054    0.423759    0.043148   -0.087950   -0.106926
C    -2.380122   -0.153404    0.034469    0.000303   -0.000458    0.000152
C    -1.090161    0.634257    0.234495    0.001607   -0.000420    0.001347
C     1.340064   -0.154714    0.598857    0.089347    0.063603    0.036747
C     0.111951   -0.182791   -0.135343    0.011000    0.001793    0.011366
O     0.500987   -1.210111    0.815052    0.003239    0.013220    0.009563
H     2.446911    0.642213    1.236764   -1.939049   -0.073149    0.423135
H     3.381932   -0.856048    0.912146    0.048271    0.050727    0.062925
H     3.196815    0.437369   -0.424475    0.058946    0.068059    0.027552
H    -2.370230   -1.055900    0.645222   -0.002201    0.000123    0.000194
H    -2.498567   -0.452948   -1.007748    0.000841    0.001666   -0.000390
H    -3.250205    0.438944    0.314229    0.003025    0.001818    0.000857
H    -1.095757    1.538583   -0.379139    0.001962   -0.002181    0.000364
H    -0.985359    0.945473    1.274343   -0.004346    0.002201    0.002310
H     0.141953   -0.545458   -1.163036    0.048540    0.020117    0.014212
15
* Frequency(6) -2005.0882
C     2.781161   -0.089058    0.433481    0.043148   -0.087950   -0.106926
C    -2.380149   -0.153362    0.034455    0.000303   -0.000458    0.000152
C    -1.090307    0.634295    0.234373    0.001607   -0.000420    0.001347
C     1.331941   -0.160497    0.595515    0.089347    0.063603    0.036747
C     0.110951   -0.182954   -0.136376    0.011000    0.001793    0.011366
O     0.500692   -1.211313    0.814182    0.003239    0.013220    0.009563
H     2.623213    0.648864    1.198292   -1.939049   -0.073149    0.423135
H     3.377543   -0.860660    0.906425    0.048271    0.050727    0.062925
H     3.191456    0.431181   -0.426980    0.058946    0.068059    0.027552
H    -2.370030   -1.055911    0.645204   -0.002201    0.000123    0.000194
H    -2.498643   -0.453099   -1.007712    0.000841    0.001666   -0.000390
H    -3.250480    0.438778    0.314152    0.003025    0.001818    0.000857
H    -1.095936    1.538781   -0.379172    0.001962   -0.002181    0.000364
H    -0.984964    0.945273    1.274133   -0.004346    0.002201    0.002310
H     0.137540   -0.547287   -1.164328    0.048540    0.020117    0.014212
15
* Frequency(6) -2005.0882
C     2.778442   -0.083515    0.440219    0.043148   -0.087950   -0.106926
C    -2.380168   -0.153334    0.034445    0.000303   -0.000458    0.000152
C    -1.090408    0.634322    0.234288    0.001607   -0.000420    0.001347
C     1.326310   -0.164506    0.593200    0.089347    0.063603    0.036747
C     0.110258   -0.183067   -0.137092    0.011000    0.001793    0.011366
O     0.500488   -1.212146    0.813580    0.003239    0.013220    0.009563
H     2.745406    0.653473    1.171627   -1.939049   -0.073149    0.423135
H     3.374501   -0.863857    0.902459    0.048271    0.050727    0.062925
H     3.187741    0.426892   -0.428716    0.058946    0.068059    0.027552
H    -2.369891   -1.055919    0.645192   -0.002201    0.000123    0.000194
H    -2.498696   -0.453204   -1.007688    0.000841    0.001666   -0.000390
H    -3.250670    0.438664    0.314098    0.003025    0.001818    0.000857
H    -1.096059    1.538918   -0.379195    0.001962   -0.002181    0.000364
H    -0.984690    0.945134    1.273987   -0.004346    0.002201    0.002310
H     0.134481   -0.548555   -1.165224    0.048540    0.020117    0.014212
15
* Frequency(6) -2005.0882
C     2.777222   -0.081028    0.443244    0.043148   -0.087950   -0.106926
C    -2.380177   -0.153321    0.034441    0.000303   -0.000458    0.000152
C    -1.090454    0.634333    0.234250    0.001607   -0.000420    0.001347
C     1.323783   -0.166304    0.592160    0.089347    0.063603    0.036747
C     0.109947   -0.183118   -0.137414    0.011000    0.001793    0.011366
O     0.500396   -1.212520    0.813309    0.003239    0.013220    0.009563
H     2.800250    0.655542    1.159660   -1.939049   -0.073149    0.423135
H     3.373136   -0.865292    0.900679    0.048271    0.050727    0.062925
H     3.186074    0.424967   -0.429495    0.058946    0.068059    0.027552
H    -2.369829   -1.055923    0.645186   -0.002201    0.000123    0.000194
H    -2.498720   -0.453251   -1.007677    0.000841    0.001666   -0.000390
H    -3.250756    0.438612    0.314073    0.003025    0.001818    0.000857
H    -1.096115    1.538980   -0.379205    0.001962   -0.002181    0.000364
H    -0.984567    0.945072    1.273922   -0.004346    0.002201    0.002310
H     0.133108   -0.549124   -1.165625    0.048540    0.020117    0.014212
15
* Frequency(6) -2005.0882
C     2.777632   -0.081864    0.442226    0.043148   -0.087950   -0.106926
C    -2.380174   -0.153325    0.034443    0.000303   -0.000458    0.000152
C    -1.090439    0.634329    0.234262    0.001607   -0.000420    0.001347
C     1.324633   -0.165699    0.592510    0.089347    0.063603    0.036747
C     0.110051   -0.183100   -0.137306    0.011000    0.001793    0.011366
O     0.500427   -1.212395    0.813400    0.003239    0.013220    0.009563
H     2.781801    0.654846    1.163685   -1.939049   -0.073149    0.423135
H     3.373595   -0.864809    0.901278    0.048271    0.050727    0.062925
H     3.186635    0.425614   -0.429233    0.058946    0.068059    0.027552
H    -2.369850   -1.055921    0.645188   -0.002201    0.000123    0.000194
H    -2.498712   -0.453235   -1.007680    0.000841    0.001666   -0.000390
H    -3.250727    0.438630    0.314081    0.003025    0.001818    0.000857
H    -1.096096    1.538959   -0.379202    0.001962   -0.002181    0.000364
H    -0.984609    0.945093    1.273944   -0.004346    0.002201    0.002310
H     0.133570   -0.548933   -1.165490    0.048540    0.020117    0.014212
15
* Frequency(6) -2005.0882
C     2.779629   -0.085935    0.437278    0.043148   -0.087950   -0.106926
C    -2.380160   -0.153346    0.034450    0.000303   -0.000458    0.000152
C    -1.090364    0.634310    0.234325    0.001607   -0.000420    0.001347
C     1.328768   -0.162756    0.594211    0.089347    0.063603    0.036747
C     0.110560   -0.183017   -0.136780    0.011000    0.001793    0.011366
O     0.500577   -1.211783    0.813843    0.003239    0.013220    0.009563
H     2.692058    0.651461    1.183269   -1.939049   -0.073149    0.423135
H     3.375829   -0.862461    0.904190    0.048271    0.050727    0.062925
H     3.189363    0.428764   -0.427958    0.058946    0.068059    0.027552
H    -2.369952   -1.055916    0.645197   -0.002201    0.000123    0.000194
H    -2.498673   -0.453158   -1.007698    0.000841    0.001666   -0.000390
H    -3.250587    0.438714    0.314121    0.003025    0.001818    0.000857
H    -1.096005    1.538858   -0.379185    0.001962   -0.002181    0.000364
H    -0.984810    0.945195    1.274051   -0.004346    0.002201    0.002310
H     0.135816   -0.548002   -1.164833    0.048540    0.020117    0.014212
15
* Frequency(6) -2005.0882
C     2.782996   -0.092798    0.428934    0.043148   -0.087950   -0.106926
C    -2.380136   -0.153382    0.034462    0.000303   -0.000458    0.000152
C    -1.090239    0.634277    0.234430    0.001607   -0.000420    0.001347
C     1.335740   -0.157792    0.597078    0.089347    0.063603    0.036747
C     0.111419   -0.182878   -0.135893    0.011000    0.001793    0.011366
O     0.500830   -1.210751    0.814589    0.003239    0.013220    0.009563
H     2.540747    0.645753    1.216288   -1.939049   -0.073149    0.423135
H     3.379596   -0.858503    0.909101    0.048271    0.050727    0.062925
H     3.193963    0.434075   -0.425808    0.058946    0.068059    0.027552
H    -2.370123   -1.055906    0.645212   -0.002201    0.000123    0.000194
H    -2.498607   -0.453028   -1.007729    0.000841    0.001666   -0.000390
H    -3.250351    0.438856    0.314188    0.003025    0.001818    0.000857
H    -1.095852    1.538688   -0.379156    0.001962   -0.002181    0.000364
H    -0.985149    0.945367    1.274231   -0.004346    0.002201    0.002310
H     0.139604   -0.546432   -1.163724    0.048540    0.020117    0.014212
15
* Frequency(6) -2005.0882
C     2.787368   -0.101710    0.418099    0.043148   -0.087950   -0.106926
C    -2.380106   -0.153428    0.034477    0.000303   -0.000458    0.000152
C    -1.090076    0.634235    0.234566    0.001607   -0.000420    0.001347
C     1.344794   -0.151347    0.600802    0.089347    0.063603    0.036747
C     0.112533   -0.182696   -0.134741    0.011000    0.001793    0.011366
O     0.501158   -1.209412    0.815558    0.003239    0.013220    0.009563
H     2.344264    0.638341    1.259164   -1.939049   -0.073149    0.423135
H     3.384487   -0.853363    0.915477    0.048271    0.050727    0.062925
H     3.199936    0.440971   -0.423016    0.058946    0.068059    0.027552
H    -2.370346   -1.055894    0.645232   -0.002201    0.000123    0.000194
H    -2.498522   -0.452860   -1.007768    0.000841    0.001666   -0.000390
H    -3.250045    0.439040    0.314275    0.003025    0.001818    0.000857
H    -1.095654    1.538467   -0.379119    0.001962   -0.002181    0.000364
H    -0.985589    0.945590    1.274465   -0.004346    0.002201    0.002310
H     0.144522   -0.544393   -1.162283    0.048540    0.020117    0.014212
15
* Frequency(6) -2005.0882
C     2.792272   -0.111705    0.405947    0.043148   -0.087950   -0.106926
C    -2.380071   -0.153480    0.034494    0.000303   -0.000458    0.000152
C    -1.089893    0.634187    0.234719    0.001607   -0.000420    0.001347
C     1.354948   -0.144119    0.604978    0.089347    0.063603    0.036747
C     0.113783   -0.182492   -0.133449    0.011000    0.001793    0.011366
O     0.501526   -1.207909    0.816645    0.003239    0.013220    0.009563
H     2.123901    0.630028    1.307251   -1.939049   -0.073149    0.423135
H     3.389973   -0.847598    0.922628    0.048271    0.050727    0.062925
H     3.206635    0.448706   -0.419885    0.058946    0.068059    0.027552
H    -2.370596   -1.055880    0.645254   -0.002201    0.000123    0.000194
H    -2.498427   -0.452670   -1.007813    0.000841    0.001666   -0.000390
H    -3.249701    0.439246    0.314372    0.003025    0.001818    0.000857
H    -1.095431    1.538219   -0.379078    0.001962   -0.002181    0.000364
H    -0.986083    0.945840    1.274728   -0.004346    0.002201    0.002310
H     0.150039   -0.542107   -1.160668    0.048540    0.020117    0.014212
