17
Coordinates from ORCA-job freq E -421.426105984968
  C          -1.77808096966970     -1.64631771839799     -0.24925211117848
  C           2.27376996542355      0.45776434298649      0.20771331351662
  C          -1.51461735265273     -0.21595844479711     -0.53912673004280
  C           1.04983497179737     -0.33807967465431     -0.12618746518660
  C          -0.15273906268110      0.27758790454737     -0.72835231293812
  O          -0.25324051360908      2.35463915368504      0.15771587811353
  O           0.72665042348495     -0.48775894696552     -1.50776630852683
  O          -0.05521586207946      1.63646172451296     -1.05531393187911
  H          -1.05033029447917     -2.28239508281645     -0.75547376025229
  H          -1.71542041503667     -1.86315159688240      0.82431702743046
  H          -2.77553704421051     -1.93751801308977     -0.57502229796910
  H           3.16821394522088     -0.12751702060544     -0.00697507508066
  H           2.27305248810940      0.71165043995252      1.26729304835532
  H           2.30088337814329      1.37391764367446     -0.37621730632130
  H          -2.30843446895326      0.51486797176485     -0.50212601751904
  H           0.88869058887721     -1.24711033217619      0.44747818650031
  H          -1.07747977768496      2.81891664926148     -0.02652113702193
