17
Coordinates from ORCA-job freq E -421.406018394397
  C          -1.98799318410346     -1.18975279149448     -0.41283269655678
  C          -1.61841785523956      0.13419887787483     -0.98075585655288
  C           1.24617698802147     -0.21763279121587      0.06153491329542
  C          -1.01546227369192      1.04480378216503      0.06171647893410
  C           0.35369349892037      0.87774718389151      0.55882836266023
  O           3.42815214079082     -0.83850307655994     -0.11410928185850
  O           2.57339443640366      0.22440160933923      0.27425697855318
  O           0.01855617826961      1.91992233055544     -0.34539400531615
  H          -2.21145121639804     -2.02205904745700     -1.06230892649280
  H          -2.22694239066694     -1.28802996302338      0.63624564298432
  H          -0.91525805137165      0.02010448867920     -1.80766057579748
  H          -2.49655695870395      0.63408602441187     -1.41147855301738
  H           1.07012087293366     -1.13587418562213      0.62992754920595
  H           1.07889648879167     -0.41387473280774     -0.99899248628015
  H          -1.72809370059743      1.49391165220164      0.74842899677947
  H           0.58149182083705      1.22001336426344      1.56351656804997
  H           3.84315920580460     -0.47332972520164     -0.90384610859050
