17
* (null), Energy   -1000.0000000
C    -1.410160   -2.529934   -0.770757    0.005334   -0.000676    0.009585
C    -1.191630   -1.282979    0.032481   -0.071314    0.024483   -0.098759
C     2.109878   -0.036582    0.788880   -0.013472    0.002697    0.001270
C     0.689230   -0.316136    0.633189   -0.061120   -0.087669    0.033208
C    -0.287689   -0.186436   -0.517089   -0.006205   -0.006560   -0.009849
O    -0.008179    2.033584   -0.904318    0.000505   -0.000070    0.000364
O     1.086394    0.761667    1.409218    0.004298   -0.000805    0.003012
O    -0.962267    1.045895   -0.538724   -0.001481    0.000776    0.000387
H    -0.181754   -1.353923    1.012580    1.674704    0.869815    0.619158
H    -1.928687   -3.290363   -0.189732   -0.005249   -0.003052   -0.002753
H    -0.463796   -2.949643   -1.114709    0.004076    0.000543   -0.007608
H    -2.013658   -2.314869   -1.658377    0.002630   -0.003290   -0.009821
H    -2.042926   -0.880525    0.575779    0.063486   -0.038137    0.139394
H     2.642743    0.464284   -0.011861   -0.025541   -0.018989   -0.015990
H     2.701859   -0.626245    1.476248   -0.006279    0.005615   -0.000231
H     0.144781   -0.403597   -1.497244   -0.014485    0.002868   -0.013687
H     0.377964    2.245937   -0.042216    0.002881   -0.006815    0.000899
17
* Frequency(6) -2049.1110
C    -1.409554   -2.530011   -0.769667    0.005334   -0.000676    0.009585
C    -1.199735   -1.280196    0.021257   -0.071314    0.024483   -0.098759
C     2.108347   -0.036275    0.789024   -0.013472    0.002697    0.001270
C     0.682284   -0.326100    0.636963   -0.061120   -0.087669    0.033208
C    -0.288395   -0.187181   -0.518208   -0.006205   -0.006560   -0.009849
O    -0.008122    2.033577   -0.904277    0.000505   -0.000070    0.000364
O     1.086882    0.761575    1.409560    0.004298   -0.000805    0.003012
O    -0.962436    1.045983   -0.538680   -0.001481    0.000776    0.000387
H     0.008568   -1.255073    1.082944    1.674704    0.869815    0.619158
H    -1.929283   -3.290710   -0.190045   -0.005249   -0.003052   -0.002753
H    -0.463333   -2.949581   -1.115574    0.004076    0.000543   -0.007608
H    -2.013359   -2.315243   -1.659493    0.002630   -0.003290   -0.009821
H    -2.035711   -0.884859    0.591620    0.063486   -0.038137    0.139394
H     2.639840    0.462126   -0.013678   -0.025541   -0.018989   -0.015990
H     2.701146   -0.625607    1.476221   -0.006279    0.005615   -0.000231
H     0.143135   -0.403271   -1.498800   -0.014485    0.002868   -0.013687
H     0.378292    2.245162   -0.042114    0.002881   -0.006815    0.000899
17
* Frequency(6) -2049.1110
C    -1.409014   -2.530079   -0.768696    0.005334   -0.000676    0.009585
C    -1.206961   -1.277716    0.011250   -0.071314    0.024483   -0.098759
C     2.106982   -0.036002    0.789153   -0.013472    0.002697    0.001270
C     0.676091   -0.334983    0.640328   -0.061120   -0.087669    0.033208
C    -0.289023   -0.187846   -0.519206   -0.006205   -0.006560   -0.009849
O    -0.008071    2.033569   -0.904240    0.000505   -0.000070    0.000364
O     1.087318    0.761494    1.409866    0.004298   -0.000805    0.003012
O    -0.962586    1.046061   -0.538641   -0.001481    0.000776    0.000387
H     0.178265   -1.166935    1.145683    1.674704    0.869815    0.619158
H    -1.929815   -3.291020   -0.190324   -0.005249   -0.003052   -0.002753
H    -0.462920   -2.949526   -1.116345    0.004076    0.000543   -0.007608
H    -2.013092   -2.315576   -1.660488    0.002630   -0.003290   -0.009821
H    -2.029278   -0.888723    0.605745    0.063486   -0.038137    0.139394
H     2.637252    0.460201   -0.015299   -0.025541   -0.018989   -0.015990
H     2.700509   -0.625038    1.476198   -0.006279    0.005615   -0.000231
H     0.141667   -0.402981   -1.500186   -0.014485    0.002868   -0.013687
H     0.378583    2.244472   -0.042023    0.002881   -0.006815    0.000899
17
* Frequency(6) -2049.1110
C    -1.408597   -2.530132   -0.767948    0.005334   -0.000676    0.009585
C    -1.212526   -1.275805    0.003544   -0.071314    0.024483   -0.098759
C     2.105931   -0.035792    0.789252   -0.013472    0.002697    0.001270
C     0.671321   -0.341824    0.642919   -0.061120   -0.087669    0.033208
C    -0.289508   -0.188358   -0.519975   -0.006205   -0.006560   -0.009849
O    -0.008031    2.033564   -0.904212    0.000505   -0.000070    0.000364
O     1.087653    0.761431    1.410101    0.004298   -0.000805    0.003012
O    -0.962701    1.046122   -0.538611   -0.001481    0.000776    0.000387
H     0.308948   -1.099060    1.193998    1.674704    0.869815    0.619158
H    -1.930225   -3.291258   -0.190538   -0.005249   -0.003052   -0.002753
H    -0.462602   -2.949483   -1.116938    0.004076    0.000543   -0.007608
H    -2.012887   -2.315833   -1.661254    0.002630   -0.003290   -0.009821
H    -2.024324   -0.891699    0.616622    0.063486   -0.038137    0.139394
H     2.635259    0.458720   -0.016546   -0.025541   -0.018989   -0.015990
H     2.700019   -0.624600    1.476180   -0.006279    0.005615   -0.000231
H     0.140537   -0.402757   -1.501255   -0.014485    0.002868   -0.013687
H     0.378808    2.243940   -0.041952    0.002881   -0.006815    0.000899
17
* Frequency(6) -2049.1110
C    -1.408350   -2.530163   -0.767504    0.005334   -0.000676    0.009585
C    -1.215826   -1.274672   -0.001027   -0.071314    0.024483   -0.098759
C     2.105307   -0.035667    0.789311   -0.013472    0.002697    0.001270
C     0.668492   -0.345882    0.644456   -0.061120   -0.087669    0.033208
C    -0.289795   -0.188662   -0.520431   -0.006205   -0.006560   -0.009849
O    -0.008008    2.033561   -0.904195    0.000505   -0.000070    0.000364
O     1.087852    0.761394    1.410240    0.004298   -0.000805    0.003012
O    -0.962770    1.046158   -0.538593   -0.001481    0.000776    0.000387
H     0.386457   -1.058803    1.222654    1.674704    0.869815    0.619158
H    -1.930468   -3.291399   -0.190666   -0.005249   -0.003052   -0.002753
H    -0.462413   -2.949458   -1.117291    0.004076    0.000543   -0.007608
H    -2.012765   -2.315985   -1.661709    0.002630   -0.003290   -0.009821
H    -2.021386   -0.893464    0.623074    0.063486   -0.038137    0.139394
H     2.634077    0.457841   -0.017286   -0.025541   -0.018989   -0.015990
H     2.699729   -0.624340    1.476169   -0.006279    0.005615   -0.000231
H     0.139866   -0.402624   -1.501888   -0.014485    0.002868   -0.013687
H     0.378942    2.243624   -0.041911    0.002881   -0.006815    0.000899
17
* Frequency(6) -2049.1110
C    -1.408300   -2.530170   -0.767413    0.005334   -0.000676    0.009585
C    -1.216505   -1.274439   -0.001967   -0.071314    0.024483   -0.098759
C     2.105179   -0.035641    0.789323   -0.013472    0.002697    0.001270
C     0.667911   -0.346716    0.644772   -0.061120   -0.087669    0.033208
C    -0.289854   -0.188724   -0.520524   -0.006205   -0.006560   -0.009849
O    -0.008003    2.033560   -0.904191    0.000505   -0.000070    0.000364
O     1.087893    0.761386    1.410269    0.004298   -0.000805    0.003012
O    -0.962784    1.046165   -0.538589   -0.001481    0.000776    0.000387
H     0.402391   -1.050527    1.228545    1.674704    0.869815    0.619158
H    -1.930517   -3.291428   -0.190692   -0.005249   -0.003052   -0.002753
H    -0.462374   -2.949453   -1.117363    0.004076    0.000543   -0.007608
H    -2.012740   -2.316016   -1.661802    0.002630   -0.003290   -0.009821
H    -2.020782   -0.893827    0.624400    0.063486   -0.038137    0.139394
H     2.633834    0.457660   -0.017439   -0.025541   -0.018989   -0.015990
H     2.699669   -0.624287    1.476167   -0.006279    0.005615   -0.000231
H     0.139729   -0.402597   -1.502018   -0.014485    0.002868   -0.013687
H     0.378969    2.243560   -0.041902    0.002881   -0.006815    0.000899
17
* Frequency(6) -2049.1110
C    -1.408451   -2.530151   -0.767684    0.005334   -0.000676    0.009585
C    -1.214488   -1.275132    0.000826   -0.071314    0.024483   -0.098759
C     2.105560   -0.035717    0.789287   -0.013472    0.002697    0.001270
C     0.669640   -0.344236    0.643833   -0.061120   -0.087669    0.033208
C    -0.289678   -0.188538   -0.520246   -0.006205   -0.006560   -0.009849
O    -0.008018    2.033562   -0.904202    0.000505   -0.000070    0.000364
O     1.087771    0.761409    1.410184    0.004298   -0.000805    0.003012
O    -0.962742    1.046143   -0.538600   -0.001481    0.000776    0.000387
H     0.355023   -1.075129    1.211033    1.674704    0.869815    0.619158
H    -1.930369   -3.291342   -0.190614   -0.005249   -0.003052   -0.002753
H    -0.462489   -2.949468   -1.117148    0.004076    0.000543   -0.007608
H    -2.012815   -2.315923   -1.661524    0.002630   -0.003290   -0.009821
H    -2.022577   -0.892748    0.620457    0.063486   -0.038137    0.139394
H     2.634556    0.458197   -0.016986   -0.025541   -0.018989   -0.015990
H     2.699847   -0.624446    1.476173   -0.006279    0.005615   -0.000231
H     0.140138   -0.402678   -1.501631   -0.014485    0.002868   -0.013687
H     0.378888    2.243752   -0.041928    0.002881   -0.006815    0.000899
17
* Frequency(6) -2049.1110
C    -1.408787   -2.530108   -0.768288    0.005334   -0.000676    0.009585
C    -1.209994   -1.276674    0.007050   -0.071314    0.024483   -0.098759
C     2.106409   -0.035887    0.789207   -0.013472    0.002697    0.001270
C     0.673491   -0.338711    0.641740   -0.061120   -0.087669    0.033208
C    -0.289287   -0.188125   -0.519625   -0.006205   -0.006560   -0.009849
O    -0.008049    2.033566   -0.904225    0.000505   -0.000070    0.000364
O     1.087501    0.761460    1.409994    0.004298   -0.000805    0.003012
O    -0.962649    1.046094   -0.538624   -0.001481    0.000776    0.000387
H     0.249488   -1.129942    1.172015    1.674704    0.869815    0.619158
H    -1.930038   -3.291149   -0.190441   -0.005249   -0.003052   -0.002753
H    -0.462746   -2.949503   -1.116668    0.004076    0.000543   -0.007608
H    -2.012980   -2.315716   -1.660906    0.002630   -0.003290   -0.009821
H    -2.026578   -0.890345    0.611673    0.063486   -0.038137    0.139394
H     2.636166    0.459394   -0.015979   -0.025541   -0.018989   -0.015990
H     2.700242   -0.624800    1.476188   -0.006279    0.005615   -0.000231
H     0.141051   -0.402859   -1.500769   -0.014485    0.002868   -0.013687
H     0.378706    2.244182   -0.041984    0.002881   -0.006815    0.000899
17
* Frequency(6) -2049.1110
C    -1.409272   -2.530047   -0.769160    0.005334   -0.000676    0.009585
C    -1.203510   -1.278900    0.016029   -0.071314    0.024483   -0.098759
C     2.107634   -0.036133    0.789091   -0.013472    0.002697    0.001270
C     0.679048   -0.330740    0.638721   -0.061120   -0.087669    0.033208
C    -0.288723   -0.187529   -0.518730   -0.006205   -0.006560   -0.009849
O    -0.008095    2.033573   -0.904258    0.000505   -0.000070    0.000364
O     1.087110    0.761533    1.409720    0.004298   -0.000805    0.003012
O    -0.962514    1.046024   -0.538659   -0.001481    0.000776    0.000387
H     0.097221   -1.209027    1.115720    1.674704    0.869815    0.619158
H    -1.929561   -3.290872   -0.190190   -0.005249   -0.003052   -0.002753
H    -0.463117   -2.949552   -1.115977    0.004076    0.000543   -0.007608
H    -2.013220   -2.315417   -1.660013    0.002630   -0.003290   -0.009821
H    -2.032350   -0.886878    0.598999    0.063486   -0.038137    0.139394
H     2.638488    0.461120   -0.014525   -0.025541   -0.018989   -0.015990
H     2.700813   -0.625310    1.476209   -0.006279    0.005615   -0.000231
H     0.142368   -0.403119   -1.499524   -0.014485    0.002868   -0.013687
H     0.378444    2.244802   -0.042066    0.002881   -0.006815    0.000899
17
* Frequency(6) -2049.1110
C    -1.409853   -2.529973   -0.770204    0.005334   -0.000676    0.009585
C    -1.195739   -1.281568    0.026791   -0.071314    0.024483   -0.098759
C     2.109102   -0.036427    0.788953   -0.013472    0.002697    0.001270
C     0.685709   -0.321187    0.635102   -0.061120   -0.087669    0.033208
C    -0.288047   -0.186814   -0.517656   -0.006205   -0.006560   -0.009849
O    -0.008150    2.033580   -0.904297    0.000505   -0.000070    0.000364
O     1.086642    0.761620    1.409392    0.004298   -0.000805    0.003012
O    -0.962353    1.045939   -0.538702   -0.001481    0.000776    0.000387
H    -0.085277   -1.303814    1.048248    1.674704    0.869815    0.619158
H    -1.928989   -3.290539   -0.189890   -0.005249   -0.003052   -0.002753
H    -0.463561   -2.949611   -1.115148    0.004076    0.000543   -0.007608
H    -2.013506   -2.315058   -1.658942    0.002630   -0.003290   -0.009821
H    -2.039269   -0.882722    0.583809    0.063486   -0.038137    0.139394
H     2.641271    0.463190   -0.012782   -0.025541   -0.018989   -0.015990
H     2.701498   -0.625922    1.476234   -0.006279    0.005615   -0.000231
H     0.143947   -0.403432   -1.498033   -0.014485    0.002868   -0.013687
H     0.378130    2.245544   -0.042164    0.002881   -0.006815    0.000899
17
* Frequency(6) -2049.1110
C    -1.410468   -2.529895   -0.771309    0.005334   -0.000676    0.009585
C    -1.187522   -1.284389    0.038170   -0.071314    0.024483   -0.098759
C     2.110654   -0.036737    0.788807   -0.013472    0.002697    0.001270
C     0.692751   -0.311086    0.631276   -0.061120   -0.087669    0.033208
C    -0.287332   -0.186058   -0.516522   -0.006205   -0.006560   -0.009849
O    -0.008209    2.033588   -0.904339    0.000505   -0.000070    0.000364
O     1.086146    0.761713    1.409045    0.004298   -0.000805    0.003012
O    -0.962182    1.045850   -0.538746   -0.001481    0.000776    0.000387
H    -0.278230   -1.404031    0.976911    1.674704    0.869815    0.619158
H    -1.928384   -3.290188   -0.189573   -0.005249   -0.003052   -0.002753
H    -0.464031   -2.949674   -1.114271    0.004076    0.000543   -0.007608
H    -2.013809   -2.314679   -1.657811    0.002630   -0.003290   -0.009821
H    -2.046583   -0.878328    0.567749    0.063486   -0.038137    0.139394
H     2.644214    0.465377   -0.010940   -0.025541   -0.018989   -0.015990
H     2.702221   -0.626569    1.476261   -0.006279    0.005615   -0.000231
H     0.145615   -0.403762   -1.496456   -0.014485    0.002868   -0.013687
H     0.377798    2.246329   -0.042268    0.002881   -0.006815    0.000899
17
* Frequency(6) -2049.1110
C    -1.411049   -2.529822   -0.772353    0.005334   -0.000676    0.009585
C    -1.179751   -1.287057    0.048932   -0.071314    0.024483   -0.098759
C     2.112123   -0.037031    0.788668   -0.013472    0.002697    0.001270
C     0.699411   -0.301532    0.627657   -0.061120   -0.087669    0.033208
C    -0.286656   -0.185343   -0.515448   -0.006205   -0.006560   -0.009849
O    -0.008264    2.033596   -0.904379    0.000505   -0.000070    0.000364
O     1.085678    0.761801    1.408716    0.004298   -0.000805    0.003012
O    -0.962021    1.045765   -0.538788   -0.001481    0.000776    0.000387
H    -0.460728   -1.498818    0.909440    1.674704    0.869815    0.619158
H    -1.927812   -3.289855   -0.189273   -0.005249   -0.003052   -0.002753
H    -0.464475   -2.949733   -1.113442    0.004076    0.000543   -0.007608
H    -2.014096   -2.314321   -1.656741    0.002630   -0.003290   -0.009821
H    -2.053502   -0.874172    0.552558    0.063486   -0.038137    0.139394
H     2.646997    0.467447   -0.009197   -0.025541   -0.018989   -0.015990
H     2.702905   -0.627181    1.476286   -0.006279    0.005615   -0.000231
H     0.147194   -0.404075   -1.494964   -0.014485    0.002868   -0.013687
H     0.377484    2.247072   -0.042366    0.002881   -0.006815    0.000899
17
* Frequency(6) -2049.1110
C    -1.411534   -2.529760   -0.773225    0.005334   -0.000676    0.009585
C    -1.173267   -1.289283    0.057911   -0.071314    0.024483   -0.098759
C     2.113347   -0.037277    0.788553   -0.013472    0.002697    0.001270
C     0.704968   -0.293561    0.624638   -0.061120   -0.087669    0.033208
C    -0.286091   -0.184747   -0.514553   -0.006205   -0.006560   -0.009849
O    -0.008310    2.033602   -0.904412    0.000505   -0.000070    0.000364
O     1.085287    0.761874    1.408442    0.004298   -0.000805    0.003012
O    -0.961886    1.045695   -0.538824   -0.001481    0.000776    0.000387
H    -0.612995   -1.577903    0.853145    1.674704    0.869815    0.619158
H    -1.927335   -3.289578   -0.189023   -0.005249   -0.003052   -0.002753
H    -0.464846   -2.949782   -1.112750    0.004076    0.000543   -0.007608
H    -2.014335   -2.314022   -1.655848    0.002630   -0.003290   -0.009821
H    -2.059274   -0.870704    0.539885    0.063486   -0.038137    0.139394
H     2.649320    0.469173   -0.007744   -0.025541   -0.018989   -0.015990
H     2.703476   -0.627691    1.476307   -0.006279    0.005615   -0.000231
H     0.148511   -0.404335   -1.493720   -0.014485    0.002868   -0.013687
H     0.377222    2.247692   -0.042447    0.002881   -0.006815    0.000899
17
* Frequency(6) -2049.1110
C    -1.411870   -2.529718   -0.773829    0.005334   -0.000676    0.009585
C    -1.168773   -1.290826    0.064135   -0.071314    0.024483   -0.098759
C     2.114196   -0.037447    0.788473   -0.013472    0.002697    0.001270
C     0.708820   -0.288037    0.622545   -0.061120   -0.087669    0.033208
C    -0.285700   -0.184333   -0.513932   -0.006205   -0.006560   -0.009849
O    -0.008341    2.033607   -0.904435    0.000505   -0.000070    0.000364
O     1.085016    0.761925    1.408253    0.004298   -0.000805    0.003012
O    -0.961793    1.045646   -0.538848   -0.001481    0.000776    0.000387
H    -0.718531   -1.632716    0.814127    1.674704    0.869815    0.619158
H    -1.927004   -3.289385   -0.188849   -0.005249   -0.003052   -0.002753
H    -0.465103   -2.949817   -1.112271    0.004076    0.000543   -0.007608
H    -2.014500   -2.313814   -1.655229    0.002630   -0.003290   -0.009821
H    -2.063275   -0.868301    0.531100    0.063486   -0.038137    0.139394
H     2.650929    0.470370   -0.006736   -0.025541   -0.018989   -0.015990
H     2.703872   -0.628045    1.476322   -0.006279    0.005615   -0.000231
H     0.149424   -0.404516   -1.492857   -0.014485    0.002868   -0.013687
H     0.377041    2.248121   -0.042504    0.002881   -0.006815    0.000899
17
* Frequency(6) -2049.1110
C    -1.412021   -2.529698   -0.774100    0.005334   -0.000676    0.009585
C    -1.166756   -1.291518    0.066928   -0.071314    0.024483   -0.098759
C     2.114577   -0.037523    0.788437   -0.013472    0.002697    0.001270
C     0.710549   -0.285557    0.621606   -0.061120   -0.087669    0.033208
C    -0.285525   -0.184148   -0.513654   -0.006205   -0.006560   -0.009849
O    -0.008356    2.033609   -0.904445    0.000505   -0.000070    0.000364
O     1.084895    0.761948    1.408167    0.004298   -0.000805    0.003012
O    -0.961751    1.045624   -0.538859   -0.001481    0.000776    0.000387
H    -0.765898   -1.657318    0.796615    1.674704    0.869815    0.619158
H    -1.926856   -3.289299   -0.188771   -0.005249   -0.003052   -0.002753
H    -0.465218   -2.949832   -1.112056    0.004076    0.000543   -0.007608
H    -2.014575   -2.313721   -1.654951    0.002630   -0.003290   -0.009821
H    -2.065070   -0.867222    0.527158    0.063486   -0.038137    0.139394
H     2.651651    0.470907   -0.006284   -0.025541   -0.018989   -0.015990
H     2.704049   -0.628204    1.476328   -0.006279    0.005615   -0.000231
H     0.149833   -0.404597   -1.492470   -0.014485    0.002868   -0.013687
H     0.376959    2.248314   -0.042529    0.002881   -0.006815    0.000899
17
* Frequency(6) -2049.1110
C    -1.411970   -2.529705   -0.774009    0.005334   -0.000676    0.009585
C    -1.167434   -1.291285    0.065989   -0.071314    0.024483   -0.098759
C     2.114449   -0.037497    0.788449   -0.013472    0.002697    0.001270
C     0.709967   -0.286391    0.621922   -0.061120   -0.087669    0.033208
C    -0.285584   -0.184210   -0.513747   -0.006205   -0.006560   -0.009849
O    -0.008351    2.033608   -0.904442    0.000505   -0.000070    0.000364
O     1.084936    0.761940    1.408196    0.004298   -0.000805    0.003012
O    -0.961765    1.045631   -0.538855   -0.001481    0.000776    0.000387
H    -0.749964   -1.649042    0.802506    1.674704    0.869815    0.619158
H    -1.926906   -3.289328   -0.188798   -0.005249   -0.003052   -0.002753
H    -0.465179   -2.949827   -1.112128    0.004076    0.000543   -0.007608
H    -2.014550   -2.313753   -1.655044    0.002630   -0.003290   -0.009821
H    -2.064466   -0.867585    0.528484    0.063486   -0.038137    0.139394
H     2.651408    0.470726   -0.006436   -0.025541   -0.018989   -0.015990
H     2.703990   -0.628151    1.476326   -0.006279    0.005615   -0.000231
H     0.149696   -0.404570   -1.492600   -0.014485    0.002868   -0.013687
H     0.376987    2.248249   -0.042521    0.002881   -0.006815    0.000899
17
* Frequency(6) -2049.1110
C    -1.411723   -2.529736   -0.773565    0.005334   -0.000676    0.009585
C    -1.170735   -1.290152    0.061418   -0.071314    0.024483   -0.098759
C     2.113826   -0.037372    0.788507   -0.013472    0.002697    0.001270
C     0.707138   -0.290449    0.623459   -0.061120   -0.087669    0.033208
C    -0.285871   -0.184514   -0.514203   -0.006205   -0.006560   -0.009849
O    -0.008327    2.033605   -0.904425    0.000505   -0.000070    0.000364
O     1.085135    0.761903    1.408336    0.004298   -0.000805    0.003012
O    -0.961833    1.045667   -0.538837   -0.001481    0.000776    0.000387
H    -0.672456   -1.608786    0.831161    1.674704    0.869815    0.619158
H    -1.927149   -3.289469   -0.188925   -0.005249   -0.003052   -0.002753
H    -0.464990   -2.949802   -1.112480    0.004076    0.000543   -0.007608
H    -2.014428   -2.313905   -1.655499    0.002630   -0.003290   -0.009821
H    -2.061528   -0.869350    0.534935    0.063486   -0.038137    0.139394
H     2.650226    0.469848   -0.007176   -0.025541   -0.018989   -0.015990
H     2.703699   -0.627891    1.476315   -0.006279    0.005615   -0.000231
H     0.149025   -0.404437   -1.493234   -0.014485    0.002868   -0.013687
H     0.377120    2.247934   -0.042479    0.002881   -0.006815    0.000899
17
* Frequency(6) -2049.1110
C    -1.411307   -2.529789   -0.772817    0.005334   -0.000676    0.009585
C    -1.176300   -1.288242    0.053711   -0.071314    0.024483   -0.098759
C     2.112774   -0.037162    0.788607   -0.013472    0.002697    0.001270
C     0.702369   -0.297290    0.626050   -0.061120   -0.087669    0.033208
C    -0.286355   -0.185026   -0.514972   -0.006205   -0.006560   -0.009849
O    -0.008288    2.033599   -0.904396    0.000505   -0.000070    0.000364
O     1.085470    0.761840    1.408571    0.004298   -0.000805    0.003012
O    -0.961949    1.045728   -0.538807   -0.001481    0.000776    0.000387
H    -0.541772   -1.540911    0.879477    1.674704    0.869815    0.619158
H    -1.927558   -3.289707   -0.189140   -0.005249   -0.003052   -0.002753
H    -0.464672   -2.949759   -1.113074    0.004076    0.000543   -0.007608
H    -2.014223   -2.314162   -1.656265    0.002630   -0.003290   -0.009821
H    -2.056574   -0.872326    0.545813    0.063486   -0.038137    0.139394
H     2.648233    0.468366   -0.008424   -0.025541   -0.018989   -0.015990
H     2.703209   -0.627453    1.476297   -0.006279    0.005615   -0.000231
H     0.147895   -0.404213   -1.494302   -0.014485    0.002868   -0.013687
H     0.377345    2.247402   -0.042409    0.002881   -0.006815    0.000899
17
* Frequency(6) -2049.1110
C    -1.410766   -2.529857   -0.771846    0.005334   -0.000676    0.009585
C    -1.183526   -1.285761    0.043704   -0.071314    0.024483   -0.098759
C     2.111409   -0.036889    0.788735   -0.013472    0.002697    0.001270
C     0.696176   -0.306173    0.629415   -0.061120   -0.087669    0.033208
C    -0.286984   -0.185690   -0.515970   -0.006205   -0.006560   -0.009849
O    -0.008237    2.033592   -0.904360    0.000505   -0.000070    0.000364
O     1.085906    0.761758    1.408876    0.004298   -0.000805    0.003012
O    -0.962099    1.045806   -0.538768   -0.001481    0.000776    0.000387
H    -0.372075   -1.452773    0.942216    1.674704    0.869815    0.619158
H    -1.928090   -3.290017   -0.189419   -0.005249   -0.003052   -0.002753
H    -0.464259   -2.949704   -1.113845    0.004076    0.000543   -0.007608
H    -2.013956   -2.314495   -1.657261    0.002630   -0.003290   -0.009821
H    -2.050141   -0.876190    0.559938    0.063486   -0.038137    0.139394
H     2.645645    0.466442   -0.010044   -0.025541   -0.018989   -0.015990
H     2.702573   -0.626884    1.476274   -0.006279    0.005615   -0.000231
H     0.146427   -0.403923   -1.495689   -0.014485    0.002868   -0.013687
H     0.377637    2.246711   -0.042318    0.002881   -0.006815    0.000899
17
* Frequency(6) -2049.1110
C    -1.410160   -2.529934   -0.770757    0.005334   -0.000676    0.009585
C    -1.191630   -1.282979    0.032481   -0.071314    0.024483   -0.098759
C     2.109878   -0.036582    0.788880   -0.013472    0.002697    0.001270
C     0.689230   -0.316136    0.633189   -0.061120   -0.087669    0.033208
C    -0.287689   -0.186436   -0.517089   -0.006205   -0.006560   -0.009849
O    -0.008179    2.033584   -0.904318    0.000505   -0.000070    0.000364
O     1.086394    0.761667    1.409218    0.004298   -0.000805    0.003012
O    -0.962267    1.045895   -0.538724   -0.001481    0.000776    0.000387
H    -0.181754   -1.353923    1.012580    1.674704    0.869815    0.619158
H    -1.928687   -3.290363   -0.189732   -0.005249   -0.003052   -0.002753
H    -0.463796   -2.949643   -1.114709    0.004076    0.000543   -0.007608
H    -2.013658   -2.314869   -1.658377    0.002630   -0.003290   -0.009821
H    -2.042926   -0.880525    0.575779    0.063486   -0.038137    0.139394
H     2.642743    0.464284   -0.011861   -0.025541   -0.018989   -0.015990
H     2.701859   -0.626245    1.476248   -0.006279    0.005615   -0.000231
H     0.144781   -0.403597   -1.497244   -0.014485    0.002868   -0.013687
H     0.377964    2.245937   -0.042216    0.002881   -0.006815    0.000899
