15
Coordinates from ORCA-job freq E -271.010880139737
  C       1.716152     -0.404777      0.428838
  C      -1.860710     -0.268944      0.649545
  C      -0.709431     -0.534279     -0.277599
  C       1.373953      0.738259     -0.471868
  C      -0.042108      0.672229     -0.885686
  O       0.413518      1.619199      0.040216
  H       0.395935     -0.870300      0.385820
  H       1.967817     -0.145596      1.446405
  H       2.361833     -1.151058     -0.010960
  H      -2.740480      0.050745      0.086187
  H      -1.599497      0.524621      1.346076
  H      -2.124866     -1.165488      1.207097
  H      -0.893690     -1.320869     -1.004939
  H       2.133584      1.184487     -1.106813
  H      -0.392010      1.071770     -1.832320
15
Coordinates from ORCA-job freq E -271.011693807158
  C       1.726074     -0.399132      0.425220
  C      -1.866336     -0.267854      0.649764
  C      -0.710688     -0.531025     -0.279805
  C       1.379252      0.736515     -0.481472
  C      -0.038475      0.666372     -0.894754
  O       0.410842      1.612971      0.047149
  H       0.391017     -0.870110      0.389999
  H       1.977687     -0.138392      1.448106
  H       2.362593     -1.162650     -0.011128
  H      -2.746306      0.061836      0.089622
  H      -1.605881      0.517193      1.358309
  H      -2.140641     -1.166740      1.201034
  H      -0.882311     -1.330556     -0.998913
  H       2.136224      1.196200     -1.107917
  H      -0.393051      1.075372     -1.835214
15
Coordinates from ORCA-job freq E -271.011830106826
  C       1.745197     -0.392848      0.421204
  C      -1.875783     -0.265306      0.644021
  C      -0.715420     -0.528296     -0.279515
  C       1.382564      0.731364     -0.491560
  C      -0.038306      0.660960     -0.897133
  O       0.411850      1.605189      0.059993
  H       0.395421     -0.878664      0.408267
  H       2.000509     -0.128571      1.441807
  H       2.364709     -1.173782     -0.009343
  H      -2.753493      0.072355      0.084731
  H      -1.618364      0.511754      1.362339
  H      -2.159830     -1.164862      1.188888
  H      -0.872767     -1.339248     -0.989601
  H       2.131840      1.205736     -1.115313
  H      -0.398126      1.084220     -1.828785
15
Coordinates from ORCA-job freq E -271.011688974385
  C       1.737548     -0.396440      0.423716
  C      -1.871682     -0.265055      0.646284
  C      -0.717184     -0.529176     -0.283436
  C       1.379586      0.733580     -0.484493
  C      -0.039158      0.662848     -0.896376
  O       0.408168      1.608966      0.055618
  H       0.403674     -0.883966      0.400649
  H       1.988577     -0.134150      1.445940
  H       2.368582     -1.166587     -0.009010
  H      -2.753922      0.064697      0.089439
  H      -1.611922      0.519177      1.355980
  H      -2.146956     -1.162699      1.198997
  H      -0.884510     -1.332714     -0.999392
  H       2.131546      1.201622     -1.110340
  H      -0.392347      1.079899     -1.833577
15
Coordinates from ORCA-job freq E -271.011410911683
  C       1.777791     -0.388652      0.415398
  C      -1.900874     -0.266603      0.631400
  C      -0.715715     -0.530816     -0.258548
  C       1.386594      0.726384     -0.498338
  C      -0.043427      0.661540     -0.878039
  O       0.429090      1.603690      0.070636
  H       0.398385     -0.863533      0.457977
  H       2.068524     -0.115097      1.422763
  H       2.370275     -1.182889     -0.026337
  H      -2.756039      0.091935      0.051148
  H      -1.655415      0.495550      1.369509
  H      -2.211992     -1.171292      1.152100
  H      -0.854451     -1.346861     -0.966495
  H       2.122832      1.198100     -1.140020
  H      -0.415577      1.088545     -1.803154
15
Coordinates from ORCA-job freq E -271.011582214471
  C       1.749886     -0.393919      0.420918
  C      -1.881789     -0.265575      0.640579
  C      -0.717678     -0.528200     -0.276490
  C       1.381405      0.730165     -0.490277
  C      -0.041233      0.663340     -0.890640
  O       0.415999      1.607885      0.061360
  H       0.408269     -0.878110      0.423683
  H       2.015203     -0.126714      1.437617
  H       2.366402     -1.174149     -0.013750
  H      -2.756061      0.073532      0.076941
  H      -1.626944      0.510777      1.360512
  H      -2.168495     -1.166162      1.182410
  H      -0.872665     -1.338086     -0.988023
  H       2.127843      1.199777     -1.121531
  H      -0.400142      1.085440     -1.823307
15
Coordinates from ORCA-job freq E -271.011784429175
  C       1.725035     -0.397850      0.423651
  C      -1.865771     -0.265835      0.647414
  C      -0.716581     -0.524109     -0.288655
  C       1.378048      0.732882     -0.486769
  C      -0.038799      0.665877     -0.901375
  O       0.407894      1.612385      0.053859
  H       0.412589     -0.882042      0.398782
  H       1.971914     -0.135640      1.446741
  H       2.354259     -1.172785     -0.003107
  H      -2.754134      0.059026      0.097137
  H      -1.606276      0.519271      1.356173
  H      -2.133722     -1.164522      1.202179
  H      -0.877992     -1.333811     -0.998948
  H       2.132637      1.201407     -1.108795
  H      -0.389100      1.085747     -1.838286
15
Coordinates from ORCA-job freq E -271.011853395139
  C       1.707302     -0.400076      0.423953
  C      -1.855441     -0.266704      0.651165
  C      -0.714134     -0.519993     -0.294821
  C       1.376871      0.734475     -0.486807
  C      -0.036744      0.668123     -0.908618
  O       0.404551      1.615941      0.049215
  H       0.412683     -0.878955      0.385240
  H       1.945125     -0.140430      1.450167
  H       2.338729     -1.177067      0.003451
  H      -2.752057      0.050338      0.109402
  H      -1.594864      0.522027      1.355608
  H      -2.112498     -1.165346      1.211420
  H      -0.872810     -1.334316     -1.000488
  H       2.136236      1.203536     -1.102171
  H      -0.382948      1.088448     -1.846716
15
Coordinates from ORCA-job freq E -271.011870380766
  C       1.709771     -0.399487      0.423100
  C      -1.857573     -0.266930      0.650037
  C      -0.713595     -0.519949     -0.292645
  C       1.377796      0.734141     -0.488148
  C      -0.036869      0.668012     -0.907375
  O       0.406311      1.615519      0.050291
  H       0.410833     -0.876325      0.388974
  H       1.951436     -0.138887      1.448151
  H       2.336958     -1.179510      0.001883
  H      -2.752287      0.052395      0.106479
  H      -1.598230      0.520073      1.356897
  H      -2.117490     -1.166258      1.207848
  H      -0.868212     -1.336426     -0.996742
  H       2.135824      1.204079     -1.104434
  H      -0.384674      1.089552     -1.844317
15
Coordinates from ORCA-job freq E -271.011898900866
  C       1.728568     -0.396911      0.417385
  C      -1.874862     -0.268285      0.641348
  C      -0.710246     -0.520388     -0.275395
  C       1.382756      0.732136     -0.494323
  C      -0.038772      0.667789     -0.895121
  O       0.418303      1.613350      0.058218
  H       0.405220     -0.857666      0.419703
  H       2.002005     -0.130669      1.432745
  H       2.327266     -1.193658     -0.013138
  H      -2.754685      0.064629      0.081910
  H      -1.626402      0.509325      1.362564
  H      -2.154142     -1.171331      1.183342
  H      -0.839414     -1.347582     -0.972102
  H       2.130511      1.204500     -1.121120
  H      -0.396103      1.094761     -1.826016
15
Coordinates from ORCA-job freq E -271.011903454836
  C       1.722404     -0.398026      0.418659
  C      -1.870664     -0.268060      0.643487
  C      -0.710625     -0.519918     -0.279215
  C       1.381190      0.733018     -0.492235
  C      -0.038249      0.668145     -0.897901
  O       0.415020      1.614486      0.056241
  H       0.408791     -0.860856      0.413215
  H       1.990359     -0.133779      1.436114
  H       2.327097     -1.190835     -0.011106
  H      -2.754072      0.060674      0.087191
  H      -1.620304      0.512580      1.360751
  H      -2.144990     -1.170002      1.189893
  H      -0.844886     -1.344939     -0.977566
  H       2.131603      1.204379     -1.116676
  H      -0.392673      1.093132     -1.830851
15
Coordinates from ORCA-job freq E -271.011896099322
  C       1.719414     -0.398051      0.418778
  C      -1.868808     -0.268242      0.644242
  C      -0.709650     -0.519548     -0.279652
  C       1.380926      0.733533     -0.492231
  C      -0.037742      0.668090     -0.899226
  O       0.413994      1.615018      0.055453
  H       0.408114     -0.859807      0.410730
  H       1.986433     -0.134719      1.436795
  H       2.324135     -1.191187     -0.010608
  H      -2.752749      0.060679      0.088809
  H      -1.617997      0.512112      1.361688
  H      -2.142860     -1.170301      1.190610
  H      -0.843590     -1.345267     -0.977295
  H       2.132096      1.205044     -1.115565
  H      -0.391714      1.092645     -1.832527
15
Coordinates from ORCA-job freq E -271.011897839615
  C       1.723733     -0.397306      0.418058
  C      -1.871957     -0.268340      0.642790
  C      -0.709405     -0.520096     -0.276726
  C       1.381719      0.733124     -0.493166
  C      -0.038151      0.667678     -0.897079
  O       0.415807      1.614366      0.056823
  H       0.406997     -0.857838      0.415690
  H       1.995481     -0.133023      1.434505
  H       2.324397     -1.192602     -0.012872
  H      -2.752974      0.063672      0.084617
  H      -1.622487      0.510053      1.362846
  H      -2.149936     -1.170977      1.186150
  H      -0.840412     -1.346789     -0.973800
  H       2.131009      1.205107     -1.118437
  H      -0.393818      1.092973     -1.829399
15
Coordinates from ORCA-job freq E -271.011899430812
  C       1.723179     -0.397305      0.418155
  C      -1.871741     -0.268348      0.642904
  C      -0.709226     -0.520137     -0.276644
  C       1.381514      0.733311     -0.492940
  C      -0.038105      0.667571     -0.897221
  O       0.415393      1.614548      0.056644
  H       0.407644     -0.857636      0.415641
  H       1.995430     -0.133394      1.434575
  H       2.323720     -1.192468     -0.013259
  H      -2.752557      0.063975      0.084572
  H      -1.622197      0.509931      1.363061
  H      -2.150052     -1.170962      1.186122
  H      -0.840325     -1.346824     -0.973729
  H       2.130929      1.205239     -1.118100
  H      -0.393605      1.092499     -1.829779
15
Coordinates from ORCA-job freq E -271.011893438432
  C       1.723241     -0.397161      0.418132
  C      -1.871904     -0.268380      0.642810
  C      -0.708998     -0.520239     -0.276200
  C       1.381470      0.733409     -0.492951
  C      -0.038113      0.667411     -0.897115
  O       0.415293      1.614601      0.056653
  H       0.407814     -0.857113      0.416173
  H       1.996489     -0.133398      1.434323
  H       2.323044     -1.192629     -0.013784
  H      -2.752137      0.064775      0.084050
  H      -1.622413      0.509403      1.363526
  H      -2.151103     -1.171103      1.185370
  H      -0.839683     -1.347164     -0.973097
  H       2.130757      1.205421     -1.118199
  H      -0.393756      1.092169     -1.829691
15
Coordinates from ORCA-job freq E -271.011891225462
  C       1.723533     -0.396979      0.418094
  C      -1.872184     -0.268406      0.642668
  C      -0.708812     -0.520372     -0.275720
  C       1.381483      0.733472     -0.493019
  C      -0.038133      0.667240     -0.896952
  O       0.415285      1.614609      0.056692
  H       0.407852     -0.856643      0.416816
  H       1.997769     -0.133281      1.434035
  H       2.322580     -1.192786     -0.014271
  H      -2.751788      0.065699      0.083463
  H      -1.622746      0.508789      1.364046
  H      -2.152355     -1.171276      1.184470
  H      -0.839057     -1.347543     -0.972412
  H       2.130579      1.205571     -1.118426
  H      -0.394006      1.091906     -1.829485
15
Coordinates from ORCA-job freq E -271.011893547283
  C       1.723763     -0.396816      0.418086
  C      -1.872381     -0.268425      0.642573
  C      -0.708677     -0.520488     -0.275370
  C       1.381483      0.733522     -0.493075
  C      -0.038155      0.667093     -0.896848
  O       0.415255      1.614613      0.056696
  H       0.407875     -0.856312      0.417289
  H       1.998732     -0.133147      1.433833
  H       2.322251     -1.192880     -0.014610
  H      -2.751471      0.066514      0.083056
  H      -1.622935      0.508246      1.364519
  H      -2.153364     -1.171432      1.183715
  H      -0.838628     -1.347847     -0.971913
  H       2.130449      1.205692     -1.118592
  H      -0.394197      1.091665     -1.829359
15
Coordinates from ORCA-job freq E -271.011896556041
  C       1.723901     -0.396686      0.418095
  C      -1.872490     -0.268438      0.642521
  C      -0.708579     -0.520585     -0.275143
  C       1.381472      0.733565     -0.493112
  C      -0.038165      0.666969     -0.896802
  O       0.415200      1.614617      0.056668
  H       0.407892     -0.856099      0.417582
  H       1.999361     -0.133039      1.433710
  H       2.322026     -1.192909     -0.014821
  H      -2.751201      0.067180      0.082809
  H      -1.622986      0.507806      1.364909
  H      -2.154100     -1.171557      1.183144
  H      -0.838367     -1.348068     -0.971572
  H       2.130363      1.205789     -1.118683
  H      -0.394326      1.091453     -1.829305
15
Coordinates from ORCA-job freq E -271.011898389490
  C       1.723993     -0.396573      0.418117
  C      -1.872549     -0.268448      0.642483
  C      -0.708507     -0.520673     -0.274989
  C       1.381453      0.733598     -0.493136
  C      -0.038181      0.666866     -0.896775
  O       0.415141      1.614619      0.056636
  H       0.407911     -0.855959      0.417790
  H       1.999808     -0.132932      1.433635
  H       2.321850     -1.192918     -0.014955
  H      -2.750966      0.067741      0.082646
  H      -1.622952      0.507439      1.365221
  H      -2.154659     -1.171656      1.182687
  H      -0.838197     -1.348238     -0.971342
  H       2.130288      1.205859     -1.118742
  H      -0.394433      1.091275     -1.829276
15
Coordinates from ORCA-job freq E -271.011908842959
  C       1.724039     -0.396486      0.418148
  C      -1.872558     -0.268450      0.642472
  C      -0.708458     -0.520750     -0.274909
  C       1.381424      0.733635     -0.493144
  C      -0.038194      0.666775     -0.896794
  O       0.415043      1.614613      0.056587
  H       0.407918     -0.855886      0.417893
  H       2.000074     -0.132856      1.433610
  H       2.321742     -1.192899     -0.015022
  H      -2.750755      0.068222      0.082583
  H      -1.622838      0.507142      1.365488
  H      -2.155061     -1.171732      1.182339
  H      -0.838116     -1.348371     -0.971200
  H       2.130238      1.205941     -1.118747
  H      -0.394496      1.091102     -1.829306
15
Coordinates from ORCA-job freq E -271.011895808355
  C       1.724122     -0.396402      0.418171
  C      -1.872613     -0.268462      0.642457
  C      -0.708428     -0.520808     -0.274816
  C       1.381416      0.733656     -0.493164
  C      -0.038206      0.666709     -0.896782
  O       0.415008      1.614623      0.056546
  H       0.407945     -0.855806      0.418041
  H       2.000384     -0.132760      1.433567
  H       2.321663     -1.192894     -0.015093
  H      -2.750605      0.068643      0.082499
  H      -1.622822      0.506855      1.365743
  H      -2.155470     -1.171824      1.182001
  H      -0.838033     -1.348478     -0.971062
  H       2.130197      1.205974     -1.118800
  H      -0.394557      1.090973     -1.829310
15
Coordinates from ORCA-job freq E -271.011911691949
  C       1.724165     -0.396331      0.418200
  C      -1.872631     -0.268466      0.642448
  C      -0.708402     -0.520867     -0.274753
  C       1.381394      0.733683     -0.493169
  C      -0.038218      0.666639     -0.896786
  O       0.414944      1.614626      0.056493
  H       0.407974     -0.855765      0.418137
  H       2.000587     -0.132677      1.433549
  H       2.321617     -1.192856     -0.015132
  H      -2.750444      0.069055      0.082456
  H      -1.622731      0.506589      1.365981
  H      -2.155805     -1.171899      1.181697
  H      -0.838002     -1.348573     -0.970963
  H       2.130155      1.206009     -1.118825
  H      -0.394604      1.090831     -1.829332
15
Coordinates from ORCA-job freq E -271.011899441062
  C       1.724142     -0.396274      0.418234
  C      -1.872595     -0.268465      0.642459
  C      -0.708382     -0.520911     -0.274751
  C       1.381365      0.733705     -0.493167
  C      -0.038222      0.666579     -0.896832
  O       0.414857      1.614626      0.056436
  H       0.407988     -0.855749      0.418142
  H       2.000627     -0.132623      1.433566
  H       2.321564     -1.192809     -0.015124
  H      -2.750301      0.069374      0.082495
  H      -1.622573      0.506382      1.366169
  H      -2.155987     -1.171956      1.181498
  H      -0.837998     -1.348639     -0.970925
  H       2.130131      1.206041     -1.118802
  H      -0.394611      1.090717     -1.829399
15
Coordinates from ORCA-job freq E -271.011908343261
  C       1.724132     -0.396235      0.418258
  C      -1.872570     -0.268468      0.642464
  C      -0.708363     -0.520950     -0.274738
  C       1.381344      0.733728     -0.493165
  C      -0.038230      0.666541     -0.896860
  O       0.414794      1.614629      0.056400
  H       0.407973     -0.855726      0.418158
  H       2.000687     -0.132597      1.433576
  H       2.321506     -1.192794     -0.015132
  H      -2.750195      0.069596      0.082508
  H      -1.622462      0.506244      1.366287
  H      -2.156124     -1.171992      1.181360
  H      -0.837981     -1.348700     -0.970884
  H       2.130116      1.206089     -1.118778
  H      -0.394626      1.090634     -1.829454
15
Coordinates from ORCA-job freq E -271.011901056210
  C       1.724111     -0.396191      0.418284
  C      -1.872523     -0.268466      0.642475
  C      -0.708344     -0.520989     -0.274753
  C       1.381324      0.733743     -0.493168
  C      -0.038232      0.666494     -0.896906
  O       0.414721      1.614618      0.056355
  H       0.407957     -0.855729      0.418130
  H       2.000653     -0.132555      1.433601
  H       2.321474     -1.192762     -0.015100
  H      -2.750095      0.069821      0.082561
  H      -1.622303      0.506105      1.366416
  H      -2.156222     -1.172023      1.181236
  H      -0.837992     -1.348749     -0.970879
  H       2.130106      1.206128     -1.118749
  H      -0.394635      1.090556     -1.829503
15
Coordinates from ORCA-job freq E -271.011907731515
  C       1.724155     -0.396152      0.418295
  C      -1.872548     -0.268475      0.642468
  C      -0.708337     -0.521014     -0.274726
  C       1.381329      0.733747     -0.493189
  C      -0.038236      0.666476     -0.896905
  O       0.414727      1.614615      0.056336
  H       0.407948     -0.855703      0.418187
  H       2.000765     -0.132497      1.433590
  H       2.321443     -1.192774     -0.015100
  H      -2.750046      0.069981      0.082542
  H      -1.622294      0.505988      1.366514
  H      -2.156370     -1.172069      1.181107
  H      -0.837967     -1.348793     -0.970840
  H       2.130099      1.206142     -1.118781
  H      -0.394667      1.090528     -1.829499
15
Coordinates from ORCA-job freq E -271.011907235791
  C       1.724161     -0.396126      0.418313
  C      -1.872541     -0.268480      0.642467
  C      -0.708335     -0.521032     -0.274720
  C       1.381318      0.733747     -0.493197
  C      -0.038245      0.666458     -0.896908
  O       0.414712      1.614615      0.056316
  H       0.407954     -0.855700      0.418207
  H       2.000798     -0.132448      1.433593
  H       2.321430     -1.192761     -0.015082
  H      -2.749991      0.070112      0.082546
  H      -1.622235      0.505895      1.366593
  H      -2.156453     -1.172101      1.181007
  H      -0.837980     -1.348809     -0.970833
  H       2.130089      1.206139     -1.118795
  H      -0.394683      1.090490     -1.829507
