15
* (null), Energy   -1000.0000000
C     2.248937   -0.459961    0.433997   -0.031637   -0.150775    0.059012
C    -2.354098   -0.030187    0.625102    0.000264   -0.000008   -0.000657
C     1.356972    0.016743   -0.645756    0.125543    0.090833    0.045951
C    -0.859457   -0.120989    0.681352    0.003764   -0.002575   -0.005361
C     0.007550    0.513662   -0.332798   -0.011547    0.002864    0.015825
O    -0.165766    1.084724    0.961133    0.000301   -0.000919   -0.005547
H     2.332411    0.695171   -0.173902   -1.192687    0.697674   -1.411262
H     1.948294   -0.303789    1.457857    0.082990    0.090326    0.040135
H     3.071374   -1.115953    0.200565    0.087676    0.039156    0.023147
H    -2.657646    0.851566    0.061937   -0.001353   -0.000231    0.000556
H    -2.773592   -0.915908    0.147719    0.000083    0.000047    0.000120
H    -2.770928    0.044650    1.630041    0.004640   -0.001754   -0.000411
H     1.569283   -0.293420   -1.658244   -0.035801   -0.116777    0.057761
H    -0.444481   -0.984919    1.194323    0.005601    0.001702    0.000821
H    -0.492019    1.061009   -1.126838    0.014716    0.015344    0.009600
15
* Frequency(6) -1792.4605
C     2.245342   -0.477096    0.440704   -0.031637   -0.150775    0.059012
C    -2.354068   -0.030188    0.625027    0.000264   -0.000008   -0.000657
C     1.371239    0.027066   -0.640534    0.125543    0.090833    0.045951
C    -0.859029   -0.121282    0.680742    0.003764   -0.002575   -0.005361
C     0.006238    0.513988   -0.330999   -0.011547    0.002864    0.015825
O    -0.165732    1.084619    0.960503    0.000301   -0.000919   -0.005547
H     2.196868    0.774458   -0.334285   -1.192687    0.697674   -1.411262
H     1.957725   -0.293524    1.462418    0.082990    0.090326    0.040135
H     3.081338   -1.111503    0.203195    0.087676    0.039156    0.023147
H    -2.657800    0.851540    0.062000   -0.001353   -0.000231    0.000556
H    -2.773583   -0.915903    0.147733    0.000083    0.000047    0.000120
H    -2.770401    0.044451    1.629994    0.004640   -0.001754   -0.000411
H     1.565214   -0.306691   -1.651679   -0.035801   -0.116777    0.057761
H    -0.443845   -0.984725    1.194416    0.005601    0.001702    0.000821
H    -0.490346    1.062753   -1.125747    0.014716    0.015344    0.009600
15
* Frequency(6) -1792.4605
C     2.242136   -0.492374    0.446683   -0.031637   -0.150775    0.059012
C    -2.354041   -0.030189    0.624961    0.000264   -0.000008   -0.000657
C     1.383960    0.036270   -0.635878    0.125543    0.090833    0.045951
C    -0.858648   -0.121543    0.680199    0.003764   -0.002575   -0.005361
C     0.005068    0.514278   -0.329396   -0.011547    0.002864    0.015825
O    -0.165701    1.084526    0.959941    0.000301   -0.000919   -0.005547
H     2.076013    0.845153   -0.477287   -1.192687    0.697674   -1.411262
H     1.966134   -0.284371    1.466485    0.082990    0.090326    0.040135
H     3.090222   -1.107535    0.205541    0.087676    0.039156    0.023147
H    -2.657937    0.851517    0.062056   -0.001353   -0.000231    0.000556
H    -2.773574   -0.915898    0.147745    0.000083    0.000047    0.000120
H    -2.769930    0.044273    1.629952    0.004640   -0.001754   -0.000411
H     1.561587   -0.318524   -1.645827   -0.035801   -0.116777    0.057761
H    -0.443277   -0.984553    1.194500    0.005601    0.001702    0.000821
H    -0.488855    1.064308   -1.124775    0.014716    0.015344    0.009600
15
* Frequency(6) -1792.4605
C     2.239668   -0.504140    0.451288   -0.031637   -0.150775    0.059012
C    -2.354021   -0.030190    0.624910    0.000264   -0.000008   -0.000657
C     1.393757    0.043358   -0.632292    0.125543    0.090833    0.045951
C    -0.858354   -0.121744    0.679781    0.003764   -0.002575   -0.005361
C     0.004167    0.514502   -0.328161   -0.011547    0.002864    0.015825
O    -0.165678    1.084454    0.959508    0.000301   -0.000919   -0.005547
H     1.982943    0.899595   -0.587414   -1.192687    0.697674   -1.411262
H     1.972610   -0.277323    1.469617    0.082990    0.090326    0.040135
H     3.097064   -1.104480    0.207347    0.087676    0.039156    0.023147
H    -2.658043    0.851499    0.062099   -0.001353   -0.000231    0.000556
H    -2.773568   -0.915894    0.147754    0.000083    0.000047    0.000120
H    -2.769568    0.044136    1.629920    0.004640   -0.001754   -0.000411
H     1.558793   -0.327636   -1.641319   -0.035801   -0.116777    0.057761
H    -0.442840   -0.984420    1.194564    0.005601    0.001702    0.000821
H    -0.487707    1.065505   -1.124025    0.014716    0.015344    0.009600
15
* Frequency(6) -1792.4605
C     2.238203   -0.511118    0.454019   -0.031637   -0.150775    0.059012
C    -2.354008   -0.030190    0.624879    0.000264   -0.000008   -0.000657
C     1.399567    0.047562   -0.630165    0.125543    0.090833    0.045951
C    -0.858180   -0.121863    0.679533    0.003764   -0.002575   -0.005361
C     0.003633    0.514634   -0.327429   -0.011547    0.002864    0.015825
O    -0.165664    1.084412    0.959251    0.000301   -0.000919   -0.005547
H     1.927744    0.931884   -0.652729   -1.192687    0.697674   -1.411262
H     1.976451   -0.273142    1.471475    0.082990    0.090326    0.040135
H     3.101121   -1.102668    0.208418    0.087676    0.039156    0.023147
H    -2.658105    0.851488    0.062125   -0.001353   -0.000231    0.000556
H    -2.773564   -0.915892    0.147760    0.000083    0.000047    0.000120
H    -2.769353    0.044055    1.629901    0.004640   -0.001754   -0.000411
H     1.557136   -0.333041   -1.638646   -0.035801   -0.116777    0.057761
H    -0.442581   -0.984341    1.194602    0.005601    0.001702    0.000821
H    -0.487026    1.066215   -1.123581    0.014716    0.015344    0.009600
15
* Frequency(6) -1792.4605
C     2.237902   -0.512552    0.454581   -0.031637   -0.150775    0.059012
C    -2.354006   -0.030190    0.624873    0.000264   -0.000008   -0.000657
C     1.400762    0.048426   -0.629728    0.125543    0.090833    0.045951
C    -0.858144   -0.121887    0.679482    0.003764   -0.002575   -0.005361
C     0.003523    0.514661   -0.327278   -0.011547    0.002864    0.015825
O    -0.165661    1.084403    0.959198    0.000301   -0.000919   -0.005547
H     1.916396    0.938522   -0.666157   -1.192687    0.697674   -1.411262
H     1.977241   -0.272283    1.471857    0.082990    0.090326    0.040135
H     3.101956   -1.102295    0.208639    0.087676    0.039156    0.023147
H    -2.658118    0.851486    0.062130   -0.001353   -0.000231    0.000556
H    -2.773563   -0.915892    0.147761    0.000083    0.000047    0.000120
H    -2.769309    0.044039    1.629897    0.004640   -0.001754   -0.000411
H     1.556796   -0.334152   -1.638097   -0.035801   -0.116777    0.057761
H    -0.442528   -0.984325    1.194609    0.005601    0.001702    0.000821
H    -0.486885    1.066361   -1.123490    0.014716    0.015344    0.009600
15
* Frequency(6) -1792.4605
C     2.238797   -0.508288    0.452912   -0.031637   -0.150775    0.059012
C    -2.354013   -0.030190    0.624891    0.000264   -0.000008   -0.000657
C     1.397211    0.045857   -0.631028    0.125543    0.090833    0.045951
C    -0.858251   -0.121815    0.679633    0.003764   -0.002575   -0.005361
C     0.003849    0.514580   -0.327726   -0.011547    0.002864    0.015825
O    -0.165670    1.084429    0.959355    0.000301   -0.000919   -0.005547
H     1.950130    0.918790   -0.626241   -1.192687    0.697674   -1.411262
H     1.974893   -0.274838    1.470721    0.082990    0.090326    0.040135
H     3.099476   -1.103403    0.207984    0.087676    0.039156    0.023147
H    -2.658080    0.851493    0.062115   -0.001353   -0.000231    0.000556
H    -2.773566   -0.915893    0.147757    0.000083    0.000047    0.000120
H    -2.769441    0.044088    1.629909    0.004640   -0.001754   -0.000411
H     1.557808   -0.330849   -1.639730   -0.035801   -0.116777    0.057761
H    -0.442686   -0.984373    1.194586    0.005601    0.001702    0.000821
H    -0.487302    1.065927   -1.123761    0.014716    0.015344    0.009600
15
* Frequency(6) -1792.4605
C     2.240791   -0.498786    0.449193   -0.031637   -0.150775    0.059012
C    -2.354030   -0.030189    0.624933    0.000264   -0.000008   -0.000657
C     1.389299    0.040133   -0.633924    0.125543    0.090833    0.045951
C    -0.858488   -0.121652    0.679971    0.003764   -0.002575   -0.005361
C     0.004577    0.514400   -0.328723   -0.011547    0.002864    0.015825
O    -0.165689    1.084487    0.959705    0.000301   -0.000919   -0.005547
H     2.025290    0.874824   -0.537307   -1.192687    0.697674   -1.411262
H     1.969664   -0.280530    1.468192    0.082990    0.090326    0.040135
H     3.093951   -1.105870    0.206525    0.087676    0.039156    0.023147
H    -2.657995    0.851507    0.062080   -0.001353   -0.000231    0.000556
H    -2.773571   -0.915896    0.147750    0.000083    0.000047    0.000120
H    -2.769733    0.044199    1.629935    0.004640   -0.001754   -0.000411
H     1.560064   -0.323490   -1.643370   -0.035801   -0.116777    0.057761
H    -0.443039   -0.984480    1.194534    0.005601    0.001702    0.000821
H    -0.488229    1.064960   -1.124366    0.014716    0.015344    0.009600
15
* Frequency(6) -1792.4605
C     2.243667   -0.485078    0.443827   -0.031637   -0.150775    0.059012
C    -2.354054   -0.030189    0.624993    0.000264   -0.000008   -0.000657
C     1.377885    0.031874   -0.638102    0.125543    0.090833    0.045951
C    -0.858830   -0.121418    0.680459    0.003764   -0.002575   -0.005361
C     0.005627    0.514140   -0.330162   -0.011547    0.002864    0.015825
O    -0.165716    1.084570    0.960209    0.000301   -0.000919   -0.005547
H     2.133731    0.811390   -0.408992   -1.192687    0.697674   -1.411262
H     1.962118   -0.288742    1.464543    0.082990    0.090326    0.040135
H     3.085979   -1.109430    0.204421    0.087676    0.039156    0.023147
H    -2.657872    0.851528    0.062029   -0.001353   -0.000231    0.000556
H    -2.773578   -0.915900    0.147739    0.000083    0.000047    0.000120
H    -2.770155    0.044358    1.629972    0.004640   -0.001754   -0.000411
H     1.563319   -0.312872   -1.648622   -0.035801   -0.116777    0.057761
H    -0.443548   -0.984635    1.194460    0.005601    0.001702    0.000821
H    -0.489567    1.063565   -1.125239    0.014716    0.015344    0.009600
15
* Frequency(6) -1792.4605
C     2.247115   -0.468647    0.437397   -0.031637   -0.150775    0.059012
C    -2.354083   -0.030188    0.625064    0.000264   -0.000008   -0.000657
C     1.364204    0.021976   -0.643109    0.125543    0.090833    0.045951
C    -0.859240   -0.121138    0.681043    0.003764   -0.002575   -0.005361
C     0.006885    0.513827   -0.331886   -0.011547    0.002864    0.015825
O    -0.165749    1.084671    0.960814    0.000301   -0.000919   -0.005547
H     2.263702    0.735362   -0.255202   -1.192687    0.697674   -1.411262
H     1.953074   -0.298586    1.460169    0.082990    0.090326    0.040135
H     3.076425   -1.113697    0.201898    0.087676    0.039156    0.023147
H    -2.657724    0.851553    0.061969   -0.001353   -0.000231    0.000556
H    -2.773587   -0.915906    0.147726    0.000083    0.000047    0.000120
H    -2.770661    0.044549    1.630017    0.004640   -0.001754   -0.000411
H     1.567221   -0.300147   -1.654916   -0.035801   -0.116777    0.057761
H    -0.444159   -0.984821    1.194370    0.005601    0.001702    0.000821
H    -0.491171    1.061893   -1.126285    0.014716    0.015344    0.009600
15
* Frequency(6) -1792.4605
C     2.250760   -0.451275    0.430598   -0.031637   -0.150775    0.059012
C    -2.354113   -0.030187    0.625140    0.000264   -0.000008   -0.000657
C     1.349739    0.011510   -0.648403    0.125543    0.090833    0.045951
C    -0.859674   -0.120841    0.681660    0.003764   -0.002575   -0.005361
C     0.008216    0.513497   -0.333709   -0.011547    0.002864    0.015825
O    -0.165784    1.084777    0.961453    0.000301   -0.000919   -0.005547
H     2.401119    0.654979   -0.092602   -1.192687    0.697674   -1.411262
H     1.943513   -0.308993    1.455545    0.082990    0.090326    0.040135
H     3.066323   -1.118209    0.199232    0.087676    0.039156    0.023147
H    -2.657568    0.851580    0.061904   -0.001353   -0.000231    0.000556
H    -2.773597   -0.915911    0.147712    0.000083    0.000047    0.000120
H    -2.771195    0.044751    1.630064    0.004640   -0.001754   -0.000411
H     1.571345   -0.286692   -1.661571   -0.035801   -0.116777    0.057761
H    -0.444804   -0.985017    1.194276    0.005601    0.001702    0.000821
H    -0.492866    1.060125   -1.127391    0.014716    0.015344    0.009600
15
* Frequency(6) -1792.4605
C     2.254208   -0.434845    0.424167   -0.031637   -0.150775    0.059012
C    -2.354142   -0.030186    0.625211    0.000264   -0.000008   -0.000657
C     1.336058    0.001612   -0.653411    0.125543    0.090833    0.045951
C    -0.860084   -0.120560    0.682245    0.003764   -0.002575   -0.005361
C     0.009474    0.513185   -0.335434   -0.011547    0.002864    0.015825
O    -0.165816    1.084877    0.962057    0.000301   -0.000919   -0.005547
H     2.531090    0.578951    0.061188   -1.192687    0.697674   -1.411262
H     1.934469   -0.318836    1.451172    0.082990    0.090326    0.040135
H     3.056769   -1.122476    0.196709    0.087676    0.039156    0.023147
H    -2.657421    0.851605    0.061844   -0.001353   -0.000231    0.000556
H    -2.773606   -0.915916    0.147699    0.000083    0.000047    0.000120
H    -2.771701    0.044942    1.630109    0.004640   -0.001754   -0.000411
H     1.575247   -0.273967   -1.667866   -0.035801   -0.116777    0.057761
H    -0.445414   -0.985202    1.194186    0.005601    0.001702    0.000821
H    -0.494470    1.058453   -1.128438    0.014716    0.015344    0.009600
15
* Frequency(6) -1792.4605
C     2.257084   -0.421136    0.418801   -0.031637   -0.150775    0.059012
C    -2.354166   -0.030185    0.625271    0.000264   -0.000008   -0.000657
C     1.324644   -0.006647   -0.657589    0.125543    0.090833    0.045951
C    -0.860426   -0.120326    0.682732    0.003764   -0.002575   -0.005361
C     0.010524    0.512925   -0.336873   -0.011547    0.002864    0.015825
O    -0.165844    1.084960    0.962562    0.000301   -0.000919   -0.005547
H     2.639532    0.515517    0.189503   -1.192687    0.697674   -1.411262
H     1.926924   -0.327048    1.447522    0.082990    0.090326    0.040135
H     3.048797   -1.126036    0.194605    0.087676    0.039156    0.023147
H    -2.657298    0.851626    0.061793   -0.001353   -0.000231    0.000556
H    -2.773613   -0.915921    0.147688    0.000083    0.000047    0.000120
H    -2.772123    0.045102    1.630146    0.004640   -0.001754   -0.000411
H     1.578502   -0.263349   -1.673117   -0.035801   -0.116777    0.057761
H    -0.445923   -0.985357    1.194111    0.005601    0.001702    0.000821
H    -0.495808    1.057058   -1.129311    0.014716    0.015344    0.009600
15
* Frequency(6) -1792.4605
C     2.259078   -0.411635    0.415082   -0.031637   -0.150775    0.059012
C    -2.354183   -0.030185    0.625312    0.000264   -0.000008   -0.000657
C     1.316733   -0.012371   -0.660484    0.125543    0.090833    0.045951
C    -0.860663   -0.120164    0.683070    0.003764   -0.002575   -0.005361
C     0.011252    0.512744   -0.337870   -0.011547    0.002864    0.015825
O    -0.165863    1.085018    0.962911    0.000301   -0.000919   -0.005547
H     2.714692    0.471552    0.278436   -1.192687    0.697674   -1.411262
H     1.921694   -0.332741    1.444993    0.082990    0.090326    0.040135
H     3.043272   -1.128504    0.193146    0.087676    0.039156    0.023147
H    -2.657213    0.851640    0.061758   -0.001353   -0.000231    0.000556
H    -2.773619   -0.915924    0.147681    0.000083    0.000047    0.000120
H    -2.772415    0.045212    1.630172    0.004640   -0.001754   -0.000411
H     1.580758   -0.255990   -1.676757   -0.035801   -0.116777    0.057761
H    -0.446276   -0.985464    1.194060    0.005601    0.001702    0.000821
H    -0.496736    1.056091   -1.129916    0.014716    0.015344    0.009600
15
* Frequency(6) -1792.4605
C     2.259972   -0.407370    0.413413   -0.031637   -0.150775    0.059012
C    -2.354190   -0.030185    0.625331    0.000264   -0.000008   -0.000657
C     1.313182   -0.014940   -0.661784    0.125543    0.090833    0.045951
C    -0.860770   -0.120091    0.683221    0.003764   -0.002575   -0.005361
C     0.011578    0.512663   -0.338318   -0.011547    0.002864    0.015825
O    -0.165871    1.085044    0.963068    0.000301   -0.000919   -0.005547
H     2.748425    0.451819    0.318352   -1.192687    0.697674   -1.411262
H     1.919346   -0.335295    1.443858    0.082990    0.090326    0.040135
H     3.040792   -1.129611    0.192491    0.087676    0.039156    0.023147
H    -2.657175    0.851647    0.061743   -0.001353   -0.000231    0.000556
H    -2.773621   -0.915925    0.147677    0.000083    0.000047    0.000120
H    -2.772546    0.045262    1.630184    0.004640   -0.001754   -0.000411
H     1.581771   -0.252687   -1.678391   -0.035801   -0.116777    0.057761
H    -0.446435   -0.985512    1.194036    0.005601    0.001702    0.000821
H    -0.497152    1.055657   -1.130187    0.014716    0.015344    0.009600
15
* Frequency(6) -1792.4605
C     2.259671   -0.408805    0.413975   -0.031637   -0.150775    0.059012
C    -2.354188   -0.030185    0.625325    0.000264   -0.000008   -0.000657
C     1.314376   -0.014076   -0.661347    0.125543    0.090833    0.045951
C    -0.860734   -0.120116    0.683170    0.003764   -0.002575   -0.005361
C     0.011468    0.512691   -0.338167   -0.011547    0.002864    0.015825
O    -0.165868    1.085036    0.963015    0.000301   -0.000919   -0.005547
H     2.737078    0.458457    0.304925   -1.192687    0.697674   -1.411262
H     1.920136   -0.334436    1.444240    0.082990    0.090326    0.040135
H     3.041626   -1.129238    0.192712    0.087676    0.039156    0.023147
H    -2.657187    0.851645    0.061748   -0.001353   -0.000231    0.000556
H    -2.773620   -0.915924    0.147678    0.000083    0.000047    0.000120
H    -2.772502    0.045245    1.630180    0.004640   -0.001754   -0.000411
H     1.581430   -0.253799   -1.677841   -0.035801   -0.116777    0.057761
H    -0.446381   -0.985496    1.194044    0.005601    0.001702    0.000821
H    -0.497012    1.055803   -1.130096    0.014716    0.015344    0.009600
15
* Frequency(6) -1792.4605
C     2.258207   -0.415783    0.416706   -0.031637   -0.150775    0.059012
C    -2.354175   -0.030185    0.625294    0.000264   -0.000008   -0.000657
C     1.320187   -0.009872   -0.659220    0.125543    0.090833    0.045951
C    -0.860560   -0.120235    0.682922    0.003764   -0.002575   -0.005361
C     0.010934    0.512823   -0.337435   -0.011547    0.002864    0.015825
O    -0.165854    1.084993    0.962759    0.000301   -0.000919   -0.005547
H     2.681878    0.490746    0.239609   -1.192687    0.697674   -1.411262
H     1.923977   -0.330255    1.446097    0.082990    0.090326    0.040135
H     3.045684   -1.127426    0.193783    0.087676    0.039156    0.023147
H    -2.657250    0.851634    0.061774   -0.001353   -0.000231    0.000556
H    -2.773616   -0.915922    0.147684    0.000083    0.000047    0.000120
H    -2.772288    0.045164    1.630161    0.004640   -0.001754   -0.000411
H     1.579773   -0.259203   -1.675168   -0.035801   -0.116777    0.057761
H    -0.446122   -0.985417    1.194082    0.005601    0.001702    0.000821
H    -0.496331    1.056513   -1.129651    0.014716    0.015344    0.009600
15
* Frequency(6) -1792.4605
C     2.255739   -0.427549    0.421311   -0.031637   -0.150775    0.059012
C    -2.354155   -0.030186    0.625243    0.000264   -0.000008   -0.000657
C     1.329983   -0.002784   -0.655634    0.125543    0.090833    0.045951
C    -0.860266   -0.120436    0.682504    0.003764   -0.002575   -0.005361
C     0.010033    0.513047   -0.336200   -0.011547    0.002864    0.015825
O    -0.165831    1.084921    0.962326    0.000301   -0.000919   -0.005547
H     2.588808    0.545189    0.129483   -1.192687    0.697674   -1.411262
H     1.930453   -0.323207    1.449229    0.082990    0.090326    0.040135
H     3.052526   -1.124371    0.195589    0.087676    0.039156    0.023147
H    -2.657356    0.851616    0.061817   -0.001353   -0.000231    0.000556
H    -2.773610   -0.915919    0.147693    0.000083    0.000047    0.000120
H    -2.771925    0.045027    1.630129    0.004640   -0.001754   -0.000411
H     1.576979   -0.268316   -1.670661   -0.035801   -0.116777    0.057761
H    -0.445685   -0.985285    1.194146    0.005601    0.001702    0.000821
H    -0.495182    1.057711   -1.128902    0.014716    0.015344    0.009600
15
* Frequency(6) -1792.4605
C     2.252533   -0.442827    0.427291   -0.031637   -0.150775    0.059012
C    -2.354128   -0.030186    0.625177    0.000264   -0.000008   -0.000657
C     1.342704    0.006420   -0.650978    0.125543    0.090833    0.045951
C    -0.859885   -0.120697    0.681961    0.003764   -0.002575   -0.005361
C     0.008863    0.513337   -0.334596   -0.011547    0.002864    0.015825
O    -0.165800    1.084828    0.961764    0.000301   -0.000919   -0.005547
H     2.467953    0.615884   -0.013520   -1.192687    0.697674   -1.411262
H     1.938862   -0.314054    1.453296    0.082990    0.090326    0.040135
H     3.061410   -1.120403    0.197934    0.087676    0.039156    0.023147
H    -2.657493    0.851593    0.061873   -0.001353   -0.000231    0.000556
H    -2.773602   -0.915914    0.147705    0.000083    0.000047    0.000120
H    -2.771455    0.044850    1.630087    0.004640   -0.001754   -0.000411
H     1.573352   -0.280149   -1.664808   -0.035801   -0.116777    0.057761
H    -0.445118   -0.985112    1.194230    0.005601    0.001702    0.000821
H    -0.493691    1.059265   -1.127929    0.014716    0.015344    0.009600
15
* Frequency(6) -1792.4605
C     2.248937   -0.459961    0.433997   -0.031637   -0.150775    0.059012
C    -2.354098   -0.030187    0.625102    0.000264   -0.000008   -0.000657
C     1.356972    0.016743   -0.645756    0.125543    0.090833    0.045951
C    -0.859457   -0.120989    0.681352    0.003764   -0.002575   -0.005361
C     0.007550    0.513662   -0.332798   -0.011547    0.002864    0.015825
O    -0.165766    1.084724    0.961133    0.000301   -0.000919   -0.005547
H     2.332411    0.695171   -0.173902   -1.192687    0.697674   -1.411262
H     1.948294   -0.303789    1.457857    0.082990    0.090326    0.040135
H     3.071374   -1.115953    0.200565    0.087676    0.039156    0.023147
H    -2.657646    0.851566    0.061937   -0.001353   -0.000231    0.000556
H    -2.773592   -0.915908    0.147719    0.000083    0.000047    0.000120
H    -2.770928    0.044650    1.630041    0.004640   -0.001754   -0.000411
H     1.569283   -0.293420   -1.658244   -0.035801   -0.116777    0.057761
H    -0.444481   -0.984919    1.194323    0.005601    0.001702    0.000821
H    -0.492019    1.061009   -1.126838    0.014716    0.015344    0.009600
