17
Coordinates from ORCA-job freq E -421.391158442993
  C       2.425673     -0.288837      0.383845
  C       1.147292     -0.461267     -0.433531
  C       0.091468      0.501838      0.029073
  O       0.387582      1.812610     -0.273774
  O      -0.757996      2.584677     -0.099536
  O      -0.543063      0.252441      1.277535
  C      -1.357588      0.293761      0.161094
  C      -2.346438     -0.756153     -0.180104
  H       3.184180     -0.988190      0.043055
  H       2.800617      0.724570      0.272286
  H       2.223114     -0.470851      1.436308
  H       1.342665     -0.264633     -1.488725
  H       0.761752     -1.476377     -0.325095
  H      -1.568545      1.601994     -0.025762
  H      -3.223556     -0.660372      0.458335
  H      -1.919143     -1.746984     -0.015070
  H      -2.648018     -0.658225     -1.219935
17
Coordinates from ORCA-job freq E -421.391996898470
  C       2.409644     -0.294027      0.403016
  C       1.154459     -0.448589     -0.453160
  C       0.085968      0.505428     -0.020890
  O       0.383077      1.817150     -0.324902
  O      -0.743745      2.583683     -0.057520
  O      -0.533064      0.267999      1.241385
  C      -1.359020      0.309923      0.131269
  C      -2.343879     -0.758799     -0.164303
  H       3.173917     -1.000424      0.086404
  H       2.808967      0.714033      0.314774
  H       2.177331     -0.480618      1.450187
  H       1.375277     -0.256214     -1.503301
  H       0.757075     -1.460303     -0.367477
  H      -1.565467      1.592382     -0.036964
  H      -3.187513     -0.691613      0.522231
  H      -1.882033     -1.739884     -0.037609
  H      -2.710996     -0.660125     -1.183138
17
Coordinates from ORCA-job freq E -421.392214003684
  C       2.404120     -0.293609      0.416504
  C       1.159116     -0.448206     -0.454122
  C       0.083591      0.504508     -0.042713
  O       0.385619      1.817427     -0.342305
  O      -0.728592      2.582130     -0.033856
  O      -0.540429      0.277885      1.219108
  C      -1.363280      0.317139      0.105504
  C      -2.347420     -0.760269     -0.160995
  H       3.169603     -1.006317      0.115363
  H       2.813421      0.710999      0.325271
  H       2.161363     -0.470091      1.463489
  H       1.392660     -0.263504     -1.502643
  H       0.757193     -1.458382     -0.373713
  H      -1.559126      1.597090     -0.069868
  H      -3.137226     -0.738462      0.589790
  H      -1.857116     -1.734754     -0.110184
  H      -2.793498     -0.633582     -1.144632
17
Coordinates from ORCA-job freq E -421.392217020526
  C       2.406956     -0.289807      0.415829
  C       1.158830     -0.451822     -0.448997
  C       0.083509      0.501770     -0.040049
  O       0.389644      1.814698     -0.334249
  O      -0.727277      2.580365     -0.037291
  O      -0.545062      0.274507      1.219638
  C      -1.363909      0.317470      0.103453
  C      -2.350072     -0.758039     -0.165511
  H       3.171487     -1.005095      0.118316
  H       2.816199      0.713903      0.314912
  H       2.168016     -0.457487      1.465203
  H       1.388033     -0.274093     -1.499688
  H       0.758566     -1.461925     -0.360283
  H      -1.558819      1.594882     -0.071305
  H      -3.127966     -0.748972      0.597796
  H      -1.857194     -1.732221     -0.137315
  H      -2.810944     -0.618133     -1.140461
17
Coordinates from ORCA-job freq E -421.392219038237
  C       2.406015     -0.290721      0.415676
  C       1.158746     -0.450704     -0.450776
  C       0.083374      0.502592     -0.041096
  O       0.388270      1.815494     -0.337292
  O      -0.726768      2.580898     -0.033770
  O      -0.543523      0.275574      1.219292
  C      -1.363920      0.317580      0.103997
  C      -2.349224     -0.758927     -0.164246
  H       3.170937     -1.005152      0.117107
  H       2.815221      0.713304      0.317876
  H       2.165952     -0.461260      1.464338
  H       1.388988     -0.271371     -1.500969
  H       0.758013     -1.460783     -0.364057
  H      -1.558612      1.596016     -0.070226
  H      -3.132230     -0.744451      0.593727
  H      -1.857493     -1.733366     -0.126575
  H      -2.803747     -0.624721     -1.143007
17
Coordinates from ORCA-job freq E -421.392215150165
  C       2.405997     -0.290865      0.415480
  C       1.158778     -0.450449     -0.451110
  C       0.083383      0.502671     -0.041098
  O       0.388130      1.815670     -0.336987
  O      -0.727054      2.580919     -0.033717
  O      -0.543230      0.275377      1.219411
  C      -1.363847      0.317492      0.104289
  C      -2.349150     -0.758997     -0.164020
  H       3.170974     -1.005076      0.116525
  H       2.815155      0.713243      0.318304
  H       2.165908     -0.462051      1.464032
  H       1.389094     -0.270701     -1.501220
  H       0.758026     -1.460559     -0.364847
  H      -1.558774      1.595920     -0.069860
  H      -3.133763     -0.742747      0.592264
  H      -1.857996     -1.733602     -0.123515
  H      -2.801633     -0.626242     -1.143931
17
Coordinates from ORCA-job freq E -421.392216082541
  C       2.406192     -0.290531      0.415376
  C       1.158662     -0.450822     -0.450629
  C       0.083329      0.502462     -0.040827
  O       0.388363      1.815424     -0.336633
  O      -0.726692      2.580842     -0.033355
  O      -0.543694      0.275255      1.219475
  C      -1.363977      0.317514      0.104104
  C      -2.349292     -0.758892     -0.164461
  H       3.171066     -1.004987      0.116740
  H       2.815301      0.713496      0.317215
  H       2.166478     -0.460846      1.464154
  H       1.388547     -0.271777     -1.500952
  H       0.758054     -1.460909     -0.363494
  H      -1.558595      1.596061     -0.069997
  H      -3.133037     -0.743773      0.592740
  H      -1.857845     -1.733433     -0.125734
  H      -2.802863     -0.625081     -1.143721
17
Coordinates from ORCA-job freq E -421.392221976357
  C       2.406158     -0.290622      0.415407
  C       1.158692     -0.450702     -0.450740
  C       0.083346      0.502559     -0.040896
  O       0.388272      1.815543     -0.336714
  O      -0.726841      2.580880     -0.033392
  O      -0.543583      0.275290      1.219453
  C      -1.363933      0.317508      0.104135
  C      -2.349235     -0.758929     -0.164382
  H       3.170937     -1.005186      0.116797
  H       2.815451      0.713344      0.317336
  H       2.166301     -0.460958      1.464153
  H       1.388687     -0.271532     -1.501021
  H       0.758008     -1.460773     -0.363771
  H      -1.558681      1.596005     -0.069944
  H      -3.133121     -0.743626      0.592672
  H      -1.857823     -1.733473     -0.125344
  H      -2.802635     -0.625326     -1.143750
