17
Coordinates from ORCA-job freq E -421.392221976357
  C           2.40615775812794     -0.29062184141133      0.41540650180118
  C           1.15869241233803     -0.45070175021016     -0.45074030197168
  C           0.08334592249432      0.50255871824987     -0.04089608069777
  O           0.38827152803945      1.81554318801300     -0.33671426627078
  O          -0.72684087324778      2.58087980544343     -0.03339210621625
  O          -0.54358299813281      0.27528985015785      1.21945313520952
  C          -1.36393330738911      0.31750824168269      0.10413541697624
  C          -2.34923536189614     -0.75892885736524     -0.16438153119380
  H           3.17093694082427     -1.00518622643908      0.11679677023703
  H           2.81545083261400      0.71334389647794      0.31733629126143
  H           2.16630074907675     -0.46095842775860      1.46415251911397
  H           1.38868705811436     -0.27153223901852     -1.50102058708443
  H           0.75800756170890     -1.46077269081094     -0.36377136786876
  H          -1.55868067600979      1.59600469029978     -0.06994368913037
  H          -3.13312067316998     -0.74362569290807      0.59267244941496
  H          -1.85782337575388     -1.73347291840894     -0.12534356268932
  H          -2.80263549773854     -0.62532574599365     -1.14374959089118
