17
Coordinates from ORCA-job freq E -421.359397326539
  C       0.414300      0.970857      0.907844
  C      -0.068759     -0.751306     -0.813904
  C      -2.503935      0.184367     -1.397327
  C      -1.356817     -0.024005     -0.525196
  C       0.903213     -0.339290      0.322431
  O       3.175019     -0.071110      0.708126
  O      -2.549246     -0.665317     -0.267215
  O       2.171373     -0.242366     -0.294821
  H      -0.862024      0.829035      0.342722
  H       0.849369      1.847807      0.450144
  H       0.353928      1.024389      1.983153
  H       0.356675     -0.409032     -1.759116
  H      -0.204059     -1.831127     -0.856737
  H      -3.083557      1.096297     -1.315699
  H      -2.560343     -0.321372     -2.355456
  H       0.943401     -1.112224      1.100547
  H       3.986245     -0.217317      0.204971
17
Coordinates from ORCA-job freq E -421.360846624254
  C       0.431178      0.973776      0.877937
  C      -0.052838     -0.737235     -0.842627
  C      -2.519444      0.177741     -1.370553
  C      -1.345415     -0.028495     -0.536681
  C       0.908576     -0.344461      0.304211
  O       3.134129      0.006409      0.732901
  O      -2.516543     -0.700219     -0.248631
  O       2.186464     -0.273605     -0.296802
  H      -0.844342      0.836820      0.344389
  H       0.852661      1.847010      0.394268
  H       0.380544      1.051668      1.954852
  H       0.367780     -0.367630     -1.779794
  H      -0.185521     -1.815273     -0.918038
  H      -3.112619      1.076570     -1.252329
  H      -2.594491     -0.315534     -2.333731
  H       0.925752     -1.114119      1.083013
  H       3.948913     -0.305137      0.322083
17
Coordinates from ORCA-job freq E -421.361591145874
  C       0.445258      0.990118      0.848024
  C      -0.033973     -0.701276     -0.881285
  C      -2.543113      0.149452     -1.338769
  C      -1.335676     -0.025071     -0.548112
  C       0.914930     -0.333173      0.279705
  O       3.115115      0.022453      0.766509
  O      -2.476584     -0.729671     -0.212048
  O       2.207170     -0.270598     -0.294719
  H      -0.832087      0.852708      0.336002
  H       0.853870      1.858144      0.340158
  H       0.410478      1.088063      1.925323
  H       0.376753     -0.286511     -1.803924
  H      -0.150297     -1.777123     -1.001930
  H      -3.155920      1.031721     -1.198985
  H      -2.639886     -0.351163     -2.296000
  H       0.907520     -1.106294      1.052918
  H       3.901226     -0.443492      0.461603
17
Coordinates from ORCA-job freq E -421.362254651777
  C       0.465727      1.018182      0.807748
  C      -0.009936     -0.648901     -0.930689
  C      -2.568189      0.107262     -1.294997
  C      -1.324263     -0.023942     -0.556098
  C       0.923836     -0.311696      0.247757
  O       3.119315      0.044904      0.773260
  O      -2.421746     -0.777256     -0.174194
  O       2.233172     -0.278678     -0.294421
  H      -0.820132      0.868532      0.327292
  H       0.855930      1.880740      0.273543
  H       0.455117      1.135094      1.884511
  H       0.385753     -0.170478     -1.828920
  H      -0.098000     -1.719232     -1.111327
  H      -3.210072      0.962516     -1.122552
  H      -2.686063     -0.395361     -2.248691
  H       0.874518     -1.085740      1.017498
  H       3.789819     -0.637661      0.664749
17
Coordinates from ORCA-job freq E -421.362678721816
  C       0.485406      1.045640      0.780913
  C       0.011924     -0.591896     -0.974549
  C      -2.588208      0.055246     -1.255895
  C      -1.310628     -0.008181     -0.567554
  C       0.935940     -0.283713      0.216436
  O       3.138158      0.020771      0.769117
  O      -2.358063     -0.798110     -0.124451
  O       2.255268     -0.267711     -0.305100
  H      -0.805849      0.896620      0.303698
  H       0.869932      1.906302      0.239308
  H       0.483715      1.166427      1.857095
  H       0.394551     -0.061808     -1.849266
  H      -0.052990     -1.654422     -1.204768
  H      -3.257551      0.886959     -1.073645
  H      -2.723269     -0.471777     -2.194012
  H       0.858702     -1.066209      0.976156
  H       3.627746     -0.805850      0.840986
17
Coordinates from ORCA-job freq E -421.362308712278
  C       0.495822      1.107739      0.739821
  C       0.039783     -0.493668     -1.028593
  C      -2.610120     -0.031543     -1.208586
  C      -1.298287      0.020326     -0.587337
  C       0.913404     -0.245585      0.208100
  O       3.085745     -0.184082      0.917138
  O      -2.261586     -0.828034     -0.066563
  O       2.258843     -0.317453     -0.228696
  H      -0.802286      0.953969      0.265158
  H       0.882211      1.940856      0.157267
  H       0.512243      1.272633      1.809759
  H       0.417467      0.127572     -1.844213
  H       0.018995     -1.533079     -1.352516
  H      -3.327219      0.757072     -1.017213
  H      -2.752401     -0.596599     -2.123360
  H       0.737519     -1.023308      0.957654
  H       3.654650     -0.958532      0.836647
17
Coordinates from ORCA-job freq E -421.362737697332
  C       0.500935      1.074727      0.755455
  C       0.030400     -0.534103     -1.014152
  C      -2.602573      0.003318     -1.220389
  C      -1.298661      0.011114     -0.580434
  C       0.933108     -0.263184      0.198708
  O       3.130739     -0.048334      0.809867
  O      -2.293454     -0.817695     -0.085499
  O       2.264418     -0.292195     -0.287080
  H      -0.794835      0.929166      0.280587
  H       0.886999      1.926097      0.200337
  H       0.508138      1.207633      1.830060
  H       0.407571      0.050567     -1.856232
  H      -0.012062     -1.584177     -1.299641
  H      -3.301715      0.807676     -1.027699
  H      -2.746907     -0.545002     -2.144980
  H       0.806321     -1.047078      0.951117
  H       3.546362     -0.910244      0.924446
17
Coordinates from ORCA-job freq E -421.362783429248
  C       0.494104      1.073186      0.762364
  C       0.027899     -0.546362     -1.004485
  C      -2.598865      0.012560     -1.228286
  C      -1.300340      0.006937     -0.577338
  C       0.937702     -0.259278      0.200400
  O       3.134818     -0.045300      0.804354
  O      -2.306529     -0.814072     -0.093021
  O       2.265586     -0.268697     -0.295660
  H      -0.798529      0.924264      0.284208
  H       0.879373      1.929950      0.215161
  H       0.494499      1.199955      1.837797
  H       0.403442      0.020840     -1.859052
  H      -0.018465     -1.601465     -1.270219
  H      -3.292364      0.822663     -1.039244
  H      -2.740700     -0.532459     -2.155174
  H       0.830934     -1.045354      0.953616
  H       3.552220     -0.909083      0.899047
17
Coordinates from ORCA-job freq E -421.362781987593
  C       0.494056      1.070209      0.764167
  C       0.026642     -0.550008     -1.002489
  C      -2.598367      0.015825     -1.230274
  C      -1.300885      0.006627     -0.577238
  C       0.937603     -0.261914      0.201448
  O       3.134958     -0.037455      0.799569
  O      -2.310005     -0.811900     -0.094840
  O       2.264376     -0.270500     -0.297387
  H      -0.798302      0.922829      0.284945
  H       0.880322      1.927515      0.218568
  H       0.493284      1.195506      1.839780
  H       0.403285      0.014464     -1.858376
  H      -0.021720     -1.605572     -1.266000
  H      -3.290068      0.827654     -1.042064
  H      -2.740054     -0.528433     -2.157629
  H       0.832859     -1.047844      0.955150
  H       3.556800     -0.898716      0.897138
17
Coordinates from ORCA-job freq E -421.362778561394
  C       0.493924      1.070349      0.764260
  C       0.026714     -0.549811     -1.002558
  C      -2.598435      0.015535     -1.230235
  C      -1.300813      0.006956     -0.577477
  C       0.937629     -0.261680      0.201425
  O       3.135292     -0.037984      0.799564
  O      -2.309682     -0.811550     -0.094450
  O       2.264459     -0.269936     -0.297410
  H      -0.798295      0.923254      0.284605
  H       0.880405      1.927732      0.218940
  H       0.492865      1.195448      1.839895
  H       0.403444      0.014610     -1.858436
  H      -0.021654     -1.605389     -1.266017
  H      -3.290249      0.827335     -1.042312
  H      -2.740172     -0.529201     -2.157308
  H       0.833047     -1.047727      0.955008
  H       3.556307     -0.899651      0.896975
17
Coordinates from ORCA-job freq E -421.362782614615
  C       0.493954      1.070399      0.764241
  C       0.026763     -0.549637     -1.002704
  C      -2.598503      0.015365     -1.230149
  C      -1.300755      0.007136     -0.577638
  C       0.937593     -0.261645      0.201374
  O       3.135157     -0.038222      0.799830
  O      -2.309431     -0.811380     -0.094201
  O       2.264473     -0.270002     -0.297304
  H      -0.798203      0.923530      0.284322
  H       0.880671      1.927781      0.219085
  H       0.492645      1.195394      1.839893
  H       0.403556      0.014819     -1.858532
  H      -0.021629     -1.605197     -1.266226
  H      -3.290398      0.827118     -1.042313
  H      -2.740354     -0.529644     -2.157042
  H       0.832846     -1.047714      0.954904
  H       3.556401     -0.899816      0.896929
