15
* (null), Energy   -1000.0000000
C     2.147674    0.101408    0.681441    0.009346   -0.000471   -0.000774
C    -2.553916    0.492414    0.203139    0.014091    0.004536   -0.007710
C     1.300305   -0.920891   -0.080659    0.053036   -0.003076   -0.053478
C    -1.115900    0.910576    0.407047   -0.047004    0.235847   -0.083079
C    -0.124428   -0.473083   -0.210109    0.078907   -0.085266    0.131462
O    -0.409566    0.638321   -0.864027   -0.083736   -0.007165    0.063878
H    -0.551153   -0.202051    0.934054   -0.219792   -1.800672   -0.752400
H     3.191033   -0.210218    0.693469    0.017156    0.024032    0.028165
H     2.075405    1.078642    0.207520    0.004634    0.003906    0.008368
H     1.806335    0.201478    1.711004   -0.036493   -0.014007   -0.014194
H    -2.699464   -0.363788   -0.459152    0.050564    0.029354   -0.045849
H    -3.037890    0.321810    1.163455    0.014293    0.037145   -0.005356
H    -3.031275    1.363532   -0.253366    0.042326    0.039037   -0.003647
H     1.329747   -1.896114    0.402985    0.066542   -0.000720   -0.036034
H     1.673088   -1.042037   -1.100008    0.098450   -0.010394   -0.031113
15
* Frequency(6) -780.2720
C     2.148736    0.101354    0.681353    0.009346   -0.000471   -0.000774
C    -2.552315    0.492930    0.202263    0.014091    0.004536   -0.007710
C     1.306333   -0.921240   -0.086736    0.053036   -0.003076   -0.053478
C    -1.121242    0.937378    0.397605   -0.047004    0.235847   -0.083079
C    -0.115460   -0.482773   -0.195169    0.078907   -0.085266    0.131462
O    -0.419082    0.637507   -0.856768   -0.083736   -0.007165    0.063878
H    -0.576131   -0.406688    0.848548   -0.219792   -1.800672   -0.752400
H     3.192983   -0.207487    0.696670    0.017156    0.024032    0.028165
H     2.075932    1.079086    0.208471    0.004634    0.003906    0.008368
H     1.802188    0.199886    1.709391   -0.036493   -0.014007   -0.014194
H    -2.693717   -0.360452   -0.464362    0.050564    0.029354   -0.045849
H    -3.036266    0.326031    1.162846    0.014293    0.037145   -0.005356
H    -3.026464    1.367969   -0.253780    0.042326    0.039037   -0.003647
H     1.337309   -1.896196    0.398890    0.066542   -0.000720   -0.036034
H     1.684276   -1.043218   -1.103544    0.098450   -0.010394   -0.031113
15
* Frequency(6) -780.2720
C     2.149683    0.101306    0.681274    0.009346   -0.000471   -0.000774
C    -2.550887    0.493389    0.201482    0.014091    0.004536   -0.007710
C     1.311707   -0.921552   -0.092155    0.053036   -0.003076   -0.053478
C    -1.126005    0.961277    0.389187   -0.047004    0.235847   -0.083079
C    -0.107465   -0.491413   -0.181848    0.078907   -0.085266    0.131462
O    -0.427567    0.636781   -0.850295   -0.083736   -0.007165    0.063878
H    -0.598402   -0.589149    0.772307   -0.219792   -1.800672   -0.752400
H     3.194722   -0.205052    0.699524    0.017156    0.024032    0.028165
H     2.076401    1.079481    0.209318    0.004634    0.003906    0.008368
H     1.798490    0.198467    1.707952   -0.036493   -0.014007   -0.014194
H    -2.688594   -0.357478   -0.469008    0.050564    0.029354   -0.045849
H    -3.034817    0.329795    1.162304    0.014293    0.037145   -0.005356
H    -3.022176    1.371924   -0.254150    0.042326    0.039037   -0.003647
H     1.344052   -1.896269    0.395239    0.066542   -0.000720   -0.036034
H     1.694252   -1.044271   -1.106697    0.098450   -0.010394   -0.031113
15
* Frequency(6) -780.2720
C     2.150412    0.101270    0.681214    0.009346   -0.000471   -0.000774
C    -2.549787    0.493743    0.200880    0.014091    0.004536   -0.007710
C     1.315845   -0.921792   -0.096328    0.053036   -0.003076   -0.053478
C    -1.129673    0.979681    0.382704   -0.047004    0.235847   -0.083079
C    -0.101307   -0.498067   -0.171589    0.078907   -0.085266    0.131462
O    -0.434101    0.636221   -0.845311   -0.083736   -0.007165    0.063878
H    -0.615554   -0.729662    0.713595   -0.219792   -1.800672   -0.752400
H     3.196060   -0.203176    0.701722    0.017156    0.024032    0.028165
H     2.076763    1.079786    0.209971    0.004634    0.003906    0.008368
H     1.795643    0.197374    1.706845   -0.036493   -0.014007   -0.014194
H    -2.684648   -0.355187   -0.472586    0.050564    0.029354   -0.045849
H    -3.033702    0.332694    1.161886    0.014293    0.037145   -0.005356
H    -3.018873    1.374971   -0.254435    0.042326    0.039037   -0.003647
H     1.349245   -1.896325    0.392427    0.066542   -0.000720   -0.036034
H     1.701935   -1.045082   -1.109125    0.098450   -0.010394   -0.031113
15
* Frequency(6) -780.2720
C     2.150845    0.101248    0.681178    0.009346   -0.000471   -0.000774
C    -2.549135    0.493953    0.200523    0.014091    0.004536   -0.007710
C     1.318300   -0.921934   -0.098803    0.053036   -0.003076   -0.053478
C    -1.131848    0.990596    0.378859   -0.047004    0.235847   -0.083079
C    -0.097655   -0.502013   -0.165505    0.078907   -0.085266    0.131462
O    -0.437977    0.635890   -0.842354   -0.083736   -0.007165    0.063878
H    -0.625726   -0.813001    0.678772   -0.219792   -1.800672   -0.752400
H     3.196854   -0.202064    0.703025    0.017156    0.024032    0.028165
H     2.076977    1.079967    0.210359    0.004634    0.003906    0.008368
H     1.793954    0.196725    1.706188   -0.036493   -0.014007   -0.014194
H    -2.682308   -0.353829   -0.474708    0.050564    0.029354   -0.045849
H    -3.033040    0.334413    1.161638    0.014293    0.037145   -0.005356
H    -3.016914    1.376777   -0.254603    0.042326    0.039037   -0.003647
H     1.352324   -1.896358    0.390759    0.066542   -0.000720   -0.036034
H     1.706491   -1.045563   -1.110565    0.098450   -0.010394   -0.031113
15
* Frequency(6) -780.2720
C     2.150934    0.101243    0.681171    0.009346   -0.000471   -0.000774
C    -2.549001    0.493996    0.200450    0.014091    0.004536   -0.007710
C     1.318805   -0.921964   -0.099312    0.053036   -0.003076   -0.053478
C    -1.132295    0.992840    0.378069   -0.047004    0.235847   -0.083079
C    -0.096904   -0.502824   -0.164254    0.078907   -0.085266    0.131462
O    -0.438773    0.635822   -0.841746   -0.083736   -0.007165    0.063878
H    -0.627817   -0.830133    0.671613   -0.219792   -1.800672   -0.752400
H     3.197018   -0.201836    0.703293    0.017156    0.024032    0.028165
H     2.077021    1.080004    0.210438    0.004634    0.003906    0.008368
H     1.793606    0.196592    1.706053   -0.036493   -0.014007   -0.014194
H    -2.681827   -0.353549   -0.475144    0.050564    0.029354   -0.045849
H    -3.032904    0.334767    1.161587    0.014293    0.037145   -0.005356
H    -3.016511    1.377149   -0.254638    0.042326    0.039037   -0.003647
H     1.352957   -1.896365    0.390417    0.066542   -0.000720   -0.036034
H     1.707428   -1.045662   -1.110861    0.098450   -0.010394   -0.031113
15
* Frequency(6) -780.2720
C     2.150669    0.101257    0.681192    0.009346   -0.000471   -0.000774
C    -2.549399    0.493868    0.200668    0.014091    0.004536   -0.007710
C     1.317305   -0.921877   -0.097800    0.053036   -0.003076   -0.053478
C    -1.130966    0.986169    0.380418   -0.047004    0.235847   -0.083079
C    -0.099136   -0.500413   -0.167972    0.078907   -0.085266    0.131462
O    -0.436405    0.636024   -0.843553   -0.083736   -0.007165    0.063878
H    -0.621601   -0.779203    0.692894   -0.219792   -1.800672   -0.752400
H     3.196532   -0.202515    0.702497    0.017156    0.024032    0.028165
H     2.076890    1.079894    0.210202    0.004634    0.003906    0.008368
H     1.794639    0.196988    1.706454   -0.036493   -0.014007   -0.014194
H    -2.683257   -0.354380   -0.473847    0.050564    0.029354   -0.045849
H    -3.033309    0.333716    1.161738    0.014293    0.037145   -0.005356
H    -3.017708    1.376045   -0.254535    0.042326    0.039037   -0.003647
H     1.351075   -1.896345    0.391436    0.066542   -0.000720   -0.036034
H     1.704643   -1.045368   -1.109981    0.098450   -0.010394   -0.031113
15
* Frequency(6) -780.2720
C     2.150080    0.101286    0.681241    0.009346   -0.000471   -0.000774
C    -2.550287    0.493582    0.201154    0.014091    0.004536   -0.007710
C     1.313962   -0.921683   -0.094430    0.053036   -0.003076   -0.053478
C    -1.128004    0.971307    0.385654   -0.047004    0.235847   -0.083079
C    -0.104109   -0.495039   -0.176257    0.078907   -0.085266    0.131462
O    -0.431128    0.636476   -0.847579   -0.083736   -0.007165    0.063878
H    -0.607750   -0.665730    0.740308   -0.219792   -1.800672   -0.752400
H     3.195451   -0.204030    0.700722    0.017156    0.024032    0.028165
H     2.076598    1.079648    0.209674    0.004634    0.003906    0.008368
H     1.796938    0.197871    1.707349   -0.036493   -0.014007   -0.014194
H    -2.686443   -0.356229   -0.470958    0.050564    0.029354   -0.045849
H    -3.034209    0.331375    1.162076    0.014293    0.037145   -0.005356
H    -3.020375    1.373585   -0.254305    0.042326    0.039037   -0.003647
H     1.346882   -1.896300    0.393706    0.066542   -0.000720   -0.036034
H     1.698439   -1.044713   -1.108020    0.098450   -0.010394   -0.031113
15
* Frequency(6) -780.2720
C     2.149231    0.101329    0.681312    0.009346   -0.000471   -0.000774
C    -2.551569    0.493170    0.201855    0.014091    0.004536   -0.007710
C     1.309140   -0.921403   -0.089567    0.053036   -0.003076   -0.053478
C    -1.123730    0.949863    0.393208   -0.047004    0.235847   -0.083079
C    -0.111283   -0.487287   -0.188210    0.078907   -0.085266    0.131462
O    -0.423515    0.637127   -0.853387   -0.083736   -0.007165    0.063878
H    -0.587766   -0.502009    0.808718   -0.219792   -1.800672   -0.752400
H     3.193891   -0.206215    0.698161    0.017156    0.024032    0.028165
H     2.076177    1.079292    0.208914    0.004634    0.003906    0.008368
H     1.800256    0.199145    1.708639   -0.036493   -0.014007   -0.014194
H    -2.691041   -0.358898   -0.466789    0.050564    0.029354   -0.045849
H    -3.035509    0.327998    1.162563    0.014293    0.037145   -0.005356
H    -3.024224    1.370035   -0.253973    0.042326    0.039037   -0.003647
H     1.340832   -1.896234    0.396983    0.066542   -0.000720   -0.036034
H     1.689488   -1.043768   -1.105191    0.098450   -0.010394   -0.031113
15
* Frequency(6) -780.2720
C     2.148212    0.101381    0.681396    0.009346   -0.000471   -0.000774
C    -2.553104    0.492676    0.202695    0.014091    0.004536   -0.007710
C     1.303361   -0.921068   -0.083740    0.053036   -0.003076   -0.053478
C    -1.118608    0.924162    0.402261   -0.047004    0.235847   -0.083079
C    -0.119882   -0.477995   -0.202535    0.078907   -0.085266    0.131462
O    -0.414390    0.637908   -0.860347   -0.083736   -0.007165    0.063878
H    -0.563815   -0.305784    0.890710   -0.219792   -1.800672   -0.752400
H     3.192022   -0.208834    0.695092    0.017156    0.024032    0.028165
H     2.075672    1.078867    0.208002    0.004634    0.003906    0.008368
H     1.804233    0.200671    1.710186   -0.036493   -0.014007   -0.014194
H    -2.696551   -0.362097   -0.461793    0.050564    0.029354   -0.045849
H    -3.037066    0.323950    1.163147    0.014293    0.037145   -0.005356
H    -3.028836    1.365781   -0.253576    0.042326    0.039037   -0.003647
H     1.333581   -1.896156    0.400909    0.066542   -0.000720   -0.036034
H     1.678760   -1.042635   -1.101801    0.098450   -0.010394   -0.031113
15
* Frequency(6) -780.2720
C     2.147135    0.101435    0.681485    0.009346   -0.000471   -0.000774
C    -2.554728    0.492153    0.203583    0.014091    0.004536   -0.007710
C     1.297250   -0.920714   -0.077578    0.053036   -0.003076   -0.053478
C    -1.113192    0.896989    0.411833   -0.047004    0.235847   -0.083079
C    -0.128973   -0.468171   -0.217682    0.078907   -0.085266    0.131462
O    -0.404742    0.638734   -0.867707   -0.083736   -0.007165    0.063878
H    -0.538491   -0.098317    0.977398   -0.219792   -1.800672   -0.752400
H     3.190045   -0.211603    0.691847    0.017156    0.024032    0.028165
H     2.075138    1.078417    0.207037    0.004634    0.003906    0.008368
H     1.808438    0.202285    1.711821   -0.036493   -0.014007   -0.014194
H    -2.702376   -0.365479   -0.456510    0.050564    0.029354   -0.045849
H    -3.038713    0.319670    1.163764    0.014293    0.037145   -0.005356
H    -3.033713    1.361284   -0.253156    0.042326    0.039037   -0.003647
H     1.325914   -1.896073    0.405061    0.066542   -0.000720   -0.036034
H     1.667416   -1.041438   -1.098216    0.098450   -0.010394   -0.031113
15
* Frequency(6) -780.2720
C     2.146117    0.101486    0.681570    0.009346   -0.000471   -0.000774
C    -2.556263    0.491659    0.204424    0.014091    0.004536   -0.007710
C     1.291470   -0.920378   -0.071750    0.053036   -0.003076   -0.053478
C    -1.108070    0.871288    0.420886   -0.047004    0.235847   -0.083079
C    -0.137572   -0.458879   -0.232008    0.078907   -0.085266    0.131462
O    -0.395617    0.639515   -0.874668   -0.083736   -0.007165    0.063878
H    -0.514539    0.097908    1.059390   -0.219792   -1.800672   -0.752400
H     3.188176   -0.214221    0.688778    0.017156    0.024032    0.028165
H     2.074633    1.077991    0.206126    0.004634    0.003906    0.008368
H     1.812415    0.203811    1.713368   -0.036493   -0.014007   -0.014194
H    -2.707887   -0.368678   -0.451514    0.050564    0.029354   -0.045849
H    -3.040271    0.315622    1.164347    0.014293    0.037145   -0.005356
H    -3.038325    1.357030   -0.252758    0.042326    0.039037   -0.003647
H     1.318663   -1.895994    0.408988    0.066542   -0.000720   -0.036034
H     1.656688   -1.040305   -1.094826    0.098450   -0.010394   -0.031113
15
* Frequency(6) -780.2720
C     2.145267    0.101529    0.681640    0.009346   -0.000471   -0.000774
C    -2.557545    0.491246    0.205125    0.014091    0.004536   -0.007710
C     1.286648   -0.920099   -0.066888    0.053036   -0.003076   -0.053478
C    -1.103796    0.849844    0.428440   -0.047004    0.235847   -0.083079
C    -0.144746   -0.451127   -0.243961    0.078907   -0.085266    0.131462
O    -0.388004    0.640166   -0.880476   -0.083736   -0.007165    0.063878
H    -0.494555    0.261629    1.127800   -0.219792   -1.800672   -0.752400
H     3.186616   -0.216407    0.686217    0.017156    0.024032    0.028165
H     2.074212    1.077636    0.205365    0.004634    0.003906    0.008368
H     1.815733    0.205085    1.714659   -0.036493   -0.014007   -0.014194
H    -2.712484   -0.371347   -0.447345    0.050564    0.029354   -0.045849
H    -3.041570    0.312245    1.164834    0.014293    0.037145   -0.005356
H    -3.042174    1.353480   -0.252427    0.042326    0.039037   -0.003647
H     1.312613   -1.895929    0.412264    0.066542   -0.000720   -0.036034
H     1.647737   -1.039360   -1.091997    0.098450   -0.010394   -0.031113
15
* Frequency(6) -780.2720
C     2.144678    0.101559    0.681689    0.009346   -0.000471   -0.000774
C    -2.558433    0.490960    0.205610    0.014091    0.004536   -0.007710
C     1.283306   -0.919905   -0.063518    0.053036   -0.003076   -0.053478
C    -1.100834    0.834982    0.433675   -0.047004    0.235847   -0.083079
C    -0.149719   -0.445754   -0.252245    0.078907   -0.085266    0.131462
O    -0.382727    0.640618   -0.884502   -0.083736   -0.007165    0.063878
H    -0.480705    0.375102    1.175214   -0.219792   -1.800672   -0.752400
H     3.185535   -0.217921    0.684442    0.017156    0.024032    0.028165
H     2.073920    1.077390    0.204837    0.004634    0.003906    0.008368
H     1.818032    0.205968    1.715553   -0.036493   -0.014007   -0.014194
H    -2.715670   -0.373197   -0.444456    0.050564    0.029354   -0.045849
H    -3.042471    0.309904    1.165172    0.014293    0.037145   -0.005356
H    -3.044841    1.351020   -0.252197    0.042326    0.039037   -0.003647
H     1.308419   -1.895884    0.414535    0.066542   -0.000720   -0.036034
H     1.641533   -1.038705   -1.090036    0.098450   -0.010394   -0.031113
15
* Frequency(6) -780.2720
C     2.144414    0.101572    0.681711    0.009346   -0.000471   -0.000774
C    -2.558831    0.490832    0.205829    0.014091    0.004536   -0.007710
C     1.281806   -0.919818   -0.062006    0.053036   -0.003076   -0.053478
C    -1.099505    0.828311    0.436025   -0.047004    0.235847   -0.083079
C    -0.151951   -0.443342   -0.255963    0.078907   -0.085266    0.131462
O    -0.380359    0.640820   -0.886308   -0.083736   -0.007165    0.063878
H    -0.474488    0.426032    1.196495   -0.219792   -1.800672   -0.752400
H     3.185049   -0.218601    0.683645    0.017156    0.024032    0.028165
H     2.073789    1.077279    0.204601    0.004634    0.003906    0.008368
H     1.819065    0.206364    1.715955   -0.036493   -0.014007   -0.014194
H    -2.717100   -0.374027   -0.443159    0.050564    0.029354   -0.045849
H    -3.042875    0.308854    1.165323    0.014293    0.037145   -0.005356
H    -3.046038    1.349916   -0.252094    0.042326    0.039037   -0.003647
H     1.306537   -1.895863    0.415554    0.066542   -0.000720   -0.036034
H     1.638748   -1.038411   -1.089156    0.098450   -0.010394   -0.031113
15
* Frequency(6) -780.2720
C     2.144503    0.101568    0.681703    0.009346   -0.000471   -0.000774
C    -2.558697    0.490875    0.205755    0.014091    0.004536   -0.007710
C     1.282311   -0.919847   -0.062514    0.053036   -0.003076   -0.053478
C    -1.099952    0.830555    0.435235   -0.047004    0.235847   -0.083079
C    -0.151200   -0.444153   -0.254712    0.078907   -0.085266    0.131462
O    -0.381155    0.640752   -0.885701   -0.083736   -0.007165    0.063878
H    -0.476579    0.408900    1.189336   -0.219792   -1.800672   -0.752400
H     3.185213   -0.218372    0.683913    0.017156    0.024032    0.028165
H     2.073833    1.077316    0.204680    0.004634    0.003906    0.008368
H     1.818717    0.206231    1.715820   -0.036493   -0.014007   -0.014194
H    -2.716619   -0.373748   -0.443596    0.050564    0.029354   -0.045849
H    -3.042739    0.309207    1.165272    0.014293    0.037145   -0.005356
H    -3.045635    1.350288   -0.252128    0.042326    0.039037   -0.003647
H     1.307170   -1.895870    0.415211    0.066542   -0.000720   -0.036034
H     1.639685   -1.038510   -1.089452    0.098450   -0.010394   -0.031113
15
* Frequency(6) -780.2720
C     2.144935    0.101546    0.681668    0.009346   -0.000471   -0.000774
C    -2.558045    0.491085    0.205398    0.014091    0.004536   -0.007710
C     1.284765   -0.919990   -0.064989    0.053036   -0.003076   -0.053478
C    -1.102127    0.841471    0.431390   -0.047004    0.235847   -0.083079
C    -0.147548   -0.448100   -0.248628    0.078907   -0.085266    0.131462
O    -0.385031    0.640421   -0.882744   -0.083736   -0.007165    0.063878
H    -0.486752    0.325561    1.154513   -0.219792   -1.800672   -0.752400
H     3.186007   -0.217260    0.685217    0.017156    0.024032    0.028165
H     2.074047    1.077497    0.205068    0.004634    0.003906    0.008368
H     1.817028    0.205582    1.715163   -0.036493   -0.014007   -0.014194
H    -2.714279   -0.372389   -0.445717    0.050564    0.029354   -0.045849
H    -3.042078    0.310926    1.165025    0.014293    0.037145   -0.005356
H    -3.043677    1.352094   -0.252297    0.042326    0.039037   -0.003647
H     1.310250   -1.895903    0.413544    0.066542   -0.000720   -0.036034
H     1.644241   -1.038991   -1.090892    0.098450   -0.010394   -0.031113
15
* Frequency(6) -780.2720
C     2.145664    0.101509    0.681607    0.009346   -0.000471   -0.000774
C    -2.556945    0.491439    0.204797    0.014091    0.004536   -0.007710
C     1.288904   -0.920230   -0.069162    0.053036   -0.003076   -0.053478
C    -1.105795    0.859875    0.424907   -0.047004    0.235847   -0.083079
C    -0.141390   -0.454753   -0.238370    0.078907   -0.085266    0.131462
O    -0.391565    0.639861   -0.877759   -0.083736   -0.007165    0.063878
H    -0.503903    0.185048    1.095801   -0.219792   -1.800672   -0.752400
H     3.187345   -0.215384    0.687415    0.017156    0.024032    0.028165
H     2.074409    1.077802    0.205721    0.004634    0.003906    0.008368
H     1.814181    0.204489    1.714055   -0.036493   -0.014007   -0.014194
H    -2.710333   -0.370099   -0.449295    0.050564    0.029354   -0.045849
H    -3.040963    0.313825    1.164607    0.014293    0.037145   -0.005356
H    -3.040374    1.355140   -0.252582    0.042326    0.039037   -0.003647
H     1.315443   -1.895960    0.410732    0.066542   -0.000720   -0.036034
H     1.651924   -1.039802   -1.093320    0.098450   -0.010394   -0.031113
15
* Frequency(6) -780.2720
C     2.146611    0.101461    0.681529    0.009346   -0.000471   -0.000774
C    -2.555517    0.491899    0.204015    0.014091    0.004536   -0.007710
C     1.294278   -0.920541   -0.074581    0.053036   -0.003076   -0.053478
C    -1.110558    0.883773    0.416488   -0.047004    0.235847   -0.083079
C    -0.133395   -0.463393   -0.225049    0.078907   -0.085266    0.131462
O    -0.400050    0.639135   -0.871287   -0.083736   -0.007165    0.063878
H    -0.526174    0.002586    1.019560   -0.219792   -1.800672   -0.752400
H     3.189084   -0.212949    0.690269    0.017156    0.024032    0.028165
H     2.074878    1.078198    0.206569    0.004634    0.003906    0.008368
H     1.810483    0.203070    1.712617   -0.036493   -0.014007   -0.014194
H    -2.705210   -0.367124   -0.453941    0.050564    0.029354   -0.045849
H    -3.039514    0.317589    1.164064    0.014293    0.037145   -0.005356
H    -3.036085    1.359096   -0.252951    0.042326    0.039037   -0.003647
H     1.322185   -1.896033    0.407080    0.066542   -0.000720   -0.036034
H     1.661900   -1.040855   -1.096473    0.098450   -0.010394   -0.031113
15
* Frequency(6) -780.2720
C     2.147674    0.101408    0.681441    0.009346   -0.000471   -0.000774
C    -2.553916    0.492414    0.203139    0.014091    0.004536   -0.007710
C     1.300305   -0.920891   -0.080659    0.053036   -0.003076   -0.053478
C    -1.115900    0.910576    0.407047   -0.047004    0.235847   -0.083079
C    -0.124428   -0.473083   -0.210109    0.078907   -0.085266    0.131462
O    -0.409566    0.638321   -0.864027   -0.083736   -0.007165    0.063878
H    -0.551153   -0.202051    0.934054   -0.219792   -1.800672   -0.752400
H     3.191033   -0.210218    0.693469    0.017156    0.024032    0.028165
H     2.075405    1.078642    0.207520    0.004634    0.003906    0.008368
H     1.806335    0.201478    1.711004   -0.036493   -0.014007   -0.014194
H    -2.699464   -0.363788   -0.459152    0.050564    0.029354   -0.045849
H    -3.037890    0.321810    1.163455    0.014293    0.037145   -0.005356
H    -3.031275    1.363532   -0.253366    0.042326    0.039037   -0.003647
H     1.329747   -1.896114    0.402985    0.066542   -0.000720   -0.036034
H     1.673088   -1.042037   -1.100008    0.098450   -0.010394   -0.031113
