15
Coordinates from ORCA-job freq E -271.053184634233
  C           2.43008437542088     -0.04942489985348      0.25516426747305
  C          -2.72629482494649      0.29423883235958      0.34275274225775
  C           1.10277470621518     -0.76939256050339      0.04275741183785
  C          -1.32390895533764     -0.08442202882509      0.63572066469208
  C          -0.04896665448449      0.19211844171710      0.00894330510163
  O          -0.45818672717418      0.74056723534352      1.29286428816308
  H           2.41309130321956      0.50592606559187      1.19268943109483
  H           2.62414047575615      0.65822520461627     -0.55211781157367
  H           3.25962439779686     -0.75410125011703      0.29064752025604
  H          -3.19369686293016     -0.44419615319792     -0.30523468389936
  H          -2.76192271288534      1.27027457287463     -0.15389726548650
  H          -3.30036116040966      0.36229933043855      1.26622809305368
  H           1.11542839468146     -1.32353906361649     -0.89897406700569
  H           0.92291030416701     -1.49041514288667      0.84102487513542
  H          -0.00092605908916      0.96074141605851     -0.76180277110020
