17
Coordinates from ORCA-job freq E -421.379169331189
  C       2.401459     -0.200391     -0.172668
  C       1.230606      0.464630      0.492048
  C       0.141628      0.965817     -0.416742
  O      -0.389779     -0.000598     -1.287991
  C      -1.124562      0.257332     -0.121529
  C      -0.941207     -0.750967      0.967530
  O      -2.303049      0.947557     -0.265735
  O      -3.362527      0.076151     -0.638978
  H       3.017462     -0.719884      0.558034
  H       3.025000      0.541480     -0.676216
  H       2.051188     -0.909276     -0.919405
  H       1.498157      1.187465      1.257476
  H       0.147687      1.980231     -0.796432
  H      -1.433881     -0.489816      1.891972
  H       0.422995     -0.428458      1.061524
  H      -1.053868     -1.784070      0.675326
  H      -3.327310      0.050529     -1.608217
17
Coordinates from ORCA-job freq E -421.381315060123
  C       2.390919     -0.202674     -0.185567
  C       1.222832      0.471733      0.478798
  C       0.127595      0.992745     -0.402684
  O      -0.410495      0.000265     -1.278988
  C      -1.127690      0.291955     -0.104015
  C      -0.963908     -0.731249      0.965938
  O      -2.310935      0.967356     -0.271201
  O      -3.295003      0.007691     -0.638893
  H       3.003113     -0.735551      0.540817
  H       3.033429      0.528013     -0.685777
  H       2.043221     -0.910840     -0.936578
  H       1.479943      1.160232      1.281837
  H       0.132983      1.999348     -0.803796
  H      -1.408984     -0.476237      1.921161
  H       0.402860     -0.441040      1.055188
  H      -1.083357     -1.765396      0.666045
  H      -3.236526      0.031379     -1.602286
17
Coordinates from ORCA-job freq E -421.381386648626
  C       2.395122     -0.194610     -0.196666
  C       1.220174      0.455896      0.478717
  C       0.124604      0.990546     -0.391814
  O      -0.421899     -0.000689     -1.269221
  C      -1.134348      0.296758     -0.091703
  C      -0.977075     -0.729853      0.975880
  O      -2.315386      0.975969     -0.266369
  O      -3.300392      0.026643     -0.666466
  H       3.036996     -0.696374      0.525963
  H       3.005245      0.546798     -0.721763
  H       2.056016     -0.924778     -0.930456
  H       1.465935      1.120113      1.305651
  H       0.134609      1.996209     -0.795311
  H      -1.379690     -0.452322      1.944051
  H       0.400643     -0.470602      1.036242
  H      -1.137047     -1.761771      0.687497
  H      -3.173510      0.009799     -1.624233
17
Coordinates from ORCA-job freq E -421.381383615395
  C       2.387501     -0.200854     -0.195559
  C       1.221039      0.464432      0.480548
  C       0.123959      0.997088     -0.390255
  O      -0.419535      0.006923     -1.269653
  C      -1.133014      0.298732     -0.091393
  C      -0.971705     -0.729665      0.974053
  O      -2.316940      0.973087     -0.263820
  O      -3.293160      0.017095     -0.666233
  H       3.025940     -0.706658      0.527335
  H       3.003913      0.531195     -0.726083
  H       2.037854     -0.930773     -0.924728
  H       1.476305      1.136085      1.298500
  H       0.131408      2.003943     -0.790711
  H      -1.392783     -0.465441      1.938081
  H       0.401582     -0.456051      1.047372
  H      -1.110533     -1.762169      0.677281
  H      -3.171831      0.010761     -1.624735
17
Coordinates from ORCA-job freq E -421.381401855067
  C       2.386489     -0.201261     -0.196696
  C       1.221031      0.465240      0.480128
  C       0.123284      0.997451     -0.390206
  O      -0.420341      0.006478     -1.268578
  C      -1.133469      0.299026     -0.090264
  C      -0.971526     -0.728866      0.975580
  O      -2.317493      0.973065     -0.263469
  O      -3.293152      0.017070     -0.667343
  H       3.019904     -0.715460      0.524734
  H       3.008584      0.531595     -0.719363
  H       2.035769     -0.924158     -0.932279
  H       1.477810      1.137943      1.296714
  H       0.130270      2.004081     -0.791211
  H      -1.393508     -0.465004      1.939284
  H       0.401480     -0.453689      1.049152
  H      -1.109580     -1.761533      0.678899
  H      -3.165553      0.005750     -1.625084
17
Coordinates from ORCA-job freq E -421.381399033277
  C       2.385789     -0.201551     -0.197256
  C       1.220908      0.465283      0.480211
  C       0.122916      0.997913     -0.389592
  O      -0.421091      0.007369     -1.268196
  C      -1.133835      0.299501     -0.089471
  C      -0.971583     -0.728617      0.976145
  O      -2.318101      0.973187     -0.262523
  O      -3.292315      0.016849     -0.668950
  H       3.019601     -0.715674      0.523885
  H       3.007625      0.531033     -0.720613
  H       2.034416     -0.924595     -0.932375
  H       1.478382      1.138018      1.296560
  H       0.129918      2.004716     -0.790169
  H      -1.393516     -0.464891      1.939922
  H       0.401435     -0.453744      1.049265
  H      -1.109655     -1.761243      0.679346
  H      -3.160896      0.004177     -1.626190
17
Coordinates from ORCA-job freq E -421.381392860879
  C       2.385685     -0.201475     -0.197579
  C       1.220847      0.464993      0.480318
  C       0.122841      0.997946     -0.389276
  O      -0.421335      0.007497     -1.267891
  C      -1.134010      0.299722     -0.089106
  C      -0.971845     -0.728511      0.976412
  O      -2.318219      0.973475     -0.262392
  O      -3.292229      0.017233     -0.669593
  H       3.020166     -0.715077      0.523332
  H       3.006833      0.531286     -0.721514
  H       2.034250     -0.924876     -0.932323
  H       1.478361      1.137414      1.296906
  H       0.130014      2.004769     -0.789793
  H      -1.393405     -0.464607      1.940300
  H       0.401303     -0.454164      1.049109
  H      -1.110536     -1.761068      0.679643
  H      -3.158724      0.003175     -1.626555
17
Coordinates from ORCA-job freq E -421.381395802173
  C       2.385668     -0.201484     -0.197619
  C       1.220843      0.464990      0.480309
  C       0.122807      0.997937     -0.389247
  O      -0.421391      0.007484     -1.267842
  C      -1.134042      0.299704     -0.089049
  C      -0.971836     -0.728495      0.976488
  O      -2.318278      0.973422     -0.262332
  O      -3.292167      0.017162     -0.669777
  H       3.020126     -0.715190      0.523247
  H       3.006856      0.531300     -0.721472
  H       2.034217     -0.924796     -0.932441
  H       1.478391      1.137425      1.296877
  H       0.129938      2.004761     -0.789749
  H      -1.393332     -0.464536      1.940392
  H       0.401316     -0.454151      1.049146
  H      -1.110549     -1.761071      0.679794
  H      -3.158570      0.003269     -1.626726
