17
Coordinates from ORCA-job freq E -421.381395802173
  C           2.38566846421632     -0.20148427033464     -0.19761895432273
  C           1.22084308893621      0.46499011810269      0.48030887482576
  C           0.12280658404401      0.99793740530685     -0.38924677915524
  O          -0.42139118294477      0.00748369053490     -1.26784209115641
  C          -1.13404156993548      0.29970402613266     -0.08904895930110
  C          -0.97183625909689     -0.72849511838368      0.97648849184683
  O          -2.31827762031022      0.97342228406017     -0.26233190850544
  O          -3.29216692852804      0.01716181486023     -0.66977674738145
  H           3.02012582932622     -0.71518995999121      0.52324658204257
  H           3.00685606966169      0.53130002872654     -0.72147217834111
  H           2.03421687046679     -0.92479625176285     -0.93244116078649
  H           1.47839072002284      1.13742541272798      1.29687668967493
  H           0.12993839401068      2.00476144283501     -0.78974866658022
  H          -1.39333191859185     -0.46453567310789      1.94039238935438
  H           0.40131559205286     -0.45415106160952      1.04914615558157
  H          -1.11054854932358     -1.76107144481130      0.67979363049009
  H          -3.15856958400682      0.00326855671407     -1.62672636828593
