15
* (null), Energy   -1000.0000000
C     2.312848   -0.332553    0.441935    0.013488    0.014834    0.003717
C     1.068443   -0.090515   -0.369016   -0.065632   -0.108539    0.001888
C    -0.868857   -1.326773    0.582501   -0.091566   -0.002894    0.086069
C     0.066121    0.911077    0.185815    0.000517    0.013135    0.002445
C    -1.023941    0.095315    0.861680    0.010457    0.007248   -0.020485
O    -0.524554   -0.829001    1.832049   -0.001946   -0.017678   -0.012995
H     0.267927   -1.172877   -0.187237    1.499384    1.061505   -0.733088
H     2.914587   -1.138326    0.022883   -0.004721   -0.001028    0.004582
H     2.938090    0.565667    0.476172    0.008908   -0.004507   -0.001085
H     2.053888   -0.589890    1.469909    0.005120   -0.004076   -0.005254
H     1.233299   -0.022468   -1.440919    0.099520    0.185433    0.032474
H    -1.613204   -2.111022    0.508058    0.000771   -0.084703    0.018296
H    -0.385600    1.508323   -0.607226   -0.005050    0.013031    0.008347
H     0.523806    1.599054    0.900979   -0.004564    0.017917   -0.007612
H    -1.970364    0.549517    1.126094    0.013165    0.005187    0.012204
15
* Frequency(6) -1772.4744
C     2.314381   -0.330867    0.442357    0.013488    0.014834    0.003717
C     1.060984   -0.102850   -0.368802   -0.065632   -0.108539    0.001888
C    -0.879263   -1.327101    0.592282   -0.091566   -0.002894    0.086069
C     0.066179    0.912570    0.186093    0.000517    0.013135    0.002445
C    -1.022752    0.096139    0.859352    0.010457    0.007248   -0.020485
O    -0.524775   -0.831010    1.830572   -0.001946   -0.017678   -0.012995
H     0.438324   -1.052243   -0.270549    1.499384    1.061505   -0.733088
H     2.914050   -1.138442    0.023404   -0.004721   -0.001028    0.004582
H     2.939103    0.565155    0.476049    0.008908   -0.004507   -0.001085
H     2.054470   -0.590354    1.469312    0.005120   -0.004076   -0.005254
H     1.244609   -0.001395   -1.437228    0.099520    0.185433    0.032474
H    -1.613116   -2.120648    0.510137    0.000771   -0.084703    0.018296
H    -0.386174    1.509804   -0.606277   -0.005050    0.013031    0.008347
H     0.523287    1.601090    0.900114   -0.004564    0.017917   -0.007612
H    -1.968868    0.550106    1.127481    0.013165    0.005187    0.012204
15
* Frequency(6) -1772.4744
C     2.315748   -0.329364    0.442734    0.013488    0.014834    0.003717
C     1.054334   -0.113848   -0.368611   -0.065632   -0.108539    0.001888
C    -0.888541   -1.327395    0.601004   -0.091566   -0.002894    0.086069
C     0.066232    0.913901    0.186341    0.000517    0.013135    0.002445
C    -1.021693    0.096873    0.857276    0.010457    0.007248   -0.020485
O    -0.524972   -0.832801    1.829256   -0.001946   -0.017678   -0.012995
H     0.590256   -0.944681   -0.344833    1.499384    1.061505   -0.733088
H     2.913572   -1.138547    0.023868   -0.004721   -0.001028    0.004582
H     2.940006    0.564698    0.475939    0.008908   -0.004507   -0.001085
H     2.054989   -0.590767    1.468779    0.005120   -0.004076   -0.005254
H     1.254693    0.017395   -1.433938    0.099520    0.185433    0.032474
H    -1.613038   -2.129231    0.511991    0.000771   -0.084703    0.018296
H    -0.386686    1.511125   -0.605431   -0.005050    0.013031    0.008347
H     0.522825    1.602906    0.899343   -0.004564    0.017917   -0.007612
H    -1.967534    0.550632    1.128717    0.013165    0.005187    0.012204
15
* Frequency(6) -1772.4744
C     2.316800   -0.328207    0.443024    0.013488    0.014834    0.003717
C     1.049212   -0.122318   -0.368463   -0.065632   -0.108539    0.001888
C    -0.895687   -1.327620    0.607720   -0.091566   -0.002894    0.086069
C     0.066272    0.914926    0.186532    0.000517    0.013135    0.002445
C    -1.020877    0.097439    0.855677    0.010457    0.007248   -0.020485
O    -0.525124   -0.834181    1.828242   -0.001946   -0.017678   -0.012995
H     0.707258   -0.861847   -0.402038    1.499384    1.061505   -0.733088
H     2.913204   -1.138627    0.024226   -0.004721   -0.001028    0.004582
H     2.940701    0.564346    0.475854    0.008908   -0.004507   -0.001085
H     2.055388   -0.591085    1.468369    0.005120   -0.004076   -0.005254
H     1.262459    0.031865   -1.431403    0.099520    0.185433    0.032474
H    -1.612978   -2.135840    0.513418    0.000771   -0.084703    0.018296
H    -0.387080    1.512141   -0.604780   -0.005050    0.013031    0.008347
H     0.522469    1.604304    0.898749   -0.004564    0.017917   -0.007612
H    -1.966507    0.551037    1.129669    0.013165    0.005187    0.012204
15
* Frequency(6) -1772.4744
C     2.317424   -0.327520    0.443196    0.013488    0.014834    0.003717
C     1.046175   -0.127341   -0.368376   -0.065632   -0.108539    0.001888
C    -0.899924   -1.327754    0.611704   -0.091566   -0.002894    0.086069
C     0.066296    0.915534    0.186645    0.000517    0.013135    0.002445
C    -1.020393    0.097774    0.854729    0.010457    0.007248   -0.020485
O    -0.525214   -0.834999    1.827640   -0.001946   -0.017678   -0.012995
H     0.776653   -0.812719   -0.435967    1.499384    1.061505   -0.733088
H     2.912985   -1.138674    0.024438   -0.004721   -0.001028    0.004582
H     2.941113    0.564138    0.475804    0.008908   -0.004507   -0.001085
H     2.055625   -0.591273    1.468126    0.005120   -0.004076   -0.005254
H     1.267065    0.040447   -1.429901    0.099520    0.185433    0.032474
H    -1.612942   -2.139760    0.514265    0.000771   -0.084703    0.018296
H    -0.387314    1.512744   -0.604394   -0.005050    0.013031    0.008347
H     0.522258    1.605133    0.898397   -0.004564    0.017917   -0.007612
H    -1.965897    0.551277    1.130234    0.013165    0.005187    0.012204
15
* Frequency(6) -1772.4744
C     2.317553   -0.327379    0.443231    0.013488    0.014834    0.003717
C     1.045550   -0.128374   -0.368358   -0.065632   -0.108539    0.001888
C    -0.900796   -1.327782    0.612522   -0.091566   -0.002894    0.086069
C     0.066301    0.915659    0.186668    0.000517    0.013135    0.002445
C    -1.020293    0.097843    0.854534    0.010457    0.007248   -0.020485
O    -0.525233   -0.835167    1.827516   -0.001946   -0.017678   -0.012995
H     0.790919   -0.802619   -0.442942    1.499384    1.061505   -0.733088
H     2.912940   -1.138684    0.024481   -0.004721   -0.001028    0.004582
H     2.941198    0.564095    0.475793    0.008908   -0.004507   -0.001085
H     2.055674   -0.591312    1.468076    0.005120   -0.004076   -0.005254
H     1.268012    0.042212   -1.429592    0.099520    0.185433    0.032474
H    -1.612935   -2.140566    0.514439    0.000771   -0.084703    0.018296
H    -0.387362    1.512868   -0.604314   -0.005050    0.013031    0.008347
H     0.522214    1.605303    0.898324   -0.004564    0.017917   -0.007612
H    -1.965772    0.551326    1.130350    0.013165    0.005187    0.012204
15
* Frequency(6) -1772.4744
C     2.317171   -0.327799    0.443126    0.013488    0.014834    0.003717
C     1.047407   -0.125304   -0.368411   -0.065632   -0.108539    0.001888
C    -0.898206   -1.327700    0.610088   -0.091566   -0.002894    0.086069
C     0.066286    0.915287    0.186599    0.000517    0.013135    0.002445
C    -1.020589    0.097638    0.855114    0.010457    0.007248   -0.020485
O    -0.525178   -0.834667    1.827884   -0.001946   -0.017678   -0.012995
H     0.748510   -0.832643   -0.422207    1.499384    1.061505   -0.733088
H     2.913074   -1.138655    0.024352   -0.004721   -0.001028    0.004582
H     2.940946    0.564222    0.475824    0.008908   -0.004507   -0.001085
H     2.055529   -0.591197    1.468225    0.005120   -0.004076   -0.005254
H     1.265197    0.036967   -1.430510    0.099520    0.185433    0.032474
H    -1.612957   -2.138171    0.513922    0.000771   -0.084703    0.018296
H    -0.387219    1.512500   -0.604550   -0.005050    0.013031    0.008347
H     0.522343    1.604797    0.898540   -0.004564    0.017917   -0.007612
H    -1.966145    0.551179    1.130005    0.013165    0.005187    0.012204
15
* Frequency(6) -1772.4744
C     2.316321   -0.328734    0.442892    0.013488    0.014834    0.003717
C     1.051543   -0.118464   -0.368530   -0.065632   -0.108539    0.001888
C    -0.892436   -1.327518    0.604664   -0.091566   -0.002894    0.086069
C     0.066254    0.914460    0.186445    0.000517    0.013135    0.002445
C    -1.021248    0.097181    0.856405    0.010457    0.007248   -0.020485
O    -0.525055   -0.833553    1.828703   -0.001946   -0.017678   -0.012995
H     0.654023   -0.899536   -0.376010    1.499384    1.061505   -0.733088
H     2.913371   -1.138590    0.024063   -0.004721   -0.001028    0.004582
H     2.940384    0.564506    0.475892    0.008908   -0.004507   -0.001085
H     2.055206   -0.590940    1.468556    0.005120   -0.004076   -0.005254
H     1.258926    0.025281   -1.432556    0.099520    0.185433    0.032474
H    -1.613005   -2.132833    0.512769    0.000771   -0.084703    0.018296
H    -0.386901    1.511679   -0.605076   -0.005050    0.013031    0.008347
H     0.522631    1.603668    0.899019   -0.004564    0.017917   -0.007612
H    -1.966974    0.550852    1.129236    0.013165    0.005187    0.012204
15
* Frequency(6) -1772.4744
C     2.315095   -0.330082    0.442554    0.013488    0.014834    0.003717
C     1.057510   -0.108595   -0.368702   -0.065632   -0.108539    0.001888
C    -0.884110   -1.327255    0.596839   -0.091566   -0.002894    0.086069
C     0.066207    0.913265    0.186223    0.000517    0.013135    0.002445
C    -1.022199    0.096522    0.858267    0.010457    0.007248   -0.020485
O    -0.524878   -0.831946    1.829884   -0.001946   -0.017678   -0.012995
H     0.517696   -0.996050   -0.309356    1.499384    1.061505   -0.733088
H     2.913800   -1.138497    0.023646   -0.004721   -0.001028    0.004582
H     2.939574    0.564916    0.475991    0.008908   -0.004507   -0.001085
H     2.054741   -0.590569    1.469033    0.005120   -0.004076   -0.005254
H     1.249877    0.008422   -1.435509    0.099520    0.185433    0.032474
H    -1.613075   -2.125132    0.511105    0.000771   -0.084703    0.018296
H    -0.386441    1.510494   -0.605835   -0.005050    0.013031    0.008347
H     0.523046    1.602039    0.899711   -0.004564    0.017917   -0.007612
H    -1.968171    0.550381    1.128127    0.013165    0.005187    0.012204
15
* Frequency(6) -1772.4744
C     2.313625   -0.331699    0.442149    0.013488    0.014834    0.003717
C     1.064662   -0.096767   -0.368908   -0.065632   -0.108539    0.001888
C    -0.874132   -1.326939    0.587459   -0.091566   -0.002894    0.086069
C     0.066150    0.911834    0.185956    0.000517    0.013135    0.002445
C    -1.023338    0.095733    0.860500    0.010457    0.007248   -0.020485
O    -0.524666   -0.830019    1.831301   -0.001946   -0.017678   -0.012995
H     0.354303   -1.111726   -0.229469    1.499384    1.061505   -0.733088
H     2.914315   -1.138385    0.023147   -0.004721   -0.001028    0.004582
H     2.938604    0.565407    0.476109    0.008908   -0.004507   -0.001085
H     2.054183   -0.590125    1.469606    0.005120   -0.004076   -0.005254
H     1.239032   -0.011786   -1.439048    0.099520    0.185433    0.032474
H    -1.613159   -2.115901    0.509112    0.000771   -0.084703    0.018296
H    -0.385891    1.509074   -0.606745   -0.005050    0.013031    0.008347
H     0.523543    1.600086    0.900541   -0.004564    0.017917   -0.007612
H    -1.969606    0.549816    1.126797    0.013165    0.005187    0.012204
15
* Frequency(6) -1772.4744
C     2.312071   -0.333408    0.441721    0.013488    0.014834    0.003717
C     1.072224   -0.084262   -0.369125   -0.065632   -0.108539    0.001888
C    -0.863582   -1.326606    0.577543   -0.091566   -0.002894    0.086069
C     0.066091    0.910321    0.185674    0.000517    0.013135    0.002445
C    -1.024543    0.094897    0.862860    0.010457    0.007248   -0.020485
O    -0.524442   -0.827983    1.832798   -0.001946   -0.017678   -0.012995
H     0.181550   -1.234028   -0.145006    1.499384    1.061505   -0.733088
H     2.914859   -1.138266    0.022619   -0.004721   -0.001028    0.004582
H     2.937577    0.565926    0.476234    0.008908   -0.004507   -0.001085
H     2.053593   -0.589656    1.470211    0.005120   -0.004076   -0.005254
H     1.227566   -0.033151   -1.442789    0.099520    0.185433    0.032474
H    -1.613248   -2.106142    0.507004    0.000771   -0.084703    0.018296
H    -0.385309    1.507573   -0.607707   -0.005050    0.013031    0.008347
H     0.524069    1.598022    0.901418   -0.004564    0.017917   -0.007612
H    -1.971123    0.549218    1.125391    0.013165    0.005187    0.012204
15
* Frequency(6) -1772.4744
C     2.310601   -0.335024    0.441316    0.013488    0.014834    0.003717
C     1.079376   -0.072434   -0.369331   -0.065632   -0.108539    0.001888
C    -0.853604   -1.326291    0.568164   -0.091566   -0.002894    0.086069
C     0.066034    0.908889    0.185408    0.000517    0.013135    0.002445
C    -1.025683    0.094108    0.865092    0.010457    0.007248   -0.020485
O    -0.524230   -0.826056    1.834214   -0.001946   -0.017678   -0.012995
H     0.018157   -1.349704   -0.065118    1.499384    1.061505   -0.733088
H     2.915373   -1.138154    0.022120   -0.004721   -0.001028    0.004582
H     2.936607    0.566418    0.476353    0.008908   -0.004507   -0.001085
H     2.053035   -0.589211    1.470784    0.005120   -0.004076   -0.005254
H     1.216721   -0.053358   -1.446328    0.099520    0.185433    0.032474
H    -1.613332   -2.096912    0.505010    0.000771   -0.084703    0.018296
H    -0.384759    1.506153   -0.608616   -0.005050    0.013031    0.008347
H     0.524566    1.596069    0.902247   -0.004564    0.017917   -0.007612
H    -1.972557    0.548653    1.124061    0.013165    0.005187    0.012204
15
* Frequency(6) -1772.4744
C     2.309375   -0.336373    0.440978    0.013488    0.014834    0.003717
C     1.085344   -0.062565   -0.369503   -0.065632   -0.108539    0.001888
C    -0.845278   -1.326028    0.560338   -0.091566   -0.002894    0.086069
C     0.065987    0.907695    0.185186    0.000517    0.013135    0.002445
C    -1.026633    0.093449    0.866954    0.010457    0.007248   -0.020485
O    -0.524053   -0.824449    1.835396   -0.001946   -0.017678   -0.012995
H    -0.118170   -1.446218    0.001535    1.499384    1.061505   -0.733088
H     2.915802   -1.138061    0.021703   -0.004721   -0.001028    0.004582
H     2.935797    0.566827    0.476451    0.008908   -0.004507   -0.001085
H     2.052570   -0.588841    1.471262    0.005120   -0.004076   -0.005254
H     1.207672   -0.070218   -1.449281    0.099520    0.185433    0.032474
H    -1.613402   -2.089210    0.503346    0.000771   -0.084703    0.018296
H    -0.384300    1.504968   -0.609375   -0.005050    0.013031    0.008347
H     0.524981    1.594440    0.902939   -0.004564    0.017917   -0.007612
H    -1.973754    0.548181    1.122951    0.013165    0.005187    0.012204
15
* Frequency(6) -1772.4744
C     2.308525   -0.337308    0.440743    0.013488    0.014834    0.003717
C     1.089480   -0.055725   -0.369622   -0.065632   -0.108539    0.001888
C    -0.839508   -1.325845    0.554914   -0.091566   -0.002894    0.086069
C     0.065955    0.906867    0.185032    0.000517    0.013135    0.002445
C    -1.027292    0.092992    0.868245    0.010457    0.007248   -0.020485
O    -0.523930   -0.823335    1.836214   -0.001946   -0.017678   -0.012995
H    -0.212657   -1.513111    0.047732    1.499384    1.061505   -0.733088
H     2.916100   -1.137996    0.021414   -0.004721   -0.001028    0.004582
H     2.935235    0.567111    0.476520    0.008908   -0.004507   -0.001085
H     2.052247   -0.588584    1.471593    0.005120   -0.004076   -0.005254
H     1.201401   -0.081903   -1.451327    0.099520    0.185433    0.032474
H    -1.613451   -2.083873    0.502193    0.000771   -0.084703    0.018296
H    -0.383981    1.504147   -0.609901   -0.005050    0.013031    0.008347
H     0.525269    1.593311    0.903419   -0.004564    0.017917   -0.007612
H    -1.974584    0.547854    1.122182    0.013165    0.005187    0.012204
15
* Frequency(6) -1772.4744
C     2.308143   -0.337727    0.440638    0.013488    0.014834    0.003717
C     1.091336   -0.052656   -0.369675   -0.065632   -0.108539    0.001888
C    -0.836918   -1.325763    0.552480   -0.091566   -0.002894    0.086069
C     0.065940    0.906496    0.184963    0.000517    0.013135    0.002445
C    -1.027588    0.092787    0.868825    0.010457    0.007248   -0.020485
O    -0.523875   -0.822835    1.836582   -0.001946   -0.017678   -0.012995
H    -0.255065   -1.543135    0.068467    1.499384    1.061505   -0.733088
H     2.916233   -1.137967    0.021285   -0.004721   -0.001028    0.004582
H     2.934983    0.567239    0.476550    0.008908   -0.004507   -0.001085
H     2.052102   -0.588469    1.471741    0.005120   -0.004076   -0.005254
H     1.198586   -0.087148   -1.452246    0.099520    0.185433    0.032474
H    -1.613473   -2.081477    0.501676    0.000771   -0.084703    0.018296
H    -0.383839    1.503778   -0.610137   -0.005050    0.013031    0.008347
H     0.525398    1.592804    0.903634   -0.004564    0.017917   -0.007612
H    -1.974956    0.547708    1.121837    0.013165    0.005187    0.012204
15
* Frequency(6) -1772.4744
C     2.308272   -0.337586    0.440674    0.013488    0.014834    0.003717
C     1.090711   -0.053688   -0.369657   -0.065632   -0.108539    0.001888
C    -0.837789   -1.325791    0.553299   -0.091566   -0.002894    0.086069
C     0.065945    0.906621    0.184986    0.000517    0.013135    0.002445
C    -1.027489    0.092856    0.868630    0.010457    0.007248   -0.020485
O    -0.523894   -0.823003    1.836458   -0.001946   -0.017678   -0.012995
H    -0.240799   -1.533035    0.061492    1.499384    1.061505   -0.733088
H     2.916189   -1.137977    0.021328   -0.004721   -0.001028    0.004582
H     2.935068    0.567196    0.476540    0.008908   -0.004507   -0.001085
H     2.052151   -0.588508    1.471691    0.005120   -0.004076   -0.005254
H     1.199533   -0.085384   -1.451937    0.099520    0.185433    0.032474
H    -1.613465   -2.082283    0.501850    0.000771   -0.084703    0.018296
H    -0.383887    1.503902   -0.610058   -0.005050    0.013031    0.008347
H     0.525354    1.592975    0.903562   -0.004564    0.017917   -0.007612
H    -1.974831    0.547757    1.121953    0.013165    0.005187    0.012204
15
* Frequency(6) -1772.4744
C     2.308896   -0.336900    0.440846    0.013488    0.014834    0.003717
C     1.087674   -0.058712   -0.369570   -0.065632   -0.108539    0.001888
C    -0.842027   -1.325925    0.557282   -0.091566   -0.002894    0.086069
C     0.065969    0.907229    0.185099    0.000517    0.013135    0.002445
C    -1.027005    0.093191    0.867682    0.010457    0.007248   -0.020485
O    -0.523984   -0.823821    1.835857   -0.001946   -0.017678   -0.012995
H    -0.171405   -1.483907    0.027563    1.499384    1.061505   -0.733088
H     2.915970   -1.138024    0.021541   -0.004721   -0.001028    0.004582
H     2.935480    0.566987    0.476490    0.008908   -0.004507   -0.001085
H     2.052388   -0.588696    1.471448    0.005120   -0.004076   -0.005254
H     1.204139   -0.076801   -1.450434    0.099520    0.185433    0.032474
H    -1.613430   -2.086203    0.502697    0.000771   -0.084703    0.018296
H    -0.384120    1.504505   -0.609672   -0.005050    0.013031    0.008347
H     0.525143    1.593804    0.903210   -0.004564    0.017917   -0.007612
H    -1.974222    0.547997    1.122518    0.013165    0.005187    0.012204
15
* Frequency(6) -1772.4744
C     2.309948   -0.335742    0.441136    0.013488    0.014834    0.003717
C     1.082552   -0.067181   -0.369422   -0.065632   -0.108539    0.001888
C    -0.849172   -1.326151    0.563998   -0.091566   -0.002894    0.086069
C     0.066009    0.908254    0.185290    0.000517    0.013135    0.002445
C    -1.026189    0.093757    0.866083    0.010457    0.007248   -0.020485
O    -0.524136   -0.825201    1.834843   -0.001946   -0.017678   -0.012995
H    -0.054403   -1.401074   -0.029642    1.499384    1.061505   -0.733088
H     2.915602   -1.138105    0.021898   -0.004721   -0.001028    0.004582
H     2.936175    0.566636    0.476405    0.008908   -0.004507   -0.001085
H     2.052787   -0.589014    1.471038    0.005120   -0.004076   -0.005254
H     1.211905   -0.062331   -1.447900    0.099520    0.185433    0.032474
H    -1.613369   -2.092813    0.504124    0.000771   -0.084703    0.018296
H    -0.384514    1.505522   -0.609020   -0.005050    0.013031    0.008347
H     0.524787    1.595202    0.902616   -0.004564    0.017917   -0.007612
H    -1.973194    0.548402    1.123470    0.013165    0.005187    0.012204
15
* Frequency(6) -1772.4744
C     2.311315   -0.334239    0.441512    0.013488    0.014834    0.003717
C     1.075902   -0.078180   -0.369231   -0.065632   -0.108539    0.001888
C    -0.858451   -1.326444    0.572720   -0.091566   -0.002894    0.086069
C     0.066062    0.909585    0.185537    0.000517    0.013135    0.002445
C    -1.025129    0.094491    0.864008    0.010457    0.007248   -0.020485
O    -0.524333   -0.826992    1.833526   -0.001946   -0.017678   -0.012995
H     0.097529   -1.293512   -0.103926    1.499384    1.061505   -0.733088
H     2.915123   -1.138209    0.022362   -0.004721   -0.001028    0.004582
H     2.937078    0.566179    0.476295    0.008908   -0.004507   -0.001085
H     2.053306   -0.589427    1.470506    0.005120   -0.004076   -0.005254
H     1.221989   -0.043542   -1.444609    0.099520    0.185433    0.032474
H    -1.613291   -2.101396    0.505978    0.000771   -0.084703    0.018296
H    -0.385026    1.506842   -0.608174   -0.005050    0.013031    0.008347
H     0.524325    1.597018    0.901844   -0.004564    0.017917   -0.007612
H    -1.971860    0.548927    1.124707    0.013165    0.005187    0.012204
15
* Frequency(6) -1772.4744
C     2.312848   -0.332553    0.441935    0.013488    0.014834    0.003717
C     1.068443   -0.090515   -0.369016   -0.065632   -0.108539    0.001888
C    -0.868857   -1.326773    0.582501   -0.091566   -0.002894    0.086069
C     0.066121    0.911077    0.185815    0.000517    0.013135    0.002445
C    -1.023941    0.095315    0.861680    0.010457    0.007248   -0.020485
O    -0.524554   -0.829001    1.832049   -0.001946   -0.017678   -0.012995
H     0.267927   -1.172877   -0.187237    1.499384    1.061505   -0.733088
H     2.914587   -1.138326    0.022883   -0.004721   -0.001028    0.004582
H     2.938090    0.565667    0.476172    0.008908   -0.004507   -0.001085
H     2.053888   -0.589890    1.469909    0.005120   -0.004076   -0.005254
H     1.233299   -0.022468   -1.440919    0.099520    0.185433    0.032474
H    -1.613204   -2.111022    0.508058    0.000771   -0.084703    0.018296
H    -0.385600    1.508323   -0.607226   -0.005050    0.013031    0.008347
H     0.523806    1.599054    0.900979   -0.004564    0.017917   -0.007612
H    -1.970364    0.549517    1.126094    0.013165    0.005187    0.012204
