15
Coordinates from ORCA-job freq E -271.005445215911
  C           2.31284796138772     -0.33255324509532      0.44193474530791
  C           1.06844307964164     -0.09051458445292     -0.36901647101359
  C          -0.86885689723799     -1.32677261733354      0.58250112644546
  C           0.06612058245815      0.91107727721925      0.18581527929777
  C          -1.02394068833683      0.09531499889498      0.86167958942202
  O          -0.52455414127410     -0.82900094298790      1.83204922556197
  H           0.26792659907682     -1.17287710272417     -0.18723745707938
  H           2.91458679424329     -1.13832560502915      0.02288309921694
  H           2.93809049534428      0.56566684994543      0.47617188353764
  H           2.05388807720329     -0.58989036903653      1.46990874551446
  H           1.23329901669577     -0.02246815615813     -1.44091863446762
  H          -1.61320368327541     -2.11102159558345      0.50805759225507
  H          -0.38560016237659      1.50832331462778     -0.60722582101595
  H           0.52380610185568      1.59905393109455      0.90097935068809
  H          -1.97036413540576      0.54951684661912      1.12609374632916
