17
Coordinates from ORCA-job freq E -421.435027660905
  C           1.75372467658787     -0.77405194601750      0.20639890728270
  C           0.99380632948354      0.05146014878632     -0.82616485060818
  C          -2.23384110089704     -0.71614183571792     -0.21277678693284
  C          -1.16321834289110     -0.02322896604620      0.50687812996052
  C          -0.18505798933498      0.82161463123206     -0.25221423034541
  O           0.96930770180392      2.74799804006580      0.11920860997054
  O          -2.49548542162261      0.44521313522903      0.55020746728759
  O           0.29196150546791      1.81177822745283      0.70121365361050
  H           2.63745627544435     -1.22348367981506     -0.24314074969672
  H           2.08146054382067     -0.15121282169238      1.03872068766454
  H           1.14036160226325     -1.58185583908825      0.60589128997395
  H           0.61083655896471     -0.59040950881339     -1.62214952965725
  H           1.65688297382160      0.77990288228524     -1.29359908444674
  H          -2.31525079236857     -0.59001458903717     -1.28707308577535
  H          -2.63369146602679     -1.63898955050926      0.18870705561579
  H          -0.80389656196113     -0.44166941247844      1.44124638868116
  H          -0.71176149255562      1.37414008416430     -1.03190787258481
