17
Coordinates from ORCA-job freq E -421.452723439669
  C           1.82461070371780      0.65392301133819     -2.00469895997270
  C           0.49093772822556     -0.49608137820184     -0.23373700616763
  C           1.65159352003924      0.40710649608594     -0.50465633847273
  C          -1.75259827308386     -1.10995420286107      0.76054367475785
  C          -0.58698606221587     -0.21118218378252      0.49039387421071
  O          -2.95064350997868     -0.65169391836791      0.17822634919909
  O          -1.71106345272488      1.31507720869820      1.73994628302066
  O          -0.62702055140440      1.05603489463919      1.07105726448203
  H           2.69474471451763      1.28069513241269     -2.19420970002521
  H           1.96085327036826     -0.28554088435455     -2.54119925888148
  H           0.94716202579496      1.15114510443709     -2.41645998531752
  H           0.51226544376769     -1.47964105822850     -0.68971515143881
  H           1.52875762019218      1.35121601118508      0.02215002745648
  H           2.55648639389690     -0.06440682397932     -0.11257271507932
  H          -1.86305273560587     -1.24249604291065      1.84091853232531
  H          -1.53142853697900     -2.07965729209796      0.31917835701327
  H          -3.20831829852767      0.14409792598793      0.65259275289000
