17
Coordinates from ORCA-job freq E -421.413747723127
  C      -2.922385      0.069908     -0.111613
  C      -0.499569     -0.366516     -0.314404
  C       0.320802     -1.172762      0.371362
  C      -1.846142     -0.780122     -0.795741
  C       1.694303     -0.741941      0.877151
  O       1.089725     -0.388607      1.995998
  O       2.329040     -2.619752      2.032021
  O       2.641422     -1.759192      0.967020
  H      -3.906575     -0.226943     -0.464870
  H      -2.775828      1.124060     -0.332427
  H      -2.880423     -0.066342      0.965736
  H      -0.201352      0.649020     -0.534124
  H       0.039995     -2.161525      0.701847
  H      -1.908469     -0.626151     -1.876037
  H      -2.017058     -1.836238     -0.585356
  H       2.177803      0.034114      0.268147
  H       1.856843     -2.014679      2.653307
17
Coordinates from ORCA-job freq E -421.416505574136
  C      -2.903422      0.038023     -0.071108
  C      -0.478859     -0.368467     -0.349630
  C       0.340521     -1.166641      0.341927
  C      -1.835445     -0.774490     -0.812662
  C       1.706088     -0.724707      0.858777
  O       1.111598     -0.290827      1.962460
  O       2.187049     -2.622914      2.044578
  O       2.625514     -1.762643      1.020700
  H      -3.895449     -0.253786     -0.408249
  H      -2.774642      1.103044     -0.251302
  H      -2.832873     -0.138781      0.999792
  H      -0.175252      0.647316     -0.571152
  H       0.056047     -2.152632      0.681310
  H      -1.925485     -0.588247     -1.885569
  H      -1.990800     -1.838939     -0.635862
  H       2.220082      0.009036      0.226106
  H       1.757460     -1.998012      2.667899
17
Coordinates from ORCA-job freq E -421.416804885734
  C      -2.882515      0.062414     -0.070712
  C      -0.473521     -0.394372     -0.363719
  C       0.368407     -1.184458      0.320094
  C      -1.839951     -0.798470     -0.795733
  C       1.690803     -0.698470      0.873487
  O       1.024063     -0.314306      1.965629
  O       2.180246     -2.639630      1.980700
  O       2.665549     -1.679105      1.069377
  H      -3.887569     -0.237133     -0.359855
  H      -2.751557      1.114069     -0.320080
  H      -2.781535     -0.046401      1.007211
  H      -0.181046      0.627539     -0.578317
  H       0.103862     -2.184945      0.631636
  H      -1.947828     -0.652648     -1.873169
  H      -2.006447     -1.853697     -0.577641
  H       2.191872      0.071336      0.277171
  H       1.719295     -2.075391      2.631938
17
Coordinates from ORCA-job freq E -421.417300108288
  C      -2.865417      0.034223     -0.032486
  C      -0.462880     -0.397514     -0.398198
  C       0.370504     -1.189887      0.292713
  C      -1.836377     -0.785480     -0.823040
  C       1.690183     -0.704566      0.850667
  O       1.019557     -0.257122      1.918601
  O       2.114864     -2.612193      2.040697
  O       2.642836     -1.695411      1.106994
  H      -3.876176     -0.237766     -0.329719
  H      -2.728569      1.099833     -0.209804
  H      -2.753356     -0.148292      1.034601
  H      -0.156236      0.619863     -0.617261
  H       0.097558     -2.186945      0.609805
  H      -1.967767     -0.587531     -1.889125
  H      -1.997086     -1.850146     -0.652365
  H       2.217557      0.031266      0.235106
  H       1.682934     -2.015999      2.680830
17
Coordinates from ORCA-job freq E -421.416631561942
  C      -2.872045      0.048766     -0.044917
  C      -0.466127     -0.397068     -0.385528
  C       0.380849     -1.192678      0.291609
  C      -1.838329     -0.789350     -0.809022
  C       1.695852     -0.705292      0.851567
  O       0.997003     -0.289396      1.919014
  O       2.136899     -2.620816      2.026320
  O       2.658768     -1.686335      1.105273
  H      -3.881421     -0.248440     -0.322288
  H      -2.751407      1.107954     -0.267133
  H      -2.750922     -0.088110      1.028175
  H      -0.167596      0.625817     -0.591100
  H       0.115026     -2.196301      0.593200
  H      -1.961381     -0.614768     -1.880620
  H      -2.001531     -1.849945     -0.616984
  H       2.217512      0.051449      0.257888
  H       1.680979     -2.039154      2.662562
17
Coordinates from ORCA-job freq E -421.417194113453
  C      -2.886039      0.062620     -0.068212
  C      -0.472630     -0.400130     -0.362107
  C       0.376604     -1.193156      0.311621
  C      -1.842142     -0.794702     -0.794115
  C       1.694740     -0.700293      0.863518
  O       1.022679     -0.302185      1.953587
  O       2.164157     -2.636556      1.987910
  O       2.670701     -1.677780      1.083066
  H      -3.891449     -0.240576     -0.353516
  H      -2.761375      1.115486     -0.317384
  H      -2.783357     -0.044885      1.010187
  H      -0.176774      0.624259     -0.566117
  H       0.117733     -2.199143      0.611325
  H      -1.946251     -0.643392     -1.871658
  H      -2.010551     -1.851017     -0.583723
  H       2.199782      0.068252      0.270631
  H       1.716303     -2.070471      2.643005
17
Coordinates from ORCA-job freq E -421.416729175971
  C      -2.879885      0.070029     -0.069280
  C      -0.470741     -0.405291     -0.372172
  C       0.377460     -1.193520      0.314594
  C      -1.843604     -0.799430     -0.792511
  C       1.688852     -0.694177      0.871242
  O       0.992267     -0.325376      1.960046
  O       2.177332     -2.642374      1.966966
  O       2.679999     -1.655588      1.089869
  H      -3.888376     -0.237630     -0.338718
  H      -2.757968      1.118614     -0.337450
  H      -2.765467     -0.019360      1.009647
  H      -0.170644      0.615159     -0.589632
  H       0.114793     -2.197133      0.617988
  H      -1.954387     -0.659693     -1.870908
  H      -2.014386     -1.852865     -0.569889
  H       2.185291      0.091874      0.294786
  H       1.721594     -2.096906      2.633438
17
Coordinates from ORCA-job freq E -421.416341964815
  C      -2.869478      0.064340     -0.056265
  C      -0.464978     -0.408343     -0.390551
  C       0.377688     -1.191737      0.313221
  C      -1.841757     -0.798808     -0.800217
  C       1.686090     -0.691092      0.868626
  O       0.969169     -0.322735      1.946184
  O       2.164000     -2.638596      1.969960
  O       2.678553     -1.646439      1.105374
  H      -3.881135     -0.237671     -0.320537
  H      -2.747558      1.116168     -0.311495
  H      -2.744806     -0.039560      1.020253
  H      -0.156205      0.605734     -0.625138
  H       0.107505     -2.190660      0.624901
  H      -1.964937     -0.649015     -1.875729
  H      -2.011311     -1.853814     -0.584429
  H       2.185300      0.095806      0.296159
  H       1.705992     -2.097244      2.637699
17
Coordinates from ORCA-job freq E -421.415917979628
  C      -2.861724      0.061283     -0.047269
  C      -0.460630     -0.411175     -0.406615
  C       0.376610     -1.189141      0.315788
  C      -1.841020     -0.798295     -0.805765
  C       1.683881     -0.688477      0.868028
  O       0.946959     -0.326246      1.937551
  O       2.159221     -2.637440      1.968375
  O       2.679662     -1.636275      1.117264
  H      -3.875847     -0.236960     -0.306658
  H      -2.739793      1.114854     -0.295383
  H      -2.729053     -0.051034      1.027455
  H      -0.143572      0.596270     -0.657904
  H       0.099107     -2.183420      0.635087
  H      -1.974588     -0.642647     -1.879081
  H      -2.009586     -1.854324     -0.594115
  H       2.183126      0.102326      0.301438
  H       1.699378     -2.102965      2.639820
17
Coordinates from ORCA-job freq E -421.415555998424
  C      -2.853518      0.055034     -0.035205
  C      -0.455622     -0.412846     -0.423066
  C       0.376912     -1.186524      0.315636
  C      -1.839454     -0.796202     -0.812568
  C       1.683178     -0.687085      0.863655
  O       0.925801     -0.321195      1.920223
  O       2.145331     -2.634095      1.972992
  O       2.678122     -1.629464      1.133363
  H      -3.869990     -0.238261     -0.291357
  H      -2.731725      1.111716     -0.270022
  H      -2.712960     -0.071762      1.036930
  H      -0.131288      0.588887     -0.687228
  H       0.092975     -2.176871      0.640909
  H      -1.983860     -0.630295     -1.882815
  H      -2.006076     -1.854286     -0.609656
  H       2.186952      0.101919      0.299011
  H       1.687352     -2.102338      2.647214
17
Coordinates from ORCA-job freq E -421.415243836204
  C      -2.849540      0.051677     -0.028867
  C      -0.452258     -0.413035     -0.433325
  C       0.375775     -1.182201      0.321725
  C      -1.838296     -0.794585     -0.815807
  C       1.682615     -0.685872      0.860838
  O       0.908372     -0.320177      1.906516
  O       2.138328     -2.634592      1.969927
  O       2.678727     -1.622549      1.143891
  H      -3.867084     -0.237734     -0.285580
  H      -2.726570      1.110214     -0.254845
  H      -2.706846     -0.084355      1.041882
  H      -0.121144      0.582954     -0.710123
  H       0.086645     -2.169222      0.651899
  H      -1.989103     -0.624421     -1.884406
  H      -2.003305     -1.853775     -0.617074
  H       2.188290      0.103120      0.298308
  H       1.687525     -2.109114      2.653055
17
Coordinates from ORCA-job freq E -421.415111082478
  C      -2.857135      0.054224     -0.034889
  C      -0.453509     -0.407906     -0.426810
  C       0.376057     -1.176636      0.334608
  C      -1.838132     -0.793639     -0.809824
  C       1.687342     -0.686829      0.857420
  O       0.902960     -0.322292      1.896440
  O       2.139160     -2.642102      1.957334
  O       2.684325     -1.620985      1.145375
  H      -3.872386     -0.236309     -0.299756
  H      -2.732960      1.112260     -0.263075
  H      -2.724442     -0.077933      1.037702
  H      -0.122079      0.587500     -0.705081
  H       0.088350     -2.165222      0.660848
  H      -1.984367     -0.632789     -1.880589
  H      -2.001020     -1.852147     -0.605448
  H       2.193317      0.102442      0.296109
  H       1.706650     -2.125304      2.657652
17
Coordinates from ORCA-job freq E -421.415111393146
  C      -2.866864      0.057737     -0.043970
  C      -0.455846     -0.401801     -0.417196
  C       0.375480     -1.170360      0.348887
  C      -1.838288     -0.792905     -0.802680
  C       1.691943     -0.687632      0.855319
  O       0.903010     -0.323441      1.891172
  O       2.141496     -2.651514      1.941482
  O       2.689776     -1.620966      1.143422
  H      -3.879086     -0.235183     -0.318069
  H      -2.741633      1.114752     -0.276772
  H      -2.746213     -0.067760      1.030916
  H      -0.125015      0.593645     -0.695853
  H       0.089330     -2.160498      0.671461
  H      -1.977716     -0.643826     -1.876171
  H      -1.999106     -1.850297     -0.590719
  H       2.197565      0.101592      0.294080
  H       1.733298     -2.145210      2.662706
17
Coordinates from ORCA-job freq E -421.415208926176
  C      -2.878920      0.062322     -0.056490
  C      -0.459723     -0.395198     -0.403372
  C       0.373816     -1.164256      0.364350
  C      -1.839008     -0.792373     -0.794392
  C       1.696401     -0.688403      0.854370
  O       0.910147     -0.322859      1.891457
  O       2.146244     -2.662333      1.923598
  O       2.694992     -1.622984      1.137222
  H      -3.887220     -0.233720     -0.341827
  H      -2.752116      1.117818     -0.295770
  H      -2.773244     -0.054292      1.021038
  H      -0.130639      0.601344     -0.680207
  H       0.089747     -2.156009      0.683577
  H      -1.968575     -0.656818     -1.871054
  H      -1.998425     -1.848212     -0.573554
  H       2.200542      0.100108      0.291109
  H       1.768112     -2.167804      2.667959
17
Coordinates from ORCA-job freq E -421.415298674106
  C      -2.890896      0.068365     -0.070818
  C      -0.464607     -0.389715     -0.387906
  C       0.371931     -1.159659      0.378667
  C      -1.840457     -0.792777     -0.785409
  C       1.699520     -0.688467      0.854804
  O       0.918265     -0.323078      1.895257
  O       2.153775     -2.673019      1.904319
  O       2.700218     -1.623733      1.129630
  H      -3.895235     -0.230287     -0.367420
  H      -2.761004      1.121654     -0.318462
  H      -2.801014     -0.037469      1.009304
  H      -0.138367      0.608794     -0.661174
  H       0.090740     -2.153212      0.694666
  H      -1.958962     -0.672297     -1.865300
  H      -1.999798     -1.846382     -0.553899
  H       2.200768      0.100358      0.289585
  H       1.807254     -2.192743      2.672172
17
Coordinates from ORCA-job freq E -421.415399343160
  C      -2.907742      0.079558     -0.094292
  C      -0.473026     -0.383337     -0.363492
  C       0.369371     -1.154648      0.398171
  C      -1.843693     -0.794980     -0.770464
  C       1.702296     -0.687095      0.857929
  O       0.928848     -0.326328      1.905039
  O       2.168853     -2.688453      1.872994
  O       2.708274     -1.621869      1.117421
  H      -3.906284     -0.222825     -0.406496
  H      -2.771244      1.128129     -0.358353
  H      -2.841573     -0.006209      0.989365
  H      -0.152463      0.618855     -0.630234
  H       0.093652     -2.151323      0.708864
  H      -1.944848     -0.699967     -1.854936
  H      -2.004966     -1.843893     -0.519688
  H       2.197353      0.104758      0.291581
  H       1.869322     -2.234038      2.674606
17
Coordinates from ORCA-job freq E -421.415445530133
  C      -2.925189      0.092232     -0.120782
  C      -0.482871     -0.376867     -0.337733
  C       0.365981     -1.149152      0.417949
  C      -1.848147     -0.797463     -0.754002
  C       1.703291     -0.683966      0.862921
  O       0.937073     -0.328125      1.915872
  O       2.183080     -2.704707      1.837877
  O       2.714912     -1.618198      1.105969
  H      -3.917177     -0.213919     -0.449890
  H      -2.780201      1.135090     -0.402750
  H      -2.885025      0.028655      0.965723
  H      -0.168261      0.628862     -0.598416
  H       0.095937     -2.148642      0.724223
  H      -1.930459     -0.731411     -1.842539
  H      -2.012834     -1.840329     -0.481019
  H       2.192373      0.110916      0.295568
  H       1.949651     -2.286644      2.679044
17
Coordinates from ORCA-job freq E -421.415433873897
  C      -2.926746      0.094337     -0.123965
  C      -0.484145     -0.376770     -0.334174
  C       0.366214     -1.149925      0.418798
  C      -1.848838     -0.798140     -0.751558
  C       1.703427     -0.684046      0.863638
  O       0.937996     -0.331490      1.918262
  O       2.187384     -2.705917      1.835115
  O       2.716410     -1.617557      1.103559
  H      -3.918197     -0.212449     -0.454065
  H      -2.780582      1.136099     -0.409391
  H      -2.889020      0.034712      0.962863
  H      -0.170840      0.629948     -0.592662
  H       0.097561     -2.150400      0.723137
  H      -1.928817     -0.736060     -1.840563
  H      -2.014501     -1.840008     -0.475381
  H       2.190811      0.112740      0.297506
  H       1.954012     -2.288740      2.676896
17
Coordinates from ORCA-job freq E -421.415442572741
  C      -2.926869      0.094323     -0.124029
  C      -0.484172     -0.376691     -0.334009
  C       0.366210     -1.149925      0.418844
  C      -1.848840     -0.798082     -0.751504
  C       1.703492     -0.684128      0.863583
  O       0.938231     -0.331500      1.918293
  O       2.187355     -2.705907      1.835191
  O       2.716417     -1.617735      1.103390
  H      -3.918264     -0.212469     -0.454289
  H      -2.780690      1.136104     -0.409375
  H      -2.889302      0.034639      0.962802
  H      -0.170838      0.630031     -0.592466
  H       0.097585     -2.150414      0.723186
  H      -1.928678     -0.736009     -1.840523
  H      -2.014481     -1.839968     -0.475370
  H       2.190873      0.112608      0.297377
  H       1.954102     -2.288545      2.676915
