17
Coordinates from ORCA-job freq E -421.415442572741
  C          -2.92686882644423      0.09432349735924     -0.12402863141166
  C          -0.48417167356558     -0.37669056390638     -0.33400917168478
  C           0.36621012021319     -1.14992478993744      0.41884413131074
  C          -1.84883962089355     -0.79808217461517     -0.75150387327620
  C           1.70349194572986     -0.68412799393181      0.86358257969685
  O           0.93823116002461     -0.33150047609428      1.91829306390139
  O           2.18735455816330     -2.70590677094172      1.83519056298263
  O           2.71641730724795     -1.61773494547310      1.10338958091284
  H          -3.91826404493985     -0.21246862305196     -0.45428862010040
  H          -2.78068960506553      1.13610418294261     -0.40937517691600
  H          -2.88930192328679      0.03463899813791      0.96280222654248
  H          -0.17083843490337      0.63003077901950     -0.59246575193899
  H           0.09758534117439     -2.15041368207650      0.72318615849239
  H          -1.92867807275942     -0.73600891648166     -1.84052290880367
  H          -2.01448149717832     -1.83996789484847     -0.47536981634646
  H           2.19087273013765      0.11260752713991      0.29737672762375
  H           1.95410153634572     -2.28854515324061      2.67691491901506
