17
Coordinates from ORCA-job freq E -421.423516658910
  C           2.61212147395285      0.41160301090109     -0.56267558960483
  C           1.29995445468486      0.07306174070245      0.04586333333574
  C           0.04032685167546      0.50624828964196     -0.61534709701405
  C          -1.16767705277652     -1.67857879936551      0.21023355585139
  C          -1.17377638969371     -0.27391871791105     -0.18241316436205
  O          -2.65012510442829      1.44534007396915     -0.23811648558554
  O          -1.27697002503160     -0.62627681835527      1.17104895164160
  O          -2.37505262786981      0.14410405162743     -0.73929807740146
  H           2.82205945394451      1.48782412684142     -0.49927026237426
  H           3.43264569090308     -0.10544159993977     -0.06795070213393
  H           2.63427714725837      0.15584938226108     -1.62489567256683
  H           1.24881375308274     -0.19004049825084      1.09382529330414
  H           0.12199911031134      0.41905845557406     -1.70227101344253
  H          -0.17132649305763      1.56477571014555     -0.41154090088022
  H          -0.22509092611060     -2.21308568446033      0.22254136832983
  H          -2.06955319506073     -2.25997417933704      0.06807900435824
  H          -3.05055212178432      1.24064445595563      0.61744445854479
