15
Coordinates from ORCA-job freq E -270.995978409960
  C      -2.311502      0.939995      0.260756
  C      -2.180463     -0.393799      0.310534
  C       0.155140     -0.978662     -0.048455
  O       0.614193     -0.557274     -1.270714
  C       1.016225      0.174966     -0.055679
  C       2.471274      0.145431      0.274614
  H      -2.456152      1.460288     -0.676535
  H      -2.233181      1.553846      1.148467
  H      -2.122720     -0.917876      1.254885
  H      -2.353490     -1.006204     -0.562978
  H       0.342137     -1.994298      0.289279
  H       0.521716      1.140295      0.020790
  H       2.622670      0.453557      1.309735
  H       2.882490     -0.853626      0.150080
  H       3.031661      0.833360     -0.359324
15
Coordinates from ORCA-job freq E -270.995700628527
  C      -2.288492      0.928655      0.250597
  C      -2.158256     -0.404687      0.303509
  C       0.134948     -0.960363     -0.029408
  O       0.586235     -0.533191     -1.248574
  C       1.003388      0.189542     -0.045521
  C       2.463548      0.144069      0.270168
  H      -2.428911      1.446090     -0.688841
  H      -2.213907      1.542256      1.138730
  H      -2.107437     -0.926158      1.249939
  H      -2.330063     -1.018221     -0.569927
  H       0.312577     -1.978082      0.303704
  H       0.515306      1.157226      0.041979
  H       2.630101      0.442545      1.305652
  H       2.859260     -0.859809      0.131158
  H       3.021702      0.830128     -0.367710
15
Coordinates from ORCA-job freq E -270.995428259786
  C      -2.261381      0.919891      0.236818
  C      -2.132024     -0.414259      0.299392
  C       0.114918     -0.948152     -0.009919
  O       0.551645     -0.507138     -1.226529
  C       0.987343      0.200587     -0.030694
  C       2.453122      0.143413      0.264633
  H      -2.392129      1.430271     -0.707746
  H      -2.195073      1.537622      1.122657
  H      -2.097960     -0.928570      1.250755
  H      -2.304057     -1.031743     -0.571704
  H       0.292966     -1.969523      0.310550
  H       0.503489      1.168519      0.075015
  H       2.636294      0.425890      1.301711
  H       2.838459     -0.861662      0.103911
  H       3.004385      0.834853     -0.373395
15
Coordinates from ORCA-job freq E -270.995412060306
  C      -2.239972      0.916829      0.225283
  C      -2.117257     -0.419132      0.298438
  C       0.104660     -0.948288      0.005555
  O       0.525813     -0.490055     -1.208899
  C       0.974364      0.204587     -0.017014
  C       2.445021      0.144700      0.258968
  H      -2.354289      1.420852     -0.724746
  H      -2.184611      1.538894      1.108753
  H      -2.107141     -0.925532      1.254931
  H      -2.288197     -1.039660     -0.571110
  H       0.296538     -1.971923      0.311604
  H       0.489871      1.169910      0.106569
  H       2.641993      0.411691      1.297564
  H       2.826925     -0.858335      0.077000
  H       2.986283      0.845460     -0.377439
15
Coordinates from ORCA-job freq E -270.995416453569
  C      -2.230184      0.915087      0.217307
  C      -2.111959     -0.421332      0.305784
  C       0.100863     -0.949184     -0.001734
  O       0.521003     -0.475303     -1.209883
  C       0.968916      0.206720     -0.014067
  C       2.440149      0.144698      0.261852
  H      -2.349318      1.407570     -0.738000
  H      -2.166544      1.547064      1.093164
  H      -2.098442     -0.915336      1.268731
  H      -2.295120     -1.050530     -0.555351
  H       0.298841     -1.975290      0.292228
  H       0.482751      1.169731      0.120748
  H       2.636506      0.399848      1.303530
  H       2.821677     -0.856424      0.068129
  H       2.980861      0.852680     -0.366983
15
Coordinates from ORCA-job freq E -270.995423598025
  C      -2.232012      0.913416      0.208833
  C      -2.111547     -0.422529      0.308015
  C       0.100041     -0.946401      0.001086
  O       0.513807     -0.460192     -1.204230
  C       0.969242      0.209011     -0.004448
  C       2.442458      0.142258      0.260781
  H      -2.352084      1.398194     -0.750400
  H      -2.169596      1.551935      1.079872
  H      -2.097847     -0.907956      1.275389
  H      -2.295763     -1.058536     -0.547788
  H       0.301073     -1.975457      0.282959
  H       0.485212      1.171258      0.143109
  H       2.647019      0.388519      1.302993
  H       2.820517     -0.857965      0.055765
  H       2.979480      0.854443     -0.366481
15
Coordinates from ORCA-job freq E -270.995406984973
  C      -2.234712      0.912827      0.208299
  C      -2.111084     -0.422512      0.310183
  C       0.100027     -0.944608     -0.002510
  O       0.515329     -0.455796     -1.206490
  C       0.970559      0.209865     -0.005068
  C       2.443366      0.140841      0.261883
  H      -2.357685      1.395106     -0.751853
  H      -2.172579      1.553555      1.077790
  H      -2.094420     -0.906075      1.278435
  H      -2.296259     -1.060515     -0.543957
  H       0.299968     -1.974432      0.277396
  H       0.488020      1.172392      0.144199
  H       2.646908      0.387891      1.304115
  H       2.820289     -0.860140      0.058433
  H       2.982271      0.851600     -0.365399
15
Coordinates from ORCA-job freq E -270.995423011685
  C      -2.235130      0.912640      0.207342
  C      -2.110955     -0.422519      0.310932
  C       0.100001     -0.944257     -0.003205
  O       0.515157     -0.453972     -1.206618
  C       0.970691      0.210093     -0.004437
  C       2.443537      0.140488      0.262148
  H      -2.359171      1.393547     -0.753357
  H      -2.172388      1.554585      1.075884
  H      -2.093100     -0.904749      1.279830
  H      -2.296820     -1.061738     -0.542147
  H       0.299825     -1.974466      0.275360
  H       0.488347      1.172523      0.146096
  H       2.647344      0.386113      1.304659
  H       2.820232     -0.860280      0.057268
  H       2.982429      0.851991     -0.364301
15
Coordinates from ORCA-job freq E -270.995426079505
  C      -2.235059      0.912684      0.207552
  C      -2.110990     -0.422509      0.310767
  C       0.100004     -0.944331     -0.003099
  O       0.515241     -0.454368     -1.206622
  C       0.970667      0.210046     -0.004592
  C       2.443492      0.140555      0.262114
  H      -2.358954      1.393882     -0.753020
  H      -2.172385      1.554362      1.076303
  H      -2.093310     -0.905016      1.279529
  H      -2.296745     -1.061490     -0.542516
  H       0.299862     -1.974450      0.275777
  H       0.488294      1.172504      0.145647
  H       2.647232      0.386508      1.304565
  H       2.820235     -0.860263      0.057560
  H       2.982413      0.851886     -0.364510
