15
* (null), Energy   -1000.0000000
C    -2.218269    1.006085    0.295940    0.181795   -0.075592   -0.026236
C    -2.094200   -0.329108    0.399156    1.093793   -0.299706   -0.130010
C     0.116794   -0.850930    0.085289   -0.829410    0.467128    0.074198
O     0.532031   -0.360967   -1.118233   -0.098782   -0.000107    0.046520
C     0.987457    0.303447    0.083797   -0.121747    0.051963   -0.040538
C     2.460282    0.233956    0.350502   -0.126284   -0.118574    0.059457
H    -2.342165    1.487282   -0.664631   -0.045024   -0.081702    0.008310
H    -2.155595    1.647763    1.164692    0.040489   -0.112568    0.001237
H    -2.076520   -0.811615    1.367917    0.275664   -0.212611   -0.065080
H    -2.279955   -0.968090   -0.454128    0.090048   -0.208028    0.010497
H     0.316652   -1.881050    0.364165   -0.940650    0.462040    0.240437
H     0.505084    1.265905    0.234035    0.156105    0.245045   -0.319830
H     2.664021    0.479909    1.392954   -0.087991   -0.025935    0.028406
H     2.837025   -0.766862    0.145949   -0.188064   -0.156391    0.128883
H     2.999203    0.945287   -0.276121   -0.093770   -0.208646   -0.019002
15
* Frequency(6) -435.6389
C    -2.197609    0.997494    0.292959    0.181795   -0.075592   -0.026236
C    -1.969896   -0.363168    0.384381    1.093793   -0.299706   -0.130010
C     0.022536   -0.797843    0.093722   -0.829410    0.467128    0.074198
O     0.520805   -0.360979   -1.112946   -0.098782   -0.000107    0.046520
C     0.973621    0.309352    0.079190   -0.121747    0.051963   -0.040538
C     2.445931    0.220480    0.357259   -0.126284   -0.118574    0.059457
H    -2.347281    1.477998   -0.663687   -0.045024   -0.081702    0.008310
H    -2.150994    1.634970    1.164832    0.040489   -0.112568    0.001237
H    -2.045192   -0.835777    1.360521    0.275664   -0.212611   -0.065080
H    -2.269721   -0.991731   -0.452935    0.090048   -0.208028    0.010497
H     0.209752   -1.828541    0.391490   -0.940650    0.462040    0.240437
H     0.522824    1.293753    0.197688    0.156105    0.245045   -0.319830
H     2.654022    0.476962    1.396182   -0.087991   -0.025935    0.028406
H     2.815653   -0.784635    0.160596   -0.188064   -0.156391    0.128883
H     2.988547    0.921575   -0.278281   -0.093770   -0.208646   -0.019002
15
* Frequency(6) -435.6389
C    -2.179188    0.989834    0.290300    0.181795   -0.075592   -0.026236
C    -1.859062   -0.393537    0.371207    1.093793   -0.299706   -0.130010
C    -0.061508   -0.750509    0.101240   -0.829410    0.467128    0.074198
O     0.510795   -0.360990   -1.108232   -0.098782   -0.000107    0.046520
C     0.961284    0.314617    0.075082   -0.121747    0.051963   -0.040538
C     2.433135    0.208465    0.363284   -0.126284   -0.118574    0.059457
H    -2.351844    1.469719   -0.662845   -0.045024   -0.081702    0.008310
H    -2.146891    1.623564    1.164957    0.040489   -0.112568    0.001237
H    -2.017259   -0.857321    1.353927    0.275664   -0.212611   -0.065080
H    -2.260597   -1.012810   -0.451871    0.090048   -0.208028    0.010497
H     0.114437   -1.781723    0.415853   -0.940650    0.462040    0.240437
H     0.538642    1.318584    0.165280    0.156105    0.245045   -0.319830
H     2.645106    0.474334    1.399060   -0.087991   -0.025935    0.028406
H     2.796596   -0.800482    0.173655   -0.188064   -0.156391    0.128883
H     2.979045    0.900433   -0.280206   -0.093770   -0.208646   -0.019002
15
* Frequency(6) -435.6389
C    -2.165002    0.983936    0.288253    0.181795   -0.075592   -0.026236
C    -1.773710   -0.416924    0.361062    1.093793   -0.299706   -0.130010
C    -0.126230   -0.714058    0.107030   -0.829410    0.467128    0.074198
O     0.503087   -0.360998   -1.104602   -0.098782   -0.000107    0.046520
C     0.951784    0.318672    0.071918   -0.121747    0.051963   -0.040538
C     2.423280    0.199213    0.367924   -0.126284   -0.118574    0.059457
H    -2.355357    1.463343   -0.662196   -0.045024   -0.081702    0.008310
H    -2.143732    1.614780    1.165054    0.040489   -0.112568    0.001237
H    -1.995748   -0.873912    1.348848    0.275664   -0.212611   -0.065080
H    -2.253570   -1.029043   -0.451052    0.090048   -0.208028    0.010497
H     0.041034   -1.745668    0.434615   -0.940650    0.462040    0.240437
H     0.550824    1.337706    0.140323    0.156105    0.245045   -0.319830
H     2.638239    0.472310    1.401277   -0.087991   -0.025935    0.028406
H     2.781921   -0.812686    0.183713   -0.188064   -0.156391    0.128883
H     2.971728    0.884152   -0.281689   -0.093770   -0.208646   -0.019002
15
* Frequency(6) -435.6389
C    -2.156588    0.980437    0.287039    0.181795   -0.075592   -0.026236
C    -1.723087   -0.430795    0.355045    1.093793   -0.299706   -0.130010
C    -0.164616   -0.692438    0.110464   -0.829410    0.467128    0.074198
O     0.498515   -0.361003   -1.102449   -0.098782   -0.000107    0.046520
C     0.946149    0.321077    0.070042   -0.121747    0.051963   -0.040538
C     2.417435    0.193725    0.370676   -0.126284   -0.118574    0.059457
H    -2.357441    1.459562   -0.661812   -0.045024   -0.081702    0.008310
H    -2.141858    1.609570    1.165111    0.040489   -0.112568    0.001237
H    -1.982990   -0.883752    1.345836    0.275664   -0.212611   -0.065080
H    -2.249402   -1.038671   -0.450566    0.090048   -0.208028    0.010497
H    -0.002501   -1.724284    0.445743   -0.940650    0.462040    0.240437
H     0.558049    1.349047    0.125520    0.156105    0.245045   -0.319830
H     2.634167    0.471110    1.402592   -0.087991   -0.025935    0.028406
H     2.773217   -0.819924    0.189678   -0.188064   -0.156391    0.128883
H     2.967388    0.874495   -0.282568   -0.093770   -0.208646   -0.019002
15
* Frequency(6) -435.6389
C    -2.154858    0.979718    0.286789    0.181795   -0.075592   -0.026236
C    -1.712680   -0.433647    0.353808    1.093793   -0.299706   -0.130010
C    -0.172508   -0.687994    0.111170   -0.829410    0.467128    0.074198
O     0.497575   -0.361004   -1.102007   -0.098782   -0.000107    0.046520
C     0.944991    0.321571    0.069657   -0.121747    0.051963   -0.040538
C     2.416234    0.192597    0.371241   -0.126284   -0.118574    0.059457
H    -2.357869    1.458785   -0.661733   -0.045024   -0.081702    0.008310
H    -2.141472    1.608499    1.165123    0.040489   -0.112568    0.001237
H    -1.980367   -0.885775    1.345217    0.275664   -0.212611   -0.065080
H    -2.248546   -1.040651   -0.450466    0.090048   -0.208028    0.010497
H    -0.011451   -1.719888    0.448031   -0.940650    0.462040    0.240437
H     0.559534    1.351378    0.122477    0.156105    0.245045   -0.319830
H     2.633330    0.470863    1.402862   -0.087991   -0.025935    0.028406
H     2.771428   -0.821412    0.190904   -0.188064   -0.156391    0.128883
H     2.966496    0.872510   -0.282749   -0.093770   -0.208646   -0.019002
15
* Frequency(6) -435.6389
C    -2.160000    0.981856    0.287531    0.181795   -0.075592   -0.026236
C    -1.743617   -0.425170    0.357485    1.093793   -0.299706   -0.130010
C    -0.149049   -0.701206    0.109071   -0.829410    0.467128    0.074198
O     0.500369   -0.361001   -1.103322   -0.098782   -0.000107    0.046520
C     0.948435    0.320102    0.070803   -0.121747    0.051963   -0.040538
C     2.419806    0.195950    0.369560   -0.126284   -0.118574    0.059457
H    -2.356596    1.461095   -0.661968   -0.045024   -0.081702    0.008310
H    -2.142618    1.611683    1.165088    0.040489   -0.112568    0.001237
H    -1.988164   -0.879762    1.347058    0.275664   -0.212611   -0.065080
H    -2.251093   -1.034767   -0.450763    0.090048   -0.208028    0.010497
H     0.015155   -1.732956    0.441230   -0.940650    0.462040    0.240437
H     0.555119    1.344447    0.131523    0.156105    0.245045   -0.319830
H     2.635819    0.471597    1.402059   -0.087991   -0.025935    0.028406
H     2.776747   -0.816989    0.187259   -0.188064   -0.156391    0.128883
H     2.969148    0.878412   -0.282211   -0.093770   -0.208646   -0.019002
15
* Frequency(6) -435.6389
C    -2.171456    0.986620    0.289185    0.181795   -0.075592   -0.026236
C    -1.812545   -0.406283    0.365678    1.093793   -0.299706   -0.130010
C    -0.096782   -0.730643    0.104396   -0.829410    0.467128    0.074198
O     0.506594   -0.360994   -1.106254   -0.098782   -0.000107    0.046520
C     0.956107    0.316827    0.073358   -0.121747    0.051963   -0.040538
C     2.427764    0.203422    0.365813   -0.126284   -0.118574    0.059457
H    -2.353758    1.466244   -0.662491   -0.045024   -0.081702    0.008310
H    -2.145169    1.618777    1.165010    0.040489   -0.112568    0.001237
H    -2.005536   -0.866363    1.351159    0.275664   -0.212611   -0.065080
H    -2.256767   -1.021657   -0.451425    0.090048   -0.208028    0.010497
H     0.074432   -1.762073    0.426079   -0.940650    0.462040    0.240437
H     0.545281    1.329005    0.151678    0.156105    0.245045   -0.319830
H     2.641364    0.473231    1.400268   -0.087991   -0.025935    0.028406
H     2.788598   -0.807133    0.179137   -0.188064   -0.156391    0.128883
H     2.975057    0.891560   -0.281014   -0.093770   -0.208646   -0.019002
15
* Frequency(6) -435.6389
C    -2.187985    0.993493    0.291570    0.181795   -0.075592   -0.026236
C    -1.911994   -0.379033    0.377499    1.093793   -0.299706   -0.130010
C    -0.021370   -0.773115    0.097649   -0.829410    0.467128    0.074198
O     0.515576   -0.360985   -1.110484   -0.098782   -0.000107    0.046520
C     0.967176    0.312103    0.077044   -0.121747    0.051963   -0.040538
C     2.439246    0.214203    0.360407   -0.126284   -0.118574    0.059457
H    -2.349665    1.473672   -0.663247   -0.045024   -0.081702    0.008310
H    -2.148851    1.629011    1.164898    0.040489   -0.112568    0.001237
H    -2.030599   -0.847032    1.357076    0.275664   -0.212611   -0.065080
H    -2.264955   -1.002743   -0.452379    0.090048   -0.208028    0.010497
H     0.159957   -1.804082    0.404218   -0.940650    0.462040    0.240437
H     0.531088    1.306725    0.180758    0.156105    0.245045   -0.319830
H     2.649364    0.475589    1.397686   -0.087991   -0.025935    0.028406
H     2.805697   -0.792914    0.167418   -0.188064   -0.156391    0.128883
H     2.983583    0.910530   -0.279286   -0.093770   -0.208646   -0.019002
15
* Frequency(6) -435.6389
C    -2.207796    1.001730    0.294429    0.181795   -0.075592   -0.026236
C    -2.031189   -0.346373    0.391666    1.093793   -0.299706   -0.130010
C     0.069013   -0.824020    0.089564   -0.829410    0.467128    0.074198
O     0.526340   -0.360973   -1.115553   -0.098782   -0.000107    0.046520
C     0.980443    0.306440    0.081461   -0.121747    0.051963   -0.040538
C     2.453007    0.227125    0.353928   -0.126284   -0.118574    0.059457
H    -2.344758    1.482576   -0.664153   -0.045024   -0.081702    0.008310
H    -2.153263    1.641278    1.164763    0.040489   -0.112568    0.001237
H    -2.060639   -0.823863    1.364168    0.275664   -0.212611   -0.065080
H    -2.274767   -0.980074   -0.453523    0.090048   -0.208028    0.010497
H     0.262463   -1.854432    0.378017   -0.940650    0.462040    0.240437
H     0.514077    1.280022    0.215611    0.156105    0.245045   -0.319830
H     2.658953    0.478415    1.394590   -0.087991   -0.025935    0.028406
H     2.826191   -0.775872    0.153374   -0.188064   -0.156391    0.128883
H     2.993801    0.933267   -0.277216   -0.093770   -0.208646   -0.019002
15
* Frequency(6) -435.6389
C    -2.228742    1.010440    0.297452    0.181795   -0.075592   -0.026236
C    -2.157211   -0.311842    0.406646    1.093793   -0.299706   -0.130010
C     0.164575   -0.877840    0.081015   -0.829410    0.467128    0.074198
O     0.537722   -0.360961   -1.120913   -0.098782   -0.000107    0.046520
C     0.994470    0.300453    0.086132   -0.121747    0.051963   -0.040538
C     2.467557    0.240786    0.347077   -0.126284   -0.118574    0.059457
H    -2.339571    1.491989   -0.665110   -0.045024   -0.081702    0.008310
H    -2.157928    1.654248    1.164620    0.040489   -0.112568    0.001237
H    -2.092400   -0.799367    1.371666    0.275664   -0.212611   -0.065080
H    -2.285142   -0.956105   -0.454732    0.090048   -0.208028    0.010497
H     0.370841   -1.907667    0.350314   -0.940650    0.462040    0.240437
H     0.496091    1.251789    0.252460    0.156105    0.245045   -0.319830
H     2.669090    0.481403    1.391318   -0.087991   -0.025935    0.028406
H     2.847859   -0.757853    0.138524   -0.188064   -0.156391    0.128883
H     3.004605    0.957307   -0.275026   -0.093770   -0.208646   -0.019002
15
* Frequency(6) -435.6389
C    -2.248553    1.018677    0.300311    0.181795   -0.075592   -0.026236
C    -2.276406   -0.279182    0.420813    1.093793   -0.299706   -0.130010
C     0.254959   -0.928745    0.072929   -0.829410    0.467128    0.074198
O     0.548486   -0.360949   -1.125982   -0.098782   -0.000107    0.046520
C     1.007738    0.294791    0.090550   -0.121747    0.051963   -0.040538
C     2.481319    0.253708    0.340598   -0.126284   -0.118574    0.059457
H    -2.334664    1.500893   -0.666016   -0.045024   -0.081702    0.008310
H    -2.162340    1.666515    1.164485    0.040489   -0.112568    0.001237
H    -2.122440   -0.776198    1.378758    0.275664   -0.212611   -0.065080
H    -2.294955   -0.933436   -0.455876    0.090048   -0.208028    0.010497
H     0.473347   -1.958017    0.324113   -0.940650    0.462040    0.240437
H     0.479079    1.225085    0.287313    0.156105    0.245045   -0.319830
H     2.678679    0.484230    1.388222   -0.087991   -0.025935    0.028406
H     2.868353   -0.740810    0.124479   -0.188064   -0.156391    0.128883
H     3.014823    0.980043   -0.272956   -0.093770   -0.208646   -0.019002
15
* Frequency(6) -435.6389
C    -2.265082    1.025550    0.302696    0.181795   -0.075592   -0.026236
C    -2.375855   -0.251932    0.432634    1.093793   -0.299706   -0.130010
C     0.330370   -0.971217    0.066183   -0.829410    0.467128    0.074198
O     0.557468   -0.360939   -1.130212   -0.098782   -0.000107    0.046520
C     1.018807    0.290066    0.094235   -0.121747    0.051963   -0.040538
C     2.492801    0.264489    0.335192   -0.126284   -0.118574    0.059457
H    -2.330571    1.508321   -0.666771   -0.045024   -0.081702    0.008310
H    -2.166021    1.676750    1.164373    0.040489   -0.112568    0.001237
H    -2.147504   -0.756867    1.384675    0.275664   -0.212611   -0.065080
H    -2.303143   -0.914522   -0.456831    0.090048   -0.208028    0.010497
H     0.558873   -2.000026    0.302252   -0.940650    0.462040    0.240437
H     0.464886    1.202805    0.316393    0.156105    0.245045   -0.319830
H     2.686679    0.486588    1.385639   -0.087991   -0.025935    0.028406
H     2.885452   -0.726591    0.112761   -0.188064   -0.156391    0.128883
H     3.023349    0.999014   -0.271228   -0.093770   -0.208646   -0.019002
15
* Frequency(6) -435.6389
C    -2.276538    1.030314    0.304350    0.181795   -0.075592   -0.026236
C    -2.444783   -0.233046    0.440827    1.093793   -0.299706   -0.130010
C     0.382637   -1.000654    0.061507   -0.829410    0.467128    0.074198
O     0.563693   -0.360932   -1.133144   -0.098782   -0.000107    0.046520
C     1.026479    0.286792    0.096790   -0.121747    0.051963   -0.040538
C     2.500759    0.271961    0.331445   -0.126284   -0.118574    0.059457
H    -2.327733    1.513470   -0.667295   -0.045024   -0.081702    0.008310
H    -2.168573    1.683843    1.164295    0.040489   -0.112568    0.001237
H    -2.164876   -0.743469    1.388777    0.275664   -0.212611   -0.065080
H    -2.308817   -0.901412   -0.457492    0.090048   -0.208028    0.010497
H     0.618150   -2.029143    0.287100   -0.940650    0.462040    0.240437
H     0.455049    1.187363    0.336548    0.156105    0.245045   -0.319830
H     2.692224    0.488222    1.383849   -0.087991   -0.025935    0.028406
H     2.897304   -0.716736    0.104639   -0.188064   -0.156391    0.128883
H     3.029258    1.012162   -0.270031   -0.093770   -0.208646   -0.019002
15
* Frequency(6) -435.6389
C    -2.281680    1.032452    0.305092    0.181795   -0.075592   -0.026236
C    -2.475720   -0.224569    0.444504    1.093793   -0.299706   -0.130010
C     0.406096   -1.013866    0.059409   -0.829410    0.467128    0.074198
O     0.566487   -0.360929   -1.134459   -0.098782   -0.000107    0.046520
C     1.029923    0.285322    0.097937   -0.121747    0.051963   -0.040538
C     2.504331    0.275315    0.329763   -0.126284   -0.118574    0.059457
H    -2.326460    1.515780   -0.667530   -0.045024   -0.081702    0.008310
H    -2.169718    1.687027    1.164260    0.040489   -0.112568    0.001237
H    -2.172673   -0.737456    1.390617    0.275664   -0.212611   -0.065080
H    -2.311364   -0.895528   -0.457789    0.090048   -0.208028    0.010497
H     0.644755   -2.042211    0.280300   -0.940650    0.462040    0.240437
H     0.450634    1.180432    0.345594    0.156105    0.245045   -0.319830
H     2.694713    0.488956    1.383046   -0.087991   -0.025935    0.028406
H     2.902623   -0.712312    0.100994   -0.188064   -0.156391    0.128883
H     3.031910    1.018063   -0.269493   -0.093770   -0.208646   -0.019002
15
* Frequency(6) -435.6389
C    -2.279950    1.031732    0.304842    0.181795   -0.075592   -0.026236
C    -2.465313   -0.227421    0.443267    1.093793   -0.299706   -0.130010
C     0.398205   -1.009422    0.060115   -0.829410    0.467128    0.074198
O     0.565547   -0.360930   -1.134017   -0.098782   -0.000107    0.046520
C     1.028764    0.285816    0.097551   -0.121747    0.051963   -0.040538
C     2.503129    0.274187    0.330329   -0.126284   -0.118574    0.059457
H    -2.326888    1.515003   -0.667451   -0.045024   -0.081702    0.008310
H    -2.169333    1.685956    1.164272    0.040489   -0.112568    0.001237
H    -2.170050   -0.739479    1.389998    0.275664   -0.212611   -0.065080
H    -2.310507   -0.897508   -0.457689    0.090048   -0.208028    0.010497
H     0.635805   -2.037815    0.282587   -0.940650    0.462040    0.240437
H     0.452119    1.182764    0.342551    0.156105    0.245045   -0.319830
H     2.693876    0.488709    1.383316   -0.087991   -0.025935    0.028406
H     2.900834   -0.713800    0.102220   -0.188064   -0.156391    0.128883
H     3.031018    1.016078   -0.269674   -0.093770   -0.208646   -0.019002
15
* Frequency(6) -435.6389
C    -2.271537    1.028234    0.303628    0.181795   -0.075592   -0.026236
C    -2.414690   -0.241291    0.437250    1.093793   -0.299706   -0.130010
C     0.359818   -0.987802    0.063549   -0.829410    0.467128    0.074198
O     0.560975   -0.360935   -1.131864   -0.098782   -0.000107    0.046520
C     1.023130    0.288221    0.095675   -0.121747    0.051963   -0.040538
C     2.497284    0.268699    0.333081   -0.126284   -0.118574    0.059457
H    -2.328972    1.511222   -0.667066   -0.045024   -0.081702    0.008310
H    -2.167459    1.680746    1.164329    0.040489   -0.112568    0.001237
H    -2.157292   -0.749319    1.386986    0.275664   -0.212611   -0.065080
H    -2.306340   -0.907136   -0.457203    0.090048   -0.208028    0.010497
H     0.592270   -2.016431    0.293715   -0.940650    0.462040    0.240437
H     0.459344    1.194105    0.327748    0.156105    0.245045   -0.319830
H     2.689804    0.487508    1.384631   -0.087991   -0.025935    0.028406
H     2.892130   -0.721038    0.108185   -0.188064   -0.156391    0.128883
H     3.026678    1.006422   -0.270553   -0.093770   -0.208646   -0.019002
15
* Frequency(6) -435.6389
C    -2.257350    1.022335    0.301581    0.181795   -0.075592   -0.026236
C    -2.329338   -0.264679    0.427105    1.093793   -0.299706   -0.130010
C     0.295096   -0.951351    0.069339   -0.829410    0.467128    0.074198
O     0.553267   -0.360944   -1.128234   -0.098782   -0.000107    0.046520
C     1.013629    0.292276    0.092511   -0.121747    0.051963   -0.040538
C     2.487430    0.259446    0.337721   -0.126284   -0.118574    0.059457
H    -2.332486    1.504846   -0.666418   -0.045024   -0.081702    0.008310
H    -2.164299    1.671962    1.164426    0.040489   -0.112568    0.001237
H    -2.135781   -0.765909    1.381908    0.275664   -0.212611   -0.065080
H    -2.299313   -0.923369   -0.456384    0.090048   -0.208028    0.010497
H     0.518868   -1.980376    0.312478   -0.940650    0.462040    0.240437
H     0.471525    1.213227    0.302791    0.156105    0.245045   -0.319830
H     2.682937    0.485485    1.386847   -0.087991   -0.025935    0.028406
H     2.877454   -0.733242    0.118242   -0.188064   -0.156391    0.128883
H     3.019361    0.990140   -0.272036   -0.093770   -0.208646   -0.019002
15
* Frequency(6) -435.6389
C    -2.238929    1.014675    0.298922    0.181795   -0.075592   -0.026236
C    -2.218504   -0.295048    0.413931    1.093793   -0.299706   -0.130010
C     0.211052   -0.904017    0.076857   -0.829410    0.467128    0.074198
O     0.543257   -0.360955   -1.123520   -0.098782   -0.000107    0.046520
C     1.001293    0.297541    0.088404   -0.121747    0.051963   -0.040538
C     2.474634    0.247431    0.343745   -0.126284   -0.118574    0.059457
H    -2.337048    1.496567   -0.665576   -0.045024   -0.081702    0.008310
H    -2.160197    1.660556    1.164551    0.040489   -0.112568    0.001237
H    -2.107848   -0.787453    1.375313    0.275664   -0.212611   -0.065080
H    -2.290188   -0.944448   -0.455320    0.090048   -0.208028    0.010497
H     0.423552   -1.933558    0.336841   -0.940650    0.462040    0.240437
H     0.487343    1.238057    0.270382    0.156105    0.245045   -0.319830
H     2.674021    0.482857    1.389726   -0.087991   -0.025935    0.028406
H     2.858398   -0.749089    0.131302   -0.188064   -0.156391    0.128883
H     3.009860    0.968998   -0.273962   -0.093770   -0.208646   -0.019002
15
* Frequency(6) -435.6389
C    -2.218269    1.006085    0.295940    0.181795   -0.075592   -0.026236
C    -2.094200   -0.329108    0.399156    1.093793   -0.299706   -0.130010
C     0.116794   -0.850930    0.085289   -0.829410    0.467128    0.074198
O     0.532031   -0.360967   -1.118233   -0.098782   -0.000107    0.046520
C     0.987457    0.303447    0.083797   -0.121747    0.051963   -0.040538
C     2.460282    0.233956    0.350502   -0.126284   -0.118574    0.059457
H    -2.342165    1.487282   -0.664631   -0.045024   -0.081702    0.008310
H    -2.155595    1.647763    1.164692    0.040489   -0.112568    0.001237
H    -2.076520   -0.811615    1.367917    0.275664   -0.212611   -0.065080
H    -2.279955   -0.968090   -0.454128    0.090048   -0.208028    0.010497
H     0.316652   -1.881050    0.364165   -0.940650    0.462040    0.240437
H     0.505084    1.265905    0.234035    0.156105    0.245045   -0.319830
H     2.664021    0.479909    1.392954   -0.087991   -0.025935    0.028406
H     2.837025   -0.766862    0.145949   -0.188064   -0.156391    0.128883
H     2.999203    0.945287   -0.276121   -0.093770   -0.208646   -0.019002
