15
Coordinates from ORCA-job freq E -271.037972193183
  C          -2.14124085387817     -0.09882409845145      0.82828975917259
  C           2.84936622853569     -0.36223155801637      0.66271244835633
  C           1.48761464576489      0.10924855970457      0.78509051521085
  C          -0.85132862769749     -0.51838883056654      1.52359204031243
  C           0.30444101295855     -0.77944432818069      0.53779867743693
  O           2.33271892343404     -0.24992520235727      1.91318015622803
  H          -2.47672701153853     -0.87104559922939      0.13444745535186
  H          -1.99263714981724      0.81789255809987      0.25489783081125
  H          -2.94257306886686      0.08004552679872      1.54467322798932
  H           3.78071783167370      0.11388744887445      0.38108841620666
  H           1.29116049215691      1.17867053045605      0.75038754421227
  H          -1.03237821187905     -1.41268618444361      2.11958227589780
  H          -0.55215501083408      0.25562738331592      2.23385164818385
  H          -0.03236992934421     -0.60555567976789     -0.48801371883624
  H           0.64314472933180     -1.81425452623635      0.58664072346600
