15
Coordinates from ORCA-job freq E -270.979116839908
  C       2.288685     -0.136171     -0.159412
  C      -2.169645      0.379398      0.228173
  C       1.114101      0.677322      0.375404
  C       0.240184     -0.557353      0.425670
  C      -1.198444     -0.770563      0.290612
  O      -0.510392     -0.983563      1.512051
  H       1.286109     -1.167129     -0.054065
  H       3.101015     -0.328834      0.521042
  H       2.574052      0.023535     -1.186350
  H      -3.121370      0.091684      0.670070
  H      -2.335878      0.662310     -0.809186
  H      -1.774608      1.232550      0.773862
  H       0.750459      1.439802     -0.311608
  H       1.288565      1.124062      1.351997
  H      -1.532829     -1.687052     -0.191467
15
Coordinates from ORCA-job freq E -270.978298518652
  C       2.256253     -0.122267     -0.174025
  C      -2.158421      0.368485      0.209832
  C       1.115118      0.703257      0.403818
  C       0.253233     -0.536999      0.438097
  C      -1.179902     -0.768637      0.285434
  O      -0.501996     -0.961174      1.523757
  H       1.299411     -1.142992     -0.021226
  H       3.068317     -0.404296      0.485202
  H       2.505294     -0.001646     -1.221860
  H      -3.111676      0.079670      0.652234
  H      -2.327365      0.640888     -0.831947
  H      -1.771662      1.233664      0.746507
  H       0.741378      1.481989     -0.259581
  H       1.308921      1.122949      1.389189
  H      -1.496899     -1.692891     -0.188639
15
Coordinates from ORCA-job freq E -270.978151657188
  C       2.280455     -0.148649     -0.131508
  C      -2.167464      0.376030      0.247299
  C       1.108930      0.691277      0.355864
  C       0.244408     -0.547899      0.396624
  C      -1.193804     -0.768680      0.281338
  O      -0.482759     -0.988913      1.493815
  H       1.278824     -1.153251     -0.093151
  H       3.088523     -0.322597      0.567671
  H       2.585448     -0.028714     -1.164037
  H      -3.121616      0.074064      0.678109
  H      -2.332892      0.687409     -0.783669
  H      -1.777246      1.217762      0.817183
  H       0.767659      1.441762     -0.355962
  H       1.250202      1.150881      1.332557
  H      -1.528665     -1.680481     -0.205340
15
Coordinates from ORCA-job freq E -270.976981079210
  C       2.258982     -0.152019     -0.154974
  C      -2.164132      0.370650      0.225784
  C       1.112708      0.696294      0.383518
  C       0.247305     -0.539086      0.423270
  C      -1.186898     -0.768353      0.281225
  O      -0.496924     -0.974634      1.512995
  H       1.296637     -1.132506     -0.060784
  H       3.076747     -0.364319      0.521612
  H       2.545812     -0.009731     -1.189295
  H      -3.113167      0.080727      0.676038
  H      -2.344537      0.652691     -0.811406
  H      -1.770260      1.230516      0.765236
  H       0.757045      1.465375     -0.300317
  H       1.288280      1.131534      1.365058
  H      -1.507595     -1.687139     -0.201166
15
Coordinates from ORCA-job freq E -270.977040227868
  C       2.265782     -0.155697     -0.147563
  C      -2.166537      0.371875      0.236496
  C       1.112165      0.694367      0.368324
  C       0.245894     -0.540874      0.406430
  C      -1.190362     -0.768998      0.282516
  O      -0.485250     -0.978739      1.503741
  H       1.285442     -1.135929     -0.060831
  H       3.079238     -0.352824      0.538435
  H       2.566845     -0.011567     -1.177595
  H      -3.121041      0.073643      0.669213
  H      -2.333004      0.673504     -0.797420
  H      -1.778896      1.220606      0.797537
  H       0.767740      1.455358     -0.330160
  H       1.269242      1.140715      1.348080
  H      -1.517255     -1.685441     -0.200409
15
Coordinates from ORCA-job freq E -270.977077209155
  C       2.260857     -0.155891     -0.158140
  C      -2.166233      0.371961      0.226807
  C       1.113590      0.691463      0.380728
  C       0.244427     -0.541397      0.421050
  C      -1.190658     -0.768610      0.283522
  O      -0.497124     -0.973548      1.513226
  H       1.298846     -1.140953     -0.052006
  H       3.081546     -0.356760      0.518199
  H       2.554085      0.004116     -1.188203
  H      -3.117989      0.081304      0.670776
  H      -2.340341      0.657914     -0.810330
  H      -1.774410      1.229237      0.771776
  H       0.761012      1.460016     -0.305190
  H       1.286103      1.128518      1.362057
  H      -1.513707     -1.687369     -0.197478
15
Coordinates from ORCA-job freq E -270.977447689507
  C       2.260420     -0.151256     -0.163132
  C      -2.165829      0.371720      0.219392
  C       1.114202      0.690694      0.391543
  C       0.243685     -0.540790      0.433893
  C      -1.189917     -0.767560      0.282495
  O      -0.507316     -0.968994      1.520409
  H       1.308966     -1.143080     -0.056003
  H       3.085174     -0.359633      0.506672
  H       2.541789      0.004567     -1.197404
  H      -3.114073      0.086756      0.674756
  H      -2.349285      0.644671     -0.819743
  H      -1.770167      1.236391      0.749900
  H       0.753239      1.464906     -0.283599
  H       1.298398      1.120103      1.374089
  H      -1.509282     -1.688494     -0.196475
15
Coordinates from ORCA-job freq E -270.977875433789
  C       2.258225     -0.147778     -0.174084
  C      -2.165533      0.372178      0.209280
  C       1.115796      0.686012      0.404125
  C       0.241124     -0.542245      0.449257
  C      -1.191054     -0.767104      0.283889
  O      -0.519909     -0.961779      1.530837
  H       1.321732     -1.153551     -0.048662
  H       3.090278     -0.360277      0.485493
  H       2.529228      0.021722     -1.209072
  H      -3.111868      0.095372      0.673815
  H      -2.355090      0.630362     -0.832616
  H      -1.766420      1.244484      0.724596
  H       0.746363      1.468071     -0.257306
  H       1.314436      1.105690      1.388092
  H      -1.507306     -1.691155     -0.190852
15
Coordinates from ORCA-job freq E -270.978540084968
  C       2.260354     -0.136969     -0.179596
  C      -2.164201      0.372434      0.198437
  C       1.116429      0.682962      0.419780
  C       0.238834     -0.542618      0.468301
  C      -1.190600     -0.765678      0.282511
  O      -0.534644     -0.953413      1.542216
  H       1.334671     -1.163979     -0.060790
  H       3.099971     -0.356089      0.469169
  H       2.509261      0.019919     -1.222386
  H      -3.106777      0.104771      0.676301
  H      -2.365188      0.614285     -0.845464
  H      -1.760262      1.253638      0.694779
  H       0.735152      1.473060     -0.225457
  H       1.329378      1.091459      1.405480
  H      -1.502374     -1.693783     -0.186488
15
Coordinates from ORCA-job freq E -270.978885218462
  C       2.255781     -0.123173     -0.207900
  C      -2.162001      0.373312      0.172632
  C       1.121418      0.668367      0.449830
  C       0.231021     -0.546576      0.505463
  C      -1.194031     -0.765294      0.287877
  O      -0.563709     -0.929949      1.569585
  H       1.360036     -1.199284     -0.036656
  H       3.116622     -0.349662      0.409693
  H       2.471433      0.065067     -1.253017
  H      -3.105722      0.124498      0.658872
  H      -2.366218      0.587752     -0.876875
  H      -1.754632      1.267620      0.642195
  H       0.724017      1.479137     -0.159358
  H       1.365397      1.051495      1.438664
  H      -1.499408     -1.703309     -0.164212
15
Coordinates from ORCA-job freq E -270.978917397677
  C       2.261526     -0.118460     -0.195911
  C      -2.160593      0.373290      0.176875
  C       1.120025      0.672335      0.446743
  C       0.233198     -0.545358      0.501904
  C      -1.191469     -0.764685      0.284740
  O      -0.558833     -0.933032      1.566180
  H       1.348233     -1.195056     -0.059694
  H       3.123909     -0.336095      0.423413
  H       2.464939      0.030206     -1.249808
  H      -3.105784      0.119067      0.657477
  H      -2.361947      0.597637     -0.871197
  H      -1.755907      1.263806      0.655934
  H       0.722502      1.479545     -0.167468
  H       1.356778      1.058929      1.436025
  H      -1.496573     -1.702129     -0.168423
15
Coordinates from ORCA-job freq E -270.978710413258
  C       2.246934     -0.118819     -0.204871
  C      -2.154744      0.372231      0.161647
  C       1.128708      0.672627      0.471050
  C       0.236742     -0.539474      0.512299
  C      -1.186296     -0.764776      0.286955
  O      -0.560794     -0.926312      1.573310
  H       1.347227     -1.187092      0.013144
  H       3.164640     -0.273917      0.347296
  H       2.348092     -0.045762     -1.280742
  H      -3.123755      0.100794      0.581019
  H      -2.299430      0.630031     -0.888044
  H      -1.780821      1.247815      0.690099
  H       0.742260      1.498365     -0.124986
  H       1.373440      1.038941      1.465989
  H      -1.482200     -1.704653     -0.167372
15
Coordinates from ORCA-job freq E -270.978970565833
  C       2.254328     -0.121007     -0.202058
  C      -2.158565      0.372603      0.169998
  C       1.123155      0.671296      0.454404
  C       0.233468     -0.543798      0.507836
  C      -1.190469     -0.765308      0.287739
  O      -0.560902     -0.928370      1.571651
  H       1.347300     -1.195924     -0.028143
  H       3.138488     -0.317000      0.392623
  H       2.425178      0.017007     -1.262976
  H      -3.114140      0.113213      0.626503
  H      -2.336610      0.608214     -0.879818
  H      -1.765148      1.258048      0.667267
  H       0.730062      1.487883     -0.150502
  H       1.365902      1.047839      1.446015
  H      -1.492043     -1.704697     -0.163748
15
Coordinates from ORCA-job freq E -270.978991363746
  C       2.254412     -0.121486     -0.202231
  C      -2.158752      0.372029      0.170560
  C       1.122726      0.672126      0.451978
  C       0.233430     -0.543224      0.507920
  C      -1.190374     -0.765488      0.288465
  O      -0.560049     -0.927345      1.572502
  H       1.344449     -1.195569     -0.031056
  H       3.135363     -0.323759      0.395156
  H       2.431570      0.023246     -1.261335
  H      -3.114362      0.112852      0.627101
  H      -2.336940      0.607545     -0.879277
  H      -1.765256      1.257582      0.667562
  H       0.729713      1.488871     -0.152553
  H       1.365590      1.048162      1.443873
  H      -1.491517     -1.705542     -0.161872
15
Coordinates from ORCA-job freq E -270.978995041927
  C       2.253208     -0.121690     -0.203295
  C      -2.158307      0.371072      0.170197
  C       1.122714      0.673350      0.450666
  C       0.233808     -0.542089      0.509995
  C      -1.189456     -0.765733      0.289468
  O      -0.559449     -0.925592      1.574664
  H       1.339243     -1.194123     -0.033230
  H       3.131703     -0.330847      0.395204
  H       2.434592      0.028142     -1.261055
  H      -3.114854      0.111767      0.624647
  H      -2.334655      0.607301     -0.879820
  H      -1.765869      1.256499      0.668276
  H       0.729168      1.490756     -0.152312
  H       1.367143      1.048101      1.442871
  H      -1.488985     -1.706913     -0.159484
15
Coordinates from ORCA-job freq E -270.979003529403
  C       2.248546     -0.121043     -0.207981
  C      -2.156097      0.369744      0.166360
  C       1.123675      0.674207      0.454079
  C       0.234684     -0.540741      0.518887
  C      -1.186979     -0.765977      0.291415
  O      -0.562057     -0.921949      1.580934
  H       1.332296     -1.192549     -0.031972
  H       3.127968     -0.336924      0.386654
  H       2.427643      0.032851     -1.265507
  H      -3.115187      0.110643      0.615492
  H      -2.327024      0.605941     -0.884583
  H      -1.766697      1.255529      0.666121
  H       0.726402      1.493851     -0.143281
  H       1.375531      1.045568      1.445875
  H      -1.482701     -1.709151     -0.155701
15
Coordinates from ORCA-job freq E -270.979019109251
  C       2.239692     -0.119670     -0.216333
  C      -2.151576      0.368883      0.157952
  C       1.125563      0.673644      0.464916
  C       0.235993     -0.540400      0.535256
  C      -1.183145     -0.765987      0.294126
  O      -0.569861     -0.917750      1.590838
  H       1.328463     -1.192768     -0.023265
  H       3.127768     -0.335020      0.365595
  H       2.403142      0.033866     -1.276340
  H      -3.114521      0.110625      0.599201
  H      -2.313527      0.602936     -0.894921
  H      -1.766879      1.255941      0.659110
  H       0.720795      1.497263     -0.122141
  H       1.392050      1.039469      1.454901
  H      -1.473953     -1.711032     -0.152101
15
Coordinates from ORCA-job freq E -270.979029240847
  C       2.231471     -0.118768     -0.223041
  C      -2.147102      0.368840      0.149740
  C       1.126931      0.672458      0.476316
  C       0.237145     -0.541056      0.549411
  C      -1.180010     -0.765867      0.296457
  O      -0.578008     -0.915267      1.598721
  H       1.329299     -1.194399     -0.012434
  H       3.131142     -0.327019      0.343575
  H       2.374711      0.031378     -1.286382
  H      -3.113173      0.111797      0.584827
  H      -2.301241      0.599584     -0.905026
  H      -1.766069      1.257349      0.651076
  H       0.715795      1.500075     -0.100858
  H       1.406976      1.032627      1.464472
  H      -1.467863     -1.711733     -0.150063
15
Coordinates from ORCA-job freq E -270.979042920573
  C       2.218509     -0.117211     -0.233027
  C      -2.139734      0.368746      0.136045
  C       1.128916      0.670459      0.494530
  C       0.238865     -0.542130      0.571666
  C      -1.175113     -0.765724      0.300787
  O      -0.591185     -0.910500      1.611398
  H       1.331414     -1.197323      0.005520
  H       3.138329     -0.312030      0.305498
  H       2.325534      0.026511     -1.301512
  H      -3.111109      0.113721      0.560324
  H      -2.280297      0.593752     -0.921858
  H      -1.765103      1.259783      0.637724
  H       0.709013      1.505905     -0.064966
  H       1.430858      1.019008      1.480267
  H      -1.458893     -1.712968     -0.145601
15
Coordinates from ORCA-job freq E -270.979050034349
  C       2.209195     -0.115752     -0.239683
  C      -2.134309      0.368314      0.126101
  C       1.130243      0.669453      0.506579
  C       0.240163     -0.542451      0.586707
  C      -1.171585     -0.765789      0.304568
  O      -0.599634     -0.905612      1.620661
  H       1.332009     -1.199351      0.018481
  H       3.143394     -0.301482      0.276732
  H       2.288753      0.023033     -1.311273
  H      -3.110235      0.114301      0.540419
  H      -2.263108      0.590068     -0.933977
  H      -1.765390      1.260847      0.629357
  H       0.705837      1.511915     -0.038754
  H       1.447423      1.007016      1.491386
  H      -1.452752     -1.714511     -0.140513
15
Coordinates from ORCA-job freq E -270.979052085210
  C       2.206843     -0.115144     -0.241332
  C      -2.132773      0.367997      0.123234
  C       1.130546      0.669348      0.509291
  C       0.240568     -0.542350      0.590257
  C      -1.170696     -0.765998      0.306081
  O      -0.601290     -0.903423      1.623424
  H       1.331183     -1.199638      0.022602
  H       3.145568     -0.297933      0.267740
  H       2.277446      0.021485     -1.313875
  H      -3.110581      0.114069      0.533124
  H      -2.256769      0.589650     -0.937446
  H      -1.766164      1.260578      0.628050
  H       0.705956      1.514780     -0.031112
  H       1.451489      1.001981      1.494657
  H      -1.451321     -1.715404     -0.137901
15
Coordinates from ORCA-job freq E -270.979061010876
  C       2.202768     -0.114149     -0.243962
  C      -2.130164      0.367453      0.118263
  C       1.131203      0.669208      0.513970
  C       0.241332     -0.542149      0.595684
  C      -1.169175     -0.766360      0.308380
  O      -0.603754     -0.899731      1.627693
  H       1.329797     -1.199637      0.030719
  H       3.149722     -0.290333      0.251787
  H       2.256857      0.017036     -1.318202
  H      -3.111087      0.113669      0.520676
  H      -2.246166      0.589045     -0.943358
  H      -1.767433      1.260109      0.625716
  H       0.706878      1.520260     -0.017538
  H       1.458124      0.992504      1.500644
  H      -1.448899     -1.716924     -0.133678
15
Coordinates from ORCA-job freq E -270.979057871143
  C       2.201336     -0.113917     -0.244595
  C      -2.129293      0.367359      0.116283
  C       1.131548      0.668964      0.516073
  C       0.241498     -0.542215      0.597218
  C      -1.168732     -0.766444      0.308614
  O      -0.604792     -0.898780      1.628640
  H       1.329887     -1.199449      0.034364
  H       3.151966     -0.285574      0.245644
  H       2.248429      0.014048     -1.319577
  H      -3.110739      0.114289      0.517861
  H      -2.244084      0.587907     -0.945684
  H      -1.766908      1.260445      0.623206
  H       0.707703      1.522475     -0.011796
  H       1.460365      0.988259      1.503478
  H      -1.448180     -1.717365     -0.132935
15
Coordinates from ORCA-job freq E -270.979075597021
  C       2.200911     -0.113887     -0.244442
  C      -2.129121      0.367441      0.115246
  C       1.131776      0.668658      0.517449
  C       0.241398     -0.542356      0.597428
  C      -1.168691     -0.766388      0.307941
  O      -0.605533     -0.898782      1.628335
  H       1.330883     -1.199557      0.036253
  H       3.153627     -0.281993      0.242991
  H       2.244393      0.012036     -1.319832
  H      -3.109819      0.115643      0.519453
  H      -2.246106      0.585824     -0.946920
  H      -1.765292      1.261437      0.619526
  H       0.708477      1.523637     -0.008479
  H       1.461091      0.985638      1.505444
  H      -1.447991     -1.717352     -0.133600
15
Coordinates from ORCA-job freq E -270.979068729467
  C       2.201369     -0.113992     -0.243997
  C      -2.129500      0.367485      0.115518
  C       1.131797      0.668638      0.517305
  C       0.241239     -0.542313      0.596748
  C      -1.168878     -0.766300      0.307330
  O      -0.605470     -0.899195      1.627631
  H       1.331311     -1.199483      0.035647
  H       3.153589     -0.282358      0.244349
  H       2.246055      0.012379     -1.319284
  H      -3.109319      0.116246      0.522205
  H      -2.248841      0.584714     -0.946620
  H      -1.764438      1.261985      0.618016
  H       0.708755      1.523488     -0.009041
  H       1.460484      0.985871      1.505412
  H      -1.448150     -1.717166     -0.134426
15
Coordinates from ORCA-job freq E -270.979066721522
  C       2.201918     -0.114083     -0.243538
  C      -2.129928      0.367526      0.115862
  C       1.131831      0.668632      0.517027
  C       0.241101     -0.542258      0.595984
  C      -1.169086     -0.766204      0.306800
  O      -0.605319     -0.899521      1.626944
  H       1.331707     -1.199479      0.035006
  H       3.153592     -0.282778      0.245774
  H       2.247830      0.012682     -1.318731
  H      -3.108996      0.116641      0.524594
  H      -2.251254      0.583908     -0.946215
  H      -1.763896      1.262409      0.616977
  H       0.709105      1.523326     -0.009842
  H       1.459802      0.986174      1.505263
  H      -1.448402     -1.716975     -0.135112
15
Coordinates from ORCA-job freq E -270.979057908738
  C       2.202373     -0.114152     -0.243154
  C      -2.130284      0.367553      0.116119
  C       1.131868      0.668633      0.516805
  C       0.240987     -0.542198      0.595341
  C      -1.169261     -0.766130      0.306374
  O      -0.605183     -0.899759      1.626385
  H       1.331984     -1.199438      0.034571
  H       3.153671     -0.283048      0.246837
  H       2.249149      0.012860     -1.318283
  H      -3.108733      0.116967      0.526524
  H      -2.253229      0.583220     -0.945912
  H      -1.763461      1.262756      0.616079
  H       0.709464      1.523268     -0.010414
  H       1.459253      0.986305      1.505196
  H      -1.448597     -1.716837     -0.135677
15
Coordinates from ORCA-job freq E -270.979051459809
  C       2.202896     -0.114219     -0.242761
  C      -2.130666      0.367574      0.116450
  C       1.131897      0.668637      0.516470
  C       0.240880     -0.542135      0.594633
  C      -1.169448     -0.766054      0.305987
  O      -0.604979     -0.899976      1.625817
  H       1.332177     -1.199418      0.033993
  H       3.153690     -0.283457      0.248099
  H       2.250769      0.013135     -1.317803
  H      -3.108537      0.117211      0.528377
  H      -2.255111      0.582666     -0.945520
  H      -1.763135      1.263041      0.615420
  H       0.709806      1.523146     -0.011207
  H       1.458608      0.986544      1.505002
  H      -1.448845     -1.716695     -0.136164
15
Coordinates from ORCA-job freq E -270.979054330550
  C       2.203281     -0.114273     -0.242421
  C      -2.130944      0.367590      0.116700
  C       1.131909      0.668659      0.516214
  C       0.240802     -0.542080      0.594045
  C      -1.169581     -0.766002      0.305664
  O      -0.604796     -0.900176      1.625344
  H       1.332312     -1.199360      0.033609
  H       3.153717     -0.283729      0.249052
  H       2.251926      0.013261     -1.317409
  H      -3.108330      0.117430      0.529903
  H      -2.256640      0.582184     -0.945222
  H      -1.762816      1.263285      0.614826
  H       0.710109      1.523103     -0.011793
  H       1.458061      0.986683      1.504891
  H      -1.449006     -1.716574     -0.136609
15
Coordinates from ORCA-job freq E -270.979056203179
  C       2.203628     -0.114331     -0.242110
  C      -2.131196      0.367601      0.116930
  C       1.131922      0.668686      0.515977
  C       0.240736     -0.542027      0.593506
  C      -1.169699     -0.765960      0.305370
  O      -0.604627     -0.900366      1.624912
  H       1.332403     -1.199278      0.033250
  H       3.153736     -0.283999      0.249930
  H       2.252992      0.013392     -1.317043
  H      -3.108142      0.117633      0.531295
  H      -2.258028      0.581736     -0.944944
  H      -1.762526      1.263501      0.614284
  H       0.710388      1.523068     -0.012341
  H       1.457571      0.986816      1.504788
  H      -1.449156     -1.716473     -0.137011
15
Coordinates from ORCA-job freq E -270.979055348586
  C       2.204046     -0.114393     -0.241772
  C      -2.131473      0.367625      0.117253
  C       1.131909      0.668711      0.515636
  C       0.240662     -0.541995      0.592889
  C      -1.169849     -0.765923      0.305088
  O      -0.604405     -0.900603      1.624444
  H       1.332517     -1.199226      0.032748
  H       3.153688     -0.284382      0.251056
  H       2.254388      0.013605     -1.316629
  H      -3.107994      0.117803      0.532712
  H      -2.259397      0.581406     -0.944558
  H      -1.762273      1.263678      0.613941
  H       0.710618      1.522923     -0.013155
  H       1.456958      0.987130      1.504546
  H      -1.449392     -1.716357     -0.137407
15
Coordinates from ORCA-job freq E -270.979056929581
  C       2.204390     -0.114444     -0.241476
  C      -2.131715      0.367642      0.117471
  C       1.131919      0.668721      0.515407
  C       0.240602     -0.541960      0.592369
  C      -1.169968     -0.765876      0.304824
  O      -0.604246     -0.900768      1.624035
  H       1.332641     -1.199171      0.032455
  H       3.153772     -0.284513      0.251833
  H       2.255313      0.013629     -1.316296
  H      -3.107851      0.117969      0.533922
  H      -2.260613      0.581049     -0.944294
  H      -1.762051      1.263857      0.613519
  H       0.710884      1.522881     -0.013657
  H       1.456495      0.987226      1.504443
  H      -1.449570     -1.716243     -0.137763
15
Coordinates from ORCA-job freq E -270.979059204935
  C       2.204705     -0.114492     -0.241204
  C      -2.131936      0.367654      0.117680
  C       1.131928      0.668737      0.515192
  C       0.240542     -0.541927      0.591878
  C      -1.170087     -0.765843      0.304579
  O      -0.604096     -0.900921      1.623653
  H       1.332753     -1.199125      0.032152
  H       3.153804     -0.284710      0.252595
  H       2.256243      0.013736     -1.315980
  H      -3.107710      0.118133      0.535082
  H      -2.261766      0.580706     -0.944040
  H      -1.761812      1.264021      0.613110
  H       0.711134      1.522833     -0.014164
  H       1.456049      0.987354      1.504347
  H      -1.449748     -1.716156     -0.138087
15
Coordinates from ORCA-job freq E -270.979057404010
  C       2.205033     -0.114531     -0.240936
  C      -2.132157      0.367673      0.117922
  C       1.131920      0.668753      0.514941
  C       0.240487     -0.541901      0.591385
  C      -1.170205     -0.765817      0.304373
  O      -0.603902     -0.901103      1.623291
  H       1.332833     -1.199077      0.031767
  H       3.153791     -0.284991      0.253443
  H       2.257289      0.013893     -1.315654
  H      -3.107588      0.118294      0.536215
  H      -2.262874      0.580394     -0.943756
  H      -1.761612      1.264195      0.612765
  H       0.711333      1.522746     -0.014752
  H       1.455571      0.987541      1.504194
  H      -1.449916     -1.716066     -0.138404
15
Coordinates from ORCA-job freq E -270.979059304063
  C       2.205368     -0.114583     -0.240666
  C      -2.132381      0.367689      0.118175
  C       1.131917      0.668777      0.514671
  C       0.240445     -0.541870      0.590887
  C      -1.170311     -0.765776      0.304152
  O      -0.603714     -0.901266      1.622918
  H       1.332929     -1.199016      0.031415
  H       3.153789     -0.285264      0.254283
  H       2.258321      0.013978     -1.315335
  H      -3.107495      0.118384      0.537257
  H      -2.263902      0.580180     -0.943445
  H      -1.761478      1.264317      0.612553
  H       0.711536      1.522648     -0.015378
  H       1.455082      0.987763      1.504012
  H      -1.450103     -1.715961     -0.138706
15
Coordinates from ORCA-job freq E -270.979058875303
  C       2.205704     -0.114645     -0.240397
  C      -2.132607      0.367706      0.118437
  C       1.131913      0.668794      0.514385
  C       0.240394     -0.541843      0.590383
  C      -1.170430     -0.765739      0.303945
  O      -0.603525     -0.901425      1.622551
  H       1.333016     -1.198966      0.031046
  H       3.153783     -0.285523      0.255141
  H       2.259387      0.014084     -1.315009
  H      -3.107414      0.118456      0.538270
  H      -2.264892      0.579995     -0.943128
  H      -1.761367      1.264430      0.612390
  H       0.711749      1.522536     -0.016041
  H       1.454602      0.988003      1.503813
  H      -1.450309     -1.715863     -0.138992
15
Coordinates from ORCA-job freq E -270.979060505593
  C       2.205951     -0.114685     -0.240168
  C      -2.132757      0.367722      0.118633
  C       1.131886      0.668814      0.514169
  C       0.240353     -0.541833      0.589963
  C      -1.170520     -0.765727      0.303765
  O      -0.603364     -0.901577      1.622242
  H       1.333090     -1.198919      0.030768
  H       3.153772     -0.285703      0.255814
  H       2.260182      0.014167     -1.314737
  H      -3.107290      0.118590      0.539169
  H      -2.265741      0.579781     -0.942887
  H      -1.761161      1.264541      0.612147
  H       0.711900      1.522472     -0.016529
  H       1.454167      0.988156      1.503687
  H      -1.450464     -1.715799     -0.139244
15
Coordinates from ORCA-job freq E -270.979061562053
  C       2.206196     -0.114719     -0.239967
  C      -2.132923      0.367737      0.118779
  C       1.131890      0.668811      0.514016
  C       0.240309     -0.541822      0.589592
  C      -1.170614     -0.765706      0.303597
  O      -0.603244     -0.901697      1.621963
  H       1.333173     -1.198885      0.030537
  H       3.153834     -0.285783      0.256353
  H       2.260858      0.014243     -1.314505
  H      -3.107182      0.118750      0.540039
  H      -2.266609      0.579488     -0.942710
  H      -1.760973      1.264685      0.611785
  H       0.712086      1.522445     -0.016859
  H       1.453818      0.988186      1.503631
  H      -1.450616     -1.715731     -0.139459
15
Coordinates from ORCA-job freq E -270.979060300715
  C       2.206495     -0.114751     -0.239735
  C      -2.133111      0.367756      0.119021
  C       1.131868      0.668828      0.513755
  C       0.240263     -0.541812      0.589151
  C      -1.170723     -0.765686      0.303426
  O      -0.603071     -0.901865      1.621645
  H       1.333254     -1.198856      0.030179
  H       3.153795     -0.286055      0.257151
  H       2.261844      0.014381     -1.314217
  H      -3.107104      0.118850      0.540952
  H      -2.267467      0.579321     -0.942419
  H      -1.760832      1.264782      0.611638
  H       0.712230      1.522324     -0.017475
  H       1.453366      0.988438      1.503436
  H      -1.450803     -1.715655     -0.139716
15
Coordinates from ORCA-job freq E -270.979060953125
  C       2.206723     -0.114792     -0.239530
  C      -2.133252      0.367769      0.119215
  C       1.131840      0.668851      0.513533
  C       0.240232     -0.541802      0.588771
  C      -1.170800     -0.765679      0.303272
  O      -0.602912     -0.902011      1.621370
  H       1.333302     -1.198797      0.029904
  H       3.153758     -0.286251      0.257800
  H       2.262626      0.014456     -1.313970
  H      -3.107019      0.118950      0.541725
  H      -2.268193      0.579178     -0.942181
  H      -1.760680      1.264866      0.611493
  H       0.712352      1.522256     -0.017966
  H       1.452967      0.988608      1.503286
  H      -1.450941     -1.715601     -0.139930
15
Coordinates from ORCA-job freq E -270.979062485918
  C       2.206951     -0.114825     -0.239343
  C      -2.133401      0.367785      0.119380
  C       1.131834      0.668854      0.513358
  C       0.240195     -0.541795      0.588417
  C      -1.170887     -0.765656      0.303122
  O      -0.602789     -0.902130      1.621110
  H       1.333385     -1.198775      0.029659
  H       3.153768     -0.286392      0.258370
  H       2.263330      0.014542     -1.313744
  H      -3.106927      0.119051      0.542495
  H      -2.268947      0.578972     -0.941983
  H      -1.760547      1.264980      0.611267
  H       0.712495      1.522187     -0.018362
  H       1.452637      0.988729      1.503183
  H      -1.451094     -1.715527     -0.140138
15
Coordinates from ORCA-job freq E -270.979062541849
  C       2.207145     -0.114858     -0.239180
  C      -2.133553      0.367789      0.119499
  C       1.131854      0.668870      0.513233
  C       0.240168     -0.541763      0.588118
  C      -1.170954     -0.765626      0.302988
  O      -0.602681     -0.902207      1.620887
  H       1.333446     -1.198717      0.029492
  H       3.153806     -0.286517      0.258793
  H       2.263857      0.014567     -1.313558
  H      -3.106860      0.119125      0.543163
  H      -2.269642      0.578760     -0.941836
  H      -1.760465      1.265084      0.611020
  H       0.712692      1.522195     -0.018637
  H       1.452376      0.988766      1.503140
  H      -1.451186     -1.715468     -0.140329
15
Coordinates from ORCA-job freq E -270.979063940245
  C       2.207330     -0.114880     -0.239018
  C      -2.133672      0.367800      0.119608
  C       1.131856      0.668871      0.513126
  C       0.240135     -0.541755      0.587831
  C      -1.171021     -0.765607      0.302848
  O      -0.602602     -0.902292      1.620665
  H       1.333539     -1.198698      0.029341
  H       3.153878     -0.286547      0.259179
  H       2.264310      0.014566     -1.313378
  H      -3.106773      0.119235      0.543805
  H      -2.270290      0.578565     -0.941700
  H      -1.760332      1.265187      0.610771
  H       0.712829      1.522175     -0.018885
  H       1.452118      0.988797      1.503106
  H      -1.451301     -1.715417     -0.140506
15
Coordinates from ORCA-job freq E -270.979062682139
  C       2.207531     -0.114916     -0.238844
  C      -2.133798      0.367819      0.119782
  C       1.131835      0.668879      0.512936
  C       0.240107     -0.541752      0.587515
  C      -1.171090     -0.765591      0.302719
  O      -0.602476     -0.902411      1.620433
  H       1.333599     -1.198681      0.029109
  H       3.153849     -0.286718      0.259738
  H       2.264989      0.014659     -1.313163
  H      -3.106708      0.119303      0.544454
  H      -2.270901      0.578458     -0.941488
  H      -1.760229      1.265261      0.610672
  H       0.712932      1.522080     -0.019334
  H       1.451784      0.988969      1.502966
  H      -1.451422     -1.715360     -0.140699
15
Coordinates from ORCA-job freq E -270.979063253361
  C       2.207749     -0.114955     -0.238681
  C      -2.133949      0.367824      0.119949
  C       1.131841      0.668895      0.512752
  C       0.240080     -0.541727      0.587192
  C      -1.171163     -0.765562      0.302594
  O      -0.602345     -0.902496      1.620204
  H       1.333651     -1.198641      0.028861
  H       3.153836     -0.286913      0.260289
  H       2.265678      0.014726     -1.312966
  H      -3.106673      0.119329      0.545065
  H      -2.271512      0.578347     -0.941279
  H      -1.760200      1.265330      0.610583
  H       0.713070      1.522021     -0.019748
  H       1.451491      0.989113      1.502835
  H      -1.451552     -1.715291     -0.140857
15
Coordinates from ORCA-job freq E -270.979063153060
  C       2.207943     -0.114978     -0.238521
  C      -2.134065      0.367840      0.120109
  C       1.131816      0.668903      0.512575
  C       0.240048     -0.541729      0.586897
  C      -1.171237     -0.765554      0.302487
  O      -0.602220     -0.902620      1.619995
  H       1.333713     -1.198627      0.028638
  H       3.153825     -0.287047      0.260801
  H       2.266304      0.014800     -1.312770
  H      -3.106618      0.119412      0.545654
  H      -2.272062      0.578251     -0.941087
  H      -1.760085      1.265390      0.610494
  H       0.713162      1.521935     -0.020161
  H       1.451161      0.989265      1.502706
  H      -1.451681     -1.715239     -0.141024
15
Coordinates from ORCA-job freq E -270.979073200011
  C       2.208080     -0.115001     -0.238388
  C      -2.134158      0.367842      0.120218
  C       1.131812      0.668924      0.512453
  C       0.240028     -0.541714      0.586661
  C      -1.171283     -0.765549      0.302383
  O      -0.602126     -0.902702      1.619819
  H       1.333723     -1.198580      0.028463
  H       3.153804     -0.287182      0.261192
  H       2.266766      0.014850     -1.312611
  H      -3.106549      0.119479      0.546167
  H      -2.272563      0.578124     -0.940949
  H      -1.759987      1.265450      0.610347
  H       0.713269      1.521915     -0.020433
  H       1.450941      0.989357      1.502636
  H      -1.451755     -1.715211     -0.141165
15
Coordinates from ORCA-job freq E -270.979058676181
  C       2.208255     -0.115027     -0.238252
  C      -2.134259      0.367859      0.120349
  C       1.131794      0.668918      0.512311
  C       0.239997     -0.541718      0.586398
  C      -1.171351     -0.765540      0.302279
  O      -0.602028     -0.902801      1.619631
  H       1.333782     -1.198560      0.028278
  H       3.153818     -0.287271      0.261621
  H       2.267301      0.014917     -1.312443
  H      -3.106487      0.119559      0.546704
  H      -2.273067      0.578009     -0.940791
  H      -1.759883      1.265523      0.610228
  H       0.713350      1.521846     -0.020761
  H       1.450663      0.989456      1.502543
  H      -1.451882     -1.715169     -0.141301
15
Coordinates from ORCA-job freq E -270.979059828471
  C       2.208531     -0.115065     -0.238066
  C      -2.134437      0.367872      0.120612
  C       1.131770      0.668946      0.512010
  C       0.239956     -0.541704      0.586015
  C      -1.171453     -0.765523      0.302168
  O      -0.601848     -0.902935      1.619375
  H       1.333812     -1.198549      0.027870
  H       3.153691     -0.287649      0.262450
  H       2.268372      0.015118     -1.312185
  H      -3.106487      0.119559      0.547377
  H      -2.273680      0.578005     -0.940475
  H      -1.759864      1.265535      0.610335
  H       0.713443      1.521674     -0.021467
  H       1.450253      0.989812      1.502254
  H      -1.452054     -1.715095     -0.141479
15
Coordinates from ORCA-job freq E -270.979070510352
  C       2.208537     -0.115071     -0.238008
  C      -2.134450      0.367873      0.120558
  C       1.131787      0.668938      0.512076
  C       0.239952     -0.541700      0.585931
  C      -1.171461     -0.765520      0.302098
  O      -0.601848     -0.902946      1.619297
  H       1.333873     -1.198509      0.028022
  H       3.153848     -0.287408      0.262306
  H       2.268125      0.014948     -1.312163
  H      -3.106402      0.119684      0.547620
  H      -2.273959      0.577788     -0.940532
  H      -1.759733      1.265631      0.609996
  H       0.713571      1.521807     -0.021260
  H       1.450223      0.989574      1.502419
  H      -1.452059     -1.715089     -0.141566
15
Coordinates from ORCA-job freq E -270.979062785076
  C       2.208632     -0.115074     -0.237921
  C      -2.134510      0.367875      0.120598
  C       1.131791      0.668934      0.512042
  C       0.239928     -0.541693      0.585779
  C      -1.171503     -0.765511      0.302018
  O      -0.601816     -0.902992      1.619179
  H       1.333919     -1.198494      0.027934
  H       3.153886     -0.287422      0.262492
  H       2.268355      0.014991     -1.312062
  H      -3.106319      0.119789      0.548045
  H      -2.274378      0.577594     -0.940485
  H      -1.759591      1.265711      0.609741
  H       0.713655      1.521812     -0.021341
  H       1.450083      0.989543      1.502438
  H      -1.452128     -1.715063     -0.141667
15
Coordinates from ORCA-job freq E -270.979063335131
  C       2.208813     -0.115091     -0.237793
  C      -2.134625      0.367885      0.120741
  C       1.131785      0.668944      0.511887
  C       0.239900     -0.541686      0.585539
  C      -1.171566     -0.765494      0.301926
  O      -0.601723     -0.903083      1.619003
  H       1.333953     -1.198487      0.027698
  H       3.153854     -0.287613      0.262970
  H       2.268967      0.015102     -1.311895
  H      -3.106277      0.119831      0.548564
  H      -2.274876      0.577497     -0.940310
  H      -1.759538      1.265771      0.609663
  H       0.713732      1.521732     -0.021706
  H       1.449837      0.989704      1.502312
  H      -1.452233     -1.715012     -0.141805
15
Coordinates from ORCA-job freq E -270.979070514448
  C       2.208910     -0.115118     -0.237700
  C      -2.134709      0.367878      0.120818
  C       1.131799      0.668966      0.511804
  C       0.239892     -0.541657      0.585362
  C      -1.171593     -0.765473      0.301841
  O      -0.601657     -0.903109      1.618869
  H       1.333963     -1.198433      0.027595
  H       3.153846     -0.287731      0.263230
  H       2.269275      0.015111     -1.311788
  H      -3.106246      0.119836      0.548908
  H      -2.275235      0.577400     -0.940211
  H      -1.759514      1.265808      0.609576
  H       0.713845      1.521740     -0.021877
  H       1.449705      0.989757      1.502269
  H      -1.452276     -1.714977     -0.141903
15
Coordinates from ORCA-job freq E -270.979063098884
  C       2.209030     -0.115127     -0.237600
  C      -2.134777      0.367894      0.120906
  C       1.131781      0.668957      0.511707
  C       0.239872     -0.541667      0.585170
  C      -1.171641     -0.765470      0.301768
  O      -0.601579     -0.903188      1.618732
  H       1.334012     -1.198434      0.027453
  H       3.153840     -0.287778      0.263549
  H       2.269660      0.015168     -1.311662
  H      -3.106188      0.119915      0.549320
  H      -2.275623      0.577302     -0.940107
  H      -1.759419      1.265874      0.609457
  H       0.713898      1.521690     -0.022099
  H       1.449508      0.989814      1.502201
  H      -1.452372     -1.714950     -0.142001
15
Coordinates from ORCA-job freq E -270.979062442978
  C       2.209208     -0.115160     -0.237475
  C      -2.134884      0.367909      0.121086
  C       1.131754      0.668976      0.511504
  C       0.239854     -0.541662      0.584917
  C      -1.171696     -0.765462      0.301692
  O      -0.601444     -0.903296      1.618561
  H       1.334027     -1.198405      0.027170
  H       3.153740     -0.288060      0.264113
  H       2.270396      0.015313     -1.311485
  H      -3.106171      0.119927      0.549782
  H      -2.276035      0.577300     -0.939887
  H      -1.759399      1.265896      0.609512
  H       0.713919      1.521559     -0.022578
  H       1.449215      0.990068      1.502003
  H      -1.452479     -1.714903     -0.142123
15
Coordinates from ORCA-job freq E -270.979070405482
  C       2.209237     -0.115165     -0.237419
  C      -2.134909      0.367909      0.121071
  C       1.131768      0.668977      0.511526
  C       0.239847     -0.541657      0.584837
  C      -1.171708     -0.765454      0.301625
  O      -0.601448     -0.903311      1.618487
  H       1.334091     -1.198383      0.027250
  H       3.153843     -0.287932      0.264080
  H       2.270300      0.015195     -1.311450
  H      -3.106115      0.119989      0.549985
  H      -2.276266      0.577184     -0.939894
  H      -1.759324      1.265951      0.609326
  H       0.714015      1.521627     -0.022512
  H       1.449166      0.989959      1.502085
  H      -1.452495     -1.714890     -0.142204
15
Coordinates from ORCA-job freq E -270.979063583858
  C       2.209348     -0.115190     -0.237337
  C      -2.134996      0.367909      0.121153
  C       1.131779      0.668985      0.511440
  C       0.239828     -0.541639      0.584676
  C      -1.171747     -0.765435      0.301560
  O      -0.601394     -0.903345      1.618372
  H       1.334116     -1.198371      0.027114
  H       3.153830     -0.288052      0.264357
  H       2.270673      0.015269     -1.311342
  H      -3.106095      0.120001      0.550321
  H      -2.276612      0.577104     -0.939793
  H      -1.759306      1.265986      0.609256
  H       0.714116      1.521598     -0.022724
  H       1.449025      0.990036      1.502026
  H      -1.452562     -1.714856     -0.142285
15
Coordinates from ORCA-job freq E -270.979062263388
  C       2.209570     -0.115216     -0.237199
  C      -2.135130      0.367929      0.121349
  C       1.131759      0.668993      0.511218
  C       0.239800     -0.541639      0.584403
  C      -1.171822     -0.765418      0.301475
  O      -0.601272     -0.903441      1.618186
  H       1.334171     -1.198386      0.026828
  H       3.153782     -0.288265      0.264949
  H       2.271433      0.015350     -1.311164
  H      -3.106109      0.119983      0.550764
  H      -2.277035      0.577161     -0.939555
  H      -1.759334      1.265997      0.609394
  H       0.714158      1.521452     -0.023252
  H       1.448723      0.990299      1.501810
  H      -1.452693     -1.714799     -0.142414
15
Coordinates from ORCA-job freq E -270.979069839309
  C       2.209571     -0.115226     -0.237158
  C      -2.135140      0.367923      0.121345
  C       1.131761      0.669004      0.511216
  C       0.239800     -0.541629      0.584335
  C      -1.171828     -0.765421      0.301443
  O      -0.601238     -0.903458      1.618138
  H       1.334159     -1.198352      0.026849
  H       3.153796     -0.288246      0.264968
  H       2.271428      0.015338     -1.311121
  H      -3.106061      0.120040      0.550935
  H      -2.277205      0.577046     -0.939557
  H      -1.759250      1.266036      0.609238
  H       0.714219      1.521505     -0.023219
  H       1.448685      0.990234      1.501849
  H      -1.452695     -1.714796     -0.142469
15
Coordinates from ORCA-job freq E -270.979065125905
  C       2.209635     -0.115229     -0.237098
  C      -2.135181      0.367927      0.121368
  C       1.131767      0.668996      0.511197
  C       0.239790     -0.541628      0.584236
  C      -1.171852     -0.765412      0.301390
  O      -0.601214     -0.903486      1.618059
  H       1.334189     -1.198339      0.026812
  H       3.153847     -0.288208      0.265068
  H       2.271537      0.015318     -1.311062
  H      -3.106016      0.120104      0.551188
  H      -2.277466      0.576933     -0.939525
  H      -1.759181      1.266090      0.609081
  H       0.714282      1.521512     -0.023252
  H       1.448599      0.990197      1.501867
  H      -1.452733     -1.714775     -0.142537
15
Coordinates from ORCA-job freq E -270.979077285885
  C       2.209775     -0.115256     -0.237006
  C      -2.135280      0.367931      0.121504
  C       1.131763      0.669015      0.511045
  C       0.239774     -0.541615      0.584051
  C      -1.171895     -0.765401      0.301332
  O      -0.601121     -0.903560      1.617930
  H       1.334190     -1.198313      0.026597
  H       3.153769     -0.288453      0.265500
  H       2.272100      0.015437     -1.310926
  H      -3.106019      0.120093      0.551534
  H      -2.277802      0.576928     -0.939359
  H      -1.759197      1.266107      0.609131
  H       0.714335      1.521430     -0.023619
  H       1.448409      0.990399      1.501715
  H      -1.452798     -1.714741     -0.142636
15
Coordinates from ORCA-job freq E -270.979075828825
  C       2.209962     -0.115289     -0.236881
  C      -2.135384      0.367940      0.121733
  C       1.131720      0.669047      0.510783
  C       0.239753     -0.541603      0.583771
  C      -1.171959     -0.765392      0.301272
  O      -0.600963     -0.903680      1.617758
  H       1.334184     -1.198290      0.026245
  H       3.153597     -0.288827      0.266183
  H       2.272978      0.015617     -1.310736
  H      -3.106032      0.120042      0.551936
  H      -2.278110      0.577017     -0.939085
  H      -1.759219      1.266084      0.609357
  H       0.714332      1.521258     -0.024238
  H       1.448073      0.990758      1.501432
  H      -1.452929     -1.714685     -0.142736
15
Coordinates from ORCA-job freq E -270.979067842857
  C       2.209890     -0.115276     -0.236890
  C      -2.135343      0.367938      0.121593
  C       1.131746      0.669020      0.510948
  C       0.239751     -0.541608      0.583815
  C      -1.171944     -0.765394      0.301244
  O      -0.601034     -0.903630      1.617766
  H       1.334242     -1.198278      0.026515
  H       3.153801     -0.288441      0.265776
  H       2.272404      0.015404     -1.310802
  H      -3.105953      0.120168      0.551958
  H      -2.278186      0.576804     -0.939251
  H      -1.759088      1.266169      0.608991
  H       0.714437      1.521433     -0.023805
  H       1.448179      0.990395      1.501684
  H      -1.452898     -1.714703     -0.142748
15
Coordinates from ORCA-job freq E -270.979071753689
  C       2.209908     -0.115267     -0.236843
  C      -2.135339      0.367946      0.121593
  C       1.131729      0.669014      0.510956
  C       0.239737     -0.541622      0.583756
  C      -1.171961     -0.765400      0.301201
  O      -0.601030     -0.903670      1.617711
  H       1.334293     -1.198302      0.026511
  H       3.153847     -0.288347      0.265805
  H       2.272390      0.015373     -1.310761
  H      -3.105881      0.120263      0.552154
  H      -2.278354      0.576701     -0.939250
  H      -1.758958      1.266209      0.608828
  H       0.714446      1.521448     -0.023791
  H       1.448110      0.990348      1.501727
  H      -1.452934     -1.714695     -0.142804
15
Coordinates from ORCA-job freq E -270.979064897875
  C       2.209926     -0.115266     -0.236819
  C      -2.135356      0.367942      0.121590
  C       1.131733      0.669014      0.510963
  C       0.239728     -0.541616      0.583720
  C      -1.171969     -0.765405      0.301172
  O      -0.601028     -0.903689      1.617677
  H       1.334279     -1.198269      0.026483
  H       3.153847     -0.288386      0.265846
  H       2.272455      0.015439     -1.310727
  H      -3.105832      0.120332      0.552348
  H      -2.278543      0.576574     -0.939254
  H      -1.758871      1.266256      0.608651
  H       0.714493      1.521466     -0.023776
  H       1.448075      0.990312      1.501758
  H      -1.452933     -1.714703     -0.142840
15
Coordinates from ORCA-job freq E -270.979073722592
  C       2.210009     -0.115277     -0.236766
  C      -2.135426      0.367940      0.121653
  C       1.131746      0.669025      0.510899
  C       0.239717     -0.541599      0.583617
  C      -1.171995     -0.765391      0.301124
  O      -0.600992     -0.903712      1.617599
  H       1.334284     -1.198258      0.026352
  H       3.153804     -0.288549      0.266082
  H       2.272781      0.015542     -1.310646
  H      -3.105814      0.120339      0.552612
  H      -2.278825      0.576503     -0.939175
  H      -1.758861      1.266286      0.608593
  H       0.714554      1.521435     -0.023949
  H       1.447985      0.990398      1.501701
  H      -1.452964     -1.714681     -0.142905
15
Coordinates from ORCA-job freq E -270.979061801074
  C       2.210146     -0.115298     -0.236684
  C      -2.135519      0.367948      0.121762
  C       1.131755      0.669031      0.510783
  C       0.239708     -0.541586      0.583452
  C      -1.172035     -0.765366      0.301072
  O      -0.600917     -0.903755      1.617487
  H       1.334311     -1.198257      0.026184
  H       3.153791     -0.288680      0.266409
  H       2.273204      0.015574     -1.310539
  H      -3.105827      0.120304      0.552873
  H      -2.279098      0.576510     -0.939043
  H      -1.758916      1.266308      0.608647
  H       0.714610      1.521367     -0.024227
  H       1.447832      0.990534      1.501594
  H      -1.453041     -1.714634     -0.142977
15
Coordinates from ORCA-job freq E -270.979077940101
  C       2.210281     -0.115325     -0.236597
  C      -2.135595      0.367962      0.121915
  C       1.131726      0.669044      0.510603
  C       0.239692     -0.541584      0.583261
  C      -1.172081     -0.765360      0.301025
  O      -0.600812     -0.903833      1.617361
  H       1.334320     -1.198251      0.025978
  H       3.153704     -0.288892      0.266859
  H       2.273787      0.015678     -1.310411
  H      -3.105841      0.120279      0.553151
  H      -2.279322      0.576585     -0.938857
  H      -1.758930      1.266291      0.608803
  H       0.714606      1.521238     -0.024643
  H       1.447600      0.990770      1.501404
  H      -1.453132     -1.714601     -0.143060
15
Coordinates from ORCA-job freq E -270.979075848770
  C       2.210457     -0.115360     -0.236474
  C      -2.135691      0.367971      0.122150
  C       1.131671      0.669077      0.510322
  C       0.239672     -0.541585      0.583000
  C      -1.172143     -0.765363      0.300979
  O      -0.600652     -0.903958      1.617205
  H       1.334300     -1.198229      0.025642
  H       3.153520     -0.289249      0.267543
  H       2.274647      0.015835     -1.310223
  H      -3.105879      0.120220      0.553481
  H      -2.279559      0.576748     -0.938574
  H      -1.758962      1.266231      0.609123
  H       0.714594      1.521058     -0.025305
  H       1.447269      0.991161      1.501092
  H      -1.453241     -1.714557     -0.143166
15
Coordinates from ORCA-job freq E -270.979068348259
  C       2.210330     -0.115342     -0.236515
  C      -2.135627      0.367963      0.121933
  C       1.131718      0.669051      0.510563
  C       0.239686     -0.541583      0.583117
  C      -1.172103     -0.765364      0.300963
  O      -0.600762     -0.903863      1.617260
  H       1.334363     -1.198208      0.026040
  H       3.153802     -0.288731      0.266907
  H       2.273762      0.015505     -1.310355
  H      -3.105808      0.120333      0.553342
  H      -2.279533      0.576537     -0.938826
  H      -1.758863      1.266313      0.608715
  H       0.714726      1.521317     -0.024661
  H       1.447479      0.990666      1.501439
  H      -1.453168     -1.714594     -0.143131
15
Coordinates from ORCA-job freq E -270.979070780112
  C       2.210328     -0.115338     -0.236500
  C      -2.135634      0.367961      0.121903
  C       1.131729      0.669043      0.510608
  C       0.239672     -0.541584      0.583095
  C      -1.172117     -0.765366      0.300935
  O      -0.600783     -0.903860      1.617234
  H       1.334416     -1.198224      0.026082
  H       3.153851     -0.288662      0.266848
  H       2.273680      0.015508     -1.310346
  H      -3.105766      0.120404      0.553469
  H      -2.279672      0.576417     -0.938859
  H      -1.758780      1.266353      0.608534
  H       0.714780      1.521366     -0.024568
  H       1.447482      0.990580      1.501513
  H      -1.453182     -1.714598     -0.143153
15
Coordinates from ORCA-job freq E -270.979065415935
  C       2.210372     -0.115340     -0.236467
  C      -2.135652      0.367967      0.121943
  C       1.131712      0.669044      0.510567
  C       0.239665     -0.541588      0.583040
  C      -1.172131     -0.765374      0.300917
  O      -0.600751     -0.903912      1.617195
  H       1.334410     -1.198196      0.026003
  H       3.153828     -0.288725      0.266983
  H       2.273859      0.015550     -1.310298
  H      -3.105745      0.120454      0.553632
  H      -2.279803      0.576373     -0.938812
  H      -1.758728      1.266383      0.608482
  H       0.714759      1.521326     -0.024661
  H       1.447400      0.990628      1.501471
  H      -1.453193     -1.714591     -0.143203
