15
Coordinates from ORCA-job freq E -270.979065415935
  C           2.21037158033996     -0.11533975597157     -0.23646671403740
  C          -2.13565203362070      0.36796720499581      0.12194335693354
  C           1.13171173630130      0.66904374638499      0.51056725875665
  C           0.23966522158649     -0.54158794823192      0.58304016389932
  C          -1.17213056577326     -0.76537428694869      0.30091719447735
  O          -0.60075051047443     -0.90391160005232      1.61719523263325
  H           1.33441008781874     -1.19819601938398      0.02600305893065
  H           3.15382770941170     -0.28872469145203      0.26698308520229
  H           2.27385882183391      0.01554971383501     -1.31029756508686
  H          -3.10574477400026      0.12045443200345      0.55363150345747
  H          -2.27980250613643      0.57637341311726     -0.93881231811137
  H          -1.75872780618230      1.26638323024515      0.60848205050283
  H           0.71475888347444      1.52132559103742     -0.02466137006905
  H           1.44740036993122      0.99062804325279      1.50147107880144
  H          -1.45319321451037     -1.71459107283137     -0.14320301629012
