10
Coordinates from ORCA-job freq E -118.443761017745
  C           1.08161995530370      0.31900717560110     -0.22193910309338
  C          -0.10272753444667     -0.60231417080721      0.11157857799932
  C          -1.38856405722534      0.13851878131240      0.20127648329991
  H           0.92695134278872      0.81204971365209     -1.18162945889186
  H           1.19017725667890      1.09343725754887      0.53754697311270
  H           2.01377412834311     -0.24450533009352     -0.27142091961188
  H           0.10582194907131     -1.10297781362314      1.06105250998873
  H          -0.17261173059342     -1.38260161255787     -0.64770118336904
  H          -1.59460971375270      0.77032064436977      1.05327973690187
  H          -2.05983059616765      0.19906435459751     -0.64204161633636
