15
Coordinates from ORCA-job freq E -271.000719398835
  C          -1.69005596517951     -0.45965121903537      0.37374378214186
  C          -1.23910266519750      0.86923651058668     -0.20118175259949
  C           0.17340335336031      0.61652388673294     -0.76430635851892
  C           2.12320818835729     -0.88066271660110      0.35253422953853
  C           0.78596361153581     -0.32611129792345      0.23395976287072
  O           1.62586130167137      0.13189679717109      1.23837137604806
  H          -0.39254687376487     -0.87447362516762      0.63262067431773
  H          -2.04390683968780     -1.18939511690696     -0.35048675235568
  H          -2.27229332674255     -0.45028267435169      1.28809260678360
  H          -1.91552118855076      1.25595827518550     -0.96449836086810
  H          -1.17979421273834      1.61333597720038      0.59372624720274
  H           0.76635126943579      1.52288258267753     -0.88908873319060
  H           0.10628994403760      0.10924624706300     -1.72918453814543
  H           2.26656839665686     -1.85489091702946      0.80419761555129
  H           2.90978200680631     -0.54461170960146     -0.31485979877635
