15
* (null), Energy   -1000.0000000
C    -1.690056   -0.459651    0.373744    0.111312   -0.052464    0.030674
C    -1.239103    0.869237   -0.201182   -0.010578    0.010674   -0.008790
C     0.173403    0.616524   -0.764306   -0.012309   -0.007584    0.009684
C     2.123208   -0.880663    0.352534    0.009187   -0.012544   -0.005691
C     0.785964   -0.326111    0.233960    0.103032    0.049496   -0.026892
O     1.625861    0.131897    1.238371   -0.014543    0.000162   -0.003869
H    -0.392547   -0.874474    0.632621   -1.973286   -0.014012    0.141551
H    -2.043907   -1.189395   -0.350487   -0.139344    0.104182   -0.028072
H    -2.272293   -0.450283    1.288093   -0.100171    0.058696   -0.086833
H    -1.915521    1.255958   -0.964498    0.006257    0.025235    0.000972
H    -1.179794    1.613336    0.593726    0.005287    0.002582   -0.002892
H     0.766351    1.522883   -0.889089    0.005654   -0.006077    0.013573
H     0.106290    0.109246   -1.729185    0.008005   -0.013889    0.012998
H     2.266568   -1.854891    0.804198    0.000458   -0.011369   -0.001917
H     2.909782   -0.544612   -0.314860    0.027164    0.000098    0.024115
15
* Frequency(6) -1829.7658
C    -1.677406   -0.465613    0.377230    0.111312   -0.052464    0.030674
C    -1.240305    0.870450   -0.202181   -0.010578    0.010674   -0.008790
C     0.172004    0.615662   -0.763206   -0.012309   -0.007584    0.009684
C     2.124252   -0.882088    0.351888    0.009187   -0.012544   -0.005691
C     0.797673   -0.320486    0.230904    0.103032    0.049496   -0.026892
O     1.624209    0.131915    1.237932   -0.014543    0.000162   -0.003869
H    -0.616801   -0.876066    0.648707   -1.973286   -0.014012    0.141551
H    -2.059743   -1.177555   -0.353677   -0.139344    0.104182   -0.028072
H    -2.283677   -0.443612    1.278224   -0.100171    0.058696   -0.086833
H    -1.914810    1.258826   -0.964388    0.006257    0.025235    0.000972
H    -1.179193    1.613629    0.593398    0.005287    0.002582   -0.002892
H     0.766994    1.522192   -0.887546    0.005654   -0.006077    0.013573
H     0.107200    0.107668   -1.727707    0.008005   -0.013889    0.012998
H     2.266620   -1.856183    0.803980    0.000458   -0.011369   -0.001917
H     2.912869   -0.544601   -0.312119    0.027164    0.000098    0.024115
15
* Frequency(6) -1829.7658
C    -1.666127   -0.470930    0.380338    0.111312   -0.052464    0.030674
C    -1.241377    0.871531   -0.203071   -0.010578    0.010674   -0.008790
C     0.170757    0.614893   -0.762224   -0.012309   -0.007584    0.009684
C     2.125183   -0.883359    0.351311    0.009187   -0.012544   -0.005691
C     0.808113   -0.315471    0.228179    0.103032    0.049496   -0.026892
O     1.622735    0.131932    1.237540   -0.014543    0.000162   -0.003869
H    -0.816753   -0.877486    0.663050   -1.973286   -0.014012    0.141551
H    -2.073862   -1.166999   -0.356522   -0.139344    0.104182   -0.028072
H    -2.293827   -0.437665    1.269426   -0.100171    0.058696   -0.086833
H    -1.914176    1.261383   -0.964289    0.006257    0.025235    0.000972
H    -1.178658    1.613891    0.593104    0.005287    0.002582   -0.002892
H     0.767567    1.521576   -0.886171    0.005654   -0.006077    0.013573
H     0.108011    0.106260   -1.726390    0.008005   -0.013889    0.012998
H     2.266667   -1.857335    0.803786    0.000458   -0.011369   -0.001917
H     2.915622   -0.544591   -0.309676    0.027164    0.000098    0.024115
15
* Frequency(6) -1829.7658
C    -1.657441   -0.475023    0.382732    0.111312   -0.052464    0.030674
C    -1.242202    0.872364   -0.203757   -0.010578    0.010674   -0.008790
C     0.169797    0.614302   -0.761469   -0.012309   -0.007584    0.009684
C     2.125900   -0.884338    0.350867    0.009187   -0.012544   -0.005691
C     0.816153   -0.311609    0.226080    0.103032    0.049496   -0.026892
O     1.621600    0.131944    1.237238   -0.014543    0.000162   -0.003869
H    -0.970736   -0.878579    0.674096   -1.973286   -0.014012    0.141551
H    -2.084736   -1.158869   -0.358712   -0.139344    0.104182   -0.028072
H    -2.301644   -0.433084    1.262650   -0.100171    0.058696   -0.086833
H    -1.913688    1.263352   -0.964213    0.006257    0.025235    0.000972
H    -1.178245    1.614092    0.592879    0.005287    0.002582   -0.002892
H     0.768008    1.521102   -0.885112    0.005654   -0.006077    0.013573
H     0.108636    0.105177   -1.725376    0.008005   -0.013889    0.012998
H     2.266703   -1.858222    0.803636    0.000458   -0.011369   -0.001917
H     2.917741   -0.544583   -0.307794    0.027164    0.000098    0.024115
15
* Frequency(6) -1829.7658
C    -1.652289   -0.477452    0.384151    0.111312   -0.052464    0.030674
C    -1.242692    0.872858   -0.204164   -0.010578    0.010674   -0.008790
C     0.169227    0.613951   -0.761021   -0.012309   -0.007584    0.009684
C     2.126325   -0.884919    0.350603    0.009187   -0.012544   -0.005691
C     0.820921   -0.309318    0.224835    0.103032    0.049496   -0.026892
O     1.620927    0.131952    1.237059   -0.014543    0.000162   -0.003869
H    -1.062063   -0.879228    0.680647   -1.973286   -0.014012    0.141551
H    -2.091185   -1.154047   -0.360011   -0.139344    0.104182   -0.028072
H    -2.306280   -0.430368    1.258631   -0.100171    0.058696   -0.086833
H    -1.913398    1.264520   -0.964168    0.006257    0.025235    0.000972
H    -1.178000    1.614212    0.592745    0.005287    0.002582   -0.002892
H     0.768270    1.520821   -0.884484    0.005654   -0.006077    0.013573
H     0.109006    0.104534   -1.724774    0.008005   -0.013889    0.012998
H     2.266724   -1.858748    0.803547    0.000458   -0.011369   -0.001917
H     2.918999   -0.544579   -0.306678    0.027164    0.000098    0.024115
15
* Frequency(6) -1829.7658
C    -1.651230   -0.477951    0.384443    0.111312   -0.052464    0.030674
C    -1.242792    0.872960   -0.204248   -0.010578    0.010674   -0.008790
C     0.169110    0.613878   -0.760928   -0.012309   -0.007584    0.009684
C     2.126413   -0.885038    0.350549    0.009187   -0.012544   -0.005691
C     0.821902   -0.308847    0.224580    0.103032    0.049496   -0.026892
O     1.620789    0.131953    1.237022   -0.014543    0.000162   -0.003869
H    -1.080838   -0.879361    0.681994   -1.973286   -0.014012    0.141551
H    -2.092511   -1.153056   -0.360278   -0.139344    0.104182   -0.028072
H    -2.307233   -0.429809    1.257805   -0.100171    0.058696   -0.086833
H    -1.913339    1.264760   -0.964159    0.006257    0.025235    0.000972
H    -1.177950    1.614236    0.592717    0.005287    0.002582   -0.002892
H     0.768324    1.520763   -0.884354    0.005654   -0.006077    0.013573
H     0.109082    0.104402   -1.724651    0.008005   -0.013889    0.012998
H     2.266728   -1.858857    0.803529    0.000458   -0.011369   -0.001917
H     2.919257   -0.544578   -0.306448    0.027164    0.000098    0.024115
15
* Frequency(6) -1829.7658
C    -1.654378   -0.476467    0.383575    0.111312   -0.052464    0.030674
C    -1.242493    0.872658   -0.203999   -0.010578    0.010674   -0.008790
C     0.169458    0.614093   -0.761202   -0.012309   -0.007584    0.009684
C     2.126153   -0.884683    0.350710    0.009187   -0.012544   -0.005691
C     0.818987   -0.310247    0.225340    0.103032    0.049496   -0.026892
O     1.621200    0.131949    1.237131   -0.014543    0.000162   -0.003869
H    -1.025026   -0.878965    0.677991   -1.973286   -0.014012    0.141551
H    -2.088570   -1.156002   -0.359484   -0.139344    0.104182   -0.028072
H    -2.304400   -0.431469    1.260261   -0.100171    0.058696   -0.086833
H    -1.913516    1.264047   -0.964187    0.006257    0.025235    0.000972
H    -1.178100    1.614163    0.592799    0.005287    0.002582   -0.002892
H     0.768164    1.520935   -0.884738    0.005654   -0.006077    0.013573
H     0.108856    0.104794   -1.725018    0.008005   -0.013889    0.012998
H     2.266715   -1.858535    0.803583    0.000458   -0.011369   -0.001917
H     2.918489   -0.544580   -0.307131    0.027164    0.000098    0.024115
15
* Frequency(6) -1829.7658
C    -1.661393   -0.473161    0.381642    0.111312   -0.052464    0.030674
C    -1.241827    0.871985   -0.203445   -0.010578    0.010674   -0.008790
C     0.170234    0.614571   -0.761813   -0.012309   -0.007584    0.009684
C     2.125574   -0.883893    0.351069    0.009187   -0.012544   -0.005691
C     0.812495   -0.313366    0.227035    0.103032    0.049496   -0.026892
O     1.622116    0.131939    1.237375   -0.014543    0.000162   -0.003869
H    -0.900675   -0.878082    0.669070   -1.973286   -0.014012    0.141551
H    -2.079789   -1.162568   -0.357715   -0.139344    0.104182   -0.028072
H    -2.298088   -0.435168    1.265733   -0.100171    0.058696   -0.086833
H    -1.913910    1.262456   -0.964248    0.006257    0.025235    0.000972
H    -1.178433    1.614001    0.592981    0.005287    0.002582   -0.002892
H     0.767807    1.521318   -0.885594    0.005654   -0.006077    0.013573
H     0.108351    0.105670   -1.725837    0.008005   -0.013889    0.012998
H     2.266686   -1.857819    0.803704    0.000458   -0.011369   -0.001917
H     2.916777   -0.544587   -0.308650    0.027164    0.000098    0.024115
15
* Frequency(6) -1829.7658
C    -1.671513   -0.468391    0.378854    0.111312   -0.052464    0.030674
C    -1.240865    0.871015   -0.202646   -0.010578    0.010674   -0.008790
C     0.171353    0.615260   -0.762693   -0.012309   -0.007584    0.009684
C     2.124739   -0.882752    0.351586    0.009187   -0.012544   -0.005691
C     0.803127   -0.317866    0.229480    0.103032    0.049496   -0.026892
O     1.623439    0.131924    1.237727   -0.014543    0.000162   -0.003869
H    -0.721260   -0.876808    0.656200   -1.973286   -0.014012    0.141551
H    -2.067119   -1.172040   -0.355163   -0.139344    0.104182   -0.028072
H    -2.288980   -0.440505    1.273628   -0.100171    0.058696   -0.086833
H    -1.914479    1.260162   -0.964336    0.006257    0.025235    0.000972
H    -1.178913    1.613766    0.593244    0.005287    0.002582   -0.002892
H     0.767293    1.521870   -0.886828    0.005654   -0.006077    0.013573
H     0.107623    0.106933   -1.727019    0.008005   -0.013889    0.012998
H     2.266645   -1.856785    0.803878    0.000458   -0.011369   -0.001917
H     2.914307   -0.544595   -0.310843    0.027164    0.000098    0.024115
15
* Frequency(6) -1829.7658
C    -1.683644   -0.462674    0.375511    0.111312   -0.052464    0.030674
C    -1.239712    0.869851   -0.201688   -0.010578    0.010674   -0.008790
C     0.172694    0.616087   -0.763748   -0.012309   -0.007584    0.009684
C     2.123737   -0.881385    0.352206    0.009187   -0.012544   -0.005691
C     0.791899   -0.323260    0.232411    0.103032    0.049496   -0.026892
O     1.625024    0.131906    1.238148   -0.014543    0.000162   -0.003869
H    -0.506224   -0.875281    0.640775   -1.973286   -0.014012    0.141551
H    -2.051934   -1.183393   -0.352104   -0.139344    0.104182   -0.028072
H    -2.278064   -0.446901    1.283090   -0.100171    0.058696   -0.086833
H    -1.915161    1.257412   -0.964442    0.006257    0.025235    0.000972
H    -1.179490    1.613485    0.593560    0.005287    0.002582   -0.002892
H     0.766677    1.522532   -0.888307    0.005654   -0.006077    0.013573
H     0.106751    0.108446   -1.728436    0.008005   -0.013889    0.012998
H     2.266595   -1.855546    0.804087    0.000458   -0.011369   -0.001917
H     2.911347   -0.544606   -0.313471    0.027164    0.000098    0.024115
15
* Frequency(6) -1829.7658
C    -1.696468   -0.456629    0.371977    0.111312   -0.052464    0.030674
C    -1.238493    0.868622   -0.200675   -0.010578    0.010674   -0.008790
C     0.174112    0.616961   -0.764864   -0.012309   -0.007584    0.009684
C     2.122679   -0.879940    0.352862    0.009187   -0.012544   -0.005691
C     0.780028   -0.328963    0.235509    0.103032    0.049496   -0.026892
O     1.626699    0.131887    1.238594   -0.014543    0.000162   -0.003869
H    -0.278870   -0.873666    0.624466   -1.973286   -0.014012    0.141551
H    -2.035879   -1.195397   -0.348870   -0.139344    0.104182   -0.028072
H    -2.266523   -0.453664    1.293095   -0.100171    0.058696   -0.086833
H    -1.915882    1.254505   -0.964554    0.006257    0.025235    0.000972
H    -1.180099    1.613187    0.593893    0.005287    0.002582   -0.002892
H     0.766026    1.523233   -0.889871    0.005654   -0.006077    0.013573
H     0.105829    0.110046   -1.729933    0.008005   -0.013889    0.012998
H     2.266542   -1.854236    0.804308    0.000458   -0.011369   -0.001917
H     2.908217   -0.544617   -0.316249    0.027164    0.000098    0.024115
15
* Frequency(6) -1829.7658
C    -1.708598   -0.450912    0.368634    0.111312   -0.052464    0.030674
C    -1.237341    0.867458   -0.199718   -0.010578    0.010674   -0.008790
C     0.175454    0.617787   -0.765920   -0.012309   -0.007584    0.009684
C     2.121678   -0.878573    0.353482    0.009187   -0.012544   -0.005691
C     0.768800   -0.334356    0.238440    0.103032    0.049496   -0.026892
O     1.628284    0.131870    1.239016   -0.014543    0.000162   -0.003869
H    -0.063834   -0.872140    0.609041   -1.973286   -0.014012    0.141551
H    -2.020695   -1.206750   -0.345810   -0.139344    0.104182   -0.028072
H    -2.255607   -0.460060    1.302557   -0.100171    0.058696   -0.086833
H    -1.916564    1.251755   -0.964660    0.006257    0.025235    0.000972
H    -1.180675    1.612906    0.594208    0.005287    0.002582   -0.002892
H     0.765409    1.523895   -0.891350    0.005654   -0.006077    0.013573
H     0.104956    0.111560   -1.731350    0.008005   -0.013889    0.012998
H     2.266492   -1.852997    0.804517    0.000458   -0.011369   -0.001917
H     2.905257   -0.544628   -0.318877    0.027164    0.000098    0.024115
15
* Frequency(6) -1829.7658
C    -1.718719   -0.446142    0.365845    0.111312   -0.052464    0.030674
C    -1.236379    0.866488   -0.198918   -0.010578    0.010674   -0.008790
C     0.176573    0.618477   -0.766800   -0.012309   -0.007584    0.009684
C     2.120843   -0.877432    0.354000    0.009187   -0.012544   -0.005691
C     0.759433   -0.338857    0.240885    0.103032    0.049496   -0.026892
O     1.629606    0.131855    1.239368   -0.014543    0.000162   -0.003869
H     0.115581   -0.870866    0.596171   -1.973286   -0.014012    0.141551
H    -2.008025   -1.216222   -0.343258   -0.139344    0.104182   -0.028072
H    -2.246499   -0.465397    1.310452   -0.100171    0.058696   -0.086833
H    -1.917133    1.249460   -0.964749    0.006257    0.025235    0.000972
H    -1.181156    1.612671    0.594471    0.005287    0.002582   -0.002892
H     0.764895    1.524447   -0.892584    0.005654   -0.006077    0.013573
H     0.104229    0.112823   -1.732532    0.008005   -0.013889    0.012998
H     2.266451   -1.851963    0.804691    0.000458   -0.011369   -0.001917
H     2.902787   -0.544637   -0.321069    0.027164    0.000098    0.024115
15
* Frequency(6) -1829.7658
C    -1.725734   -0.442836    0.363912    0.111312   -0.052464    0.030674
C    -1.235712    0.865815   -0.198364   -0.010578    0.010674   -0.008790
C     0.177349    0.618955   -0.767410   -0.012309   -0.007584    0.009684
C     2.120264   -0.876642    0.354358    0.009187   -0.012544   -0.005691
C     0.752940   -0.341976    0.242579    0.103032    0.049496   -0.026892
O     1.630523    0.131845    1.239612   -0.014543    0.000162   -0.003869
H     0.239932   -0.869983    0.587251   -1.973286   -0.014012    0.141551
H    -1.999244   -1.222788   -0.341489   -0.139344    0.104182   -0.028072
H    -2.240187   -0.469096    1.315924   -0.100171    0.058696   -0.086833
H    -1.917527    1.247870   -0.964810    0.006257    0.025235    0.000972
H    -1.181489    1.612509    0.594653    0.005287    0.002582   -0.002892
H     0.764539    1.524830   -0.893439    0.005654   -0.006077    0.013573
H     0.103724    0.113698   -1.733351    0.008005   -0.013889    0.012998
H     2.266422   -1.851247    0.804812    0.000458   -0.011369   -0.001917
H     2.901075   -0.544643   -0.322589    0.027164    0.000098    0.024115
15
* Frequency(6) -1829.7658
C    -1.728882   -0.441352    0.363044    0.111312   -0.052464    0.030674
C    -1.235413    0.865513   -0.198116   -0.010578    0.010674   -0.008790
C     0.177697    0.619169   -0.767684   -0.012309   -0.007584    0.009684
C     2.120004   -0.876287    0.354519    0.009187   -0.012544   -0.005691
C     0.750026   -0.343376    0.243340    0.103032    0.049496   -0.026892
O     1.630934    0.131840    1.239721   -0.014543    0.000162   -0.003869
H     0.295744   -0.869586    0.583247   -1.973286   -0.014012    0.141551
H    -1.995303   -1.225734   -0.340695   -0.139344    0.104182   -0.028072
H    -2.237353   -0.470756    1.318380   -0.100171    0.058696   -0.086833
H    -1.917704    1.247156   -0.964837    0.006257    0.025235    0.000972
H    -1.181638    1.612435    0.594735    0.005287    0.002582   -0.002892
H     0.764379    1.525002   -0.893823    0.005654   -0.006077    0.013573
H     0.103498    0.114091   -1.733718    0.008005   -0.013889    0.012998
H     2.266409   -1.850925    0.804866    0.000458   -0.011369   -0.001917
H     2.900307   -0.544646   -0.323271    0.027164    0.000098    0.024115
15
* Frequency(6) -1829.7658
C    -1.727823   -0.441851    0.363336    0.111312   -0.052464    0.030674
C    -1.235514    0.865615   -0.198200   -0.010578    0.010674   -0.008790
C     0.177580    0.619097   -0.767592   -0.012309   -0.007584    0.009684
C     2.120091   -0.876407    0.354465    0.009187   -0.012544   -0.005691
C     0.751006   -0.342905    0.243084    0.103032    0.049496   -0.026892
O     1.630796    0.131842    1.239684   -0.014543    0.000162   -0.003869
H     0.276970   -0.869720    0.584594   -1.973286   -0.014012    0.141551
H    -1.996629   -1.224743   -0.340962   -0.139344    0.104182   -0.028072
H    -2.238306   -0.470198    1.317554   -0.100171    0.058696   -0.086833
H    -1.917644    1.247396   -0.964828    0.006257    0.025235    0.000972
H    -1.181588    1.612460    0.594708    0.005287    0.002582   -0.002892
H     0.764433    1.524944   -0.893694    0.005654   -0.006077    0.013573
H     0.103574    0.113959   -1.733595    0.008005   -0.013889    0.012998
H     2.266413   -1.851033    0.804848    0.000458   -0.011369   -0.001917
H     2.900565   -0.544645   -0.323042    0.027164    0.000098    0.024115
15
* Frequency(6) -1829.7658
C    -1.722671   -0.444279    0.364756    0.111312   -0.052464    0.030674
C    -1.236003    0.866109   -0.198606   -0.010578    0.010674   -0.008790
C     0.177010    0.618746   -0.767144   -0.012309   -0.007584    0.009684
C     2.120516   -0.876987    0.354202    0.009187   -0.012544   -0.005691
C     0.755774   -0.340614    0.241839    0.103032    0.049496   -0.026892
O     1.630122    0.131849    1.239505   -0.014543    0.000162   -0.003869
H     0.185642   -0.870368    0.591145   -1.973286   -0.014012    0.141551
H    -2.003078   -1.219921   -0.342261   -0.139344    0.104182   -0.028072
H    -2.242942   -0.467481    1.313535   -0.100171    0.058696   -0.086833
H    -1.917355    1.248564   -0.964783    0.006257    0.025235    0.000972
H    -1.181343    1.612580    0.594574    0.005287    0.002582   -0.002892
H     0.764694    1.524663   -0.893066    0.005654   -0.006077    0.013573
H     0.103944    0.113316   -1.732993    0.008005   -0.013889    0.012998
H     2.266434   -1.851560    0.804759    0.000458   -0.011369   -0.001917
H     2.901823   -0.544640   -0.321926    0.027164    0.000098    0.024115
15
* Frequency(6) -1829.7658
C    -1.713985   -0.448373    0.367150    0.111312   -0.052464    0.030674
C    -1.236829    0.866942   -0.199292   -0.010578    0.010674   -0.008790
C     0.176050    0.618154   -0.766388   -0.012309   -0.007584    0.009684
C     2.121233   -0.877966    0.353758    0.009187   -0.012544   -0.005691
C     0.763814   -0.336752    0.239741    0.103032    0.049496   -0.026892
O     1.628988    0.131862    1.239203   -0.014543    0.000162   -0.003869
H     0.031659   -0.871462    0.602191   -1.973286   -0.014012    0.141551
H    -2.013951   -1.211792   -0.344452   -0.139344    0.104182   -0.028072
H    -2.250759   -0.462901    1.306759   -0.100171    0.058696   -0.086833
H    -1.916866    1.250533   -0.964707    0.006257    0.025235    0.000972
H    -1.180931    1.612781    0.594348    0.005287    0.002582   -0.002892
H     0.765136    1.524189   -0.892007    0.005654   -0.006077    0.013573
H     0.104569    0.112232   -1.731979    0.008005   -0.013889    0.012998
H     2.266470   -1.852447    0.804610    0.000458   -0.011369   -0.001917
H     2.903942   -0.544633   -0.320044    0.027164    0.000098    0.024115
15
* Frequency(6) -1829.7658
C    -1.702706   -0.453689    0.370258    0.111312   -0.052464    0.030674
C    -1.237901    0.868023   -0.200183   -0.010578    0.010674   -0.008790
C     0.174802    0.617386   -0.765407   -0.012309   -0.007584    0.009684
C     2.122164   -0.879237    0.353181    0.009187   -0.012544   -0.005691
C     0.774255   -0.331736    0.237016    0.103032    0.049496   -0.026892
O     1.627514    0.131878    1.238811   -0.014543    0.000162   -0.003869
H    -0.168293   -0.872881    0.616534   -1.973286   -0.014012    0.141551
H    -2.028071   -1.201235   -0.347297   -0.139344    0.104182   -0.028072
H    -2.260909   -0.456953    1.297961   -0.100171    0.058696   -0.086833
H    -1.916232    1.253090   -0.964609    0.006257    0.025235    0.000972
H    -1.180395    1.613043    0.594055    0.005287    0.002582   -0.002892
H     0.765709    1.523573   -0.890631    0.005654   -0.006077    0.013573
H     0.105380    0.110825   -1.730662    0.008005   -0.013889    0.012998
H     2.266516   -1.853599    0.804415    0.000458   -0.011369   -0.001917
H     2.906695   -0.544623   -0.317600    0.027164    0.000098    0.024115
15
* Frequency(6) -1829.7658
C    -1.690056   -0.459651    0.373744    0.111312   -0.052464    0.030674
C    -1.239103    0.869237   -0.201182   -0.010578    0.010674   -0.008790
C     0.173403    0.616524   -0.764306   -0.012309   -0.007584    0.009684
C     2.123208   -0.880663    0.352534    0.009187   -0.012544   -0.005691
C     0.785964   -0.326111    0.233960    0.103032    0.049496   -0.026892
O     1.625861    0.131897    1.238371   -0.014543    0.000162   -0.003869
H    -0.392547   -0.874474    0.632621   -1.973286   -0.014012    0.141551
H    -2.043907   -1.189395   -0.350487   -0.139344    0.104182   -0.028072
H    -2.272293   -0.450283    1.288093   -0.100171    0.058696   -0.086833
H    -1.915521    1.255958   -0.964498    0.006257    0.025235    0.000972
H    -1.179794    1.613336    0.593726    0.005287    0.002582   -0.002892
H     0.766351    1.522883   -0.889089    0.005654   -0.006077    0.013573
H     0.106290    0.109246   -1.729185    0.008005   -0.013889    0.012998
H     2.266568   -1.854891    0.804198    0.000458   -0.011369   -0.001917
H     2.909782   -0.544612   -0.314860    0.027164    0.000098    0.024115
