17
Coordinates from ORCA-job freq E -421.411195703477
  C           0.90312979566858      1.83177895434578      1.17625395263670
  C          -1.47746024577913     -0.92373725511691     -1.43306359351226
  C           0.68518404007931      0.79241069675747      0.14218388844966
  C          -1.06302686425446     -1.17010911266446     -0.01389301437308
  C          -0.05300328074739     -0.39651054238422      0.71279858696089
  O           1.79177217196729     -0.45626176265392     -1.42835452980964
  O          -1.43336736897213     -0.20061752608056      0.96134119187573
  O           1.97617511723738      0.39916331935032     -0.30888528508741
  H           1.72769822438220      2.52060734805699      1.08089570130877
  H           0.14962702085403      1.98783174693199      1.93169024296786
  H          -2.51932966783083     -1.21329620516238     -1.57082138884689
  H          -1.37975120983509      0.12483755476464     -1.70296071961843
  H          -0.85972193841457     -1.51740380891075     -2.10629003214941
  H           0.12572165578634      1.20317459817150     -0.70885167423420
  H          -1.20645187355763     -2.19037509665369      0.33107007962237
  H           0.49135039410968     -0.88797699609567      1.51568518085824
  H           2.15207902930639      0.08340708734389     -2.14101358704890
