17
Coordinates from ORCA-job freq E -421.405909217975
  C           1.94041661191272     -0.46518456087938     -0.70308833087567
  C           0.91834819115226      0.47903872014765     -1.22782955289808
  C          -0.08292951758121      1.01849757875647     -0.19506632936320
  C          -2.04669375808655     -0.63516912757410     -0.62431640764512
  C          -1.08971853405701     -0.00057657643938      0.28509254699932
  O           0.52642784941847     -0.59982875553007      1.87163142352670
  O          -2.42561785835368      0.38639636078889      0.30456088644909
  O          -0.81161789845536     -0.74059541036860      1.45564890404845
  H           0.96500209981351     -1.32802736305304      1.41146371702982
  H           2.27660649422429     -1.29954896718539     -1.30081020539466
  H           2.56620187044176     -0.16047827140800      0.12433347816106
  H           0.36716548769993      0.01277690739909     -2.04622995222844
  H           1.42688496317951      1.34864323877311     -1.66499318239760
  H           0.43461943940153      1.45702970098551      0.65633322293317
  H          -0.67623209178179      1.80297088755041     -0.66483823692788
  H          -2.40887197527865     -1.62559352173520     -0.37724563020177
  H          -2.09315837364975     -0.34588884022794     -1.66878635121518
