17
Coordinates from ORCA-job freq E -421.392854197192
  C      -2.250988      0.306339      1.003274
  C       0.212884     -0.182230      0.575761
  C       2.683257     -0.115980     -0.490424
  C       1.236828     -0.262387     -0.509508
  C      -1.207601     -0.051820     -0.042333
  O      -0.461921      0.632352     -2.107402
  O       2.030713     -1.348776     -0.768479
  O      -1.191383      0.998951     -0.983340
  H       0.483186      0.262568     -1.650440
  H      -3.230487      0.370278      0.538701
  H      -2.272562     -0.449963      1.782236
  H      -2.013956      1.271802      1.441891
  H       0.240789     -1.076914      1.202911
  H       0.401846      0.706613      1.181698
  H       3.223390     -0.091168      0.450319
  H       3.186738      0.341737     -1.332808
  H      -1.466243     -0.994839     -0.545000
17
Coordinates from ORCA-job freq E -421.391785473927
  C      -2.250279      0.307538      1.002892
  C       0.207574     -0.174491      0.563688
  C       2.679494     -0.111851     -0.493228
  C       1.230392     -0.232651     -0.528060
  C      -1.210866     -0.053359     -0.038036
  O      -0.462178      0.595901     -2.096632
  O       2.002234     -1.336219     -0.789175
  O      -1.190570      0.996845     -0.987151
  H       0.530544      0.249550     -1.605332
  H      -3.234805      0.365509      0.545460
  H      -2.268275     -0.444852      1.788424
  H      -2.014407      1.274477      1.443642
  H       0.266036     -1.075074      1.178802
  H       0.388838      0.706296      1.182100
  H       3.202067     -0.104183      0.457030
  H       3.200167      0.339885     -1.327754
  H      -1.471478     -0.986755     -0.549611
17
Coordinates from ORCA-job freq E -421.391913319912
  C      -2.257704      0.279438      1.000290
  C       0.212249     -0.118975      0.559669
  C       2.687758     -0.159072     -0.492555
  C       1.233741     -0.186284     -0.533089
  C      -1.206823     -0.054812     -0.035467
  O      -0.466111      0.618267     -2.088387
  O       1.932584     -1.331775     -0.825710
  O      -1.222526      0.993548     -0.990916
  H       0.556836      0.326371     -1.575122
  H      -3.248078      0.276196      0.550912
  H      -2.233451     -0.452128      1.806219
  H      -2.067244      1.267577      1.417602
  H       0.305368     -0.997857      1.201722
  H       0.371922      0.782794      1.152787
  H       3.203927     -0.212184      0.459488
  H       3.238402      0.280595     -1.313938
  H      -1.436362     -0.995135     -0.546447
17
Coordinates from ORCA-job freq E -421.392034474611
  C      -2.261730      0.262217      0.998949
  C       0.216526     -0.084272      0.562854
  C       2.689691     -0.180326     -0.495433
  C       1.235989     -0.159044     -0.531376
  C      -1.201362     -0.055280     -0.030544
  O      -0.476575      0.607489     -2.087900
  O       1.895303     -1.329068     -0.830857
  O      -1.230189      0.990435     -0.992271
  H       0.567794      0.361822     -1.573201
  H      -3.246819      0.277450      0.537320
  H      -2.254127     -0.490922      1.785783
  H      -2.070262      1.236775      1.447465
  H       0.333077     -0.944346      1.226373
  H       0.360157      0.833758      1.134521
  H       3.205499     -0.255156      0.455323
  H       3.252664      0.243170     -1.316828
  H      -1.411147     -0.998138     -0.543121
17
Coordinates from ORCA-job freq E -421.392041884540
  C      -2.261557      0.258176      0.998687
  C       0.217560     -0.075822      0.560999
  C       2.689912     -0.186623     -0.494470
  C       1.236707     -0.152478     -0.533314
  C      -1.200550     -0.056819     -0.030295
  O      -0.477473      0.609204     -2.087008
  O       1.885704     -1.328228     -0.835480
  O      -1.239319      0.986222     -0.995287
  H       0.570437      0.379499     -1.567668
  H      -3.247278      0.269080      0.538116
  H      -2.250592     -0.492767      1.787747
  H      -2.073080      1.234674      1.444974
  H       0.338604     -0.933173      1.227423
  H       0.358534      0.844381      1.129690
  H       3.202535     -0.270452      0.457245
  H       3.258909      0.233446     -1.313383
  H      -1.404563     -1.001756     -0.540919
17
Coordinates from ORCA-job freq E -421.392037815784
  C      -2.261396      0.259964      0.998752
  C       0.217164     -0.078679      0.561559
  C       2.689665     -0.184666     -0.494060
  C       1.236471     -0.152078     -0.532870
  C      -1.200835     -0.056984     -0.030070
  O      -0.478436      0.605328     -2.087822
  O       1.886907     -1.326723     -0.837353
  O      -1.236783      0.986277     -0.995148
  H       0.571288      0.378194     -1.570153
  H      -3.247528      0.269000      0.539031
  H      -2.249205     -0.488896      1.789792
  H      -2.073205      1.237713      1.442422
  H       0.337952     -0.938079      1.225371
  H       0.358305      0.839690      1.133177
  H       3.202311     -0.269846      0.457533
  H       3.258276      0.237663     -1.312082
  H      -1.406463     -1.001314     -0.541022
17
Coordinates from ORCA-job freq E -421.392038822226
  C      -2.260769      0.263140      0.999128
  C       0.216362     -0.084209      0.560713
  C       2.689692     -0.179926     -0.493786
  C       1.236308     -0.156285     -0.533491
  C      -1.201903     -0.057164     -0.030435
  O      -0.478696      0.602650     -2.088491
  O       1.893784     -1.327642     -0.834564
  O      -1.235418      0.985989     -0.995501
  H       0.570096      0.372399     -1.570791
  H      -3.246988      0.276455      0.539684
  H      -2.251357     -0.486532      1.789438
  H      -2.068576      1.239716      1.443646
  H       0.334551     -0.946575      1.221082
  H       0.359928      0.831515      1.135950
  H       3.202352     -0.259824      0.458252
  H       3.256214      0.243688     -1.312588
  H      -1.411092     -1.000832     -0.541188
17
Coordinates from ORCA-job freq E -421.392044352766
  C      -2.260710      0.263369      0.999166
  C       0.216308     -0.084584      0.560651
  C       2.689701     -0.179643     -0.493729
  C       1.236303     -0.156411     -0.533538
  C      -1.201977     -0.057206     -0.030457
  O      -0.478745      0.602323     -2.088558
  O       1.894130     -1.327565     -0.834599
  O      -1.235293      0.985940     -0.995545
  H       0.570061      0.372119     -1.570907
  H      -3.246964      0.276785      0.539803
  H      -2.251336     -0.486223      1.789557
  H      -2.068371      1.239961      1.443570
  H       0.334430     -0.947162      1.220758
  H       0.359952      0.830954      1.136174
  H       3.202281     -0.259444      0.458360
  H       3.256172      0.244178     -1.312459
  H      -1.411454     -1.000827     -0.541188
