17
Coordinates from ORCA-job freq E -421.370030040915
  C           0.94973345695695     -0.07588321382265      0.22870711846372
  C          -0.26592813948759     -0.63621617480412     -0.44600780955974
  C           2.28867018503110     -0.12158380620175     -0.49537711065702
  C          -2.78571226320626     -0.02881865563786     -0.37499908725103
  C          -1.52815272595069     -0.32621315100664      0.31125702126788
  O           1.94684734160279      2.02108674827098     -0.18649981550389
  O          -2.00075034224913      1.00210906056386      0.19918031599312
  O           2.94171302454772      1.05626718726651     -0.05977390507899
  H           1.02267342801176      1.25593470947701      0.14812540328804
  H           1.01799159946204     -0.26629044334251      1.29981043606170
  H          -0.34474587300478     -0.23715032331498     -1.46044310042215
  H          -0.16885132439266     -1.72612386682237     -0.53808465788635
  H           2.92846622979844     -0.96371386852733     -0.22918939048724
  H           2.12916147751443     -0.09445351048060     -1.57769953749688
  H          -2.80798459922002     -0.04015802791532     -1.45896638190224
  H          -3.72889104314348     -0.22209232589658      0.12150518526361
  H          -1.58216443227063     -0.72787333780563      1.31989331590746
