15
* (null), Energy   -1000.0000000
C     2.088174   -1.286190   -0.838525   -0.397040    0.882967    0.835822
C     1.452892    0.281656    0.660396    0.414883   -0.948227   -0.925869
C     0.150591    0.543580    0.485575   -0.043168    0.054521    0.083562
O    -0.608978    1.257133   -0.373107    0.032529   -0.016816   -0.018476
C    -1.256371    0.265265    0.489686   -0.001768   -0.026706   -0.001227
C    -1.837682   -0.925623   -0.211192   -0.006757   -0.008025   -0.017968
H     1.741247   -0.826141   -1.752596   -0.003977   -0.005664    0.170015
H     1.543188   -2.154910   -0.497799   -0.007084    0.269050    0.086013
H     3.157436   -1.296794   -0.677981   -0.231681    0.146459    0.093755
H     2.180408    0.971310    0.257990    0.056488    0.170462    0.270421
H     1.744426   -0.329700    1.499781    0.175196    0.270020    0.081879
H    -1.869120    0.725011    1.258556   -0.081498   -0.005749   -0.068410
H    -1.153551   -1.277686   -0.981234   -0.005021   -0.011176   -0.015045
H    -2.793077   -0.671691   -0.670152   -0.016739   -0.018326   -0.006980
H    -2.006095   -1.731444    0.503529    0.001365   -0.006365   -0.012396
15
* Frequency(6) -614.3472
C     2.043052   -1.185846   -0.743538   -0.397040    0.882967    0.835822
C     1.500041    0.173895    0.555176    0.414883   -0.948227   -0.925869
C     0.145685    0.549776    0.495072   -0.043168    0.054521    0.083562
O    -0.605281    1.255222   -0.375207    0.032529   -0.016816   -0.018476
C    -1.256572    0.262229    0.489547   -0.001768   -0.026706   -0.001227
C    -1.838450   -0.926535   -0.213234   -0.006757   -0.008025   -0.017968
H     1.740795   -0.826785   -1.733275   -0.003977   -0.005664    0.170015
H     1.542383   -2.124334   -0.488025   -0.007084    0.269050    0.086013
H     3.131107   -1.280149   -0.667326   -0.231681    0.146459    0.093755
H     2.186828    0.990682    0.288722    0.056488    0.170462    0.270421
H     1.764336   -0.299014    1.509086    0.175196    0.270020    0.081879
H    -1.878382    0.724357    1.250782   -0.081498   -0.005749   -0.068410
H    -1.154122   -1.278956   -0.982944   -0.005021   -0.011176   -0.015045
H    -2.794979   -0.673774   -0.670946   -0.016739   -0.018326   -0.006980
H    -2.005940   -1.732168    0.502121    0.001365   -0.006365   -0.012396
15
* Frequency(6) -614.3472
C     2.002820   -1.096375   -0.658845   -0.397040    0.882967    0.835822
C     1.542081    0.077811    0.461358    0.414883   -0.948227   -0.925869
C     0.141311    0.555301    0.503539   -0.043168    0.054521    0.083562
O    -0.601985    1.253518   -0.377079    0.032529   -0.016816   -0.018476
C    -1.256751    0.259523    0.489422   -0.001768   -0.026706   -0.001227
C    -1.839134   -0.927348   -0.215054   -0.006757   -0.008025   -0.017968
H     1.740392   -0.827358   -1.716047   -0.003977   -0.005664    0.170015
H     1.541666   -2.097071   -0.479309   -0.007084    0.269050    0.086013
H     3.107631   -1.265309   -0.657826   -0.231681    0.146459    0.093755
H     2.192552    1.007955    0.316124    0.056488    0.170462    0.270421
H     1.782089   -0.271653    1.517383    0.175196    0.270020    0.081879
H    -1.886640    0.723775    1.243850   -0.081498   -0.005749   -0.068410
H    -1.154631   -1.280088   -0.984468   -0.005021   -0.011176   -0.015045
H    -2.796675   -0.675631   -0.671653   -0.016739   -0.018326   -0.006980
H    -2.005802   -1.732812    0.500865    0.001365   -0.006365   -0.012396
15
* Frequency(6) -614.3472
C     1.971838   -1.027474   -0.593623   -0.397040    0.882967    0.835822
C     1.574456    0.003818    0.389109    0.414883   -0.948227   -0.925869
C     0.137942    0.559555    0.510059   -0.043168    0.054521    0.083562
O    -0.599447    1.252206   -0.378521    0.032529   -0.016816   -0.018476
C    -1.256889    0.257439    0.489327   -0.001768   -0.026706   -0.001227
C    -1.839662   -0.927974   -0.216457   -0.006757   -0.008025   -0.017968
H     1.740081   -0.827800   -1.702780   -0.003977   -0.005664    0.170015
H     1.541113   -2.076076   -0.472597   -0.007084    0.269050    0.086013
H     3.089552   -1.253880   -0.650510   -0.231681    0.146459    0.093755
H     2.196960    1.021257    0.337226    0.056488    0.170462    0.270421
H     1.795760   -0.250582    1.523772    0.175196    0.270020    0.081879
H    -1.893000    0.723326    1.238511   -0.081498   -0.005749   -0.068410
H    -1.155022   -1.280960   -0.985642   -0.005021   -0.011176   -0.015045
H    -2.797981   -0.677061   -0.672198   -0.016739   -0.018326   -0.006980
H    -2.005695   -1.733309    0.499897    0.001365   -0.006365   -0.012396
15
* Frequency(6) -614.3472
C     1.953462   -0.986608   -0.554939   -0.397040    0.882967    0.835822
C     1.593658   -0.040068    0.346258    0.414883   -0.948227   -0.925869
C     0.135945    0.562078    0.513927   -0.043168    0.054521    0.083562
O    -0.597941    1.251428   -0.379376    0.032529   -0.016816   -0.018476
C    -1.256971    0.256203    0.489270   -0.001768   -0.026706   -0.001227
C    -1.839974   -0.928346   -0.217288   -0.006757   -0.008025   -0.017968
H     1.739897   -0.828063   -1.694911   -0.003977   -0.005664    0.170015
H     1.540785   -2.063624   -0.468616   -0.007084    0.269050    0.086013
H     3.078829   -1.247102   -0.646171   -0.231681    0.146459    0.093755
H     2.199574    1.029146    0.349741    0.056488    0.170462    0.270421
H     1.803868   -0.238085    1.527562    0.175196    0.270020    0.081879
H    -1.896772    0.723060    1.235345   -0.081498   -0.005749   -0.068410
H    -1.155255   -1.281477   -0.986339   -0.005021   -0.011176   -0.015045
H    -2.798756   -0.677909   -0.672521   -0.016739   -0.018326   -0.006980
H    -2.005632   -1.733604    0.499324    0.001365   -0.006365   -0.012396
15
* Frequency(6) -614.3472
C     1.949684   -0.978207   -0.546987   -0.397040    0.882967    0.835822
C     1.597605   -0.049090    0.337449    0.414883   -0.948227   -0.925869
C     0.135534    0.562597    0.514722   -0.043168    0.054521    0.083562
O    -0.597632    1.251268   -0.379552    0.032529   -0.016816   -0.018476
C    -1.256988    0.255949    0.489258   -0.001768   -0.026706   -0.001227
C    -1.840039   -0.928422   -0.217459   -0.006757   -0.008025   -0.017968
H     1.739860   -0.828116   -1.693294   -0.003977   -0.005664    0.170015
H     1.540717   -2.061064   -0.467798   -0.007084    0.269050    0.086013
H     3.076625   -1.245708   -0.645279   -0.231681    0.146459    0.093755
H     2.200112    1.030768    0.352314    0.056488    0.170462    0.270421
H     1.805535   -0.235516    1.528341    0.175196    0.270020    0.081879
H    -1.897547    0.723005    1.234694   -0.081498   -0.005749   -0.068410
H    -1.155303   -1.281584   -0.986482   -0.005021   -0.011176   -0.015045
H    -2.798915   -0.678083   -0.672587   -0.016739   -0.018326   -0.006980
H    -2.005619   -1.733664    0.499206    0.001365   -0.006365   -0.012396
15
* Frequency(6) -614.3472
C     1.960914   -1.003181   -0.570627   -0.397040    0.882967    0.835822
C     1.585870   -0.022270    0.363636    0.414883   -0.948227   -0.925869
C     0.136755    0.561055    0.512358   -0.043168    0.054521    0.083562
O    -0.598552    1.251743   -0.379029    0.032529   -0.016816   -0.018476
C    -1.256938    0.256705    0.489293   -0.001768   -0.026706   -0.001227
C    -1.839847   -0.928195   -0.216951   -0.006757   -0.008025   -0.017968
H     1.739972   -0.827956   -1.698103   -0.003977   -0.005664    0.170015
H     1.540918   -2.068674   -0.470231   -0.007084    0.269050    0.086013
H     3.083178   -1.249850   -0.647931   -0.231681    0.146459    0.093755
H     2.198514    1.025947    0.344666    0.056488    0.170462    0.270421
H     1.800580   -0.243153    1.526025    0.175196    0.270020    0.081879
H    -1.895242    0.723168    1.236629   -0.081498   -0.005749   -0.068410
H    -1.155161   -1.281268   -0.986056   -0.005021   -0.011176   -0.015045
H    -2.798442   -0.677565   -0.672390   -0.016739   -0.018326   -0.006980
H    -2.005658   -1.733484    0.499556    0.001365   -0.006365   -0.012396
15
* Frequency(6) -614.3472
C     1.985934   -1.058823   -0.623298   -0.397040    0.882967    0.835822
C     1.559726    0.037484    0.421982    0.414883   -0.948227   -0.925869
C     0.139475    0.557619    0.507093   -0.043168    0.054521    0.083562
O    -0.600602    1.252803   -0.377865    0.032529   -0.016816   -0.018476
C    -1.256827    0.258388    0.489370   -0.001768   -0.026706   -0.001227
C    -1.839422   -0.927690   -0.215819   -0.006757   -0.008025   -0.017968
H     1.740223   -0.827599   -1.708816   -0.003977   -0.005664    0.170015
H     1.541364   -2.085629   -0.475651   -0.007084    0.269050    0.086013
H     3.097778   -1.259080   -0.653839   -0.231681    0.146459    0.093755
H     2.194954    1.015205    0.327624    0.056488    0.170462    0.270421
H     1.789540   -0.260169    1.520865    0.175196    0.270020    0.081879
H    -1.890106    0.723530    1.240940   -0.081498   -0.005749   -0.068410
H    -1.154844   -1.280563   -0.985108   -0.005021   -0.011176   -0.015045
H    -2.797387   -0.676410   -0.671950   -0.016739   -0.018326   -0.006980
H    -2.005744   -1.733083    0.500337    0.001365   -0.006365   -0.012396
15
* Frequency(6) -614.3472
C     2.022034   -1.139104   -0.699293   -0.397040    0.882967    0.835822
C     1.522004    0.123699    0.506163    0.414883   -0.948227   -0.925869
C     0.143400    0.552662    0.499495   -0.043168    0.054521    0.083562
O    -0.603559    1.254332   -0.376185    0.032529   -0.016816   -0.018476
C    -1.256666    0.260816    0.489482   -0.001768   -0.026706   -0.001227
C    -1.838807   -0.926960   -0.214185   -0.006757   -0.008025   -0.017968
H     1.740584   -0.827084   -1.724275   -0.003977   -0.005664    0.170015
H     1.542008   -2.110091   -0.483471   -0.007084    0.269050    0.086013
H     3.118842   -1.272396   -0.662363   -0.231681    0.146459    0.093755
H     2.189818    0.999706    0.303037    0.056488    0.170462    0.270421
H     1.773610   -0.284720    1.513421    0.175196    0.270020    0.081879
H    -1.882696    0.724053    1.247160   -0.081498   -0.005749   -0.068410
H    -1.154388   -1.279547   -0.983740   -0.005021   -0.011176   -0.015045
H    -2.795865   -0.674744   -0.671315   -0.016739   -0.018326   -0.006980
H    -2.005868   -1.732504    0.501464    0.001365   -0.006365   -0.012396
15
* Frequency(6) -614.3472
C     2.065301   -1.235324   -0.790375   -0.397040    0.882967    0.835822
C     1.476792    0.227030    0.607059    0.414883   -0.948227   -0.925869
C     0.148104    0.546721    0.490389   -0.043168    0.054521    0.083562
O    -0.607104    1.256164   -0.374172    0.032529   -0.016816   -0.018476
C    -1.256473    0.263726    0.489615   -0.001768   -0.026706   -0.001227
C    -1.838071   -0.926085   -0.212227   -0.006757   -0.008025   -0.017968
H     1.741018   -0.826467   -1.742802   -0.003977   -0.005664    0.170015
H     1.542780   -2.139411   -0.492844   -0.007084    0.269050    0.086013
H     3.144090   -1.288356   -0.672580   -0.231681    0.146459    0.093755
H     2.183663    0.981130    0.273569    0.056488    0.170462    0.270421
H     1.754519   -0.314145    1.504498    0.175196    0.270020    0.081879
H    -1.873815    0.724679    1.254615   -0.081498   -0.005749   -0.068410
H    -1.153841   -1.278329   -0.982101   -0.005021   -0.011176   -0.015045
H    -2.794041   -0.672747   -0.670554   -0.016739   -0.018326   -0.006980
H    -2.006016   -1.731811    0.502815    0.001365   -0.006365   -0.012396
15
* Frequency(6) -614.3472
C     2.111046   -1.337056   -0.886675   -0.397040    0.882967    0.835822
C     1.428991    0.336282    0.713734    0.414883   -0.948227   -0.925869
C     0.153078    0.540439    0.480761   -0.043168    0.054521    0.083562
O    -0.610852    1.258102   -0.372043    0.032529   -0.016816   -0.018476
C    -1.256269    0.266803    0.489757   -0.001768   -0.026706   -0.001227
C    -1.837292   -0.925161   -0.210157   -0.006757   -0.008025   -0.017968
H     1.741476   -0.825815   -1.762390   -0.003977   -0.005664    0.170015
H     1.543597   -2.170410   -0.502754   -0.007084    0.269050    0.086013
H     3.170783   -1.305231   -0.683382   -0.231681    0.146459    0.093755
H     2.177154    0.961490    0.242412    0.056488    0.170462    0.270421
H     1.734333   -0.345256    1.495064    0.175196    0.270020    0.081879
H    -1.864425    0.725342    1.262497   -0.081498   -0.005749   -0.068410
H    -1.153262   -1.277042   -0.980367   -0.005021   -0.011176   -0.015045
H    -2.792112   -0.670635   -0.669750   -0.016739   -0.018326   -0.006980
H    -2.006174   -1.731078    0.504243    0.001365   -0.006365   -0.012396
15
* Frequency(6) -614.3472
C     2.154313   -1.433276   -0.977758   -0.397040    0.882967    0.835822
C     1.383780    0.439613    0.814629    0.414883   -0.948227   -0.925869
C     0.157782    0.534498    0.471655   -0.043168    0.054521    0.083562
O    -0.614396    1.259934   -0.370030    0.032529   -0.016816   -0.018476
C    -1.256077    0.269713    0.489891   -0.001768   -0.026706   -0.001227
C    -1.836556   -0.924286   -0.208199   -0.006757   -0.008025   -0.017968
H     1.741909   -0.825197   -1.780917   -0.003977   -0.005664    0.170015
H     1.544369   -2.199729   -0.512128   -0.007084    0.269050    0.086013
H     3.196030   -1.321191   -0.693599   -0.231681    0.146459    0.093755
H     2.170999    0.942914    0.212943    0.056488    0.170462    0.270421
H     1.715241   -0.374681    1.486141    0.175196    0.270020    0.081879
H    -1.855544    0.725968    1.269952   -0.081498   -0.005749   -0.068410
H    -1.152715   -1.275824   -0.978728   -0.005021   -0.011176   -0.015045
H    -2.790288   -0.668638   -0.668990   -0.016739   -0.018326   -0.006980
H    -2.006322   -1.730384    0.505594    0.001365   -0.006365   -0.012396
15
* Frequency(6) -614.3472
C     2.190413   -1.513557   -1.053752   -0.397040    0.882967    0.835822
C     1.346058    0.525828    0.898811    0.414883   -0.948227   -0.925869
C     0.161707    0.529541    0.464058   -0.043168    0.054521    0.083562
O    -0.617354    1.261463   -0.368350    0.032529   -0.016816   -0.018476
C    -1.255916    0.272141    0.490002   -0.001768   -0.026706   -0.001227
C    -1.835942   -0.923557   -0.206565   -0.006757   -0.008025   -0.017968
H     1.742271   -0.824682   -1.796375   -0.003977   -0.005664    0.170015
H     1.545013   -2.224191   -0.519948   -0.007084    0.269050    0.086013
H     3.217095   -1.334507   -0.702123   -0.231681    0.146459    0.093755
H     2.165863    0.927415    0.188356    0.056488    0.170462    0.270421
H     1.699312   -0.399231    1.478697    0.175196    0.270020    0.081879
H    -1.848134    0.726491    1.276172   -0.081498   -0.005749   -0.068410
H    -1.152258   -1.274808   -0.977360   -0.005021   -0.011176   -0.015045
H    -2.788766   -0.666972   -0.668355   -0.016739   -0.018326   -0.006980
H    -2.006446   -1.729805    0.506721    0.001365   -0.006365   -0.012396
15
* Frequency(6) -614.3472
C     2.215433   -1.569200   -1.106423   -0.397040    0.882967    0.835822
C     1.319913    0.585582    0.957156    0.414883   -0.948227   -0.925869
C     0.164427    0.526105    0.458792   -0.043168    0.054521    0.083562
O    -0.619404    1.262523   -0.367185    0.032529   -0.016816   -0.018476
C    -1.255805    0.273824    0.490079   -0.001768   -0.026706   -0.001227
C    -1.835516   -0.923051   -0.205433   -0.006757   -0.008025   -0.017968
H     1.742522   -0.824325   -1.807089   -0.003977   -0.005664    0.170015
H     1.545459   -2.241146   -0.525368   -0.007084    0.269050    0.086013
H     3.231695   -1.343737   -0.708031   -0.231681    0.146459    0.093755
H     2.162303    0.916673    0.171315    0.056488    0.170462    0.270421
H     1.688272   -0.416247    1.473537    0.175196    0.270020    0.081879
H    -1.842999    0.726853    1.280483   -0.081498   -0.005749   -0.068410
H    -1.151942   -1.274104   -0.976412   -0.005021   -0.011176   -0.015045
H    -2.787711   -0.665817   -0.667915   -0.016739   -0.018326   -0.006980
H    -2.006532   -1.729404    0.507502    0.001365   -0.006365   -0.012396
15
* Frequency(6) -614.3472
C     2.226663   -1.594173   -1.130064   -0.397040    0.882967    0.835822
C     1.308179    0.612402    0.983343    0.414883   -0.948227   -0.925869
C     0.165648    0.524563    0.456429   -0.043168    0.054521    0.083562
O    -0.620324    1.262998   -0.366663    0.032529   -0.016816   -0.018476
C    -1.255755    0.274580    0.490114   -0.001768   -0.026706   -0.001227
C    -1.835325   -0.922824   -0.204925   -0.006757   -0.008025   -0.017968
H     1.742634   -0.824165   -1.811898   -0.003977   -0.005664    0.170015
H     1.545659   -2.248756   -0.527801   -0.007084    0.269050    0.086013
H     3.238248   -1.347879   -0.710683   -0.231681    0.146459    0.093755
H     2.160705    0.911852    0.163666    0.056488    0.170462    0.270421
H     1.683317   -0.423885    1.471221    0.175196    0.270020    0.081879
H    -1.840694    0.727016    1.282418   -0.081498   -0.005749   -0.068410
H    -1.151800   -1.273787   -0.975986   -0.005021   -0.011176   -0.015045
H    -2.787238   -0.665299   -0.667718   -0.016739   -0.018326   -0.006980
H    -2.006571   -1.729224    0.507853    0.001365   -0.006365   -0.012396
15
* Frequency(6) -614.3472
C     2.222886   -1.585772   -1.122111   -0.397040    0.882967    0.835822
C     1.312126    0.603380    0.974534    0.414883   -0.948227   -0.925869
C     0.165237    0.525082    0.457224   -0.043168    0.054521    0.083562
O    -0.620014    1.262838   -0.366839    0.032529   -0.016816   -0.018476
C    -1.255771    0.274326    0.490102   -0.001768   -0.026706   -0.001227
C    -1.835389   -0.922900   -0.205096   -0.006757   -0.008025   -0.017968
H     1.742596   -0.824219   -1.810280   -0.003977   -0.005664    0.170015
H     1.545592   -2.246196   -0.526983   -0.007084    0.269050    0.086013
H     3.236043   -1.346486   -0.709791   -0.231681    0.146459    0.093755
H     2.161243    0.913474    0.166239    0.056488    0.170462    0.270421
H     1.684984   -0.421315    1.472000    0.175196    0.270020    0.081879
H    -1.841469    0.726961    1.281767   -0.081498   -0.005749   -0.068410
H    -1.151848   -1.273894   -0.976129   -0.005021   -0.011176   -0.015045
H    -2.787397   -0.665473   -0.667784   -0.016739   -0.018326   -0.006980
H    -2.006558   -1.729285    0.507735    0.001365   -0.006365   -0.012396
15
* Frequency(6) -614.3472
C     2.204510   -1.544907   -1.083428   -0.397040    0.882967    0.835822
C     1.331328    0.559494    0.931683    0.414883   -0.948227   -0.925869
C     0.163239    0.527605    0.461091   -0.043168    0.054521    0.083562
O    -0.618509    1.262060   -0.367694    0.032529   -0.016816   -0.018476
C    -1.255853    0.273090    0.490046   -0.001768   -0.026706   -0.001227
C    -1.835702   -0.923272   -0.205927   -0.006757   -0.008025   -0.017968
H     1.742412   -0.824481   -1.802412   -0.003977   -0.005664    0.170015
H     1.545264   -2.233744   -0.523002   -0.007084    0.269050    0.086013
H     3.225321   -1.339707   -0.705452   -0.231681    0.146459    0.093755
H     2.163857    0.921363    0.178755    0.056488    0.170462    0.270421
H     1.693092   -0.408818    1.475790    0.175196    0.270020    0.081879
H    -1.845241    0.726695    1.278601   -0.081498   -0.005749   -0.068410
H    -1.152080   -1.274411   -0.976826   -0.005021   -0.011176   -0.015045
H    -2.788172   -0.666321   -0.668107   -0.016739   -0.018326   -0.006980
H    -2.006495   -1.729579    0.507161    0.001365   -0.006365   -0.012396
15
* Frequency(6) -614.3472
C     2.173527   -1.476006   -1.018205   -0.397040    0.882967    0.835822
C     1.363703    0.485501    0.859434    0.414883   -0.948227   -0.925869
C     0.159871    0.531859    0.467612   -0.043168    0.054521    0.083562
O    -0.615971    1.260748   -0.369135    0.032529   -0.016816   -0.018476
C    -1.255991    0.271006    0.489950   -0.001768   -0.026706   -0.001227
C    -1.836229   -0.923898   -0.207329   -0.006757   -0.008025   -0.017968
H     1.742102   -0.824923   -1.789145   -0.003977   -0.005664    0.170015
H     1.544711   -2.212749   -0.516290   -0.007084    0.269050    0.086013
H     3.207242   -1.328278   -0.698136   -0.231681    0.146459    0.093755
H     2.168265    0.934665    0.199857    0.056488    0.170462    0.270421
H     1.706763   -0.387748    1.482179    0.175196    0.270020    0.081879
H    -1.851600    0.726246    1.273262   -0.081498   -0.005749   -0.068410
H    -1.152472   -1.275283   -0.978000   -0.005021   -0.011176   -0.015045
H    -2.789478   -0.667751   -0.668652   -0.016739   -0.018326   -0.006980
H    -2.006388   -1.730076    0.506194    0.001365   -0.006365   -0.012396
15
* Frequency(6) -614.3472
C     2.133295   -1.386535   -0.933512   -0.397040    0.882967    0.835822
C     1.405743    0.389417    0.765616    0.414883   -0.948227   -0.925869
C     0.155497    0.537384    0.476079   -0.043168    0.054521    0.083562
O    -0.612674    1.259044   -0.371008    0.032529   -0.016816   -0.018476
C    -1.256170    0.268300    0.489826   -0.001768   -0.026706   -0.001227
C    -1.836914   -0.924711   -0.209150   -0.006757   -0.008025   -0.017968
H     1.741699   -0.825497   -1.771917   -0.003977   -0.005664    0.170015
H     1.543994   -2.185486   -0.507574   -0.007084    0.269050    0.086013
H     3.183766   -1.313438   -0.688636   -0.231681    0.146459    0.093755
H     2.173989    0.951938    0.227258    0.056488    0.170462    0.270421
H     1.724516   -0.360387    1.490476    0.175196    0.270020    0.081879
H    -1.859859    0.725664    1.266330   -0.081498   -0.005749   -0.068410
H    -1.152981   -1.276415   -0.979524   -0.005021   -0.011176   -0.015045
H    -2.791174   -0.669608   -0.669359   -0.016739   -0.018326   -0.006980
H    -2.006250   -1.730721    0.504938    0.001365   -0.006365   -0.012396
15
* Frequency(6) -614.3472
C     2.088174   -1.286190   -0.838525   -0.397040    0.882967    0.835822
C     1.452892    0.281656    0.660396    0.414883   -0.948227   -0.925869
C     0.150591    0.543580    0.485575   -0.043168    0.054521    0.083562
O    -0.608978    1.257133   -0.373107    0.032529   -0.016816   -0.018476
C    -1.256371    0.265265    0.489686   -0.001768   -0.026706   -0.001227
C    -1.837682   -0.925623   -0.211192   -0.006757   -0.008025   -0.017968
H     1.741247   -0.826141   -1.752596   -0.003977   -0.005664    0.170015
H     1.543188   -2.154910   -0.497799   -0.007084    0.269050    0.086013
H     3.157436   -1.296794   -0.677981   -0.231681    0.146459    0.093755
H     2.180408    0.971310    0.257990    0.056488    0.170462    0.270421
H     1.744426   -0.329700    1.499781    0.175196    0.270020    0.081879
H    -1.869120    0.725011    1.258556   -0.081498   -0.005749   -0.068410
H    -1.153551   -1.277686   -0.981234   -0.005021   -0.011176   -0.015045
H    -2.793077   -0.671691   -0.670152   -0.016739   -0.018326   -0.006980
H    -2.006095   -1.731444    0.503529    0.001365   -0.006365   -0.012396
