15
Coordinates from ORCA-job freq E -270.991367599923
  C           1.91927445471130     -0.85577522743060     -0.63400832380005
  C           1.28399262532229      0.71207104090514      0.86491296774060
  C          -0.01830840173798      0.97399504831076      0.69009214118873
  O          -0.77787696255939      1.68754805999419     -0.16859048236791
  C          -1.42527055189685      0.69567958000207      0.69420304363942
  C          -2.00658094550833     -0.49520797290580     -0.00667499447311
  H           1.57234763897354     -0.39572576877390     -1.54807902796976
  H           1.37428922430255     -1.72449505576130     -0.29328254292822
  H           2.98853705755206     -0.86637848095289     -0.47346421449221
  H           2.01150926542587      1.40172510626353      0.46250711365818
  H           1.57552670875716      0.10071465447786      1.70429785950552
  H          -2.03801954943188      1.15542563466325      1.46307288173883
  H          -1.32245048692689     -0.84727045927659     -0.77671703733369
  H          -2.96197585666390     -0.24127603924264     -0.46563550969902
  H          -2.17499422031953     -1.30102912027309      0.70804612559268
