17
Coordinates from ORCA-job freq E -421.428360844861
  C          -1.48235885099945     -1.72604664667074     -0.48261356137065
  C           1.90393502653062     -0.45193078825774     -0.02451833921848
  C           0.80936103642781      0.38196189991768     -0.67956038705821
  C          -1.46428137911167     -0.51806824809539      0.31614618633149
  C          -0.39275028530968      0.50092416691924      0.21147260294615
  O           0.06010105279340      2.55296070135021      1.06140327565648
  O          -1.63633035879529      0.74373759369399     -0.37214773469247
  O          -0.19173653777607      1.19322450380622      1.39960572081331
  H          -1.80084223501732     -2.65836009747556     -0.04607856674444
  H          -1.19364334031613     -1.69846465069524     -1.52100903347452
  H           2.21004677308778     -0.00982118299868      0.92251275880918
  H           2.77850858454043     -0.51700901148383     -0.66954415627022
  H           1.54902778913377     -1.46520989806933      0.17161549216569
  H           0.49138451001052     -0.05977498043295     -1.62271991444216
  H           1.16494222835868      1.39009552954977     -0.89490221682391
  H          -1.96726531117554     -0.55158326661473      1.27594093132236
  H          -0.83809870238186      2.89336537555706      0.95439894205041
