15
* (null), Energy   -1000.0000000
C    -0.258811   -2.245257   -0.412426    0.004689    0.030448   -0.012181
C    -0.538257    2.046048    1.102195   -0.051829   -0.212360   -0.008896
C     0.186567    0.187953   -0.786770   -0.580324    0.063572   -0.529698
C    -0.646743   -0.983677   -1.191717   -0.196663    0.021079   -0.120335
C     0.037061    0.845696    0.462941    0.622432   -0.179119   -0.214409
O     1.151865    0.238957    0.716149    0.137360    0.343877    0.664068
H    -0.367974   -2.073006    0.657374    0.004010   -0.001211   -0.006275
H    -0.894037   -3.080975   -0.702106    0.033920    0.000943   -0.016635
H     0.780073   -2.510942   -0.602864    0.018590    0.082679   -0.020476
H    -1.526433    2.254591    0.696829    0.006491   -0.173113   -0.105550
H     0.099365    2.920155    0.927664    0.076879   -0.388295   -0.160265
H    -0.617621    1.902237    2.179485    0.046070   -0.142555   -0.009861
H     1.008878    0.485257   -1.430173    0.582132   -1.050707    0.495864
H    -0.529470   -1.162473   -2.261990   -0.265794   -0.197435   -0.094492
H    -1.695910   -0.749319   -0.991262   -0.279140   -0.295081   -0.070858
15
* Frequency(6) -949.7464
C    -0.258278   -2.241797   -0.413810    0.004689    0.030448   -0.012181
C    -0.544147    2.021914    1.101185   -0.051829   -0.212360   -0.008896
C     0.120617    0.195178   -0.846968   -0.580324    0.063572   -0.529698
C    -0.669093   -0.981282   -1.205393   -0.196663    0.021079   -0.120335
C     0.107797    0.825340    0.438574    0.622432   -0.179119   -0.214409
O     1.167475    0.278037    0.791617    0.137360    0.343877    0.664068
H    -0.367518   -2.073144    0.656661    0.004010   -0.001211   -0.006275
H    -0.890182   -3.080868   -0.703996    0.033920    0.000943   -0.016635
H     0.782185   -2.501546   -0.605191    0.018590    0.082679   -0.020476
H    -1.525695    2.234918    0.684833    0.006491   -0.173113   -0.105550
H     0.108102    2.876027    0.909451    0.076879   -0.388295   -0.160265
H    -0.612385    1.886036    2.178364    0.046070   -0.142555   -0.009861
H     1.075035    0.365850   -1.373821    0.582132   -1.050707    0.495864
H    -0.559676   -1.184911   -2.272728   -0.265794   -0.197435   -0.094492
H    -1.727632   -0.782853   -0.999314   -0.279140   -0.295081   -0.070858
15
* Frequency(6) -949.7464
C    -0.257803   -2.238711   -0.415044    0.004689    0.030448   -0.012181
C    -0.549399    2.000396    1.100283   -0.051829   -0.212360   -0.008896
C     0.061812    0.201620   -0.900642   -0.580324    0.063572   -0.529698
C    -0.689020   -0.979146   -1.217586   -0.196663    0.021079   -0.120335
C     0.170868    0.807190    0.416848    0.622432   -0.179119   -0.214409
O     1.181393    0.312882    0.858907    0.137360    0.343877    0.664068
H    -0.367111   -2.073266    0.656025    0.004010   -0.001211   -0.006275
H    -0.886745   -3.080772   -0.705682    0.033920    0.000943   -0.016635
H     0.784069   -2.493168   -0.607265    0.018590    0.082679   -0.020476
H    -1.525038    2.217376    0.674138    0.006491   -0.173113   -0.105550
H     0.115892    2.836682    0.893212    0.076879   -0.388295   -0.160265
H    -0.607717    1.871591    2.177365    0.046070   -0.142555   -0.009861
H     1.134022    0.259382   -1.323575    0.582132   -1.050707    0.495864
H    -0.586609   -1.204917   -2.282303   -0.265794   -0.197435   -0.094492
H    -1.755917   -0.812754   -1.006494   -0.279140   -0.295081   -0.070858
15
* Frequency(6) -949.7464
C    -0.257437   -2.236335   -0.415995    0.004689    0.030448   -0.012181
C    -0.553443    1.983825    1.099589   -0.051829   -0.212360   -0.008896
C     0.016528    0.206581   -0.941976   -0.580324    0.063572   -0.529698
C    -0.704367   -0.977501   -1.226976   -0.196663    0.021079   -0.120335
C     0.219439    0.793213    0.400117    0.622432   -0.179119   -0.214409
O     1.192112    0.339716    0.910727    0.137360    0.343877    0.664068
H    -0.366799   -2.073361    0.655535    0.004010   -0.001211   -0.006275
H    -0.884098   -3.080699   -0.706980    0.033920    0.000943   -0.016635
H     0.785519   -2.486716   -0.608863    0.018590    0.082679   -0.020476
H    -1.524531    2.203867    0.665902    0.006491   -0.173113   -0.105550
H     0.121891    2.806381    0.880705    0.076879   -0.388295   -0.160265
H    -0.604122    1.860467    2.176595    0.046070   -0.142555   -0.009861
H     1.179448    0.177391   -1.284881    0.582132   -1.050707    0.495864
H    -0.607350   -1.220323   -2.289677   -0.265794   -0.197435   -0.094492
H    -1.777700   -0.835780   -1.012024   -0.279140   -0.295081   -0.070858
15
* Frequency(6) -949.7464
C    -0.257220   -2.234926   -0.416559    0.004689    0.030448   -0.012181
C    -0.555842    1.973996    1.099177   -0.051829   -0.212360   -0.008896
C    -0.010331    0.209523   -0.966492   -0.580324    0.063572   -0.529698
C    -0.713469   -0.976525   -1.232546   -0.196663    0.021079   -0.120335
C     0.248246    0.784923    0.390194    0.622432   -0.179119   -0.214409
O     1.198469    0.355631    0.941461    0.137360    0.343877    0.664068
H    -0.366613   -2.073417    0.655245    0.004010   -0.001211   -0.006275
H    -0.882528   -3.080655   -0.707750    0.033920    0.000943   -0.016635
H     0.786380   -2.482890   -0.609811    0.018590    0.082679   -0.020476
H    -1.524231    2.195856    0.661016    0.006491   -0.173113   -0.105550
H     0.125449    2.788410    0.873288    0.076879   -0.388295   -0.160265
H    -0.601989    1.853869    2.176139    0.046070   -0.142555   -0.009861
H     1.206390    0.128763   -1.261931    0.582132   -1.050707    0.495864
H    -0.619651   -1.229461   -2.294050   -0.265794   -0.197435   -0.094492
H    -1.790619   -0.849437   -1.015303   -0.279140   -0.295081   -0.070858
15
* Frequency(6) -949.7464
C    -0.257176   -2.234637   -0.416675    0.004689    0.030448   -0.012181
C    -0.556335    1.971976    1.099093   -0.051829   -0.212360   -0.008896
C    -0.015852    0.210128   -0.971531   -0.580324    0.063572   -0.529698
C    -0.715340   -0.976325   -1.233691   -0.196663    0.021079   -0.120335
C     0.254168    0.783219    0.388154    0.622432   -0.179119   -0.214409
O     1.199776    0.358903    0.947779    0.137360    0.343877    0.664068
H    -0.366575   -2.073428    0.655185    0.004010   -0.001211   -0.006275
H    -0.882205   -3.080646   -0.707908    0.033920    0.000943   -0.016635
H     0.786557   -2.482103   -0.610006    0.018590    0.082679   -0.020476
H    -1.524169    2.194208    0.660012    0.006491   -0.173113   -0.105550
H     0.126181    2.784716    0.871763    0.076879   -0.388295   -0.160265
H    -0.601551    1.852513    2.176045    0.046070   -0.142555   -0.009861
H     1.211929    0.118766   -1.257214    0.582132   -1.050707    0.495864
H    -0.622180   -1.231339   -2.294949   -0.265794   -0.197435   -0.094492
H    -1.793275   -0.852245   -1.015977   -0.279140   -0.295081   -0.070858
15
* Frequency(6) -949.7464
C    -0.257308   -2.235498   -0.416330    0.004689    0.030448   -0.012181
C    -0.554869    1.977982    1.099344   -0.051829   -0.212360   -0.008896
C     0.000561    0.208330   -0.956550   -0.580324    0.063572   -0.529698
C    -0.709777   -0.976921   -1.230287   -0.196663    0.021079   -0.120335
C     0.236563    0.788285    0.394218    0.622432   -0.179119   -0.214409
O     1.195891    0.349177    0.928997    0.137360    0.343877    0.664068
H    -0.366688   -2.073394    0.655362    0.004010   -0.001211   -0.006275
H    -0.883165   -3.080673   -0.707438    0.033920    0.000943   -0.016635
H     0.786031   -2.484442   -0.609427    0.018590    0.082679   -0.020476
H    -1.524352    2.199105    0.662998    0.006491   -0.173113   -0.105550
H     0.124006    2.795698    0.876296    0.076879   -0.388295   -0.160265
H    -0.602854    1.856545    2.176324    0.046070   -0.142555   -0.009861
H     1.195464    0.148484   -1.271238    0.582132   -1.050707    0.495864
H    -0.614663   -1.225755   -2.292276   -0.265794   -0.197435   -0.094492
H    -1.785380   -0.843899   -1.013973   -0.279140   -0.295081   -0.070858
15
* Frequency(6) -949.7464
C    -0.257604   -2.237417   -0.415562    0.004689    0.030448   -0.012181
C    -0.551603    1.991364    1.099905   -0.051829   -0.212360   -0.008896
C     0.037132    0.204323   -0.923169   -0.580324    0.063572   -0.529698
C    -0.697384   -0.978249   -1.222704   -0.196663    0.021079   -0.120335
C     0.197339    0.799573    0.407730    0.622432   -0.179119   -0.214409
O     1.187235    0.327506    0.887149    0.137360    0.343877    0.664068
H    -0.366941   -2.073318    0.655758    0.004010   -0.001211   -0.006275
H    -0.885302   -3.080732   -0.706389    0.033920    0.000943   -0.016635
H     0.784859   -2.489652   -0.608136    0.018590    0.082679   -0.020476
H    -1.524762    2.210014    0.669649    0.006491   -0.173113   -0.105550
H     0.119161    2.820168    0.886396    0.076879   -0.388295   -0.160265
H    -0.605757    1.865529    2.176945    0.046070   -0.142555   -0.009861
H     1.158779    0.214697   -1.302487    0.582132   -1.050707    0.495864
H    -0.597913   -1.213313   -2.286322   -0.265794   -0.197435   -0.094492
H    -1.767789   -0.825303   -1.009508   -0.279140   -0.295081   -0.070858
15
* Frequency(6) -949.7464
C    -0.258030   -2.240185   -0.414455    0.004689    0.030448   -0.012181
C    -0.546890    2.010673    1.100714   -0.051829   -0.212360   -0.008896
C     0.089896    0.198543   -0.875008   -0.580324    0.063572   -0.529698
C    -0.679503   -0.980166   -1.211763   -0.196663    0.021079   -0.120335
C     0.140747    0.815858    0.427224    0.622432   -0.179119   -0.214409
O     1.174746    0.296240    0.826771    0.137360    0.343877    0.664068
H    -0.367305   -2.073208    0.656328    0.004010   -0.001211   -0.006275
H    -0.888386   -3.080818   -0.704877    0.033920    0.000943   -0.016635
H     0.783169   -2.497169   -0.606274    0.018590    0.082679   -0.020476
H    -1.525352    2.225754    0.679246    0.006491   -0.173113   -0.105550
H     0.112171    2.855472    0.900967    0.076879   -0.388295   -0.160265
H    -0.609946    1.878490    2.177842    0.046070   -0.142555   -0.009861
H     1.105851    0.310229   -1.347571    0.582132   -1.050707    0.495864
H    -0.573747   -1.195362   -2.277730   -0.265794   -0.197435   -0.094492
H    -1.742409   -0.798474   -1.003065   -0.279140   -0.295081   -0.070858
15
* Frequency(6) -949.7464
C    -0.258541   -2.243503   -0.413127    0.004689    0.030448   -0.012181
C    -0.541242    2.033814    1.101683   -0.051829   -0.212360   -0.008896
C     0.153136    0.191616   -0.817285   -0.580324    0.063572   -0.529698
C    -0.658072   -0.982463   -1.198649   -0.196663    0.021079   -0.120335
C     0.072918    0.835378    0.450589    0.622432   -0.179119   -0.214409
O     1.159778    0.258767    0.754405    0.137360    0.343877    0.664068
H    -0.367742   -2.073076    0.657012    0.004010   -0.001211   -0.006275
H    -0.892083   -3.080921   -0.703064    0.033920    0.000943   -0.016635
H     0.781143   -2.506179   -0.604043    0.018590    0.082679   -0.020476
H    -1.526059    2.244618    0.690748    0.006491   -0.173113   -0.105550
H     0.103794    2.897786    0.918432    0.076879   -0.388295   -0.160265
H    -0.614967    1.894025    2.178916    0.046070   -0.142555   -0.009861
H     1.042414    0.424728   -1.401607    0.582132   -1.050707    0.495864
H    -0.544782   -1.173847   -2.267433   -0.265794   -0.197435   -0.094492
H    -1.711990   -0.766318   -0.995344   -0.279140   -0.295081   -0.070858
15
* Frequency(6) -949.7464
C    -0.259081   -2.247011   -0.411724    0.004689    0.030448   -0.012181
C    -0.535271    2.058281    1.102708   -0.051829   -0.212360   -0.008896
C     0.219999    0.184291   -0.756255   -0.580324    0.063572   -0.529698
C    -0.635413   -0.984891   -1.184785   -0.196663    0.021079   -0.120335
C     0.001204    0.856015    0.475292    0.622432   -0.179119   -0.214409
O     1.143952    0.219147    0.677893    0.137360    0.343877    0.664068
H    -0.368205   -2.072936    0.657735    0.004010   -0.001211   -0.006275
H    -0.895991   -3.081029   -0.701148    0.033920    0.000943   -0.016635
H     0.779002   -2.515705   -0.601684    0.018590    0.082679   -0.020476
H    -1.526807    2.264564    0.702909    0.006491   -0.173113   -0.105550
H     0.094936    2.942524    0.936897    0.076879   -0.388295   -0.160265
H    -0.620275    1.910449    2.180053    0.046070   -0.142555   -0.009861
H     0.975343    0.545786   -1.458739    0.582132   -1.050707    0.495864
H    -0.514158   -1.151099   -2.256546   -0.265794   -0.197435   -0.094492
H    -1.679829   -0.732320   -0.987180   -0.279140   -0.295081   -0.070858
15
* Frequency(6) -949.7464
C    -0.259592   -2.250329   -0.410397    0.004689    0.030448   -0.012181
C    -0.529623    2.081423    1.103677   -0.051829   -0.212360   -0.008896
C     0.283239    0.177364   -0.698532   -0.580324    0.063572   -0.529698
C    -0.613982   -0.987188   -1.171672   -0.196663    0.021079   -0.120335
C    -0.066625    0.875534    0.498657    0.622432   -0.179119   -0.214409
O     1.128983    0.181673    0.605528    0.137360    0.343877    0.664068
H    -0.368642   -2.072805    0.658419    0.004010   -0.001211   -0.006275
H    -0.899687   -3.081132   -0.699335    0.033920    0.000943   -0.016635
H     0.776976   -2.524715   -0.599453    0.018590    0.082679   -0.020476
H    -1.527514    2.283428    0.714411    0.006491   -0.173113   -0.105550
H     0.086558    2.984838    0.954361    0.076879   -0.388295   -0.160265
H    -0.625295    1.925984    2.181127    0.046070   -0.142555   -0.009861
H     0.911906    0.660285   -1.512775    0.582132   -1.050707    0.495864
H    -0.485194   -1.129584   -2.246249   -0.265794   -0.197435   -0.094492
H    -1.649410   -0.700164   -0.979458   -0.279140   -0.295081   -0.070858
15
* Frequency(6) -949.7464
C    -0.260019   -2.253097   -0.409289    0.004689    0.030448   -0.012181
C    -0.524911    2.100731    1.104486   -0.051829   -0.212360   -0.008896
C     0.336003    0.171583   -0.650371   -0.580324    0.063572   -0.529698
C    -0.596101   -0.989105   -1.160731   -0.196663    0.021079   -0.120335
C    -0.123217    0.891820    0.518151    0.622432   -0.179119   -0.214409
O     1.116494    0.150407    0.545149    0.137360    0.343877    0.664068
H    -0.369006   -2.072694    0.658990    0.004010   -0.001211   -0.006275
H    -0.902772   -3.081218   -0.697822    0.033920    0.000943   -0.016635
H     0.775286   -2.532232   -0.597591    0.018590    0.082679   -0.020476
H    -1.528104    2.299168    0.724008    0.006491   -0.173113   -0.105550
H     0.079568    3.020142    0.968933    0.076879   -0.388295   -0.160265
H    -0.629484    1.938945    2.182024    0.046070   -0.142555   -0.009861
H     0.858978    0.755818   -1.557860    0.582132   -1.050707    0.495864
H    -0.461028   -1.111633   -2.237658   -0.265794   -0.197435   -0.094492
H    -1.624030   -0.673334   -0.973015   -0.279140   -0.295081   -0.070858
15
* Frequency(6) -949.7464
C    -0.260314   -2.255016   -0.408521    0.004689    0.030448   -0.012181
C    -0.521645    2.114113    1.105047   -0.051829   -0.212360   -0.008896
C     0.372573    0.167577   -0.616991   -0.580324    0.063572   -0.529698
C    -0.583708   -0.990433   -1.153147   -0.196663    0.021079   -0.120335
C    -0.162441    0.903108    0.531663    0.622432   -0.179119   -0.214409
O     1.107838    0.128737    0.503301    0.137360    0.343877    0.664068
H    -0.369259   -2.072618    0.659385    0.004010   -0.001211   -0.006275
H    -0.904909   -3.081277   -0.696774    0.033920    0.000943   -0.016635
H     0.774114   -2.537442   -0.596300    0.018590    0.082679   -0.020476
H    -1.528513    2.310077    0.730659    0.006491   -0.173113   -0.105550
H     0.074723    3.044612    0.979032    0.076879   -0.388295   -0.160265
H    -0.632387    1.947929    2.182645    0.046070   -0.142555   -0.009861
H     0.822293    0.822030   -1.589108    0.582132   -1.050707    0.495864
H    -0.444278   -1.099191   -2.231703   -0.265794   -0.197435   -0.094492
H    -1.606440   -0.654739   -0.968550   -0.279140   -0.295081   -0.070858
15
* Frequency(6) -949.7464
C    -0.260447   -2.255877   -0.408177    0.004689    0.030448   -0.012181
C    -0.520179    2.120120    1.105298   -0.051829   -0.212360   -0.008896
C     0.388987    0.165779   -0.602009   -0.580324    0.063572   -0.529698
C    -0.578146   -0.991029   -1.149744   -0.196663    0.021079   -0.120335
C    -0.180046    0.908174    0.537727    0.622432   -0.179119   -0.214409
O     1.103953    0.119011    0.484519    0.137360    0.343877    0.664068
H    -0.369372   -2.072584    0.659562    0.004010   -0.001211   -0.006275
H    -0.905868   -3.081304   -0.696304    0.033920    0.000943   -0.016635
H     0.773588   -2.539781   -0.595721    0.018590    0.082679   -0.020476
H    -1.528697    2.314974    0.733645    0.006491   -0.173113   -0.105550
H     0.072549    3.055594    0.983565    0.076879   -0.388295   -0.160265
H    -0.633690    1.951961    2.182924    0.046070   -0.142555   -0.009861
H     0.805828    0.851748   -1.603133    0.582132   -1.050707    0.495864
H    -0.436760   -1.093607   -2.229030   -0.265794   -0.197435   -0.094492
H    -1.598544   -0.646393   -0.966546   -0.279140   -0.295081   -0.070858
15
* Frequency(6) -949.7464
C    -0.260402   -2.255587   -0.408293    0.004689    0.030448   -0.012181
C    -0.520672    2.118099    1.105214   -0.051829   -0.212360   -0.008896
C     0.383466    0.166384   -0.607049   -0.580324    0.063572   -0.529698
C    -0.580017   -0.990829   -1.150889   -0.196663    0.021079   -0.120335
C    -0.174124    0.906470    0.535687    0.622432   -0.179119   -0.214409
O     1.105260    0.122283    0.490837    0.137360    0.343877    0.664068
H    -0.369334   -2.072595    0.659503    0.004010   -0.001211   -0.006275
H    -0.905546   -3.081295   -0.696462    0.033920    0.000943   -0.016635
H     0.773765   -2.538994   -0.595916    0.018590    0.082679   -0.020476
H    -1.528635    2.313326    0.732641    0.006491   -0.173113   -0.105550
H     0.073280    3.051900    0.982041    0.076879   -0.388295   -0.160265
H    -0.633252    1.950604    2.182830    0.046070   -0.142555   -0.009861
H     0.811367    0.841751   -1.598415    0.582132   -1.050707    0.495864
H    -0.439289   -1.095486   -2.229929   -0.265794   -0.197435   -0.094492
H    -1.601200   -0.649201   -0.967220   -0.279140   -0.295081   -0.070858
15
* Frequency(6) -949.7464
C    -0.260185   -2.254178   -0.408856    0.004689    0.030448   -0.012181
C    -0.523070    2.108271    1.104802   -0.051829   -0.212360   -0.008896
C     0.356607    0.169326   -0.631564   -0.580324    0.063572   -0.529698
C    -0.589119   -0.989853   -1.156458   -0.196663    0.021079   -0.120335
C    -0.145317    0.898180    0.525764    0.622432   -0.179119   -0.214409
O     1.111617    0.138198    0.521572    0.137360    0.343877    0.664068
H    -0.369149   -2.072651    0.659212    0.004010   -0.001211   -0.006275
H    -0.903976   -3.081251   -0.697232    0.033920    0.000943   -0.016635
H     0.774626   -2.535168   -0.596864    0.018590    0.082679   -0.020476
H    -1.528335    2.305314    0.727756    0.006491   -0.173113   -0.105550
H     0.076838    3.033929    0.974623    0.076879   -0.388295   -0.160265
H    -0.631120    1.944007    2.182374    0.046070   -0.142555   -0.009861
H     0.838309    0.793123   -1.575465    0.582132   -1.050707    0.495864
H    -0.451591   -1.104623   -2.234303   -0.265794   -0.197435   -0.094492
H    -1.614119   -0.662858   -0.970499   -0.279140   -0.295081   -0.070858
15
* Frequency(6) -949.7464
C    -0.259819   -2.251802   -0.409807    0.004689    0.030448   -0.012181
C    -0.527115    2.091700    1.104108   -0.051829   -0.212360   -0.008896
C     0.311322    0.174287   -0.672899   -0.580324    0.063572   -0.529698
C    -0.604465   -0.988208   -1.165848   -0.196663    0.021079   -0.120335
C    -0.096746    0.884202    0.509033    0.622432   -0.179119   -0.214409
O     1.122336    0.165032    0.573391    0.137360    0.343877    0.664068
H    -0.368836   -2.072746    0.658723    0.004010   -0.001211   -0.006275
H    -0.901329   -3.081178   -0.698530    0.033920    0.000943   -0.016635
H     0.776076   -2.528716   -0.598462    0.018590    0.082679   -0.020476
H    -1.527828    2.291806    0.719519    0.006491   -0.173113   -0.105550
H     0.082838    3.003629    0.962117    0.076879   -0.388295   -0.160265
H    -0.627525    1.932883    2.181604    0.046070   -0.142555   -0.009861
H     0.883735    0.711132   -1.536771    0.582132   -1.050707    0.495864
H    -0.472331   -1.120030   -2.241676   -0.265794   -0.197435   -0.094492
H    -1.635902   -0.685884   -0.976029   -0.279140   -0.295081   -0.070858
15
* Frequency(6) -949.7464
C    -0.259344   -2.248717   -0.411041    0.004689    0.030448   -0.012181
C    -0.532367    2.070181    1.103206   -0.051829   -0.212360   -0.008896
C     0.252518    0.180729   -0.726573   -0.580324    0.063572   -0.529698
C    -0.624393   -0.986073   -1.178042   -0.196663    0.021079   -0.120335
C    -0.033675    0.866052    0.487307    0.622432   -0.179119   -0.214409
O     1.136254    0.199877    0.640681    0.137360    0.343877    0.664068
H    -0.368429   -2.072869    0.658087    0.004010   -0.001211   -0.006275
H    -0.897892   -3.081082   -0.700215    0.033920    0.000943   -0.016635
H     0.777960   -2.520338   -0.600537    0.018590    0.082679   -0.020476
H    -1.527171    2.274264    0.708824    0.006491   -0.173113   -0.105550
H     0.090628    2.964283    0.945878    0.076879   -0.388295   -0.160265
H    -0.622856    1.918438    2.180605    0.046070   -0.142555   -0.009861
H     0.942722    0.604664   -1.486526    0.582132   -1.050707    0.495864
H    -0.499264   -1.140036   -2.251251   -0.265794   -0.197435   -0.094492
H    -1.664187   -0.715784   -0.983209   -0.279140   -0.295081   -0.070858
15
* Frequency(6) -949.7464
C    -0.258811   -2.245257   -0.412426    0.004689    0.030448   -0.012181
C    -0.538257    2.046048    1.102195   -0.051829   -0.212360   -0.008896
C     0.186567    0.187953   -0.786770   -0.580324    0.063572   -0.529698
C    -0.646743   -0.983677   -1.191717   -0.196663    0.021079   -0.120335
C     0.037061    0.845696    0.462941    0.622432   -0.179119   -0.214409
O     1.151865    0.238957    0.716149    0.137360    0.343877    0.664068
H    -0.367974   -2.073006    0.657374    0.004010   -0.001211   -0.006275
H    -0.894037   -3.080975   -0.702106    0.033920    0.000943   -0.016635
H     0.780073   -2.510942   -0.602864    0.018590    0.082679   -0.020476
H    -1.526433    2.254591    0.696829    0.006491   -0.173113   -0.105550
H     0.099365    2.920155    0.927664    0.076879   -0.388295   -0.160265
H    -0.617621    1.902237    2.179485    0.046070   -0.142555   -0.009861
H     1.008878    0.485257   -1.430173    0.582132   -1.050707    0.495864
H    -0.529470   -1.162473   -2.261990   -0.265794   -0.197435   -0.094492
H    -1.695910   -0.749319   -0.991262   -0.279140   -0.295081   -0.070858
