15
Coordinates from ORCA-job freq E -271.011907235791
  C           1.72416126002945     -0.39612570325604      0.41831278326845
  C          -1.87254075197157     -0.26847964626784      0.64246726130091
  C          -0.70833453716719     -0.52103211001299     -0.27472046145381
  C           1.38131836844097      0.73374680568235     -0.49319660060179
  C          -0.03824450447782      0.66645797963461     -0.89690788907259
  O           0.41471191801403      1.61461536638508      0.05631627541339
  H           0.40795419671323     -0.85569998179171      0.41820676060688
  H           2.00079841388664     -0.13244842653648      1.43359315936006
  H           2.32142993674242     -1.19276078551666     -0.01508183956848
  H          -2.74999077401825      0.07011180541526      0.08254607548315
  H          -1.62223489290138      0.50589491147431      1.36659250052840
  H          -2.15645296876520     -1.17210094697033      1.18100695569319
  H          -0.83798028635848     -1.34880860436636     -0.97083305402389
  H           2.13008871054545      1.20613883919389     -1.11879529472131
  H          -0.39468308871230      1.09049049693289     -1.82950663221255
