15
* (null), Energy   -1000.0000000
C     1.724161   -0.396126    0.418313   -0.122584   -0.056595    0.014762
C    -1.872541   -0.268480    0.642467    0.017161   -0.006964    0.007466
C    -0.708335   -0.521032   -0.274720   -0.100730    0.045748   -0.071138
C     1.381318    0.733747   -0.493197    0.010471    0.010266   -0.006999
C    -0.038245    0.666458   -0.896908    0.007000   -0.009489    0.011062
O     0.414712    1.614615    0.056316   -0.001037    0.000649   -0.000724
H     0.407954   -0.855700    0.418207    1.890640    0.108565    0.535555
H     2.000798   -0.132448    1.433593    0.153785    0.065480   -0.075403
H     2.321430   -1.192761   -0.015082    0.110072    0.103897   -0.001613
H    -2.749991    0.070112    0.082546    0.002333   -0.000165   -0.003568
H    -1.622235    0.505895    1.366593    0.001978    0.009785   -0.002244
H    -2.156453   -1.172101    1.181007   -0.006242   -0.004637    0.000792
H    -0.837980   -1.348809   -0.970833    0.122027   -0.101533    0.087001
H     2.130089    1.206139   -1.118795   -0.006233    0.022487    0.000111
H    -0.394683    1.090490   -1.829507   -0.003636   -0.011209    0.005228
15
* Frequency(6) -1767.9164
C     1.710230   -0.402557    0.419990   -0.122584   -0.056595    0.014762
C    -1.870590   -0.269271    0.643316    0.017161   -0.006964    0.007466
C    -0.719782   -0.515833   -0.282805   -0.100730    0.045748   -0.071138
C     1.382508    0.734914   -0.493992    0.010471    0.010266   -0.006999
C    -0.037449    0.665380   -0.895651    0.007000   -0.009489    0.011062
O     0.414594    1.614689    0.056234   -0.001037    0.000649   -0.000724
H     0.622816   -0.843362    0.479070    1.890640    0.108565    0.535555
H     2.018275   -0.125007    1.425024    0.153785    0.065480   -0.075403
H     2.333939   -1.180953   -0.015265    0.110072    0.103897   -0.001613
H    -2.749726    0.070093    0.082141    0.002333   -0.000165   -0.003568
H    -1.622010    0.507007    1.366338    0.001978    0.009785   -0.002244
H    -2.157162   -1.172628    1.181097   -0.006242   -0.004637    0.000792
H    -0.824113   -1.360347   -0.960946    0.122027   -0.101533    0.087001
H     2.129380    1.208694   -1.118783   -0.006233    0.022487    0.000111
H    -0.395096    1.089217   -1.828913   -0.003636   -0.011209    0.005228
15
* Frequency(6) -1767.9164
C     1.697809   -0.408292    0.421486   -0.122584   -0.056595    0.014762
C    -1.868852   -0.269977    0.644072    0.017161   -0.006964    0.007466
C    -0.729989   -0.511197   -0.290013   -0.100730    0.045748   -0.071138
C     1.383569    0.735954   -0.494701    0.010471    0.010266   -0.006999
C    -0.036740    0.664418   -0.894530    0.007000   -0.009489    0.011062
O     0.414489    1.614755    0.056161   -0.001037    0.000649   -0.000724
H     0.814394   -0.832361    0.533337    1.890640    0.108565    0.535555
H     2.033858   -0.118372    1.417383    0.153785    0.065480   -0.075403
H     2.345093   -1.170426   -0.015429    0.110072    0.103897   -0.001613
H    -2.749489    0.070076    0.081779    0.002333   -0.000165   -0.003568
H    -1.621810    0.507998    1.366110    0.001978    0.009785   -0.002244
H    -2.157795   -1.173098    1.181177   -0.006242   -0.004637    0.000792
H    -0.811748   -1.370636   -0.952130    0.122027   -0.101533    0.087001
H     2.128749    1.210973   -1.118772   -0.006233    0.022487    0.000111
H    -0.395465    1.088081   -1.828383   -0.003636   -0.011209    0.005228
15
* Frequency(6) -1767.9164
C     1.688243   -0.412709    0.422638   -0.122584   -0.056595    0.014762
C    -1.867512   -0.270520    0.644655    0.017161   -0.006964    0.007466
C    -0.737849   -0.507627   -0.295564   -0.100730    0.045748   -0.071138
C     1.384387    0.736755   -0.495247    0.010471    0.010266   -0.006999
C    -0.036194    0.663678   -0.893667    0.007000   -0.009489    0.011062
O     0.414408    1.614805    0.056104   -0.001037    0.000649   -0.000724
H     0.961927   -0.823890    0.575129    1.890640    0.108565    0.535555
H     2.045859   -0.113262    1.411500    0.153785    0.065480   -0.075403
H     2.353682   -1.162318   -0.015554    0.110072    0.103897   -0.001613
H    -2.749307    0.070064    0.081501    0.002333   -0.000165   -0.003568
H    -1.621655    0.508762    1.365935    0.001978    0.009785   -0.002244
H    -2.158282   -1.173460    1.181239   -0.006242   -0.004637    0.000792
H    -0.802225   -1.378558   -0.945341    0.122027   -0.101533    0.087001
H     2.128262    1.212728   -1.118763   -0.006233    0.022487    0.000111
H    -0.395748    1.087206   -1.827975   -0.003636   -0.011209    0.005228
15
* Frequency(6) -1767.9164
C     1.682570   -0.415328    0.423321   -0.122584   -0.056595    0.014762
C    -1.866718   -0.270842    0.645000    0.017161   -0.006964    0.007466
C    -0.742511   -0.505510   -0.298857   -0.100730    0.045748   -0.071138
C     1.384871    0.737230   -0.495571    0.010471    0.010266   -0.006999
C    -0.035870    0.663239   -0.893155    0.007000   -0.009489    0.011062
O     0.414360    1.614835    0.056071   -0.001037    0.000649   -0.000724
H     1.049430   -0.818865    0.599915    1.890640    0.108565    0.535555
H     2.052976   -0.110232    1.408010    0.153785    0.065480   -0.075403
H     2.358776   -1.157509   -0.015629    0.110072    0.103897   -0.001613
H    -2.749199    0.070056    0.081336    0.002333   -0.000165   -0.003568
H    -1.621564    0.509215    1.365831    0.001978    0.009785   -0.002244
H    -2.158571   -1.173674    1.181276   -0.006242   -0.004637    0.000792
H    -0.796578   -1.383258   -0.941314    0.122027   -0.101533    0.087001
H     2.127974    1.213769   -1.118758   -0.006233    0.022487    0.000111
H    -0.395917    1.086687   -1.827733   -0.003636   -0.011209    0.005228
15
* Frequency(6) -1767.9164
C     1.681403   -0.415866    0.423462   -0.122584   -0.056595    0.014762
C    -1.866555   -0.270909    0.645072    0.017161   -0.006964    0.007466
C    -0.743470   -0.505075   -0.299534   -0.100730    0.045748   -0.071138
C     1.384971    0.737328   -0.495638    0.010471    0.010266   -0.006999
C    -0.035803    0.663148   -0.893049    0.007000   -0.009489    0.011062
O     0.414350    1.614842    0.056064   -0.001037    0.000649   -0.000724
H     1.067418   -0.817832    0.605011    1.890640    0.108565    0.535555
H     2.054439   -0.109609    1.407292    0.153785    0.065480   -0.075403
H     2.359824   -1.156521   -0.015644    0.110072    0.103897   -0.001613
H    -2.749177    0.070054    0.081302    0.002333   -0.000165   -0.003568
H    -1.621545    0.509308    1.365810    0.001978    0.009785   -0.002244
H    -2.158630   -1.173718    1.181283   -0.006242   -0.004637    0.000792
H    -0.795417   -1.384224   -0.940487    0.122027   -0.101533    0.087001
H     2.127915    1.213982   -1.118757   -0.006233    0.022487    0.000111
H    -0.395951    1.086581   -1.827683   -0.003636   -0.011209    0.005228
15
* Frequency(6) -1767.9164
C     1.684871   -0.414266    0.423044   -0.122584   -0.056595    0.014762
C    -1.867040   -0.270712    0.644860    0.017161   -0.006964    0.007466
C    -0.740621   -0.506369   -0.297522   -0.100730    0.045748   -0.071138
C     1.384675    0.737037   -0.495440    0.010471    0.010266   -0.006999
C    -0.036001    0.663417   -0.893362    0.007000   -0.009489    0.011062
O     0.414380    1.614823    0.056084   -0.001037    0.000649   -0.000724
H     1.013944   -0.820903    0.589863    1.890640    0.108565    0.535555
H     2.050090   -0.111461    1.409425    0.153785    0.065480   -0.075403
H     2.356710   -1.159460   -0.015599    0.110072    0.103897   -0.001613
H    -2.749243    0.070059    0.081402    0.002333   -0.000165   -0.003568
H    -1.621601    0.509031    1.365873    0.001978    0.009785   -0.002244
H    -2.158454   -1.173587    1.181261   -0.006242   -0.004637    0.000792
H    -0.798868   -1.381352   -0.942947    0.122027   -0.101533    0.087001
H     2.128091    1.213346   -1.118760   -0.006233    0.022487    0.000111
H    -0.395848    1.086898   -1.827831   -0.003636   -0.011209    0.005228
15
* Frequency(6) -1767.9164
C     1.692595   -0.410699    0.422114   -0.122584   -0.056595    0.014762
C    -1.868122   -0.270273    0.644390    0.017161   -0.006964    0.007466
C    -0.734273   -0.509252   -0.293039   -0.100730    0.045748   -0.071138
C     1.384015    0.736390   -0.494999    0.010471    0.010266   -0.006999
C    -0.036442    0.664015   -0.894059    0.007000   -0.009489    0.011062
O     0.414445    1.614782    0.056130   -0.001037    0.000649   -0.000724
H     0.894800   -0.827744    0.556114    1.890640    0.108565    0.535555
H     2.040399   -0.115587    1.414177    0.153785    0.065480   -0.075403
H     2.349774   -1.166007   -0.015497    0.110072    0.103897   -0.001613
H    -2.749390    0.070069    0.081627    0.002333   -0.000165   -0.003568
H    -1.621725    0.508415    1.366015    0.001978    0.009785   -0.002244
H    -2.158060   -1.173295    1.181211   -0.006242   -0.004637    0.000792
H    -0.806558   -1.374954   -0.948430    0.122027   -0.101533    0.087001
H     2.128484    1.211929   -1.118767   -0.006233    0.022487    0.000111
H    -0.395619    1.087604   -1.828161   -0.003636   -0.011209    0.005228
15
* Frequency(6) -1767.9164
C     1.703741   -0.405553    0.420772   -0.122584   -0.056595    0.014762
C    -1.869682   -0.269640    0.643711    0.017161   -0.006964    0.007466
C    -0.725114   -0.513411   -0.286571   -0.100730    0.045748   -0.071138
C     1.383063    0.735457   -0.494362    0.010471    0.010266   -0.006999
C    -0.037078    0.664877   -0.895065    0.007000   -0.009489    0.011062
O     0.414539    1.614723    0.056196   -0.001037    0.000649   -0.000724
H     0.722900   -0.837615    0.507420    1.890640    0.108565    0.535555
H     2.026416   -0.121541    1.421032    0.153785    0.065480   -0.075403
H     2.339766   -1.175453   -0.015350    0.110072    0.103897   -0.001613
H    -2.749602    0.070084    0.081952    0.002333   -0.000165   -0.003568
H    -1.621905    0.507525    1.366219    0.001978    0.009785   -0.002244
H    -2.157493   -1.172873    1.181139   -0.006242   -0.004637    0.000792
H    -0.817653   -1.365722   -0.956340    0.122027   -0.101533    0.087001
H     2.129050    1.209885   -1.118777   -0.006233    0.022487    0.000111
H    -0.395289    1.088623   -1.828636   -0.003636   -0.011209    0.005228
15
* Frequency(6) -1767.9164
C     1.717099   -0.399386    0.419163   -0.122584   -0.056595    0.014762
C    -1.871552   -0.268881    0.642897    0.017161   -0.006964    0.007466
C    -0.714137   -0.518397   -0.278819   -0.100730    0.045748   -0.071138
C     1.381922    0.734338   -0.493600    0.010471    0.010266   -0.006999
C    -0.037841    0.665911   -0.896271    0.007000   -0.009489    0.011062
O     0.414652    1.614653    0.056275   -0.001037    0.000649   -0.000724
H     0.516870   -0.849446    0.449059    1.890640    0.108565    0.535555
H     2.009658   -0.128676    1.429249    0.153785    0.065480   -0.075403
H     2.327771   -1.186775   -0.015175    0.110072    0.103897   -0.001613
H    -2.749856    0.070102    0.082341    0.002333   -0.000165   -0.003568
H    -1.622121    0.506459    1.366463    0.001978    0.009785   -0.002244
H    -2.156813   -1.172368    1.181053   -0.006242   -0.004637    0.000792
H    -0.830951   -1.354658   -0.965821    0.122027   -0.101533    0.087001
H     2.129730    1.207434   -1.118789   -0.006233    0.022487    0.000111
H    -0.394893    1.089845   -1.829205   -0.003636   -0.011209    0.005228
15
* Frequency(6) -1767.9164
C     1.731223   -0.392865    0.417462   -0.122584   -0.056595    0.014762
C    -1.873529   -0.268078    0.642037    0.017161   -0.006964    0.007466
C    -0.702532   -0.523668   -0.270622   -0.100730    0.045748   -0.071138
C     1.380715    0.733155   -0.492793    0.010471    0.010266   -0.006999
C    -0.038648    0.667005   -0.897545    0.007000   -0.009489    0.011062
O     0.414772    1.614578    0.056358   -0.001037    0.000649   -0.000724
H     0.299038   -0.861954    0.387354    1.890640    0.108565    0.535555
H     1.991939   -0.136221    1.437937    0.153785    0.065480   -0.075403
H     2.315089   -1.198746   -0.014989    0.110072    0.103897   -0.001613
H    -2.750125    0.070121    0.082752    0.002333   -0.000165   -0.003568
H    -1.622349    0.505331    1.366722    0.001978    0.009785   -0.002244
H    -2.156093   -1.171834    1.180961   -0.006242   -0.004637    0.000792
H    -0.845010   -1.342960   -0.975845    0.122027   -0.101533    0.087001
H     2.130448    1.204843   -1.118802   -0.006233    0.022487    0.000111
H    -0.394474    1.091136   -1.829808   -0.003636   -0.011209    0.005228
15
* Frequency(6) -1767.9164
C     1.744582   -0.386698    0.415854   -0.122584   -0.056595    0.014762
C    -1.875399   -0.267320    0.641224    0.017161   -0.006964    0.007466
C    -0.691555   -0.528653   -0.262870   -0.100730    0.045748   -0.071138
C     1.379574    0.732037   -0.492031    0.010471    0.010266   -0.006999
C    -0.039411    0.668039   -0.898751    0.007000   -0.009489    0.011062
O     0.414885    1.614507    0.056437   -0.001037    0.000649   -0.000724
H     0.093008   -0.873785    0.328993    1.890640    0.108565    0.535555
H     1.975181   -0.143356    1.446154    0.153785    0.065480   -0.075403
H     2.303094   -1.210068   -0.014813    0.110072    0.103897   -0.001613
H    -2.750379    0.070139    0.083140    0.002333   -0.000165   -0.003568
H    -1.622564    0.504265    1.366966    0.001978    0.009785   -0.002244
H    -2.155413   -1.171328    1.180875   -0.006242   -0.004637    0.000792
H    -0.858308   -1.331895   -0.985326    0.122027   -0.101533    0.087001
H     2.131127    1.202393   -1.118814   -0.006233    0.022487    0.000111
H    -0.394077    1.092358   -1.830377   -0.003636   -0.011209    0.005228
15
* Frequency(6) -1767.9164
C     1.755727   -0.381552    0.414511   -0.122584   -0.056595    0.014762
C    -1.876960   -0.266686    0.640545    0.017161   -0.006964    0.007466
C    -0.682396   -0.532812   -0.256402   -0.100730    0.045748   -0.071138
C     1.378622    0.731103   -0.491394    0.010471    0.010266   -0.006999
C    -0.040047    0.668901   -0.899756    0.007000   -0.009489    0.011062
O     0.414979    1.614448    0.056503   -0.001037    0.000649   -0.000724
H    -0.078892   -0.883656    0.280300    1.890640    0.108565    0.535555
H     1.961198   -0.149310    1.453010    0.153785    0.065480   -0.075403
H     2.293086   -1.219515   -0.014667    0.110072    0.103897   -0.001613
H    -2.750592    0.070154    0.083465    0.002333   -0.000165   -0.003568
H    -1.622744    0.503375    1.367170    0.001978    0.009785   -0.002244
H    -2.154846   -1.170907    1.180803   -0.006242   -0.004637    0.000792
H    -0.869403   -1.322664   -0.993236    0.122027   -0.101533    0.087001
H     2.131694    1.200348   -1.118824   -0.006233    0.022487    0.000111
H    -0.393747    1.093377   -1.830853   -0.003636   -0.011209    0.005228
15
* Frequency(6) -1767.9164
C     1.763452   -0.377986    0.413581   -0.122584   -0.056595    0.014762
C    -1.878041   -0.266248    0.640074    0.017161   -0.006964    0.007466
C    -0.676049   -0.535695   -0.251919   -0.100730    0.045748   -0.071138
C     1.377962    0.730456   -0.490953    0.010471    0.010266   -0.006999
C    -0.040488    0.669499   -0.900454    0.007000   -0.009489    0.011062
O     0.415044    1.614407    0.056548   -0.001037    0.000649   -0.000724
H    -0.198035   -0.890497    0.246550    1.890640    0.108565    0.535555
H     1.951507   -0.153436    1.457761    0.153785    0.065480   -0.075403
H     2.286149   -1.226062   -0.014565    0.110072    0.103897   -0.001613
H    -2.750739    0.070165    0.083690    0.002333   -0.000165   -0.003568
H    -1.622869    0.502759    1.367312    0.001978    0.009785   -0.002244
H    -2.154452   -1.170615    1.180753   -0.006242   -0.004637    0.000792
H    -0.877093   -1.316265   -0.998719    0.122027   -0.101533    0.087001
H     2.132086    1.198931   -1.118831   -0.006233    0.022487    0.000111
H    -0.393518    1.094083   -1.831182   -0.003636   -0.011209    0.005228
15
* Frequency(6) -1767.9164
C     1.766919   -0.376385    0.413164   -0.122584   -0.056595    0.014762
C    -1.878527   -0.266051    0.639863    0.017161   -0.006964    0.007466
C    -0.673200   -0.536989   -0.249907   -0.100730    0.045748   -0.071138
C     1.377666    0.730166   -0.490755    0.010471    0.010266   -0.006999
C    -0.040686    0.669768   -0.900766    0.007000   -0.009489    0.011062
O     0.415074    1.614389    0.056569   -0.001037    0.000649   -0.000724
H    -0.251510   -0.893568    0.231403    1.890640    0.108565    0.535555
H     1.947157   -0.155288    1.459894    0.153785    0.065480   -0.075403
H     2.283036   -1.229001   -0.014519    0.110072    0.103897   -0.001613
H    -2.750805    0.070169    0.083791    0.002333   -0.000165   -0.003568
H    -1.622925    0.502482    1.367375    0.001978    0.009785   -0.002244
H    -2.154276   -1.170483    1.180731   -0.006242   -0.004637    0.000792
H    -0.880544   -1.313394   -1.001179    0.122027   -0.101533    0.087001
H     2.132263    1.198295   -1.118834   -0.006233    0.022487    0.000111
H    -0.393415    1.094400   -1.831330   -0.003636   -0.011209    0.005228
15
* Frequency(6) -1767.9164
C     1.765753   -0.376924    0.413304   -0.122584   -0.056595    0.014762
C    -1.878363   -0.266117    0.639934    0.017161   -0.006964    0.007466
C    -0.674158   -0.536554   -0.250584   -0.100730    0.045748   -0.071138
C     1.377766    0.730264   -0.490822    0.010471    0.010266   -0.006999
C    -0.040619    0.669677   -0.900661    0.007000   -0.009489    0.011062
O     0.415064    1.614395    0.056562   -0.001037    0.000649   -0.000724
H    -0.233521   -0.892535    0.236498    1.890640    0.108565    0.535555
H     1.948621   -0.154665    1.459177    0.153785    0.065480   -0.075403
H     2.284083   -1.228012   -0.014535    0.110072    0.103897   -0.001613
H    -2.750782    0.070168    0.083757    0.002333   -0.000165   -0.003568
H    -1.622906    0.502575    1.367354    0.001978    0.009785   -0.002244
H    -2.154335   -1.170528    1.180738   -0.006242   -0.004637    0.000792
H    -0.879383   -1.314360   -1.000352    0.122027   -0.101533    0.087001
H     2.132203    1.198509   -1.118833   -0.006233    0.022487    0.000111
H    -0.393450    1.094294   -1.831280   -0.003636   -0.011209    0.005228
15
* Frequency(6) -1767.9164
C     1.760079   -0.379543    0.413987   -0.122584   -0.056595    0.014762
C    -1.877569   -0.266439    0.640280    0.017161   -0.006964    0.007466
C    -0.678820   -0.534437   -0.253877   -0.100730    0.045748   -0.071138
C     1.378250    0.730739   -0.491146    0.010471    0.010266   -0.006999
C    -0.040296    0.669238   -0.900149    0.007000   -0.009489    0.011062
O     0.415016    1.614425    0.056528   -0.001037    0.000649   -0.000724
H    -0.146019   -0.887510    0.261285    1.890640    0.108565    0.535555
H     1.955738   -0.151635    1.455687    0.153785    0.065480   -0.075403
H     2.289178   -1.223204   -0.014609    0.110072    0.103897   -0.001613
H    -2.750674    0.070160    0.083592    0.002333   -0.000165   -0.003568
H    -1.622815    0.503028    1.367250    0.001978    0.009785   -0.002244
H    -2.154624   -1.170742    1.180775   -0.006242   -0.004637    0.000792
H    -0.873735   -1.319059   -0.996325    0.122027   -0.101533    0.087001
H     2.131915    1.199550   -1.118828   -0.006233    0.022487    0.000111
H    -0.393618    1.093775   -1.831038   -0.003636   -0.011209    0.005228
15
* Frequency(6) -1767.9164
C     1.750514   -0.383959    0.415139   -0.122584   -0.056595    0.014762
C    -1.876230   -0.266983    0.640862    0.017161   -0.006964    0.007466
C    -0.686680   -0.530867   -0.259428   -0.100730    0.045748   -0.071138
C     1.379067    0.731540   -0.491692    0.010471    0.010266   -0.006999
C    -0.039749    0.668498   -0.899286    0.007000   -0.009489    0.011062
O     0.414935    1.614476    0.056472   -0.001037    0.000649   -0.000724
H     0.001515   -0.879039    0.303076    1.890640    0.108565    0.535555
H     1.967738   -0.146525    1.449803    0.153785    0.065480   -0.075403
H     2.297767   -1.215096   -0.014735    0.110072    0.103897   -0.001613
H    -2.750492    0.070147    0.083313    0.002333   -0.000165   -0.003568
H    -1.622660    0.503791    1.367075    0.001978    0.009785   -0.002244
H    -2.155111   -1.171104    1.180837   -0.006242   -0.004637    0.000792
H    -0.864213   -1.326982   -0.989536    0.122027   -0.101533    0.087001
H     2.131429    1.201305   -1.118819   -0.006233    0.022487    0.000111
H    -0.393902    1.092900   -1.830630   -0.003636   -0.011209    0.005228
15
* Frequency(6) -1767.9164
C     1.738092   -0.389694    0.416635   -0.122584   -0.056595    0.014762
C    -1.874491   -0.267688    0.641619    0.017161   -0.006964    0.007466
C    -0.696887   -0.526231   -0.266636   -0.100730    0.045748   -0.071138
C     1.380128    0.732580   -0.492401    0.010471    0.010266   -0.006999
C    -0.039040    0.667536   -0.898165    0.007000   -0.009489    0.011062
O     0.414830    1.614542    0.056399   -0.001037    0.000649   -0.000724
H     0.193093   -0.868038    0.357344    1.890640    0.108565    0.535555
H     1.983322   -0.139890    1.442162    0.153785    0.065480   -0.075403
H     2.308921   -1.204568   -0.014899    0.110072    0.103897   -0.001613
H    -2.750256    0.070131    0.082952    0.002333   -0.000165   -0.003568
H    -1.622460    0.504783    1.366847    0.001978    0.009785   -0.002244
H    -2.155744   -1.171574    1.180917   -0.006242   -0.004637    0.000792
H    -0.851848   -1.337270   -0.980720    0.122027   -0.101533    0.087001
H     2.130797    1.203583   -1.118808   -0.006233    0.022487    0.000111
H    -0.394270    1.091764   -1.830101   -0.003636   -0.011209    0.005228
15
* Frequency(6) -1767.9164
C     1.724161   -0.396126    0.418313   -0.122584   -0.056595    0.014762
C    -1.872541   -0.268480    0.642467    0.017161   -0.006964    0.007466
C    -0.708335   -0.521032   -0.274720   -0.100730    0.045748   -0.071138
C     1.381318    0.733747   -0.493197    0.010471    0.010266   -0.006999
C    -0.038245    0.666458   -0.896908    0.007000   -0.009489    0.011062
O     0.414712    1.614615    0.056316   -0.001037    0.000649   -0.000724
H     0.407954   -0.855700    0.418207    1.890640    0.108565    0.535555
H     2.000798   -0.132448    1.433593    0.153785    0.065480   -0.075403
H     2.321430   -1.192761   -0.015082    0.110072    0.103897   -0.001613
H    -2.749991    0.070112    0.082546    0.002333   -0.000165   -0.003568
H    -1.622235    0.505895    1.366593    0.001978    0.009785   -0.002244
H    -2.156453   -1.172101    1.181007   -0.006242   -0.004637    0.000792
H    -0.837980   -1.348809   -0.970833    0.122027   -0.101533    0.087001
H     2.130089    1.206139   -1.118795   -0.006233    0.022487    0.000111
H    -0.394683    1.090490   -1.829507   -0.003636   -0.011209    0.005228
