17
Coordinates from ORCA-job freq E -421.437579554738
  C          -2.29811578036503      0.45505817586270     -0.14885177999019
  C          -1.45703881438996     -0.74863307728773     -0.55810241556264
  C          -0.07300880537187     -0.36871269570134     -1.08642652479538
  C           0.75243812633617      0.34078012962372     -0.05177172666618
  C           2.14683428799838      0.01295573505873      0.19689230090038
  O           4.19204870457302      0.65142221931291      0.86212857056438
  O           1.18185167239449     -0.45009426584677      1.07078647887555
  O           2.96128648918131      1.04593235999384      0.72175559356423
  H          -3.30147399610283      0.14819498768640      0.14311426533586
  H          -1.85918786396358      0.98045539683147      0.69966415999450
  H          -2.39226818851430      1.16582015786213     -0.97204995960747
  H          -1.33249832851157     -1.42093987424158      0.29306043886821
  H          -1.97795624785608     -1.31468416809010     -1.33173030571762
  H           0.45885974920999     -1.26552142607040     -1.40889265578623
  H          -0.17089602794463      0.28636022449189     -1.95627519823896
  H           0.44244580231128      1.34051098108276      0.23645613754006
  H           2.73665222101523     -0.70938686056863     -0.35390737927848
