15
Coordinates from ORCA-job freq E -271.010926633834
  C           1.60515316777483     -0.43111571855206      0.98017895309535
  C          -2.15803467028106      0.30499846716223      0.73398049162423
  C           1.43060184594567     -0.42164614365262     -0.52576139347870
  C          -0.69904438111461      0.34344322318328      0.44544021531366
  C           0.06318903247837      0.18743544051937     -0.78760025707968
  O          -0.12455516769717      1.45885351627615     -0.15548962481243
  H           0.27628452672496     -0.13821326379306      1.25589265014199
  H           2.12946208968690      0.41572124362516      1.40930807151677
  H           1.86050966554130     -1.37766274784412      1.44216202514423
  H          -2.46536839354493     -0.70283795927989      1.00792144749888
  H          -2.72425884989496      0.62035983083971     -0.14597263457092
  H          -2.40193754291855      0.97685413552492      1.55654432158615
  H           2.20397156049553      0.15357415489619     -1.03801729630021
  H           1.44588958824328     -1.43296645259422     -0.93393681324451
  H          -0.40215647143958      0.10398027368898     -1.76267615643484
