11
Coordinates from ORCA-job freq E -231.107066803994
  C          -1.41042690507078      0.29116024459730     -0.30819692294802
  C          -0.38798564905196     -0.64760047694362      0.33747693359758
  C           0.96506280552702     -0.10962677377350      0.21485747792418
  C           2.11721907219678      0.35365472137050      0.44115708818160
  O           1.70408378549706      0.30211902696456     -0.99004888846687
  H          -2.40387959498314     -0.15164017238084     -0.27082733363547
  H          -1.14797941809695      0.47506018072645     -1.34819545811724
  H          -1.43551621877172      1.24778456466268      0.21072422207189
  H          -0.60766788314783     -0.81386815621944      1.39160838587126
  H          -0.40695927294903     -1.61873270213195     -0.16400952102357
  H           3.01405027885057      0.67169054312786      0.92709401654466
