15
Coordinates from ORCA-job freq E -271.052552822514
  C           2.61316828144640      0.24982439676213      0.43324742804117
  C          -2.43016536253472      0.25969287675525      0.02308208801843
  C           1.43132894690743     -0.57685463344397      0.07181627242856
  C          -1.11748143624702     -0.26020073783252      0.52864386907347
  C           0.16734960687509      0.24261588413729      0.03777354764356
  O          -0.33956915738471      0.64261852568894      1.30308330185960
  H           2.51571058403079      1.01048072148659      1.19365949973820
  H           3.60196436415149     -0.01032077314689      0.08916824956440
  H          -2.81553090158546     -0.37966080542714     -0.77147809975503
  H          -3.16580926966319      0.28489815646686      0.82713911126214
  H          -2.30986774203224      1.27040498592957     -0.36440651905525
  H           1.28599741386682     -1.38407721591043      0.80317652146633
  H           1.57856082895855     -1.05805091782929     -0.89801828430879
  H          -1.12677909698160     -1.27161126972091      0.92727441808856
  H           0.14313294019237      1.03342480608451     -0.70855240406536
