17
Coordinates from ORCA-job freq E -421.405909428995
  C           1.94007504273314     -0.46527901879730     -0.70322112746341
  C           0.91835639977011      0.47945641081848     -1.22772450118945
  C          -0.08300329521879      1.01860541471477     -0.19488362441229
  C          -2.04637052213536     -0.63535781746383     -0.62466182337986
  C          -1.08965802727617     -0.00073082673916      0.28498340630317
  O           0.52628608932688     -0.59964652649307      1.87189349314017
  O          -2.42564273647604      0.38597445176532      0.30433318577225
  O          -0.81154513429406     -0.74096487331076      1.45539731958277
  H           0.96523435859992     -1.32782953477010      1.41206756540162
  H           2.27545231664291     -1.30006225539223     -1.30081091437740
  H           2.56628577264686     -0.16085986380276      0.12398728741375
  H           0.36718004977631      0.01369158569617     -2.04640564185942
  H           1.42716850316340      1.34916549784326     -1.66435008701293
  H           0.43447205277089      1.45698512411576      0.65662961446358
  H          -0.67635529217954      1.80314157224642     -0.66448544153318
  H          -2.40836752665264     -1.62589731167224     -0.37779297437445
  H          -2.09273505119784     -0.34593002875875     -1.66909573647487
