6
Coordinates from ORCA-job freq E -78.573639158833
  C          -0.65179150006544     -0.02708183950542     -0.10637771292854
  C           0.65179144578099      0.02708608374211      0.10637864163810
  H          -1.25455510250341      0.87001817430678     -0.16199932150918
  H          -1.16646575639480     -0.97064269641150     -0.23282445928253
  H           1.16647638919799      0.97064067264144      0.23282552971640
  H           1.25454452398467     -0.87002039477341      0.16199732236572
