17
Coordinates from ORCA-job freq E -421.301580955733
  C          -1.59692738367560      0.48516780304709     -1.05206077379040
  C          -1.22466114471291     -0.30395402391750      0.19213448124902
  C           2.05415053122966      0.83009875370159      0.77637642434297
  C           0.20292914869112     -0.89191926573377      0.35256397279741
  C           1.34605055034483     -0.06440065748215     -0.14431814804925
  O          -1.46855764153030     -1.86235622316676     -0.33770578003192
  O           2.62087042520177     -0.39778834131544      0.36930413067122
  O          -0.04248068248093     -2.01748856827132     -0.46155265378384
  H          -1.94535841136261     -0.34849725270004      1.00972117824928
  H          -1.39637661763128      1.55178891542641     -0.96818720346548
  H          -1.04142108921141      0.08506775838524     -1.89891735459640
  H          -2.65710996506405      0.34301216588685     -1.25442129480992
  H          -0.79611435100967      0.83543419412651      0.98318180740248
  H           2.53280948938788      1.71915239777934      0.38488599637303
  H           1.74368445222800      0.87390097806868      1.81513272181908
  H           0.37573743866967     -1.18550444571948      1.39297484448368
  H           1.33302025092582      0.17027481188473     -1.20359234886095
