17
Coordinates from ORCA-job freq E -421.463948050764
  C          -3.21404993243636     -0.23619033662737     -0.36144605384409
  C          -1.85182706743623     -0.01633168300436     -0.89108407552399
  C           0.66626189475988      0.08794855165891     -0.72512556410280
  C           1.81105400336973     -0.15641961102655      0.23314622559316
  C          -0.67740148408020     -0.16851408376158     -0.06882849897061
  O          -0.75651715206454     -0.48934607421614      1.11007105694714
  O           4.08902829377702     -0.17742092540232      0.34788544857712
  O           2.99181126615823      0.13198128628669     -0.49363519483160
  H          -3.82400578837881      0.66409049670079     -0.47471579723339
  H          -3.17227582440570     -0.51127531461750      0.68938055644116
  H          -3.72431290650984     -1.02546542817927     -0.92015748175840
  H          -1.71827154433678      0.26758053625965     -1.92765047953669
  H           0.76767899990026     -0.55403094700971     -1.60347873230681
  H           0.69241169845977      1.11751144826501     -1.09185103507383
  H           1.82618004992965     -1.19265620823849      0.57334273242019
  H           1.73366607115961      0.49096133752799      1.10980255463675
  H           4.38248342213432      0.69869095538423      0.62326833856669
