
                                 *****************
                                 * O   R   C   A *
                                 *****************

                                            #,                                       
                                            ###                                      
                                            ####                                     
                                            #####                                    
                                            ######                                   
                                           ########,                                 
                                     ,,################,,,,,                         
                               ,,#################################,,                 
                          ,,##########################################,,             
                       ,#########################################, ''#####,          
                    ,#############################################,,   '####,        
                  ,##################################################,,,,####,       
                ,###########''''           ''''###############################       
              ,#####''   ,,,,##########,,,,          '''####'''          '####       
            ,##' ,,,,###########################,,,                        '##       
           ' ,,###''''                  '''############,,,                           
         ,,##''                                '''############,,,,        ,,,,,,###''
      ,#''                                            '''#######################'''  
     '                                                          ''''####''''         
             ,#######,   #######,   ,#######,      ##                                
            ,#'     '#,  ##    ##  ,#'     '#,    #''#        ,####,    ,#,          
            ##       ##  ##   ,#'  ##            #'  '#       #'       ,# #          
            ##       ##  #######   ##           ,######,      #####,      #          
            '#,     ,#'  ##    ##  '#,     ,#' ,#      #,     #,   #      #          
             '#######'   ##     ##  '#######'  #'      '#     '####' #    #          



                #########################################################
                #                        -***-                          #
                #          Department of theory and spectroscopy        #
                #                                                       #
                #                      Frank Neese                      #
                #                                                       #
                #     Directorship, Architecture, Infrastructure        #
                #                    SHARK, DRIVERS                     #
                #        Core code/Algorithms in most modules           #
                #                                                       #
                #        Max Planck Institute fuer Kohlenforschung      #
                #                Kaiser Wilhelm Platz 1                 #
                #                 D-45470 Muelheim/Ruhr                 #
                #                      Germany                          #
                #                                                       #
                #                  All rights reserved                  #
                #                        -***-                          #
                #########################################################


                         Program Version 6.1.1  -  RELEASE   -
                                (GIT: $487d211c$)
                          ($2025-11-21 10:33:24 +0100$)


 With contributions from (in alphabetic order):
[Max-Planck-Institut fuer Kohlenforschung]                               
  Daniel Aravena         : Magnetic Suceptibility                        
  Michael Atanasov       : Ab Initio Ligand Field Theory (pilot matlab implementation)
  Alexander A. Auer      : GIAO ZORA, VPT2 properties, NMR spectrum      
  Ute Becker             : All parallelization in ORCA, NUMFREQ, NUMCALC 
  Giovanni Bistoni       : ED, misc. LED, open-shell LED, HFLD           
  Dmytro Bykov           : pre 5.0 version of the SCF Hessian            
  Marcos Casanova-Páez   : Triplet and SCS-CIS(D). UHF-(DLPNO)-IP/EA/STEOM-CCSD. UHF-CVS-IP/STEOM-CCSD   
  Vijay G. Chilkuri      : MRCI spin determinant printing, contributions to CSF-ICE 
  Pauline Colinet        : FMM embedding                                 
  Dipayan Datta          : RHF DLPNO-CCSD density                        
  Achintya Kumar Dutta   : EOM-CC, STEOM-CC                              
  Nicolas Foglia         : Exact transition moments, OPA infrastructure, MCD improvements    
  Dmitry Ganyushin       : Spin-Orbit,Spin-Spin,Magnetic field MRCI      
  Miquel Garcia-Rates    : C-PCM and meta-GGA Hessian, CCSD/C-PCM, Gaussian charge scheme 
  Tiago L. C. Gouveia    : GS-ROHF, GS-ROCIS                             
  Yang Guo               : DLPNO-NEVPT2, F12-NEVPT2, CIM, IAO-localization        
  Andreas Hansen         : Spin unrestricted coupled pair/coupled cluster methods 
  Ingolf Harden          : AUTO-CI MPn and infrastructure                
  Benjamin Helmich-Paris : MC-RPA, TRAH-(SCF,CASSCF), AVAS, COSX integrals, SCF dyn. polar., MC-PDFT, srDFT 
  Lee Huntington         : MR-EOM, pCC                                   
  Robert Izsak           : Overlap fitted RIJCOSX, COSX-SCS-MP3, EOM     
  Riya Kayal             : Wick's Theorem for AUTO-CI, AUTO-CI UHF-CCSDT 
  Emily Kempfer          : AUTO-CI RHF CISDT and CCSDT, approximate NEVPT4
  Christian Kollmar      : KDIIS, OOCD, Brueckner-CCSD(T), CCSD density, CASPT2, CASPT2-K, improved NEVPT2 
  Axel Koslowski         : Symmetry handling                             
  Simone Kossmann        : meta-GGA functionals, TD-DFT gradient, OOMP2, (MP2 Hessian; deprecated post 5.0) 
  Lucas Lang             : DCDCAS, Hyperfine gauge corrections, ICE-SOC+SSC
  Marvin Lechner         : AUTO-CI (C++ implementation), FIC-MRCC        
  Spencer Leger          : CASSCF response                               
  Dagmar Lenk            : GEPOL surface, SMD, ORCA-2-JSON               
  Dimitrios Liakos       : Extrapolation schemes; Compound Job, Property file
  Dimitrios Manganas     : Further ROCIS development; embedding schemes. LFT, Crystal Embedding 
  Dimitrios Pantazis     : SARC Basis sets                               
  Anastasios Papadopoulos: AUTO-CI, single reference methods and gradients 
  Taras Petrenko         : pre 6.0 DFT Hessian and TD-DFT gradient,  ECA, NRVS 
  Petra Pikulova         : Analytic Raman intensities                    
  Peter Pinski           : DLPNO-MP2, DLPNO-MP2 Gradient                 
  Shashank Vittal Rao    : ES-AILFT, MagRelax                            
  Christoph Reimann      : Effective Core Potentials                     
  Marius Retegan         : Local ZFS, SOC                                
  Christoph Riplinger    : Optimizer, TS searches, QM/MM, DLPNO-CCSD(T), (RO)-DLPNO pert. Triples 
  Michael Roemelt        : Original ROCIS implementation, recursive CI coupling coefficients
  Masaaki Saitow         : Open-shell DLPNO-CCSD energy and density      
  Barbara Sandhoefer     : DKH picture change effects                    
  Yorick L. A. Schmerwitz: GMF and freeze-and-release deltaSCF, NEB S-IDPP initial path                    
  Kantharuban Sivalingam : CASSCF convergence/infrastructure, NEVPT2, NEVPT3, NEVPT4(SD), FIC-MRCI and CEPA variants
  Bernardo de Souza      : ESD, SOC TD-DFT                               
  Georgi L. Stoychev     : AutoAux, RI-MP2 NMR, DLPNO-MP2 response, X2C  
  Van Anh Tran           : RI-MP2 g-tensors                              
  Willem Van den Heuvel  : Paramagnetic NMR                              
  Zikuan Wang            : NOTCH, Electric field optimization            
  Frank Wennmohs         : Technical directorship and infrastructure     
  Hang Xu                : AUTO-CI-Response properties                   
                                                                         
[FACCTs GmbH]                                                            
  Markus Bursch, Nicolas Foglia, Miquel Garcia-Rates, Ingolf Harden, Hagen Neugebauer, Anastasios Papadopoulos, 
  Christoph Riplinger, Bernardo de Souza, Georgi L. Stoychev                                                    
                                                                 
  APM, various basis sets, CI-OPT, improved COSX, DLPNO-Multilevel,           
  DOCKER, DRACO, updates on ESD, Fragmentator, GOAT, IRC, LR-CPCM, L-BFGS, MBIS, meta-GGA TD-DFT gradient, ML-optimized integration grids, 
  MM, NACMEs, nearIR, NEB, NEB-TS, NL-DFT gradient (VV10), 2- and 3-layer-ONIOM, interface openCOSMO-RS, QMMM,   
  Crystal-QMMM, RESP, rigid body optimization, SF, symmetry and pop. for TD-DFT, various functionals, SOLVATOR                                   
                                                                         
[Other institutions]                                                     
  V. Asgeirsson          : NEB                                           
  Christoph Bannwarth    : sTDA-DFT, sTD-DFT, PBEh-3c, B97-3c, D3        
  Giovanni Bistoni       : ETS/NOCV, ADLD/ADEX, COVALED                  
  Martin Brehm           : Molecular dynamics                            
  Ronald Cardenas        : ETS/NOCV                                      
  Martina Colucci        : COVALED                                       
  Sebastian Ehlert       : rSCAN, r2SCAN, r2SCAN-3c, D4, dhf basis sets  
  Marvin Friede          : D4 for Fr, Ra, Ac-Lr                          
  Lars Goerigk           : TD-DFT with DH, B97 family of functionals     
  Stefan Grimme          : VdW corrections, initial TS optimization, DFT functionals, gCP, sTDA/sTD-DF 
  Waldemar Hujo          : DFT-NL                                        
  H. Jonsson             : NEB                                           
  Holger Kruse           : gCP                                           
  Marcel Mueller         : wB97X-3c, vDZP basis set                      
  Hagen Neugebauer       : wr2SCAN, Native XTB                           
  Gianluca Regni         : ADLD/ADEX                                     
  Tobias Risthaus        : pre 6.0 range-separated hybrid DFT and stability analysis
  Lukas Wittmann         : regularized MP2, r2SCAN double-hybrids, wr2SCAN        
                                                                         
We gratefully acknowledge several colleagues who have allowed us to      
interface, adapt or use parts of their codes:                            
  Ed Valeev, F. Pavosevic, A. Kumar             : LibInt (2-el integral package), F12 methods 
  Garnet Chan, S. Sharma, J. Yang, R. Olivares  : DMRG                   
  Ulf Ekstrom                                   : XCFun DFT Library      
  Mihaly Kallay                                 : mrcc  (arbitrary order and MRCC methods)
  Frank Weinhold                                : gennbo (NPA and NBO analysis)           
  Simon Mueller                                 : openCOSMO-RS                            
  Christopher J. Cramer and Donald G. Truhlar   : smd solvation model                     
  S Lehtola, MJT Oliveira, MAL Marques          : LibXC Library                           
  Liviu Ungur et al                             : ANISO software                          


 Your calculation uses the libint2 library for the computation of 2-el integrals
 For citations please refer to: http://libint.valeyev.net

 Your ORCA version has been built with support for libXC version: 7.0.0
 For citations please refer to: https://libxc.gitlab.io

 This ORCA versions uses:
   CBLAS   interface :  Fast vector & matrix operations
   LAPACKE interface :  Fast linear algebra routines
   SCALAPACK package :  Parallel linear algebra routines
   Shared memory     :  Shared parallel matrices
   BLAS/LAPACK       :  OpenBLAS 0.3.29  USE64BITINT DYNAMIC_ARCH NO_AFFINITY Cooperlake SINGLE_THREADED
        Core in use  :  Cooperlake
   Copyright (c) 2011-2014, The OpenBLAS Project


  ***********************************
  * Starting time: Sun Feb 22 12:32:51 2026
  * Host name:     e2-9
  * Process ID:    2505755
  * Working dir.:  /tmp/lscratch/tns97255/orca_42927730
  ***********************************

NOTE: MaxCore=4000 MB was set to SCF,MP2,MDCI,CIPSI,MRCI,RASCI and CIS
      => If you want to overwrite this, your respective input block should be placed after the MaxCore statement


***************************************
The coordinates will be read from file: guess.xyz
***************************************


Your calculation utilizes the semiempirical GFN2-xTB method
Please cite in your paper:
Bannwarth, C.; Ehlert S.; Grimme, S. J. Chem. Theory Comput. 2019, 15, 1652.
   

================================================================================

================================================================================
                                        WARNINGS
                       Please study these warnings very carefully!
================================================================================


================================================================================
 STARTING AUTOMATIC FRAGMENTATION: 
================================================================================

WARNING: Geometry Optimization
  ===> : Switching off AutoStart
         For restart on a previous wavefunction, please use MOREAD

WARNING: Found dipole moment calculation with XTB calculation
  ===> : Switching off dipole moment calculation


================================================================================
                                       INPUT FILE
================================================================================
NAME = goat.inp
|  1> %PAL NPROCS 8 END
|  2> %MAXCORE 4000
|  3> %base "goat"
|  4> ! XTB GOAT
|  5> 
|  6> *xyzfile 0 2 guess.xyz
|  7> 
|  8>                          ****END OF INPUT****
================================================================================

                       *****************************
                       * Geometry Optimization Run *
                       *****************************


                       *********************************
                       *              GOAT             *
                       * Global Optimization Algorithm *
                       *********************************

Geometry optimization settings:
Update method            Update   .... BFGS
Choice of coordinates    CoordSys .... (2022) Redundant Internals
Initial Hessian          InHess   .... Almloef's Model
Max. no of cycles        MaxIter  .... 51

Convergence Tolerances:
Energy Change            TolE     ....  5.0000e-06 Eh
Max. Gradient            TolMAXG  ....  3.0000e-04 Eh/bohr
RMS Gradient             TolRMSG  ....  1.0000e-04 Eh/bohr
Max. Displacement        TolMAXD  ....  4.0000e-03 bohr
RMS Displacement         TolRMSD  ....  2.0000e-03 bohr
Strict Convergence                .... True

------------------------------------------------------------------------------
                        ORCA OPTIMIZATION COORDINATE SETUP
------------------------------------------------------------------------------

The optimization will be done in redundant internal coordinates (2022)
Making redundant internal coordinates   ...  (2022 redundants) done
Evaluating the initial hessian          ...  (Almloef) done
Evaluating the coordinates              ...  done
Calculating the B-matrix                .... done
Calculating the G-matrix                .... done
The number of degrees of freedom        ....   66

    -----------------------------------------------------------------
                    Redundant Internal Coordinates


    -----------------------------------------------------------------
         Definition                    Initial Value    Approx d2E/dq
    -----------------------------------------------------------------
      1. B(C   1,C   0)                  1.4849         0.440836   
      2. B(C   3,C   2)                  1.5183         0.390002   
      3. B(C   4,C   1)                  1.4782         0.451830   
      4. B(C   4,C   2)                  1.5096         0.402721   
      5. B(O   5,C   4)                  1.2265         1.020161   
      6. B(O   7,O   6)                  1.4558         0.393542   
      7. B(O   7,C   3)                  1.4299         0.483362   
      8. B(H   8,C   0)                  1.0941         0.354759   
      9. B(H   9,C   0)                  1.0932         0.355935   
     10. B(H  10,C   0)                  1.0941         0.354685   
     11. B(H  11,C   1)                  1.0819         0.371033   
     12. B(H  12,C   2)                  1.0962         0.351930   
     13. B(H  13,C   2)                  1.0960         0.352192   
     14. B(H  14,C   3)                  1.0963         0.351843   
     15. B(H  15,C   3)                  1.0959         0.352377   
     16. B(H  16,O   6)                  0.9742         0.493607   
     17. A(H   9,C   0,H  10)          107.9988         0.289619   
     18. A(C   1,C   0,H   8)          109.7969         0.332479   
     19. A(H   8,C   0,H  10)          108.1212         0.289469   
     20. A(C   1,C   0,H   9)          112.9253         0.332661   
     21. A(H   8,C   0,H   9)          108.1038         0.289629   
     22. A(C   1,C   0,H  10)          109.7605         0.332467   
     23. A(C   0,C   1,H  11)          120.1388         0.334963   
     24. A(C   0,C   1,C   4)          121.3751         0.386355   
     25. A(C   4,C   1,H  11)          118.4856         0.336338   
     26. A(C   4,C   2,H  13)          108.9104         0.327154   
     27. A(H  12,C   2,H  13)          107.5055         0.288787   
     28. A(C   3,C   2,H  13)          109.9481         0.325431   
     29. A(C   4,C   2,H  12)          109.4011         0.327114   
     30. A(C   3,C   2,H  12)          109.4703         0.325391   
     31. A(C   3,C   2,C   4)          111.5157         0.370788   
     32. A(C   2,C   3,O   7)          108.1581         0.380256   
     33. A(H  14,C   3,H  15)          106.3453         0.288800   
     34. A(O   7,C   3,H  15)          110.3090         0.335186   
     35. A(C   2,C   3,H  15)          111.1011         0.325459   
     36. A(O   7,C   3,H  14)          110.2978         0.335101   
     37. A(C   2,C   3,H  14)          110.6425         0.325378   
     38. A(C   1,C   4,C   2)          116.4059         0.380331   
     39. A(C   2,C   4,O   5)          123.1579         0.436418   
     40. A(C   1,C   4,O   5)          120.4356         0.445585   
     41. A(O   7,O   6,H  16)           96.5202         0.337562   
     42. A(C   3,O   7,O   6)          105.6292         0.376021   
     43. D(H  11,C   1,C   0,H   8)    -60.8226         0.014339   
     44. D(C   4,C   1,C   0,H  10)   -122.3687         0.014339   
     45. D(C   4,C   1,C   0,H   9)     -1.8096         0.014339   
     46. D(H  11,C   1,C   0,H   9)    178.4587         0.014339   
     47. D(C   4,C   1,C   0,H   8)    118.9091         0.014339   
     48. D(O   7,C   3,C   2,H  12)     53.7958         0.012092   
     49. D(O   7,C   3,C   2,C   4)    175.0000         0.012092   
     50. D(H  14,C   3,C   2,H  12)    -67.1136         0.012092   
     51. D(H  14,C   3,C   2,C   4)     54.0906         0.012092   
     52. D(H  14,C   3,C   2,H  13)    175.0000         0.012092   
     53. D(O   7,C   3,C   2,H  13)    -64.0906         0.012092   
     54. D(O   5,C   4,C   1,C   0)     -4.7360         0.013914   
     55. D(C   2,C   4,C   1,H  11)     -5.2640         0.013914   
     56. D(O   5,C   4,C   1,H  11)    175.0000         0.013914   
     57. D(C   2,C   4,C   1,C   0)    175.0000         0.013914   
     58. D(O   5,C   4,C   2,H  12)    130.0819         0.012029   
     59. D(O   5,C   4,C   2,C   3)      8.8374         0.012029   
     60. D(C   1,C   4,C   2,H  13)     67.5957         0.012029   
     61. D(C   1,C   4,C   2,H  12)    -49.6462         0.012029   
     62. D(C   1,C   4,C   2,C   3)   -170.8907         0.012029   
     63. D(C   3,O   7,O   6,H  16)   -111.8846         0.011527   
     64. D(O   6,O   7,C   3,H  15)     53.3064         0.018437   
     65. D(O   6,O   7,C   3,H  14)    -63.8766         0.018437   
     66. D(O   6,O   7,C   3,C   2)    175.0000         0.018437   
    -----------------------------------------------------------------

Number of atoms                         .... 17
Number of degrees of freedom            .... 66


         *************************************************************
         *                GEOMETRY OPTIMIZATION CYCLE   1            *
         *************************************************************
---------------------------------
CARTESIAN COORDINATES (ANGSTROEM)
---------------------------------
  C    -3.220773   -0.306114   -0.385839
  C    -1.865451    0.011575   -0.902759
  C     0.661663    0.161573   -0.703053
  C     1.815717   -0.165743    0.227654
  C    -0.671714   -0.071620   -0.034870
  O    -0.788476   -0.323298    1.159877
  O     4.101990   -0.239185    0.458169
  O     3.033828   -0.033774   -0.509439
  H    -3.864589    0.574632   -0.468128
  H    -3.213748   -0.625261    0.659680
  H    -3.664995   -1.109216   -0.981492
  H    -1.734410    0.315713   -1.932684
  H     0.731182   -0.459456   -1.603746
  H     0.722026    1.209212   -1.019475
  H     1.717844   -1.184252    0.621311
  H     1.822962    0.501527    1.096963
  H     4.438858    0.674801    0.446755

----------------------------
CARTESIAN COORDINATES (A.U.)
----------------------------
  NO LB    ZA    FRAG    MASS        X           Y           Z
   0 C   6.0000    1    12.011   -6.086379   -0.578472   -0.729130
   1 C   6.0000    1    12.011   -3.525192    0.021874   -1.705967
   2 C   6.0000    1    12.011    1.250362    0.305329   -1.328578
   3 C   6.0000    1    12.011    3.431208   -0.313209    0.430204
   4 C   6.0000    1    12.011   -1.269356   -0.135342   -0.065895
   5 O   8.0000    1    15.999   -1.490004   -0.610945    2.191850
   6 O   8.0000    1    15.999    7.751638   -0.451994    0.865814
   7 O   8.0000    1    15.999    5.733104   -0.063824   -0.962700
   8 H   1.0000    1     1.008   -7.303015    1.085897   -0.884634
   9 H   1.0000    1     1.008   -6.073104   -1.181572    1.246615
  10 H   1.0000    1     1.008   -6.925837   -2.096114   -1.854751
  11 H   1.0000    1     1.008   -3.277560    0.596611   -3.652243
  12 H   1.0000    1     1.008    1.381734   -0.868246   -3.030641
  13 H   1.0000    1     1.008    1.364431    2.285080   -1.926529
  14 H   1.0000    1     1.008    3.246255   -2.237912    1.174108
  15 H   1.0000    1     1.008    3.444899    0.947749    2.072960
  16 H   1.0000    1     1.008    8.388226    1.275189    0.844245

      -----------------------------------------------------------      
     |                   =====================                   |     
     |                           x T B                           |     
     |                   =====================                   |     
     |                         S. Grimme                         |     
     |          Mulliken Center for Theoretical Chemistry        |     
     |                    University of Bonn                     |     
      -----------------------------------------------------------      

   * xtb version 6.7.1 (edcfbbe) compiled by 'albert@albert-system' on 2024-07-22

   xtb is free software: you can redistribute it and/or modify it under
   the terms of the GNU Lesser General Public License as published by
   the Free Software Foundation, either version 3 of the License, or
   (at your option) any later version.
   
   xtb is distributed in the hope that it will be useful,
   but WITHOUT ANY WARRANTY; without even the implied warranty of
   MERCHANTABILITY or FITNESS FOR A PARTICULAR PURPOSE.  See the
   GNU Lesser General Public License for more details.
   
   Cite this work as:
   * C. Bannwarth, E. Caldeweyher, S. Ehlert, A. Hansen, P. Pracht,
     J. Seibert, S. Spicher, S. Grimme, WIREs Comput. Mol. Sci., 2020, 11,
     e01493. DOI: 10.1002/wcms.1493
   
   for GFN2-xTB:
   * C. Bannwarth, S. Ehlert and S. Grimme., J. Chem. Theory Comput., 2019,
     15, 1652-1671. DOI: 10.1021/acs.jctc.8b01176
   for GFN1-xTB:
   * S. Grimme, C. Bannwarth, P. Shushkov, J. Chem. Theory Comput., 2017,
     13, 1989-2009. DOI: 10.1021/acs.jctc.7b00118
   for GFN0-xTB:
   * P. Pracht, E. Caldeweyher, S. Ehlert, S. Grimme, ChemRxiv, 2019, preprint.
     DOI: 10.26434/chemrxiv.8326202.v1
   for GFN-FF:
   * S. Spicher and S. Grimme, Angew. Chem. Int. Ed., 2020, 59, 15665-15673.
     DOI: 10.1002/anie.202004239
   
   for ALPB and GBSA implicit solvation:
   * S. Ehlert, M. Stahn, S. Spicher, S. Grimme, J. Chem. Theory Comput.,
     2021, 17, 4250-4261. DOI: 10.1021/acs.jctc.1c00471
   
   for ddCOSMO and CPCM-X implicit solvation:
   * M. Stahn, S. Ehlert, S. Grimme, J. Phys. Chem. A,
     2023, XX, XXXX-XXXX. DOI: 10.1021/acs.jpca.3c04382
   
   for DFT-D4:
   * E. Caldeweyher, C. Bannwarth and S. Grimme, J. Chem. Phys., 2017,
     147, 034112. DOI: 10.1063/1.4993215
   * E. Caldeweyher, S. Ehlert, A. Hansen, H. Neugebauer, S. Spicher,
     C. Bannwarth and S. Grimme, J. Chem. Phys., 2019, 150, 154122.
     DOI: 10.1063/1.5090222
   * E. Caldeweyher, J.-M. Mewes, S. Ehlert and S. Grimme, Phys. Chem. Chem. Phys.
     2020, 22, 8499-8512. DOI: 10.1039/D0CP00502A
   
   for sTDA-xTB:
   * S. Grimme and C. Bannwarth, J. Chem. Phys., 2016, 145, 054103.
     DOI: 10.1063/1.4959605
   
   in the mass-spec context:
   * V. Asgeirsson, C. Bauer and S. Grimme, Chem. Sci., 2017, 8, 4879.
     DOI: 10.1039/c7sc00601b
   * J. Koopman and S. Grimme, ACS Omega 2019, 4, 12, 15120-15133.
     DOI: 10.1021/acsomega.9b02011
   
   for metadynamics refer to:
   * S. Grimme, J. Chem. Theory Comput., 2019, 155, 2847-2862
     DOI: 10.1021/acs.jctc.9b00143
   
   for SPH calculations refer to:
   * S. Spicher and S. Grimme, J. Chem. Theory Comput., 2021, 17, 1701-1714
     DOI: 10.1021/acs.jctc.0c01306
   
   for ONIOM refer to:
   * C. Plett, A. Katbashev, S. Ehlert, S. Grimme, M. Bursch,
     Phys. Chem. Chem. Phys., 2023, 25, 17860-17868. DOI: 10.1039/D3CP02178E
   
   for DIPRO refer to:
   * J. Kohn, N. Gildemeister, S. Grimme, D. Fazzi, A. Hansen,
     J. Chem. Phys., 2023, just accepted.
   
   for PTB refer to:
   * S. Grimme, M. Mueller, A. Hansen, J. Chem. Phys., 2023, 158, 124111.
     DOI: 10.1063/5.0137838
   
   with help from (in alphabetical order)
   P. Atkinson, C. Bannwarth, F. Bohle, G. Brandenburg, E. Caldeweyher
   M. Checinski, S. Dohm, S. Ehlert, S. Ehrlich, I. Gerasimov, C. Hölzer
   A. Katbashev, J. Kohn, J. Koopman, C. Lavigne, S. Lehtola, F. März, M. Müller,
   F. Musil, H. Neugebauer, J. Pisarek, C. Plett, P. Pracht, F. Pultar,
   J. Seibert, P. Shushkov, S. Spicher, M. Stahn, M. Steiner, T. Strunk,
   J. Stückrath, T. Rose, and J. Unsleber
   
 * started run on 2026/02/22 at 12:32:54.023     
   ID    Z sym.   atoms
    1    6 C      1-5
    2    8 O      6-8
    3    1 H      9-17

           -------------------------------------------------
          |                Calculation Setup                |
           -------------------------------------------------

          program call               : /apps/eb/ORCA/6.1.1-gompi-2024a-avx2/bin/otool_xtb goat_XTB.xyz --grad -c 0 -u 1 -P 8 --namespace goat --input goat_XTB.input.tmp --acc 0.200000
          hostname                   : e2-9
          calculation namespace      : goat
          coordinate file            : goat_XTB.xyz
          omp threads                :                     8


           -------------------------------------------------
          |                 G F N 2 - x T B                 |
           -------------------------------------------------

        Reference                      10.1021/acs.jctc.8b01176
      * Hamiltonian:
        H0-scaling (s, p, d)           1.850000    2.230000    2.230000
        zeta-weighting                 0.500000
      * Dispersion:
        s8                             2.700000
        a1                             0.520000
        a2                             5.000000
        s9                             5.000000
      * Repulsion:
        kExp                           1.500000    1.000000
        rExp                           1.000000
      * Coulomb:
        alpha                          2.000000
        third order                    shell-resolved
        anisotropic                    true
        a3                             3.000000
        a5                             4.000000
        cn-shift                       1.200000
        cn-exp                         4.000000
        max-rad                        5.000000


          ...................................................
          :                      SETUP                      :
          :.................................................:
          :  # basis functions                  41          :
          :  # atomic orbitals                  41          :
          :  # shells                           25          :
          :  # electrons                        47          :
          :  max. iterations                   250          :
          :  Hamiltonian                  GFN2-xTB          :
          :  restarted?                      false          :
          :  GBSA solvation                  false          :
          :  PC potential                    false          :
          :  electronic temp.          300.0000000     K    :
          :  accuracy                    0.2000000          :
          :  -> integral cutoff          0.3198970E+02      :
          :  -> integral neglect         0.2000000E-08      :
          :  -> SCF convergence          0.2000000E-06 Eh   :
          :  -> wf. convergence          0.2000000E-04 e    :
          :  Broyden damping             0.4000000          :
          :  net charge                          0          :
          :  unpaired electrons                  1          :
          ...................................................

 iter      E             dE          RMSdq      gap      omega  full diag
   1    -27.5380787 -0.275381E+02  0.466E+00    4.27       0.0  T
   2    -27.5746800 -0.366013E-01  0.245E+00    4.09       1.0  T
   3    -27.5740303  0.649676E-03  0.135E+00    4.16       1.0  T
   4    -27.5805148 -0.648446E-02  0.157E-01    4.07       1.0  T
   5    -27.5806581 -0.143310E-03  0.835E-02    4.07       1.0  T
   6    -27.5806643 -0.614496E-05  0.335E-02    4.09       1.0  T
   7    -27.5806680 -0.378811E-05  0.132E-02    4.08       1.8  T
   8    -27.5806694 -0.131734E-05  0.394E-03    4.08       6.1  T
   9    -27.5806694 -0.239591E-07  0.174E-03    4.08      13.9  T
  10    -27.5806694 -0.107086E-07  0.391E-04    4.08      62.0  T
  11    -27.5806694 -0.534992E-09  0.149E-04    4.08     163.2  T
  12    -27.5806694 -0.887681E-10  0.567E-05    4.08     427.6  T

   *** convergence criteria satisfied after 12 iterations ***

         #    Occupation            Energy/Eh            Energy/eV
      -------------------------------------------------------------
         1        2.0000           -0.7186548             -19.5556
       ...           ...                  ...                  ...
        18        2.0000           -0.4763851             -12.9631
        19        2.0000           -0.4737459             -12.8913
        20        2.0000           -0.4658777             -12.6772
        21        2.0000           -0.4572952             -12.4436
        22        2.0000           -0.4199325             -11.4269
        23        2.0000           -0.3996367             -10.8747
        24        1.0000           -0.3652124              -9.9379 (HOMO)
        25                         -0.2152826              -5.8581 (LUMO)
        26                         -0.1733707              -4.7177
        27                          0.0256402               0.6977
        28                          0.0680163               1.8508
        29                          0.1122943               3.0557
       ...                                ...                  ...
        41                          0.5844560              15.9039
      -------------------------------------------------------------
                  HL-Gap            0.1499298 Eh            4.0798 eV
             Fermi-level           -0.3363361 Eh           -9.1522 eV

 SCC (total)                   0 d,  0 h,  0 min,  0.014 sec
 SCC setup                      ...        0 min,  0.000 sec (  1.008%)
 Dispersion                     ...        0 min,  0.000 sec (  1.148%)
 classical contributions        ...        0 min,  0.000 sec (  0.577%)
 integral evaluation            ...        0 min,  0.000 sec (  3.066%)
 iterations                     ...        0 min,  0.012 sec ( 82.269%)
 molecular gradient             ...        0 min,  0.001 sec (  8.714%)
 printout                       ...        0 min,  0.000 sec (  3.060%)

         :::::::::::::::::::::::::::::::::::::::::::::::::::::
         ::                     SUMMARY                     ::
         :::::::::::::::::::::::::::::::::::::::::::::::::::::
         :: total energy             -27.329162426714 Eh    ::
         :: gradient norm              0.063168448486 Eh/a0 ::
         :: HOMO-LUMO gap              4.079797893034 eV    ::
         ::.................................................::
         :: SCC energy               -27.580705623851 Eh    ::
         :: -> isotropic ES            0.056645315513 Eh    ::
         :: -> anisotropic ES         -0.003848588866 Eh    ::
         :: -> anisotropic XC          0.001044714259 Eh    ::
         :: -> dispersion             -0.009370232337 Eh    ::
         :: repulsion energy           0.251543197137 Eh    ::
         :: add. restraining           0.000000000000 Eh    ::
         :: total charge               0.000000000000 e     ::
         :::::::::::::::::::::::::::::::::::::::::::::::::::::


Property printout bound to 'properties.out'

           -------------------------------------------------
          | TOTAL ENERGY              -27.329162426714 Eh   |
          | GRADIENT NORM               0.063168448486 Eh/α |
          | HOMO-LUMO GAP               4.079797893034 eV   |
           -------------------------------------------------

------------------------------------------------------------------------
 * finished run on 2026/02/22 at 12:32:54.046     
------------------------------------------------------------------------
 total:
 * wall-time:     0 d,  0 h,  0 min,  0.022 sec
 *  cpu-time:     0 d,  0 h,  0 min,  0.133 sec
 * ratio c/w:     5.974 speedup
 SCF:
 * wall-time:     0 d,  0 h,  0 min,  0.014 sec
 *  cpu-time:     0 d,  0 h,  0 min,  0.096 sec
 * ratio c/w:     6.649 speedup


-------------------------   --------------------
FINAL SINGLE POINT ENERGY       -27.329162426710
-------------------------   --------------------


-------------
DIPOLE MOMENT
-------------
                                X             Y             Z
Total Dipole Moment    :     -0.98800       0.88600      -1.00000
                        -----------------------------------------
Magnitude (a.u.)       :      1.66167
Magnitude (Debye)      :      4.22362


------------------
CARTESIAN GRADIENT
------------------

   1   C   :   -0.006752458   -0.001042693    0.001150399
   2   C   :   -0.017807771    0.002933396   -0.018860757
   3   C   :   -0.001067001   -0.001531664    0.006828044
   4   C   :   -0.003198304    0.001569765    0.002978308
   5   C   :    0.031582296    0.001144078    0.009040028
   6   O   :   -0.003642537   -0.000085438    0.001465344
   7   O   :    0.012466706   -0.018496120    0.023532845
   8   O   :   -0.001220242    0.010264130   -0.025644076
   9   H   :    0.000576368    0.001750270    0.002228918
  10   H   :   -0.005881104   -0.002235954    0.003300456
  11   H   :    0.000902737   -0.002843590    0.001141167
  12   H   :    0.001877977    0.001511646   -0.002276626
  13   H   :   -0.000243034   -0.001491020   -0.001894321
  14   H   :   -0.000148449    0.001623419   -0.000008319
  15   H   :   -0.000551226    0.001244624    0.002673445
  16   H   :   -0.000163463   -0.002976874    0.001336336
  17   H   :   -0.006730497    0.008662027   -0.006991189

Difference to translation invariance:
           :   -0.0000000000    0.0000000000    0.0000000000

Difference to rotation invariance:
           :   -0.0000002923   -0.0000005352    0.0000002298

Norm of the Cartesian gradient     ...    0.0631684485
RMS gradient                       ...    0.0088453520
MAX gradient                       ...    0.0315822962
------------------------------------------------------------------------------
                         ORCA GEOMETRY RELAXATION STEP
------------------------------------------------------------------------------

Reading the OPT-File                    .... done
Getting information on internals        .... done
Copying old internal coords+grads       .... done
Making the new internal coordinates     .... (2022 redundants) done
Validating the new internal coordinates .... (2022 redundants) done
Calculating the B-matrix                .... done
Calculating the G,G- and P matrices     .... done
Transforming gradient to internals      .... done
Projecting the internal gradient        .... done
Number of atoms                         ....  17
Number of internal coordinates          ....  66
Current Energy                          ....   -27.329162427 Eh
Current gradient norm                   ....     0.063168448 Eh/bohr
Maximum allowed component of the step   ....  0.300
Current trust radius                    ....  0.300
Evaluating the initial hessian          ....  (Almloef) done
Projecting the Hessian                  .... done
Forming the augmented Hessian           .... done
Diagonalizing the augmented Hessian     .... done
Last element of RFO vector              ....  0.982086659
Lowest eigenvalues of augmented Hessian:
 -0.006634742  0.011723167  0.012035201  0.012118192  0.012873776
Length of the computed step             ....  0.191866790
The final length of the internal step   ....  0.191866790
Converting the step to Cartesian space:
 Initial RMS(Int)=    0.0236171692
Transforming coordinates:
 Iter   0:  RMS(Cart)=    0.0517362677 RMS(Int)=    0.0235994513
 Iter   5:  RMS(Cart)=    0.0000002465 RMS(Int)=    0.0000002070
done
Storing new coordinates                 .... done

                                .--------------------.
          ----------------------|Geometry convergence|-------------------------
          Item                value                   Tolerance       Converged
          ---------------------------------------------------------------------
          RMS gradient        0.0061708904            0.0001000000      NO
          MAX gradient        0.0296941306            0.0003000000      NO
          RMS step            0.0236171692            0.0020000000      NO
          MAX step            0.1112394713            0.0040000000      NO
          -------------------------------------------------------------------------
          ........................................................
          Max(Bonds)      0.0343      Max(Angles)    3.54
          Max(Dihed)        6.37      Max(Improp)    0.00
          ---------------------------------------------------------------------

    ---------------------------------------------------------------------------
                         Redundant Internal Coordinates
                            (Angstroem and degrees)

        Definition                    Value    dE/dq     Step     New-Value
    ----------------------------------------------------------------------------
     1. B(C   1,C   0)                1.4849  0.013839 -0.0164    1.4686   
     2. B(C   3,C   2)                1.5183 -0.000895  0.0012    1.5195   
     3. B(C   4,C   1)                1.4782  0.029694 -0.0343    1.4440   
     4. B(C   4,C   2)                1.5096 -0.002175  0.0028    1.5124   
     5. B(O   5,C   4)                1.2265  0.001792 -0.0009    1.2256   
     6. B(O   7,O   6)                1.4558  0.016591 -0.0219    1.4339   
     7. B(O   7,C   3)                1.4299  0.008579 -0.0093    1.4206   
     8. B(H   8,C   0)                1.0941  0.000902 -0.0013    1.0927   
     9. B(H   9,C   0)                1.0932  0.003772 -0.0055    1.0877   
    10. B(H  10,C   0)                1.0941  0.001099 -0.0016    1.0925   
    11. B(H  11,C   1)                1.0819  0.002820 -0.0040    1.0779   
    12. B(H  12,C   2)                1.0962  0.002386 -0.0035    1.0927   
    13. B(H  13,C   2)                1.0960  0.001546 -0.0023    1.0938   
    14. B(H  14,C   3)                1.0963 -0.000147  0.0002    1.0965   
    15. B(H  15,C   3)                1.0959 -0.000754  0.0011    1.0970   
    16. B(H  16,O   6)                0.9742  0.005881 -0.0062    0.9679   
    17. A(H   9,C   0,H  10)          108.00 -0.004188    0.85    108.85   
    18. A(C   1,C   0,H   8)          109.80 -0.001707    0.24    110.04   
    19. A(H   8,C   0,H  10)          108.12  0.002375   -0.55    107.57   
    20. A(C   1,C   0,H   9)          112.93  0.008361   -1.40    111.52   
    21. A(H   8,C   0,H   9)          108.10 -0.003507    0.66    108.76   
    22. A(C   1,C   0,H  10)          109.76 -0.001551    0.24    110.00   
    23. A(C   0,C   1,H  11)          120.14  0.001224   -0.21    119.93   
    24. A(C   0,C   1,C   4)          121.38  0.000902   -0.14    121.24   
    25. A(C   4,C   1,H  11)          118.49 -0.002127    0.35    118.83   
    26. A(C   4,C   2,H  13)          108.91 -0.000421    0.04    108.95   
    27. A(H  12,C   2,H  13)          107.51  0.000309   -0.05    107.45   
    28. A(C   3,C   2,H  13)          109.95 -0.000190   -0.02    109.93   
    29. A(C   4,C   2,H  12)          109.40 -0.000918    0.21    109.61   
    30. A(C   3,C   2,H  12)          109.47 -0.000187    0.04    109.51   
    31. A(C   3,C   2,C   4)          111.52  0.001363   -0.21    111.30   
    32. A(C   2,C   3,O   7)          108.16  0.003114   -0.64    107.52   
    33. A(H  14,C   3,H  15)          106.35 -0.003464    1.00    107.35   
    34. A(O   7,C   3,H  15)          110.31  0.001278   -0.12    110.19   
    35. A(C   2,C   3,H  15)          111.10 -0.000048   -0.09    111.01   
    36. A(O   7,C   3,H  14)          110.30 -0.000348   -0.10    110.20   
    37. A(C   2,C   3,H  14)          110.64 -0.000632   -0.03    110.61   
    38. A(C   1,C   4,C   2)          116.41  0.005320   -0.74    115.66   
    39. A(C   2,C   4,O   5)          123.16  0.001350   -0.14    123.02   
    40. A(C   1,C   4,O   5)          120.44 -0.006672    0.88    121.32   
    41. A(O   7,O   6,H  16)           96.52 -0.021262    3.54    100.06   
    42. A(C   3,O   7,O   6)          105.63 -0.018051    2.70    108.33   
    43. D(H  11,C   1,C   0,H   8)    -60.82 -0.000247    0.43    -60.40   
    44. D(C   4,C   1,C   0,H  10)   -122.37  0.000595   -0.12   -122.49   
    45. D(C   4,C   1,C   0,H   9)     -1.81 -0.000257    0.20     -1.61   
    46. D(H  11,C   1,C   0,H   9)    178.46 -0.000170    0.35    178.81   
    47. D(C   4,C   1,C   0,H   8)    118.91 -0.000334    0.27    119.18   
    48. D(O   7,C   3,C   2,H  12)     53.80  0.000535    0.36     54.16   
    49. D(O   7,C   3,C   2,C   4)    175.00  0.000143    0.52    175.52   
    50. D(H  14,C   3,C   2,H  12)    -67.11 -0.000632    0.91    -66.21   
    51. D(H  14,C   3,C   2,C   4)     54.09 -0.001023    1.06     55.15   
    52. D(H  14,C   3,C   2,H  13)    175.00 -0.000784    0.96    175.96   
    53. D(O   7,C   3,C   2,H  13)    -64.09  0.000382    0.41    -63.68   
    54. D(O   5,C   4,C   1,C   0)     -4.74 -0.000480    1.57     -3.17   
    55. D(C   2,C   4,C   1,H  11)     -5.26 -0.000951    2.42     -2.84   
    56. D(O   5,C   4,C   1,H  11)    175.00 -0.000557    1.41    176.41   
    57. D(C   2,C   4,C   1,C   0)    175.00 -0.000874    2.58    177.58   
    58. D(O   5,C   4,C   2,H  12)    130.08 -0.000019    0.18    130.26   
    59. D(O   5,C   4,C   2,C   3)      8.84 -0.000053    0.13      8.97   
    60. D(C   1,C   4,C   2,H  13)     67.60  0.000020   -0.78     66.81   
    61. D(C   1,C   4,C   2,H  12)    -49.65  0.000410   -0.86    -50.51   
    62. D(C   1,C   4,C   2,C   3)   -170.89  0.000376   -0.92   -171.81   
    63. D(C   3,O   7,O   6,H  16)   -111.88  0.002020   -6.37   -118.26   
    64. D(O   6,O   7,C   3,H  15)     53.31 -0.002705    1.88     55.18   
    65. D(O   6,O   7,C   3,H  14)    -63.88  0.000981    0.78    -63.10   
    66. D(O   6,O   7,C   3,C   2)    175.00  0.000005    1.28    176.28   
    ----------------------------------------------------------------------------

Geometry step timings:
Preparation and reading OPT file:      0.000 s ( 1.523 %)
Internal coordinates            :      0.000 s ( 1.722 %)
B/P matrices and projection     :      0.000 s (28.543 %)
Hessian update/contruction      :      0.000 s (17.086 %)
Making the step                 :      0.000 s (21.722 %)
Converting the step to Cartesian:      0.000 s ( 4.305 %)
Storing new data                :      0.000 s ( 1.656 %)
Checking convergence            :      0.000 s ( 1.656 %)
Final printing                  :      0.000 s (21.656 %)
Total time                      :      0.002 s

Time for energy+gradient        :      0.034 s
Time for complete geometry iter :      0.036 s

         *************************************************************
         *                GEOMETRY OPTIMIZATION CYCLE   2            *
         *************************************************************
---------------------------------
CARTESIAN COORDINATES (ANGSTROEM)
---------------------------------
  C    -3.200393   -0.290577   -0.395952
  C    -1.848046   -0.010049   -0.895108
  C     0.640658    0.154749   -0.688441
  C     1.790710   -0.165160    0.251698
  C    -0.695796   -0.105509   -0.030115
  O    -0.813653   -0.367361    1.161386
  O     4.098524   -0.206917    0.418254
  O     2.998436    0.005534   -0.476566
  H    -3.829134    0.597216   -0.498917
  H    -3.185756   -0.589603    0.649696
  H    -3.657999   -1.088856   -0.984964
  H    -1.703679    0.279813   -1.923224
  H     0.728651   -0.452609   -1.592556
  H     0.688490    1.204335   -0.992418
  H     1.713062   -1.195039    0.620074
  H     1.779334    0.496842    1.126375
  H     4.518506    0.664304    0.379700

----------------------------
CARTESIAN COORDINATES (A.U.)
----------------------------
  NO LB    ZA    FRAG    MASS        X           Y           Z
   0 C   6.0000    1    12.011   -6.047865   -0.549111   -0.748240
   1 C   6.0000    1    12.011   -3.492301   -0.018989   -1.691509
   2 C   6.0000    1    12.011    1.210669    0.292433   -1.300965
   3 C   6.0000    1    12.011    3.383951   -0.312107    0.475640
   4 C   6.0000    1    12.011   -1.314864   -0.199383   -0.056909
   5 O   8.0000    1    15.999   -1.537581   -0.694212    2.194701
   6 O   8.0000    1    15.999    7.745087   -0.391016    0.790386
   7 O   8.0000    1    15.999    5.666222    0.010458   -0.900579
   8 H   1.0000    1     1.008   -7.236015    1.128575   -0.942816
   9 H   1.0000    1     1.008   -6.020207   -1.114188    1.227747
  10 H   1.0000    1     1.008   -6.912616   -2.057639   -1.861312
  11 H   1.0000    1     1.008   -3.219487    0.528770   -3.634366
  12 H   1.0000    1     1.008    1.376950   -0.855306   -3.009495
  13 H   1.0000    1     1.008    1.301057    2.275864   -1.875399
  14 H   1.0000    1     1.008    3.237219   -2.258297    1.171770
  15 H   1.0000    1     1.008    3.362454    0.938896    2.128540
  16 H   1.0000    1     1.008    8.538739    1.255353    0.717530

      -----------------------------------------------------------      
     |                   =====================                   |     
     |                           x T B                           |     
     |                   =====================                   |     
     |                         S. Grimme                         |     
     |          Mulliken Center for Theoretical Chemistry        |     
     |                    University of Bonn                     |     
      -----------------------------------------------------------      

   * xtb version 6.7.1 (edcfbbe) compiled by 'albert@albert-system' on 2024-07-22

   xtb is free software: you can redistribute it and/or modify it under
   the terms of the GNU Lesser General Public License as published by
   the Free Software Foundation, either version 3 of the License, or
   (at your option) any later version.
   
   xtb is distributed in the hope that it will be useful,
   but WITHOUT ANY WARRANTY; without even the implied warranty of
   MERCHANTABILITY or FITNESS FOR A PARTICULAR PURPOSE.  See the
   GNU Lesser General Public License for more details.
   
   Cite this work as:
   * C. Bannwarth, E. Caldeweyher, S. Ehlert, A. Hansen, P. Pracht,
     J. Seibert, S. Spicher, S. Grimme, WIREs Comput. Mol. Sci., 2020, 11,
     e01493. DOI: 10.1002/wcms.1493
   
   for GFN2-xTB:
   * C. Bannwarth, S. Ehlert and S. Grimme., J. Chem. Theory Comput., 2019,
     15, 1652-1671. DOI: 10.1021/acs.jctc.8b01176
   for GFN1-xTB:
   * S. Grimme, C. Bannwarth, P. Shushkov, J. Chem. Theory Comput., 2017,
     13, 1989-2009. DOI: 10.1021/acs.jctc.7b00118
   for GFN0-xTB:
   * P. Pracht, E. Caldeweyher, S. Ehlert, S. Grimme, ChemRxiv, 2019, preprint.
     DOI: 10.26434/chemrxiv.8326202.v1
   for GFN-FF:
   * S. Spicher and S. Grimme, Angew. Chem. Int. Ed., 2020, 59, 15665-15673.
     DOI: 10.1002/anie.202004239
   
   for ALPB and GBSA implicit solvation:
   * S. Ehlert, M. Stahn, S. Spicher, S. Grimme, J. Chem. Theory Comput.,
     2021, 17, 4250-4261. DOI: 10.1021/acs.jctc.1c00471
   
   for ddCOSMO and CPCM-X implicit solvation:
   * M. Stahn, S. Ehlert, S. Grimme, J. Phys. Chem. A,
     2023, XX, XXXX-XXXX. DOI: 10.1021/acs.jpca.3c04382
   
   for DFT-D4:
   * E. Caldeweyher, C. Bannwarth and S. Grimme, J. Chem. Phys., 2017,
     147, 034112. DOI: 10.1063/1.4993215
   * E. Caldeweyher, S. Ehlert, A. Hansen, H. Neugebauer, S. Spicher,
     C. Bannwarth and S. Grimme, J. Chem. Phys., 2019, 150, 154122.
     DOI: 10.1063/1.5090222
   * E. Caldeweyher, J.-M. Mewes, S. Ehlert and S. Grimme, Phys. Chem. Chem. Phys.
     2020, 22, 8499-8512. DOI: 10.1039/D0CP00502A
   
   for sTDA-xTB:
   * S. Grimme and C. Bannwarth, J. Chem. Phys., 2016, 145, 054103.
     DOI: 10.1063/1.4959605
   
   in the mass-spec context:
   * V. Asgeirsson, C. Bauer and S. Grimme, Chem. Sci., 2017, 8, 4879.
     DOI: 10.1039/c7sc00601b
   * J. Koopman and S. Grimme, ACS Omega 2019, 4, 12, 15120-15133.
     DOI: 10.1021/acsomega.9b02011
   
   for metadynamics refer to:
   * S. Grimme, J. Chem. Theory Comput., 2019, 155, 2847-2862
     DOI: 10.1021/acs.jctc.9b00143
   
   for SPH calculations refer to:
   * S. Spicher and S. Grimme, J. Chem. Theory Comput., 2021, 17, 1701-1714
     DOI: 10.1021/acs.jctc.0c01306
   
   for ONIOM refer to:
   * C. Plett, A. Katbashev, S. Ehlert, S. Grimme, M. Bursch,
     Phys. Chem. Chem. Phys., 2023, 25, 17860-17868. DOI: 10.1039/D3CP02178E
   
   for DIPRO refer to:
   * J. Kohn, N. Gildemeister, S. Grimme, D. Fazzi, A. Hansen,
     J. Chem. Phys., 2023, just accepted.
   
   for PTB refer to:
   * S. Grimme, M. Mueller, A. Hansen, J. Chem. Phys., 2023, 158, 124111.
     DOI: 10.1063/5.0137838
   
   with help from (in alphabetical order)
   P. Atkinson, C. Bannwarth, F. Bohle, G. Brandenburg, E. Caldeweyher
   M. Checinski, S. Dohm, S. Ehlert, S. Ehrlich, I. Gerasimov, C. Hölzer
   A. Katbashev, J. Kohn, J. Koopman, C. Lavigne, S. Lehtola, F. März, M. Müller,
   F. Musil, H. Neugebauer, J. Pisarek, C. Plett, P. Pracht, F. Pultar,
   J. Seibert, P. Shushkov, S. Spicher, M. Stahn, M. Steiner, T. Strunk,
   J. Stückrath, T. Rose, and J. Unsleber
   
 * started run on 2026/02/22 at 12:32:54.059     
   ID    Z sym.   atoms
    1    6 C      1-5
    2    8 O      6-8
    3    1 H      9-17

           -------------------------------------------------
          |                Calculation Setup                |
           -------------------------------------------------

          program call               : /apps/eb/ORCA/6.1.1-gompi-2024a-avx2/bin/otool_xtb goat_XTB.xyz --grad -c 0 -u 1 -P 8 --namespace goat --input goat_XTB.input.tmp --acc 0.200000
          hostname                   : e2-9
          calculation namespace      : goat
          coordinate file            : goat_XTB.xyz
          omp threads                :                     8


           -------------------------------------------------
          |                 G F N 2 - x T B                 |
           -------------------------------------------------

        Reference                      10.1021/acs.jctc.8b01176
      * Hamiltonian:
        H0-scaling (s, p, d)           1.850000    2.230000    2.230000
        zeta-weighting                 0.500000
      * Dispersion:
        s8                             2.700000
        a1                             0.520000
        a2                             5.000000
        s9                             5.000000
      * Repulsion:
        kExp                           1.500000    1.000000
        rExp                           1.000000
      * Coulomb:
        alpha                          2.000000
        third order                    shell-resolved
        anisotropic                    true
        a3                             3.000000
        a5                             4.000000
        cn-shift                       1.200000
        cn-exp                         4.000000
        max-rad                        5.000000

q/qsh data taken from xtbrestart
CAMM data taken from xtbrestart

          ...................................................
          :                      SETUP                      :
          :.................................................:
          :  # basis functions                  41          :
          :  # atomic orbitals                  41          :
          :  # shells                           25          :
          :  # electrons                        47          :
          :  max. iterations                   250          :
          :  Hamiltonian                  GFN2-xTB          :
          :  restarted?                       true          :
          :  GBSA solvation                  false          :
          :  PC potential                    false          :
          :  electronic temp.          300.0000000     K    :
          :  accuracy                    0.2000000          :
          :  -> integral cutoff          0.3198970E+02      :
          :  -> integral neglect         0.2000000E-08      :
          :  -> SCF convergence          0.2000000E-06 Eh   :
          :  -> wf. convergence          0.2000000E-04 e    :
          :  Broyden damping             0.4000000          :
          :  net charge                          0          :
          :  unpaired electrons                  1          :
          ...................................................

 iter      E             dE          RMSdq      gap      omega  full diag
   1    -27.5956920 -0.275957E+02  0.232E-01    4.28       0.0  T
   2    -27.5957236 -0.315972E-04  0.146E-01    4.31       1.0  T
   3    -27.5956960  0.276267E-04  0.566E-02    4.29       1.0  T
   4    -27.5957367 -0.407625E-04  0.722E-03    4.31       3.4  T
   5    -27.5957369 -0.133324E-06  0.401E-03    4.30       6.0  T
   6    -27.5957369 -0.211841E-07  0.123E-03    4.30      19.8  T
   7    -27.5957369 -0.446701E-08  0.513E-04    4.30      47.2  T
   8    -27.5957369 -0.151986E-08  0.292E-04    4.30      83.0  T
   9    -27.5957369 -0.458716E-09  0.130E-04    4.30     186.2  T
  10    -27.5957369 -0.993943E-10  0.632E-05    4.30     383.5  T

   *** convergence criteria satisfied after 10 iterations ***

         #    Occupation            Energy/Eh            Energy/eV
      -------------------------------------------------------------
         1        2.0000           -0.7187333             -19.5577
       ...           ...                  ...                  ...
        18        2.0000           -0.4755668             -12.9408
        19        2.0000           -0.4715990             -12.8329
        20        2.0000           -0.4653435             -12.6626
        21        2.0000           -0.4563642             -12.4183
        22        2.0000           -0.4148127             -11.2876
        23        2.0000           -0.3986038             -10.8466
        24        1.0000           -0.3668766              -9.9832 (HOMO)
        25                         -0.2086912              -5.6788 (LUMO)
        26                         -0.1547564              -4.2111
        27                          0.0436415               1.1875
        28                          0.0836665               2.2767
        29                          0.1216822               3.3111
       ...                                ...                  ...
        41                          0.5985664              16.2878
      -------------------------------------------------------------
                  HL-Gap            0.1581854 Eh            4.3044 eV
             Fermi-level           -0.3352620 Eh           -9.1229 eV

 SCC (total)                   0 d,  0 h,  0 min,  0.019 sec
 SCC setup                      ...        0 min,  0.000 sec (  2.324%)
 Dispersion                     ...        0 min,  0.000 sec (  1.050%)
 classical contributions        ...        0 min,  0.000 sec (  0.791%)
 integral evaluation            ...        0 min,  0.001 sec (  3.316%)
 iterations                     ...        0 min,  0.015 sec ( 79.747%)
 molecular gradient             ...        0 min,  0.002 sec (  9.581%)
 printout                       ...        0 min,  0.001 sec (  3.042%)

         :::::::::::::::::::::::::::::::::::::::::::::::::::::
         ::                     SUMMARY                     ::
         :::::::::::::::::::::::::::::::::::::::::::::::::::::
         :: total energy             -27.333846987035 Eh    ::
         :: gradient norm              0.030183801682 Eh/a0 ::
         :: HOMO-LUMO gap              4.304443061130 eV    ::
         ::.................................................::
         :: SCC energy               -27.595773955611 Eh    ::
         :: -> isotropic ES            0.056819798767 Eh    ::
         :: -> anisotropic ES         -0.004175312295 Eh    ::
         :: -> anisotropic XC         -0.000364619871 Eh    ::
         :: -> dispersion             -0.009418691098 Eh    ::
         :: repulsion energy           0.261926968575 Eh    ::
         :: add. restraining           0.000000000000 Eh    ::
         :: total charge               0.000000000000 e     ::
         :::::::::::::::::::::::::::::::::::::::::::::::::::::


Property printout bound to 'properties.out'

           -------------------------------------------------
          | TOTAL ENERGY              -27.333846987035 Eh   |
          | GRADIENT NORM               0.030183801682 Eh/α |
          | HOMO-LUMO GAP               4.304443061130 eV   |
           -------------------------------------------------

------------------------------------------------------------------------
 * finished run on 2026/02/22 at 12:32:54.101     
------------------------------------------------------------------------
 total:
 * wall-time:     0 d,  0 h,  0 min,  0.041 sec
 *  cpu-time:     0 d,  0 h,  0 min,  0.194 sec
 * ratio c/w:     4.759 speedup
 SCF:
 * wall-time:     0 d,  0 h,  0 min,  0.019 sec
 *  cpu-time:     0 d,  0 h,  0 min,  0.095 sec
 * ratio c/w:     4.971 speedup


-------------------------   --------------------
FINAL SINGLE POINT ENERGY       -27.333846987040
-------------------------   --------------------


-------------
DIPOLE MOMENT
-------------
                                X             Y             Z
Total Dipole Moment    :     -0.94200       0.86500      -1.04100
                        -----------------------------------------
Magnitude (a.u.)       :      1.64902
Magnitude (Debye)      :      4.19148


------------------
CARTESIAN GRADIENT
------------------

   1   C   :    0.000357787   -0.000055107    0.000579612
   2   C   :   -0.010414599    0.000822693   -0.007454785
   3   C   :   -0.002713683   -0.000608805    0.002906002
   4   C   :   -0.002841818    0.000884728    0.000024473
   5   C   :    0.015398292   -0.001205841    0.006455421
   6   O   :   -0.003146877    0.001493509   -0.004143313
   7   O   :    0.007031328   -0.007490959    0.010650666
   8   O   :   -0.000344349    0.004731111   -0.010210214
   9   H   :    0.001442038    0.000797991    0.001484446
  10   H   :   -0.003128655   -0.000571435   -0.000095033
  11   H   :    0.001602071   -0.001290648    0.000983815
  12   H   :    0.001111930    0.000370242    0.000820933
  13   H   :   -0.000321423   -0.000120159   -0.000490527
  14   H   :   -0.000235784    0.000381464    0.000025946
  15   H   :    0.000053823    0.000494120    0.001276159
  16   H   :    0.000494460   -0.001292969    0.000716075
  17   H   :   -0.004344542    0.002660065   -0.003529675

Difference to translation invariance:
           :    0.0000000000   -0.0000000000   -0.0000000000

Difference to rotation invariance:
           :    0.0000003144    0.0000011539   -0.0000003883

Norm of the Cartesian gradient     ...    0.0301838017
RMS gradient                       ...    0.0042265776
MAX gradient                       ...    0.0153982923
------------------------------------------------------------------------------
                         ORCA GEOMETRY RELAXATION STEP
------------------------------------------------------------------------------

Reading the OPT-File                    .... done
Getting information on internals        .... done
Copying old internal coords+grads       .... done
Making the new internal coordinates     .... (2022 redundants) done
Validating the new internal coordinates .... (2022 redundants) done
Calculating the B-matrix                .... done
Calculating the G,G- and P matrices     .... done
Transforming gradient to internals      .... done
Projecting the internal gradient        .... done
Number of atoms                         ....  17
Number of internal coordinates          ....  66
Current Energy                          ....   -27.333846987 Eh
Current gradient norm                   ....     0.030183802 Eh/bohr
Maximum allowed component of the step   ....  0.300
Current trust radius                    ....  0.300
Updating the Hessian (BFGS)             .... done
Forming the augmented Hessian           .... done
Diagonalizing the augmented Hessian     .... done
Last element of RFO vector              ....  0.983365316
Lowest eigenvalues of augmented Hessian:
 -0.002404736  0.011596224  0.012026610  0.012085507  0.012988475
Length of the computed step             ....  0.184711418
The final length of the internal step   ....  0.184711418
Converting the step to Cartesian space:
 Initial RMS(Int)=    0.0227364039
Transforming coordinates:
 Iter   0:  RMS(Cart)=    0.0416450933 RMS(Int)=    0.0228015932
 Iter   5:  RMS(Cart)=    0.0000001215 RMS(Int)=    0.0000001012
done
Storing new coordinates                 .... done
The predicted energy change is          ....    -0.001243391
Previously predicted energy change      ....    -0.003439493
Actually observed energy change         ....    -0.004684560
Ratio of predicted to observed change   ....     1.361991467
New trust radius                        ....     0.300000000

                                .--------------------.
          ----------------------|Geometry convergence|-------------------------
          Item                value                   Tolerance       Converged
          ---------------------------------------------------------------------
          Energy change      -0.0046845603            0.0000050000      NO
          RMS gradient        0.0026207000            0.0001000000      NO
          MAX gradient        0.0112269207            0.0003000000      NO
          RMS step            0.0227364039            0.0020000000      NO
          MAX step            0.0942093516            0.0040000000      NO
          -------------------------------------------------------------------------
          ........................................................
          Max(Bonds)      0.0211      Max(Angles)    3.42
          Max(Dihed)        5.40      Max(Improp)    0.00
          ---------------------------------------------------------------------

    ---------------------------------------------------------------------------
                         Redundant Internal Coordinates
                            (Angstroem and degrees)

        Definition                    Value    dE/dq     Step     New-Value
    ----------------------------------------------------------------------------
     1. B(C   1,C   0)                1.4686  0.000966 -0.0034    1.4652   
     2. B(C   3,C   2)                1.5195 -0.000624  0.0015    1.5210   
     3. B(C   4,C   1)                1.4440  0.009415 -0.0211    1.4228   
     4. B(C   4,C   2)                1.5124 -0.003505  0.0078    1.5202   
     5. B(O   5,C   4)                1.2256 -0.004044  0.0034    1.2290   
     6. B(O   7,O   6)                1.4339  0.007221 -0.0178    1.4161   
     7. B(O   7,C   3)                1.4206  0.003563 -0.0072    1.4134   
     8. B(H   8,C   0)                1.0927 -0.000321  0.0007    1.0934   
     9. B(H   9,C   0)                1.0877  0.000024 -0.0005    1.0871   
    10. B(H  10,C   0)                1.0925 -0.000258  0.0005    1.0930   
    11. B(H  11,C   1)                1.0779 -0.000535  0.0009    1.0788   
    12. B(H  12,C   2)                1.0927  0.000447 -0.0014    1.0913   
    13. B(H  13,C   2)                1.0938  0.000349 -0.0011    1.0927   
    14. B(H  14,C   3)                1.0965 -0.000039  0.0001    1.0966   
    15. B(H  15,C   3)                1.0970 -0.000214  0.0006    1.0976   
    16. B(H  16,O   6)                0.9679  0.000650 -0.0017    0.9662   
    17. A(H   9,C   0,H  10)          108.85 -0.002045    0.80    109.65   
    18. A(C   1,C   0,H   8)          110.04 -0.001619    0.43    110.47   
    19. A(H   8,C   0,H  10)          107.57  0.002374   -0.95    106.62   
    20. A(C   1,C   0,H   9)          111.52  0.004571   -1.37    110.16   
    21. A(H   8,C   0,H   9)          108.77 -0.001673    0.62    109.39   
    22. A(C   1,C   0,H  10)          110.00 -0.001687    0.47    110.47   
    23. A(C   0,C   1,H  11)          119.93  0.001650   -0.47    119.46   
    24. A(C   0,C   1,C   4)          121.24 -0.000748    0.18    121.42   
    25. A(C   4,C   1,H  11)          118.83 -0.000903    0.29    119.13   
    26. A(C   4,C   2,H  13)          108.95 -0.000038   -0.00    108.95   
    27. A(H  12,C   2,H  13)          107.45  0.000024   -0.03    107.42   
    28. A(C   3,C   2,H  13)          109.93  0.000152   -0.11    109.83   
    29. A(C   4,C   2,H  12)          109.61 -0.000423    0.22    109.84   
    30. A(C   3,C   2,H  12)          109.51  0.000207   -0.05    109.46   
    31. A(C   3,C   2,C   4)          111.30  0.000073   -0.03    111.27   
    32. A(C   2,C   3,O   7)          107.52  0.002203   -0.76    106.75   
    33. A(H  14,C   3,H  15)          107.35 -0.001416    0.86    108.21   
    34. A(O   7,C   3,H  15)          110.18 -0.000232    0.13    110.32   
    35. A(C   2,C   3,H  15)          111.00  0.000180   -0.17    110.83   
    36. A(O   7,C   3,H  14)          110.20 -0.000718    0.11    110.30   
    37. A(C   2,C   3,H  14)          110.61 -0.000044   -0.14    110.47   
    38. A(C   1,C   4,C   2)          115.66  0.001828   -0.49    115.17   
    39. A(C   2,C   4,O   5)          123.02  0.003133   -0.67    122.35   
    40. A(C   1,C   4,O   5)          121.32 -0.004962    1.14    122.46   
    41. A(O   7,O   6,H  16)          100.06 -0.011227    3.42    103.48   
    42. A(C   3,O   7,O   6)          108.33 -0.006883    1.95    110.28   
    43. D(H  11,C   1,C   0,H   8)    -60.40 -0.000219    0.39    -60.01   
    44. D(C   4,C   1,C   0,H  10)   -122.49  0.000512   -0.03   -122.51   
    45. D(C   4,C   1,C   0,H   9)     -1.61 -0.000192    0.41     -1.21   
    46. D(H  11,C   1,C   0,H   9)    178.81 -0.000029    0.20    179.01   
    47. D(C   4,C   1,C   0,H   8)    119.18 -0.000383    0.59    119.77   
    48. D(O   7,C   3,C   2,H  12)     54.16  0.000224    0.85     55.00   
    49. D(O   7,C   3,C   2,C   4)    175.52 -0.000120    1.07    176.59   
    50. D(H  14,C   3,C   2,H  12)    -66.21 -0.000242    1.28    -64.93   
    51. D(H  14,C   3,C   2,C   4)     55.15 -0.000587    1.51     56.66   
    52. D(H  14,C   3,C   2,H  13)    175.96 -0.000485    1.41    177.37   
    53. D(O   7,C   3,C   2,H  13)    -63.68 -0.000018    0.98    -62.70   
    54. D(O   5,C   4,C   1,C   0)     -3.17 -0.000445    2.91     -0.26   
    55. D(C   2,C   4,C   1,H  11)     -2.84 -0.000450    1.55     -1.29   
    56. D(O   5,C   4,C   1,H  11)    176.41 -0.000597    3.11    179.52   
    57. D(C   2,C   4,C   1,C   0)    177.58 -0.000298    1.35    178.94   
    58. D(O   5,C   4,C   2,H  12)    130.26  0.000328   -1.78    128.48   
    59. D(O   5,C   4,C   2,C   3)      8.96  0.000305   -1.85      7.11   
    60. D(C   1,C   4,C   2,H  13)     66.81 -0.000124   -0.09     66.72   
    61. D(C   1,C   4,C   2,H  12)    -50.51  0.000111   -0.18    -50.68   
    62. D(C   1,C   4,C   2,C   3)   -171.80  0.000088   -0.24   -172.05   
    63. D(C   3,O   7,O   6,H  16)   -118.26  0.001010   -5.40   -123.66   
    64. D(O   6,O   7,C   3,H  15)     55.18 -0.001683    2.37     57.55   
    65. D(O   6,O   7,C   3,H  14)    -63.10  0.000645    1.18    -61.92   
    66. D(O   6,O   7,C   3,C   2)    176.28 -0.000235    1.76    178.03   
    ----------------------------------------------------------------------------

Geometry step timings:
Preparation and reading OPT file:      0.000 s ( 1.004 %)
Internal coordinates            :      0.000 s ( 1.417 %)
B/P matrices and projection     :      0.000 s (24.675 %)
Hessian update/contruction      :      0.000 s (24.144 %)
Making the step                 :      0.000 s (18.831 %)
Converting the step to Cartesian:      0.000 s ( 2.834 %)
Storing new data                :      0.000 s ( 1.535 %)
Checking convergence            :      0.000 s ( 2.420 %)
Final printing                  :      0.000 s (23.140 %)
Total time                      :      0.002 s

Time for energy+gradient        :      0.052 s
Time for complete geometry iter :      0.055 s

         *************************************************************
         *                GEOMETRY OPTIMIZATION CYCLE   3            *
         *************************************************************
---------------------------------
CARTESIAN COORDINATES (ANGSTROEM)
---------------------------------
  C    -3.198243   -0.279583   -0.406450
  C    -1.838416   -0.022232   -0.887596
  C     0.631198    0.152782   -0.674015
  C     1.778330   -0.161648    0.273917
  C    -0.714318   -0.118513   -0.020669
  O    -0.820836   -0.415072    1.167226
  O     4.097558   -0.183678    0.380084
  O     2.973979    0.045984   -0.450606
  H    -3.824017    0.607659   -0.535955
  H    -3.177710   -0.556538    0.644609
  H    -3.664759   -1.078752   -0.988132
  H    -1.683533    0.249725   -1.920014
  H     0.731719   -0.449263   -1.578684
  H     0.675017    1.202793   -0.973303
  H     1.717583   -1.201189    0.617862
  H     1.747673    0.493139    1.154324
  H     4.590689    0.645502    0.326325

----------------------------
CARTESIAN COORDINATES (A.U.)
----------------------------
  NO LB    ZA    FRAG    MASS        X           Y           Z
   0 C   6.0000    1    12.011   -6.043803   -0.528335   -0.768080
   1 C   6.0000    1    12.011   -3.474102   -0.042013   -1.677313
   2 C   6.0000    1    12.011    1.192792    0.288715   -1.273704
   3 C   6.0000    1    12.011    3.360557   -0.305470    0.517628
   4 C   6.0000    1    12.011   -1.349865   -0.223957   -0.039058
   5 O   8.0000    1    15.999   -1.551155   -0.784373    2.205737
   6 O   8.0000    1    15.999    7.743263   -0.347101    0.718255
   7 O   8.0000    1    15.999    5.620005    0.086897   -0.851521
   8 H   1.0000    1     1.008   -7.226345    1.148308   -1.012808
   9 H   1.0000    1     1.008   -6.005002   -1.051704    1.218135
  10 H   1.0000    1     1.008   -6.925391   -2.038547   -1.867299
  11 H   1.0000    1     1.008   -3.181416    0.471911   -3.628301
  12 H   1.0000    1     1.008    1.382748   -0.848984   -2.983279
  13 H   1.0000    1     1.008    1.275596    2.272950   -1.839276
  14 H   1.0000    1     1.008    3.245761   -2.269919    1.167590
  15 H   1.0000    1     1.008    3.302623    0.931898    2.181357
  16 H   1.0000    1     1.008    8.675145    1.219821    0.616666

      -----------------------------------------------------------      
     |                   =====================                   |     
     |                           x T B                           |     
     |                   =====================                   |     
     |                         S. Grimme                         |     
     |          Mulliken Center for Theoretical Chemistry        |     
     |                    University of Bonn                     |     
      -----------------------------------------------------------      

   * xtb version 6.7.1 (edcfbbe) compiled by 'albert@albert-system' on 2024-07-22

   xtb is free software: you can redistribute it and/or modify it under
   the terms of the GNU Lesser General Public License as published by
   the Free Software Foundation, either version 3 of the License, or
   (at your option) any later version.
   
   xtb is distributed in the hope that it will be useful,
   but WITHOUT ANY WARRANTY; without even the implied warranty of
   MERCHANTABILITY or FITNESS FOR A PARTICULAR PURPOSE.  See the
   GNU Lesser General Public License for more details.
   
   Cite this work as:
   * C. Bannwarth, E. Caldeweyher, S. Ehlert, A. Hansen, P. Pracht,
     J. Seibert, S. Spicher, S. Grimme, WIREs Comput. Mol. Sci., 2020, 11,
     e01493. DOI: 10.1002/wcms.1493
   
   for GFN2-xTB:
   * C. Bannwarth, S. Ehlert and S. Grimme., J. Chem. Theory Comput., 2019,
     15, 1652-1671. DOI: 10.1021/acs.jctc.8b01176
   for GFN1-xTB:
   * S. Grimme, C. Bannwarth, P. Shushkov, J. Chem. Theory Comput., 2017,
     13, 1989-2009. DOI: 10.1021/acs.jctc.7b00118
   for GFN0-xTB:
   * P. Pracht, E. Caldeweyher, S. Ehlert, S. Grimme, ChemRxiv, 2019, preprint.
     DOI: 10.26434/chemrxiv.8326202.v1
   for GFN-FF:
   * S. Spicher and S. Grimme, Angew. Chem. Int. Ed., 2020, 59, 15665-15673.
     DOI: 10.1002/anie.202004239
   
   for ALPB and GBSA implicit solvation:
   * S. Ehlert, M. Stahn, S. Spicher, S. Grimme, J. Chem. Theory Comput.,
     2021, 17, 4250-4261. DOI: 10.1021/acs.jctc.1c00471
   
   for ddCOSMO and CPCM-X implicit solvation:
   * M. Stahn, S. Ehlert, S. Grimme, J. Phys. Chem. A,
     2023, XX, XXXX-XXXX. DOI: 10.1021/acs.jpca.3c04382
   
   for DFT-D4:
   * E. Caldeweyher, C. Bannwarth and S. Grimme, J. Chem. Phys., 2017,
     147, 034112. DOI: 10.1063/1.4993215
   * E. Caldeweyher, S. Ehlert, A. Hansen, H. Neugebauer, S. Spicher,
     C. Bannwarth and S. Grimme, J. Chem. Phys., 2019, 150, 154122.
     DOI: 10.1063/1.5090222
   * E. Caldeweyher, J.-M. Mewes, S. Ehlert and S. Grimme, Phys. Chem. Chem. Phys.
     2020, 22, 8499-8512. DOI: 10.1039/D0CP00502A
   
   for sTDA-xTB:
   * S. Grimme and C. Bannwarth, J. Chem. Phys., 2016, 145, 054103.
     DOI: 10.1063/1.4959605
   
   in the mass-spec context:
   * V. Asgeirsson, C. Bauer and S. Grimme, Chem. Sci., 2017, 8, 4879.
     DOI: 10.1039/c7sc00601b
   * J. Koopman and S. Grimme, ACS Omega 2019, 4, 12, 15120-15133.
     DOI: 10.1021/acsomega.9b02011
   
   for metadynamics refer to:
   * S. Grimme, J. Chem. Theory Comput., 2019, 155, 2847-2862
     DOI: 10.1021/acs.jctc.9b00143
   
   for SPH calculations refer to:
   * S. Spicher and S. Grimme, J. Chem. Theory Comput., 2021, 17, 1701-1714
     DOI: 10.1021/acs.jctc.0c01306
   
   for ONIOM refer to:
   * C. Plett, A. Katbashev, S. Ehlert, S. Grimme, M. Bursch,
     Phys. Chem. Chem. Phys., 2023, 25, 17860-17868. DOI: 10.1039/D3CP02178E
   
   for DIPRO refer to:
   * J. Kohn, N. Gildemeister, S. Grimme, D. Fazzi, A. Hansen,
     J. Chem. Phys., 2023, just accepted.
   
   for PTB refer to:
   * S. Grimme, M. Mueller, A. Hansen, J. Chem. Phys., 2023, 158, 124111.
     DOI: 10.1063/5.0137838
   
   with help from (in alphabetical order)
   P. Atkinson, C. Bannwarth, F. Bohle, G. Brandenburg, E. Caldeweyher
   M. Checinski, S. Dohm, S. Ehlert, S. Ehrlich, I. Gerasimov, C. Hölzer
   A. Katbashev, J. Kohn, J. Koopman, C. Lavigne, S. Lehtola, F. März, M. Müller,
   F. Musil, H. Neugebauer, J. Pisarek, C. Plett, P. Pracht, F. Pultar,
   J. Seibert, P. Shushkov, S. Spicher, M. Stahn, M. Steiner, T. Strunk,
   J. Stückrath, T. Rose, and J. Unsleber
   
 * started run on 2026/02/22 at 12:32:54.114     
   ID    Z sym.   atoms
    1    6 C      1-5
    2    8 O      6-8
    3    1 H      9-17

           -------------------------------------------------
          |                Calculation Setup                |
           -------------------------------------------------

          program call               : /apps/eb/ORCA/6.1.1-gompi-2024a-avx2/bin/otool_xtb goat_XTB.xyz --grad -c 0 -u 1 -P 8 --namespace goat --input goat_XTB.input.tmp --acc 0.200000
          hostname                   : e2-9
          calculation namespace      : goat
          coordinate file            : goat_XTB.xyz
          omp threads                :                     8


           -------------------------------------------------
          |                 G F N 2 - x T B                 |
           -------------------------------------------------

        Reference                      10.1021/acs.jctc.8b01176
      * Hamiltonian:
        H0-scaling (s, p, d)           1.850000    2.230000    2.230000
        zeta-weighting                 0.500000
      * Dispersion:
        s8                             2.700000
        a1                             0.520000
        a2                             5.000000
        s9                             5.000000
      * Repulsion:
        kExp                           1.500000    1.000000
        rExp                           1.000000
      * Coulomb:
        alpha                          2.000000
        third order                    shell-resolved
        anisotropic                    true
        a3                             3.000000
        a5                             4.000000
        cn-shift                       1.200000
        cn-exp                         4.000000
        max-rad                        5.000000

q/qsh data taken from xtbrestart
CAMM data taken from xtbrestart

          ...................................................
          :                      SETUP                      :
          :.................................................:
          :  # basis functions                  41          :
          :  # atomic orbitals                  41          :
          :  # shells                           25          :
          :  # electrons                        47          :
          :  max. iterations                   250          :
          :  Hamiltonian                  GFN2-xTB          :
          :  restarted?                       true          :
          :  GBSA solvation                  false          :
          :  PC potential                    false          :
          :  electronic temp.          300.0000000     K    :
          :  accuracy                    0.2000000          :
          :  -> integral cutoff          0.3198970E+02      :
          :  -> integral neglect         0.2000000E-08      :
          :  -> SCF convergence          0.2000000E-06 Eh   :
          :  -> wf. convergence          0.2000000E-04 e    :
          :  Broyden damping             0.4000000          :
          :  net charge                          0          :
          :  unpaired electrons                  1          :
          ...................................................

 iter      E             dE          RMSdq      gap      omega  full diag
   1    -27.5999718 -0.276000E+02  0.203E-01    4.42       0.0  T
   2    -27.5999923 -0.205619E-04  0.124E-01    4.45       1.0  T
   3    -27.5999735  0.187924E-04  0.490E-02    4.43       1.0  T
   4    -27.6000011 -0.275663E-04  0.634E-03    4.44       3.8  T
   5    -27.6000012 -0.734989E-07  0.336E-03    4.44       7.2  T
   6    -27.6000012 -0.169004E-07  0.114E-03    4.44      21.4  T
   7    -27.6000012 -0.358209E-08  0.415E-04    4.44      58.5  T
   8    -27.6000012 -0.905281E-09  0.217E-04    4.44     111.8  T
   9    -27.6000012 -0.255149E-09  0.101E-04    4.44     241.2  T
  10    -27.6000012 -0.568754E-10  0.486E-05    4.44     499.1  T

   *** convergence criteria satisfied after 10 iterations ***

         #    Occupation            Energy/Eh            Energy/eV
      -------------------------------------------------------------
         1        2.0000           -0.7187124             -19.5572
       ...           ...                  ...                  ...
        18        2.0000           -0.4749680             -12.9245
        19        2.0000           -0.4696962             -12.7811
        20        2.0000           -0.4650784             -12.6554
        21        2.0000           -0.4551590             -12.3855
        22        2.0000           -0.4101621             -11.1611
        23        2.0000           -0.3981059             -10.8330
        24        1.0000           -0.3687293             -10.0336 (HOMO)
        25                         -0.2054564              -5.5908 (LUMO)
        26                         -0.1397209              -3.8020
        27                          0.0521312               1.4186
        28                          0.0887264               2.4144
        29                          0.1254504               3.4137
       ...                                ...                  ...
        41                          0.5968367              16.2408
      -------------------------------------------------------------
                  HL-Gap            0.1632729 Eh            4.4429 eV
             Fermi-level           -0.3352552 Eh           -9.1228 eV

 SCC (total)                   0 d,  0 h,  0 min,  0.018 sec
 SCC setup                      ...        0 min,  0.000 sec (  2.441%)
 Dispersion                     ...        0 min,  0.000 sec (  1.207%)
 classical contributions        ...        0 min,  0.000 sec (  0.767%)
 integral evaluation            ...        0 min,  0.001 sec (  4.651%)
 iterations                     ...        0 min,  0.014 sec ( 77.139%)
 molecular gradient             ...        0 min,  0.002 sec ( 11.175%)
 printout                       ...        0 min,  0.000 sec (  2.492%)

         :::::::::::::::::::::::::::::::::::::::::::::::::::::
         ::                     SUMMARY                     ::
         :::::::::::::::::::::::::::::::::::::::::::::::::::::
         :: total energy             -27.335079774771 Eh    ::
         :: gradient norm              0.006267416831 Eh/a0 ::
         :: HOMO-LUMO gap              4.442881980522 eV    ::
         ::.................................................::
         :: SCC energy               -27.600038964910 Eh    ::
         :: -> isotropic ES            0.056969366166 Eh    ::
         :: -> anisotropic ES         -0.004326705210 Eh    ::
         :: -> anisotropic XC         -0.001358133059 Eh    ::
         :: -> dispersion             -0.009436948428 Eh    ::
         :: repulsion energy           0.264959190139 Eh    ::
         :: add. restraining           0.000000000000 Eh    ::
         :: total charge               0.000000000001 e     ::
         :::::::::::::::::::::::::::::::::::::::::::::::::::::


Property printout bound to 'properties.out'

           -------------------------------------------------
          | TOTAL ENERGY              -27.335079774771 Eh   |
          | GRADIENT NORM               0.006267416831 Eh/α |
          | HOMO-LUMO GAP               4.442881980522 eV   |
           -------------------------------------------------

------------------------------------------------------------------------
 * finished run on 2026/02/22 at 12:32:54.163     
------------------------------------------------------------------------
 total:
 * wall-time:     0 d,  0 h,  0 min,  0.048 sec
 *  cpu-time:     0 d,  0 h,  0 min,  0.188 sec
 * ratio c/w:     3.889 speedup
 SCF:
 * wall-time:     0 d,  0 h,  0 min,  0.018 sec
 *  cpu-time:     0 d,  0 h,  0 min,  0.071 sec
 * ratio c/w:     3.978 speedup


-------------------------   --------------------
FINAL SINGLE POINT ENERGY       -27.335079774770
-------------------------   --------------------


-------------
DIPOLE MOMENT
-------------
                                X             Y             Z
Total Dipole Moment    :     -0.90300       0.85200      -1.07100
                        -----------------------------------------
Magnitude (a.u.)       :      1.63962
Magnitude (Debye)      :      4.16758


------------------
CARTESIAN GRADIENT
------------------

   1   C   :    0.002156478    0.000227059   -0.000045820
   2   C   :   -0.001037946   -0.001231618    0.000867593
   3   C   :   -0.001194651   -0.000641743   -0.000237555
   4   C   :   -0.001198095    0.000419276   -0.001578078
   5   C   :    0.000741812    0.001737111    0.000876359
   6   O   :   -0.001505052   -0.000190156   -0.001893478
   7   O   :   -0.000548440    0.000882218   -0.000908991
   8   O   :    0.001627522   -0.000905878    0.002291140
   9   H   :    0.000524065    0.000442347    0.000529717
  10   H   :   -0.000590693    0.000044947   -0.000383435
  11   H   :    0.000647897   -0.000516949    0.000131396
  12   H   :    0.000532782    0.000031323    0.000509518
  13   H   :   -0.000005328    0.000447873   -0.000133700
  14   H   :   -0.000232428   -0.000161098    0.000039138
  15   H   :    0.000225610   -0.000068874    0.000121881
  16   H   :    0.000680309   -0.000009015    0.000133132
  17   H   :   -0.000823840   -0.000506823   -0.000318819

Difference to translation invariance:
           :   -0.0000000000   -0.0000000000    0.0000000000

Difference to rotation invariance:
           :    0.0000003382    0.0000009247   -0.0000003646

Norm of the Cartesian gradient     ...    0.0062674168
RMS gradient                       ...    0.0008776139
MAX gradient                       ...    0.0022911402
------------------------------------------------------------------------------
                         ORCA GEOMETRY RELAXATION STEP
------------------------------------------------------------------------------

Reading the OPT-File                    .... done
Getting information on internals        .... done
Copying old internal coords+grads       .... done
Making the new internal coordinates     .... (2022 redundants) done
Validating the new internal coordinates .... (2022 redundants) done
Calculating the B-matrix                .... done
Calculating the G,G- and P matrices     .... done
Transforming gradient to internals      .... done
Projecting the internal gradient        .... done
Number of atoms                         ....  17
Number of internal coordinates          ....  66
Current Energy                          ....   -27.335079775 Eh
Current gradient norm                   ....     0.006267417 Eh/bohr
Maximum allowed component of the step   ....  0.300
Current trust radius                    ....  0.300
Updating the Hessian (BFGS)             .... done
Forming the augmented Hessian           .... done
Diagonalizing the augmented Hessian     .... done
Last element of RFO vector              ....  0.995219870
Lowest eigenvalues of augmented Hessian:
 -0.000214660  0.011385756  0.011932374  0.012052821  0.013362203
Length of the computed step             ....  0.098128731
The final length of the internal step   ....  0.098128731
Converting the step to Cartesian space:
 Initial RMS(Int)=    0.0120788118
Transforming coordinates:
 Iter   0:  RMS(Cart)=    0.0287435332 RMS(Int)=    0.7691677468
done
Storing new coordinates                 .... done
The predicted energy change is          ....    -0.000108364
Previously predicted energy change      ....    -0.001243391
Actually observed energy change         ....    -0.001232788
Ratio of predicted to observed change   ....     0.991472466
New trust radius                        ....     0.450000000

                                .--------------------.
          ----------------------|Geometry convergence|-------------------------
          Item                value                   Tolerance       Converged
          ---------------------------------------------------------------------
          Energy change      -0.0012327877            0.0000050000      NO
          RMS gradient        0.0008072599            0.0001000000      NO
          MAX gradient        0.0028120257            0.0003000000      NO
          RMS step            0.0120788118            0.0020000000      NO
          MAX step            0.0365322774            0.0040000000      NO
          -------------------------------------------------------------------------
          ........................................................
          Max(Bonds)      0.0025      Max(Angles)    0.46
          Max(Dihed)        2.09      Max(Improp)    0.00
          ---------------------------------------------------------------------

    ---------------------------------------------------------------------------
                         Redundant Internal Coordinates
                            (Angstroem and degrees)

        Definition                    Value    dE/dq     Step     New-Value
    ----------------------------------------------------------------------------
     1. B(C   1,C   0)                1.4652 -0.002499  0.0025    1.4677   
     2. B(C   3,C   2)                1.5210 -0.000151  0.0003    1.5213   
     3. B(C   4,C   1)                1.4228 -0.002812  0.0014    1.4242   
     4. B(C   4,C   2)                1.5202 -0.001143  0.0020    1.5222   
     5. B(O   5,C   4)                1.2290 -0.001654  0.0010    1.2300   
     6. B(O   7,O   6)                1.4161 -0.001870  0.0010    1.4171   
     7. B(O   7,C   3)                1.4134 -0.000407 -0.0002    1.4132   
     8. B(H   8,C   0)                1.0934 -0.000004  0.0000    1.0934   
     9. B(H   9,C   0)                1.0871 -0.000393  0.0004    1.0876   
    10. B(H  10,C   0)                1.0930  0.000032 -0.0001    1.0930   
    11. B(H  11,C   1)                1.0788 -0.000403  0.0005    1.0794   
    12. B(H  12,C   2)                1.0913 -0.000137  0.0000    1.0914   
    13. B(H  13,C   2)                1.0927 -0.000175  0.0002    1.0929   
    14. B(H  14,C   3)                1.0966  0.000091 -0.0001    1.0965   
    15. B(H  15,C   3)                1.0976  0.000082 -0.0001    1.0976   
    16. B(H  16,O   6)                0.9662 -0.000838  0.0007    0.9669   
    17. A(H   9,C   0,H  10)          109.65 -0.000308    0.14    109.80   
    18. A(C   1,C   0,H   8)          110.47 -0.000527    0.12    110.59   
    19. A(H   8,C   0,H  10)          106.62  0.001003   -0.31    106.30   
    20. A(C   1,C   0,H   9)          110.16  0.000868   -0.24    109.92   
    21. A(H   8,C   0,H   9)          109.39 -0.000330    0.14    109.54   
    22. A(C   1,C   0,H  10)          110.47 -0.000714    0.15    110.62   
    23. A(C   0,C   1,H  11)          119.46  0.001046   -0.21    119.25   
    24. A(C   0,C   1,C   4)          121.42 -0.000847    0.14    121.56   
    25. A(C   4,C   1,H  11)          119.13 -0.000199    0.07    119.19   
    26. A(C   4,C   2,H  13)          108.95 -0.000071    0.01    108.96   
    27. A(H  12,C   2,H  13)          107.42 -0.000260    0.08    107.50   
    28. A(C   3,C   2,H  13)          109.82  0.000383   -0.09    109.73   
    29. A(C   4,C   2,H  12)          109.84  0.000039    0.02    109.86   
    30. A(C   3,C   2,H  12)          109.46  0.000129   -0.03    109.43   
    31. A(C   3,C   2,C   4)          111.27 -0.000221    0.02    111.29   
    32. A(C   2,C   3,O   7)          106.75  0.000896   -0.22    106.53   
    33. A(H  14,C   3,H  15)          108.20  0.000163    0.09    108.29   
    34. A(O   7,C   3,H  15)          110.31 -0.000977    0.18    110.50   
    35. A(C   2,C   3,H  15)          110.82  0.000260   -0.09    110.74   
    36. A(O   7,C   3,H  14)          110.30 -0.000574    0.12    110.41   
    37. A(C   2,C   3,H  14)          110.47  0.000216   -0.08    110.39   
    38. A(C   1,C   4,C   2)          115.17 -0.000707    0.06    115.24   
    39. A(C   2,C   4,O   5)          122.36  0.002329   -0.35    122.01   
    40. A(C   1,C   4,O   5)          122.47 -0.001632    0.30    122.76   
    41. A(O   7,O   6,H  16)          103.48 -0.001058    0.46    103.94   
    42. A(C   3,O   7,O   6)          110.28  0.001080    0.01    110.29   
    43. D(H  11,C   1,C   0,H   8)    -60.01 -0.000154    0.20    -59.82   
    44. D(C   4,C   1,C   0,H  10)   -122.51  0.000228    0.07   -122.43   
    45. D(C   4,C   1,C   0,H   9)     -1.21 -0.000054    0.20     -1.01   
    46. D(H  11,C   1,C   0,H   9)    179.01  0.000035    0.09    179.11   
    47. D(C   4,C   1,C   0,H   8)    119.77 -0.000242    0.30    120.07   
    48. D(O   7,C   3,C   2,H  12)     55.00 -0.000182    0.84     55.85   
    49. D(O   7,C   3,C   2,C   4)    176.59 -0.000190    0.86    177.45   
    50. D(H  14,C   3,C   2,H  12)    -64.93 -0.000152    0.89    -64.04   
    51. D(H  14,C   3,C   2,C   4)     56.66 -0.000161    0.90     57.56   
    52. D(H  14,C   3,C   2,H  13)    177.37 -0.000138    0.87    178.24   
    53. D(O   7,C   3,C   2,H  13)    -62.70 -0.000168    0.82    -61.87   
    54. D(O   5,C   4,C   1,C   0)     -0.25  0.000285   -0.86     -1.11   
    55. D(C   2,C   4,C   1,H  11)     -1.29 -0.000496    2.09      0.80   
    56. D(O   5,C   4,C   1,H  11)    179.53  0.000199   -0.76    178.77   
    57. D(C   2,C   4,C   1,C   0)    178.93 -0.000411    1.99    180.92   
    58. D(O   5,C   4,C   2,H  12)    128.49 -0.000222    1.05    129.53   
    59. D(O   5,C   4,C   2,C   3)      7.12 -0.000265    1.06      8.18   
    60. D(C   1,C   4,C   2,H  13)     66.72  0.000177   -1.78     64.94   
    61. D(C   1,C   4,C   2,H  12)    -50.69  0.000510   -1.89    -52.58   
    62. D(C   1,C   4,C   2,C   3)   -172.06  0.000466   -1.88   -173.94   
    63. D(C   3,O   7,O   6,H  16)   -123.66 -0.000019   -0.41   -124.07   
    64. D(O   6,O   7,C   3,H  15)     57.55 -0.000666    1.23     58.78   
    65. D(O   6,O   7,C   3,H  14)    -61.92  0.000114    0.93    -60.99   
    66. D(O   6,O   7,C   3,C   2)    178.03 -0.000362    1.09    179.13   
    ----------------------------------------------------------------------------

Geometry step timings:
Preparation and reading OPT file:      0.000 s ( 1.151 %)
Internal coordinates            :      0.000 s ( 1.790 %)
B/P matrices and projection     :      0.000 s (27.749 %)
Hessian update/contruction      :      0.000 s (21.036 %)
Making the step                 :      0.000 s (20.908 %)
Converting the step to Cartesian:      0.000 s ( 2.558 %)
Storing new data                :      0.000 s ( 1.662 %)
Checking convergence            :      0.000 s ( 2.302 %)
Final printing                  :      0.000 s (20.652 %)
Total time                      :      0.002 s

Time for energy+gradient        :      0.059 s
Time for complete geometry iter :      0.061 s

         *************************************************************
         *                GEOMETRY OPTIMIZATION CYCLE   4            *
         *************************************************************
---------------------------------
CARTESIAN COORDINATES (ANGSTROEM)
---------------------------------
  C    -3.205753   -0.261926   -0.402845
  C    -1.839958   -0.034679   -0.889783
  C     0.633993    0.132589   -0.678794
  C     1.782510   -0.166769    0.272848
  C    -0.711870   -0.156490   -0.029054
  O    -0.812678   -0.435826    1.164583
  O     4.102681   -0.159668    0.377831
  O     2.974400    0.077150   -0.446200
  H    -3.814947    0.636672   -0.533229
  H    -3.183224   -0.536604    0.649225
  H    -3.694312   -1.050388   -0.980930
  H    -1.686484    0.232965   -1.924110
  H     0.745740   -0.468218   -1.583026
  H     0.665966    1.183576   -0.976720
  H     1.742285   -1.211529    0.603324
  H     1.730193    0.477395    1.159965
  H     4.593371    0.672864    0.345839

----------------------------
CARTESIAN COORDINATES (A.U.)
----------------------------
  NO LB    ZA    FRAG    MASS        X           Y           Z
   0 C   6.0000    1    12.011   -6.057995   -0.494968   -0.761268
   1 C   6.0000    1    12.011   -3.477016   -0.065535   -1.681446
   2 C   6.0000    1    12.011    1.198074    0.250558   -1.282735
   3 C   6.0000    1    12.011    3.368456   -0.315147    0.515608
   4 C   6.0000    1    12.011   -1.345240   -0.295724   -0.054904
   5 O   8.0000    1    15.999   -1.535739   -0.823592    2.200743
   6 O   8.0000    1    15.999    7.752943   -0.301729    0.713996
   7 O   8.0000    1    15.999    5.620802    0.145793   -0.843195
   8 H   1.0000    1     1.008   -7.209204    1.203136   -1.007657
   9 H   1.0000    1     1.008   -6.015422   -1.014035    1.226857
  10 H   1.0000    1     1.008   -6.981237   -1.984946   -1.853689
  11 H   1.0000    1     1.008   -3.186993    0.440240   -3.636041
  12 H   1.0000    1     1.008    1.409245   -0.884804   -2.991485
  13 H   1.0000    1     1.008    1.258494    2.236634   -1.845734
  14 H   1.0000    1     1.008    3.292441   -2.289457    1.140117
  15 H   1.0000    1     1.008    3.269591    0.902146    2.192017
  16 H   1.0000    1     1.008    8.680213    1.271529    0.653541

      -----------------------------------------------------------      
     |                   =====================                   |     
     |                           x T B                           |     
     |                   =====================                   |     
     |                         S. Grimme                         |     
     |          Mulliken Center for Theoretical Chemistry        |     
     |                    University of Bonn                     |     
      -----------------------------------------------------------      

   * xtb version 6.7.1 (edcfbbe) compiled by 'albert@albert-system' on 2024-07-22

   xtb is free software: you can redistribute it and/or modify it under
   the terms of the GNU Lesser General Public License as published by
   the Free Software Foundation, either version 3 of the License, or
   (at your option) any later version.
   
   xtb is distributed in the hope that it will be useful,
   but WITHOUT ANY WARRANTY; without even the implied warranty of
   MERCHANTABILITY or FITNESS FOR A PARTICULAR PURPOSE.  See the
   GNU Lesser General Public License for more details.
   
   Cite this work as:
   * C. Bannwarth, E. Caldeweyher, S. Ehlert, A. Hansen, P. Pracht,
     J. Seibert, S. Spicher, S. Grimme, WIREs Comput. Mol. Sci., 2020, 11,
     e01493. DOI: 10.1002/wcms.1493
   
   for GFN2-xTB:
   * C. Bannwarth, S. Ehlert and S. Grimme., J. Chem. Theory Comput., 2019,
     15, 1652-1671. DOI: 10.1021/acs.jctc.8b01176
   for GFN1-xTB:
   * S. Grimme, C. Bannwarth, P. Shushkov, J. Chem. Theory Comput., 2017,
     13, 1989-2009. DOI: 10.1021/acs.jctc.7b00118
   for GFN0-xTB:
   * P. Pracht, E. Caldeweyher, S. Ehlert, S. Grimme, ChemRxiv, 2019, preprint.
     DOI: 10.26434/chemrxiv.8326202.v1
   for GFN-FF:
   * S. Spicher and S. Grimme, Angew. Chem. Int. Ed., 2020, 59, 15665-15673.
     DOI: 10.1002/anie.202004239
   
   for ALPB and GBSA implicit solvation:
   * S. Ehlert, M. Stahn, S. Spicher, S. Grimme, J. Chem. Theory Comput.,
     2021, 17, 4250-4261. DOI: 10.1021/acs.jctc.1c00471
   
   for ddCOSMO and CPCM-X implicit solvation:
   * M. Stahn, S. Ehlert, S. Grimme, J. Phys. Chem. A,
     2023, XX, XXXX-XXXX. DOI: 10.1021/acs.jpca.3c04382
   
   for DFT-D4:
   * E. Caldeweyher, C. Bannwarth and S. Grimme, J. Chem. Phys., 2017,
     147, 034112. DOI: 10.1063/1.4993215
   * E. Caldeweyher, S. Ehlert, A. Hansen, H. Neugebauer, S. Spicher,
     C. Bannwarth and S. Grimme, J. Chem. Phys., 2019, 150, 154122.
     DOI: 10.1063/1.5090222
   * E. Caldeweyher, J.-M. Mewes, S. Ehlert and S. Grimme, Phys. Chem. Chem. Phys.
     2020, 22, 8499-8512. DOI: 10.1039/D0CP00502A
   
   for sTDA-xTB:
   * S. Grimme and C. Bannwarth, J. Chem. Phys., 2016, 145, 054103.
     DOI: 10.1063/1.4959605
   
   in the mass-spec context:
   * V. Asgeirsson, C. Bauer and S. Grimme, Chem. Sci., 2017, 8, 4879.
     DOI: 10.1039/c7sc00601b
   * J. Koopman and S. Grimme, ACS Omega 2019, 4, 12, 15120-15133.
     DOI: 10.1021/acsomega.9b02011
   
   for metadynamics refer to:
   * S. Grimme, J. Chem. Theory Comput., 2019, 155, 2847-2862
     DOI: 10.1021/acs.jctc.9b00143
   
   for SPH calculations refer to:
   * S. Spicher and S. Grimme, J. Chem. Theory Comput., 2021, 17, 1701-1714
     DOI: 10.1021/acs.jctc.0c01306
   
   for ONIOM refer to:
   * C. Plett, A. Katbashev, S. Ehlert, S. Grimme, M. Bursch,
     Phys. Chem. Chem. Phys., 2023, 25, 17860-17868. DOI: 10.1039/D3CP02178E
   
   for DIPRO refer to:
   * J. Kohn, N. Gildemeister, S. Grimme, D. Fazzi, A. Hansen,
     J. Chem. Phys., 2023, just accepted.
   
   for PTB refer to:
   * S. Grimme, M. Mueller, A. Hansen, J. Chem. Phys., 2023, 158, 124111.
     DOI: 10.1063/5.0137838
   
   with help from (in alphabetical order)
   P. Atkinson, C. Bannwarth, F. Bohle, G. Brandenburg, E. Caldeweyher
   M. Checinski, S. Dohm, S. Ehlert, S. Ehrlich, I. Gerasimov, C. Hölzer
   A. Katbashev, J. Kohn, J. Koopman, C. Lavigne, S. Lehtola, F. März, M. Müller,
   F. Musil, H. Neugebauer, J. Pisarek, C. Plett, P. Pracht, F. Pultar,
   J. Seibert, P. Shushkov, S. Spicher, M. Stahn, M. Steiner, T. Strunk,
   J. Stückrath, T. Rose, and J. Unsleber
   
 * started run on 2026/02/22 at 12:32:54.176     
   ID    Z sym.   atoms
    1    6 C      1-5
    2    8 O      6-8
    3    1 H      9-17

           -------------------------------------------------
          |                Calculation Setup                |
           -------------------------------------------------

          program call               : /apps/eb/ORCA/6.1.1-gompi-2024a-avx2/bin/otool_xtb goat_XTB.xyz --grad -c 0 -u 1 -P 8 --namespace goat --input goat_XTB.input.tmp --acc 0.200000
          hostname                   : e2-9
          calculation namespace      : goat
          coordinate file            : goat_XTB.xyz
          omp threads                :                     8


           -------------------------------------------------
          |                 G F N 2 - x T B                 |
           -------------------------------------------------

        Reference                      10.1021/acs.jctc.8b01176
      * Hamiltonian:
        H0-scaling (s, p, d)           1.850000    2.230000    2.230000
        zeta-weighting                 0.500000
      * Dispersion:
        s8                             2.700000
        a1                             0.520000
        a2                             5.000000
        s9                             5.000000
      * Repulsion:
        kExp                           1.500000    1.000000
        rExp                           1.000000
      * Coulomb:
        alpha                          2.000000
        third order                    shell-resolved
        anisotropic                    true
        a3                             3.000000
        a5                             4.000000
        cn-shift                       1.200000
        cn-exp                         4.000000
        max-rad                        5.000000

q/qsh data taken from xtbrestart
CAMM data taken from xtbrestart

          ...................................................
          :                      SETUP                      :
          :.................................................:
          :  # basis functions                  41          :
          :  # atomic orbitals                  41          :
          :  # shells                           25          :
          :  # electrons                        47          :
          :  max. iterations                   250          :
          :  Hamiltonian                  GFN2-xTB          :
          :  restarted?                       true          :
          :  GBSA solvation                  false          :
          :  PC potential                    false          :
          :  electronic temp.          300.0000000     K    :
          :  accuracy                    0.2000000          :
          :  -> integral cutoff          0.3198970E+02      :
          :  -> integral neglect         0.2000000E-08      :
          :  -> SCF convergence          0.2000000E-06 Eh   :
          :  -> wf. convergence          0.2000000E-04 e    :
          :  Broyden damping             0.4000000          :
          :  net charge                          0          :
          :  unpaired electrons                  1          :
          ...................................................

 iter      E             dE          RMSdq      gap      omega  full diag
   1    -27.5987939 -0.275988E+02  0.108E-01    4.43       0.0  T
   2    -27.5987948 -0.889757E-06  0.647E-02    4.44       1.0  T
   3    -27.5987950 -0.189860E-06  0.550E-03    4.43       4.4  T
   4    -27.5987952 -0.210069E-06  0.279E-03    4.44       8.7  T
   5    -27.5987952 -0.108286E-07  0.849E-04    4.43      28.6  T
   6    -27.5987952 -0.179372E-08  0.290E-04    4.43      83.6  T
   7    -27.5987952 -0.160107E-09  0.109E-04    4.43     222.3  T
   8    -27.5987952 -0.513900E-10  0.522E-05    4.43     464.3  T

   *** convergence criteria satisfied after 8 iterations ***

         #    Occupation            Energy/Eh            Energy/eV
      -------------------------------------------------------------
         1        2.0000           -0.7182605             -19.5449
       ...           ...                  ...                  ...
        18        2.0000           -0.4744799             -12.9113
        19        2.0000           -0.4698647             -12.7857
        20        2.0000           -0.4650847             -12.6556
        21        2.0000           -0.4551691             -12.3858
        22        2.0000           -0.4099365             -11.1549
        23        2.0000           -0.3982053             -10.8357
        24        1.0000           -0.3690102             -10.0413 (HOMO)
        25                         -0.2060325              -5.6064 (LUMO)
        26                         -0.1406435              -3.8271
        27                          0.0509796               1.3872
        28                          0.0872608               2.3745
        29                          0.1252186               3.4074
       ...                                ...                  ...
        41                          0.5931059              16.1392
      -------------------------------------------------------------
                  HL-Gap            0.1629776 Eh            4.4348 eV
             Fermi-level           -0.3355645 Eh           -9.1312 eV

 SCC (total)                   0 d,  0 h,  0 min,  0.012 sec
 SCC setup                      ...        0 min,  0.000 sec (  1.139%)
 Dispersion                     ...        0 min,  0.000 sec (  1.498%)
 classical contributions        ...        0 min,  0.000 sec (  0.754%)
 integral evaluation            ...        0 min,  0.001 sec (  6.824%)
 iterations                     ...        0 min,  0.008 sec ( 65.399%)
 molecular gradient             ...        0 min,  0.003 sec ( 20.969%)
 printout                       ...        0 min,  0.000 sec (  3.252%)

         :::::::::::::::::::::::::::::::::::::::::::::::::::::
         ::                     SUMMARY                     ::
         :::::::::::::::::::::::::::::::::::::::::::::::::::::
         :: total energy             -27.335161527179 Eh    ::
         :: gradient norm              0.004593265379 Eh/a0 ::
         :: HOMO-LUMO gap              4.434847051959 eV    ::
         ::.................................................::
         :: SCC energy               -27.598833265184 Eh    ::
         :: -> isotropic ES            0.056965010796 Eh    ::
         :: -> anisotropic ES         -0.004315412917 Eh    ::
         :: -> anisotropic XC         -0.001281107460 Eh    ::
         :: -> dispersion             -0.009429170635 Eh    ::
         :: repulsion energy           0.263671738005 Eh    ::
         :: add. restraining           0.000000000000 Eh    ::
         :: total charge               0.000000000001 e     ::
         :::::::::::::::::::::::::::::::::::::::::::::::::::::


Property printout bound to 'properties.out'

           -------------------------------------------------
          | TOTAL ENERGY              -27.335161527179 Eh   |
          | GRADIENT NORM               0.004593265379 Eh/α |
          | HOMO-LUMO GAP               4.434847051959 eV   |
           -------------------------------------------------

------------------------------------------------------------------------
 * finished run on 2026/02/22 at 12:32:54.219     
------------------------------------------------------------------------
 total:
 * wall-time:     0 d,  0 h,  0 min,  0.042 sec
 *  cpu-time:     0 d,  0 h,  0 min,  0.164 sec
 * ratio c/w:     3.865 speedup
 SCF:
 * wall-time:     0 d,  0 h,  0 min,  0.012 sec
 *  cpu-time:     0 d,  0 h,  0 min,  0.049 sec
 * ratio c/w:     3.975 speedup


-------------------------   --------------------
FINAL SINGLE POINT ENERGY       -27.335161527180
-------------------------   --------------------


-------------
DIPOLE MOMENT
-------------
                                X             Y             Z
Total Dipole Moment    :     -0.91500       0.84100      -1.05900
                        -----------------------------------------
Magnitude (a.u.)       :      1.63279
Magnitude (Debye)      :      4.15021


------------------
CARTESIAN GRADIENT
------------------

   1   C   :    0.000619186   -0.000015905   -0.000174494
   2   C   :   -0.000416467    0.000562502    0.000506881
   3   C   :   -0.000281316    0.000782112    0.000126117
   4   C   :   -0.000755031    0.000300872   -0.001040797
   5   C   :    0.000463836   -0.002792017   -0.000859695
   6   O   :   -0.000666281    0.001106473    0.000343053
   7   O   :   -0.000578171    0.001002186   -0.000967642
   8   O   :    0.000756694   -0.001058066    0.001505486
   9   H   :    0.000110362    0.000222990    0.000240553
  10   H   :   -0.000166671    0.000030307   -0.000054302
  11   H   :    0.000187055   -0.000190033    0.000060946
  12   H   :    0.000258548    0.000026259    0.000052233
  13   H   :   -0.000017064    0.000301558    0.000011822
  14   H   :   -0.000024494    0.000067707   -0.000032881
  15   H   :   -0.000043224   -0.000092975    0.000038097
  16   H   :    0.000424744    0.000034880    0.000117811
  17   H   :    0.000128295   -0.000288848    0.000126811

Difference to translation invariance:
           :    0.0000000000    0.0000000000    0.0000000000

Difference to rotation invariance:
           :    0.0000005870    0.0000005213   -0.0000001834

Norm of the Cartesian gradient     ...    0.0045932654
RMS gradient                       ...    0.0006431858
MAX gradient                       ...    0.0027920171
------------------------------------------------------------------------------
                         ORCA GEOMETRY RELAXATION STEP
------------------------------------------------------------------------------

Reading the OPT-File                    .... done
Getting information on internals        .... done
Copying old internal coords+grads       .... done
Making the new internal coordinates     .... (2022 redundants) done
Validating the new internal coordinates .... (2022 redundants) done
Calculating the B-matrix                .... done
Calculating the G,G- and P matrices     .... done
Transforming gradient to internals      .... done
Projecting the internal gradient        .... done
Number of atoms                         ....  17
Number of internal coordinates          ....  66
Current Energy                          ....   -27.335161527 Eh
Current gradient norm                   ....     0.004593265 Eh/bohr
Maximum allowed component of the step   ....  0.300
Current trust radius                    ....  0.450
Updating the Hessian (BFGS)             .... done
Forming the augmented Hessian           .... done
Diagonalizing the augmented Hessian     .... done
Last element of RFO vector              ....  0.996895956
Lowest eigenvalues of augmented Hessian:
 -0.000128338  0.008980701  0.011715956  0.012050137  0.013699557
Length of the computed step             ....  0.078975398
The final length of the internal step   ....  0.078975398
Converting the step to Cartesian space:
 Initial RMS(Int)=    0.0097211995
Transforming coordinates:
 Iter   0:  RMS(Cart)=    0.0107340132 RMS(Int)=    1.0900854313
done
Storing new coordinates                 .... done
The predicted energy change is          ....    -0.000064569
Previously predicted energy change      ....    -0.000108364
Actually observed energy change         ....    -0.000081752
Ratio of predicted to observed change   ....     0.754427532
New trust radius                        ....     0.675000000

                                .--------------------.
          ----------------------|Geometry convergence|-------------------------
          Item                value                   Tolerance       Converged
          ---------------------------------------------------------------------
          Energy change      -0.0000817524            0.0000050000      NO
          RMS gradient        0.0003618665            0.0001000000      NO
          MAX gradient        0.0011844404            0.0003000000      NO
          RMS step            0.0097211995            0.0020000000      NO
          MAX step            0.0316853817            0.0040000000      NO
          -------------------------------------------------------------------------
          ........................................................
          Max(Bonds)      0.0020      Max(Angles)    0.27
          Max(Dihed)        1.82      Max(Improp)    0.00
          ---------------------------------------------------------------------

    ---------------------------------------------------------------------------
                         Redundant Internal Coordinates
                            (Angstroem and degrees)

        Definition                    Value    dE/dq     Step     New-Value
    ----------------------------------------------------------------------------
     1. B(C   1,C   0)                1.4677 -0.000681  0.0018    1.4695   
     2. B(C   3,C   2)                1.5213 -0.000168  0.0003    1.5216   
     3. B(C   4,C   1)                1.4242 -0.000796  0.0018    1.4259   
     4. B(C   4,C   2)                1.5222 -0.000096  0.0009    1.5231   
     5. B(O   5,C   4)                1.2300  0.000136  0.0003    1.2304   
     6. B(O   7,O   6)                1.4171 -0.000966  0.0020    1.4191   
     7. B(O   7,C   3)                1.4132 -0.000139  0.0002    1.4134   
     8. B(H   8,C   0)                1.0934  0.000093 -0.0002    1.0933   
     9. B(H   9,C   0)                1.0876 -0.000064  0.0002    1.0878   
    10. B(H  10,C   0)                1.0930  0.000021 -0.0001    1.0928   
    11. B(H  11,C   1)                1.0794 -0.000007  0.0002    1.0795   
    12. B(H  12,C   2)                1.0914 -0.000178  0.0002    1.0916   
    13. B(H  13,C   2)                1.0929  0.000073 -0.0000    1.0929   
    14. B(H  14,C   3)                1.0965  0.000102 -0.0002    1.0963   
    15. B(H  15,C   3)                1.0976  0.000095 -0.0002    1.0974   
    16. B(H  16,O   6)                0.9669 -0.000188  0.0005    0.9674   
    17. A(H   9,C   0,H  10)          109.80 -0.000104    0.08    109.88   
    18. A(C   1,C   0,H   8)          110.59 -0.000109    0.06    110.65   
    19. A(H   8,C   0,H  10)          106.30  0.000334   -0.21    106.09   
    20. A(C   1,C   0,H   9)          109.92  0.000204   -0.12    109.80   
    21. A(H   8,C   0,H   9)          109.54 -0.000149    0.10    109.64   
    22. A(C   1,C   0,H  10)          110.62 -0.000178    0.08    110.70   
    23. A(C   0,C   1,H  11)          119.25  0.000398   -0.15    119.10   
    24. A(C   0,C   1,C   4)          121.56 -0.000257    0.10    121.66   
    25. A(C   4,C   1,H  11)          119.19 -0.000141    0.05    119.24   
    26. A(C   4,C   2,H  13)          108.96  0.000171   -0.03    108.93   
    27. A(H  12,C   2,H  13)          107.49  0.000012    0.03    107.52   
    28. A(C   3,C   2,H  13)          109.74 -0.000040   -0.04    109.69   
    29. A(C   4,C   2,H  12)          109.85  0.000029    0.01    109.86   
    30. A(C   3,C   2,H  12)          109.43  0.000031   -0.01    109.42   
    31. A(C   3,C   2,C   4)          111.29 -0.000195    0.04    111.33   
    32. A(C   2,C   3,O   7)          106.53  0.000414   -0.16    106.37   
    33. A(H  14,C   3,H  15)          108.29  0.000154    0.02    108.32   
    34. A(O   7,C   3,H  15)          110.50 -0.000571    0.17    110.67   
    35. A(C   2,C   3,H  15)          110.74  0.000210   -0.08    110.66   
    36. A(O   7,C   3,H  14)          110.41 -0.000222    0.09    110.50   
    37. A(C   2,C   3,H  14)          110.38  0.000008   -0.05    110.34   
    38. A(C   1,C   4,C   2)          115.22 -0.000419    0.08    115.30   
    39. A(C   2,C   4,O   5)          121.99  0.000838   -0.27    121.72   
    40. A(C   1,C   4,O   5)          122.75 -0.000452    0.17    122.92   
    41. A(O   7,O   6,H  16)          103.94  0.000507    0.10    104.04   
    42. A(C   3,O   7,O   6)          110.29  0.001184   -0.18    110.12   
    43. D(H  11,C   1,C   0,H   8)    -59.82 -0.000092    0.18    -59.64   
    44. D(C   4,C   1,C   0,H  10)   -122.43  0.000098    0.10   -122.34   
    45. D(C   4,C   1,C   0,H   9)     -1.01 -0.000014    0.17     -0.84   
    46. D(H  11,C   1,C   0,H   9)    179.11  0.000031    0.08    179.19   
    47. D(C   4,C   1,C   0,H   8)    120.06 -0.000137    0.27    120.33   
    48. D(O   7,C   3,C   2,H  12)     55.85 -0.000123    0.97     56.82   
    49. D(O   7,C   3,C   2,C   4)    177.45 -0.000194    1.00    178.45   
    50. D(H  14,C   3,C   2,H  12)    -64.04 -0.000109    0.98    -63.06   
    51. D(H  14,C   3,C   2,C   4)     57.56 -0.000180    1.01     58.57   
    52. D(H  14,C   3,C   2,H  13)    178.24 -0.000119    0.97    179.21   
    53. D(O   7,C   3,C   2,H  13)    -61.87 -0.000133    0.96    -60.91   
    54. D(O   5,C   4,C   1,C   0)     -1.13 -0.000489    1.17      0.03   
    55. D(C   2,C   4,C   1,H  11)      0.83  0.000440   -0.42      0.41   
    56. D(O   5,C   4,C   1,H  11)    178.75 -0.000533    1.26    180.00   
    57. D(C   2,C   4,C   1,C   0)   -179.05  0.000484   -0.51   -179.56   
    58. D(O   5,C   4,C   2,H  12)    129.50  0.000643   -1.79    127.71   
    59. D(O   5,C   4,C   2,C   3)      8.15  0.000713   -1.82      6.34   
    60. D(C   1,C   4,C   2,H  13)     64.95 -0.000220   -0.00     64.95   
    61. D(C   1,C   4,C   2,H  12)    -52.56 -0.000352   -0.03    -52.59   
    62. D(C   1,C   4,C   2,C   3)   -173.91 -0.000281   -0.05   -173.96   
    63. D(C   3,O   7,O   6,H  16)   -124.07 -0.000107    0.26   -123.81   
    64. D(O   6,O   7,C   3,H  15)     58.78 -0.000411    1.26     60.04   
    65. D(O   6,O   7,C   3,H  14)    -61.00 -0.000093    1.06    -59.93   
    66. D(O   6,O   7,C   3,C   2)    179.13 -0.000228    1.16    180.29   
    ----------------------------------------------------------------------------

Geometry step timings:
Preparation and reading OPT file:      0.000 s ( 0.982 %)
Internal coordinates            :      0.000 s ( 1.501 %)
B/P matrices and projection     :      0.000 s (24.942 %)
Hessian update/contruction      :      0.000 s (21.363 %)
Making the step                 :      0.000 s (18.418 %)
Converting the step to Cartesian:      0.000 s ( 2.194 %)
Storing new data                :      0.000 s ( 1.386 %)
Checking convergence            :      0.000 s ( 1.963 %)
Final printing                  :      0.000 s (27.252 %)
Total time                      :      0.002 s

Time for energy+gradient        :      0.054 s
Time for complete geometry iter :      0.056 s

         *************************************************************
         *                GEOMETRY OPTIMIZATION CYCLE   5            *
         *************************************************************
---------------------------------
CARTESIAN COORDINATES (ANGSTROEM)
---------------------------------
  C    -3.209611   -0.260281   -0.401217
  C    -1.842427   -0.030440   -0.888596
  C     0.635923    0.130090   -0.681494
  C     1.784620   -0.163778    0.272149
  C    -0.711450   -0.148832   -0.028278
  O    -0.804390   -0.447992    1.161543
  O     4.104271   -0.163601    0.373028
  O     2.974373    0.093457   -0.446122
  H    -3.822721    0.634740   -0.536374
  H    -3.184772   -0.530892    0.652086
  H    -3.697117   -1.051123   -0.976714
  H    -1.691868    0.235094   -1.924084
  H     0.745550   -0.479272   -1.580526
  H     0.671063    1.178450   -0.988175
  H     1.751300   -1.210088    0.597806
  H     1.722936    0.476294    1.161430
  H     4.596236    0.669286    0.362462

----------------------------
CARTESIAN COORDINATES (A.U.)
----------------------------
  NO LB    ZA    FRAG    MASS        X           Y           Z
   0 C   6.0000    1    12.011   -6.065285   -0.491859   -0.758190
   1 C   6.0000    1    12.011   -3.481683   -0.057522   -1.679202
   2 C   6.0000    1    12.011    1.201721    0.245834   -1.287838
   3 C   6.0000    1    12.011    3.372442   -0.309495    0.514287
   4 C   6.0000    1    12.011   -1.344446   -0.281251   -0.053437
   5 O   8.0000    1    15.999   -1.520077   -0.846583    2.194998
   6 O   8.0000    1    15.999    7.755947   -0.309160    0.704920
   7 O   8.0000    1    15.999    5.620750    0.176608   -0.843049
   8 H   1.0000    1     1.008   -7.223897    1.199484   -1.013600
   9 H   1.0000    1     1.008   -6.018346   -1.003240    1.232265
  10 H   1.0000    1     1.008   -6.986539   -1.986335   -1.845721
  11 H   1.0000    1     1.008   -3.197168    0.444264   -3.635992
  12 H   1.0000    1     1.008    1.408885   -0.905692   -2.986761
  13 H   1.0000    1     1.008    1.268125    2.226948   -1.867381
  14 H   1.0000    1     1.008    3.309478   -2.286734    1.129690
  15 H   1.0000    1     1.008    3.255878    0.900066    2.194784
  16 H   1.0000    1     1.008    8.685627    1.264767    0.684954

      -----------------------------------------------------------      
     |                   =====================                   |     
     |                           x T B                           |     
     |                   =====================                   |     
     |                         S. Grimme                         |     
     |          Mulliken Center for Theoretical Chemistry        |     
     |                    University of Bonn                     |     
      -----------------------------------------------------------      

   * xtb version 6.7.1 (edcfbbe) compiled by 'albert@albert-system' on 2024-07-22

   xtb is free software: you can redistribute it and/or modify it under
   the terms of the GNU Lesser General Public License as published by
   the Free Software Foundation, either version 3 of the License, or
   (at your option) any later version.
   
   xtb is distributed in the hope that it will be useful,
   but WITHOUT ANY WARRANTY; without even the implied warranty of
   MERCHANTABILITY or FITNESS FOR A PARTICULAR PURPOSE.  See the
   GNU Lesser General Public License for more details.
   
   Cite this work as:
   * C. Bannwarth, E. Caldeweyher, S. Ehlert, A. Hansen, P. Pracht,
     J. Seibert, S. Spicher, S. Grimme, WIREs Comput. Mol. Sci., 2020, 11,
     e01493. DOI: 10.1002/wcms.1493
   
   for GFN2-xTB:
   * C. Bannwarth, S. Ehlert and S. Grimme., J. Chem. Theory Comput., 2019,
     15, 1652-1671. DOI: 10.1021/acs.jctc.8b01176
   for GFN1-xTB:
   * S. Grimme, C. Bannwarth, P. Shushkov, J. Chem. Theory Comput., 2017,
     13, 1989-2009. DOI: 10.1021/acs.jctc.7b00118
   for GFN0-xTB:
   * P. Pracht, E. Caldeweyher, S. Ehlert, S. Grimme, ChemRxiv, 2019, preprint.
     DOI: 10.26434/chemrxiv.8326202.v1
   for GFN-FF:
   * S. Spicher and S. Grimme, Angew. Chem. Int. Ed., 2020, 59, 15665-15673.
     DOI: 10.1002/anie.202004239
   
   for ALPB and GBSA implicit solvation:
   * S. Ehlert, M. Stahn, S. Spicher, S. Grimme, J. Chem. Theory Comput.,
     2021, 17, 4250-4261. DOI: 10.1021/acs.jctc.1c00471
   
   for ddCOSMO and CPCM-X implicit solvation:
   * M. Stahn, S. Ehlert, S. Grimme, J. Phys. Chem. A,
     2023, XX, XXXX-XXXX. DOI: 10.1021/acs.jpca.3c04382
   
   for DFT-D4:
   * E. Caldeweyher, C. Bannwarth and S. Grimme, J. Chem. Phys., 2017,
     147, 034112. DOI: 10.1063/1.4993215
   * E. Caldeweyher, S. Ehlert, A. Hansen, H. Neugebauer, S. Spicher,
     C. Bannwarth and S. Grimme, J. Chem. Phys., 2019, 150, 154122.
     DOI: 10.1063/1.5090222
   * E. Caldeweyher, J.-M. Mewes, S. Ehlert and S. Grimme, Phys. Chem. Chem. Phys.
     2020, 22, 8499-8512. DOI: 10.1039/D0CP00502A
   
   for sTDA-xTB:
   * S. Grimme and C. Bannwarth, J. Chem. Phys., 2016, 145, 054103.
     DOI: 10.1063/1.4959605
   
   in the mass-spec context:
   * V. Asgeirsson, C. Bauer and S. Grimme, Chem. Sci., 2017, 8, 4879.
     DOI: 10.1039/c7sc00601b
   * J. Koopman and S. Grimme, ACS Omega 2019, 4, 12, 15120-15133.
     DOI: 10.1021/acsomega.9b02011
   
   for metadynamics refer to:
   * S. Grimme, J. Chem. Theory Comput., 2019, 155, 2847-2862
     DOI: 10.1021/acs.jctc.9b00143
   
   for SPH calculations refer to:
   * S. Spicher and S. Grimme, J. Chem. Theory Comput., 2021, 17, 1701-1714
     DOI: 10.1021/acs.jctc.0c01306
   
   for ONIOM refer to:
   * C. Plett, A. Katbashev, S. Ehlert, S. Grimme, M. Bursch,
     Phys. Chem. Chem. Phys., 2023, 25, 17860-17868. DOI: 10.1039/D3CP02178E
   
   for DIPRO refer to:
   * J. Kohn, N. Gildemeister, S. Grimme, D. Fazzi, A. Hansen,
     J. Chem. Phys., 2023, just accepted.
   
   for PTB refer to:
   * S. Grimme, M. Mueller, A. Hansen, J. Chem. Phys., 2023, 158, 124111.
     DOI: 10.1063/5.0137838
   
   with help from (in alphabetical order)
   P. Atkinson, C. Bannwarth, F. Bohle, G. Brandenburg, E. Caldeweyher
   M. Checinski, S. Dohm, S. Ehlert, S. Ehrlich, I. Gerasimov, C. Hölzer
   A. Katbashev, J. Kohn, J. Koopman, C. Lavigne, S. Lehtola, F. März, M. Müller,
   F. Musil, H. Neugebauer, J. Pisarek, C. Plett, P. Pracht, F. Pultar,
   J. Seibert, P. Shushkov, S. Spicher, M. Stahn, M. Steiner, T. Strunk,
   J. Stückrath, T. Rose, and J. Unsleber
   
 * started run on 2026/02/22 at 12:32:54.232     
   ID    Z sym.   atoms
    1    6 C      1-5
    2    8 O      6-8
    3    1 H      9-17

           -------------------------------------------------
          |                Calculation Setup                |
           -------------------------------------------------

          program call               : /apps/eb/ORCA/6.1.1-gompi-2024a-avx2/bin/otool_xtb goat_XTB.xyz --grad -c 0 -u 1 -P 8 --namespace goat --input goat_XTB.input.tmp --acc 0.200000
          hostname                   : e2-9
          calculation namespace      : goat
          coordinate file            : goat_XTB.xyz
          omp threads                :                     8


           -------------------------------------------------
          |                 G F N 2 - x T B                 |
           -------------------------------------------------

        Reference                      10.1021/acs.jctc.8b01176
      * Hamiltonian:
        H0-scaling (s, p, d)           1.850000    2.230000    2.230000
        zeta-weighting                 0.500000
      * Dispersion:
        s8                             2.700000
        a1                             0.520000
        a2                             5.000000
        s9                             5.000000
      * Repulsion:
        kExp                           1.500000    1.000000
        rExp                           1.000000
      * Coulomb:
        alpha                          2.000000
        third order                    shell-resolved
        anisotropic                    true
        a3                             3.000000
        a5                             4.000000
        cn-shift                       1.200000
        cn-exp                         4.000000
        max-rad                        5.000000

q/qsh data taken from xtbrestart
CAMM data taken from xtbrestart

          ...................................................
          :                      SETUP                      :
          :.................................................:
          :  # basis functions                  41          :
          :  # atomic orbitals                  41          :
          :  # shells                           25          :
          :  # electrons                        47          :
          :  max. iterations                   250          :
          :  Hamiltonian                  GFN2-xTB          :
          :  restarted?                       true          :
          :  GBSA solvation                  false          :
          :  PC potential                    false          :
          :  electronic temp.          300.0000000     K    :
          :  accuracy                    0.2000000          :
          :  -> integral cutoff          0.3198970E+02      :
          :  -> integral neglect         0.2000000E-08      :
          :  -> SCF convergence          0.2000000E-06 Eh   :
          :  -> wf. convergence          0.2000000E-04 e    :
          :  Broyden damping             0.4000000          :
          :  net charge                          0          :
          :  unpaired electrons                  1          :
          ...................................................

 iter      E             dE          RMSdq      gap      omega  full diag
   1    -27.5980083 -0.275980E+02  0.649E-02    4.43       0.0  T
   2    -27.5980089 -0.590482E-06  0.401E-02    4.43       1.0  T
   3    -27.5980090 -0.126570E-06  0.457E-03    4.43       5.3  T
   4    -27.5980092 -0.202195E-06  0.211E-03    4.43      11.5  T
   5    -27.5980092 -0.624748E-08  0.882E-04    4.43      27.5  T
   6    -27.5980092 -0.246047E-08  0.264E-04    4.43      91.9  T
   7    -27.5980092 -0.200000E-09  0.134E-04    4.43     181.2  T
   8    -27.5980092 -0.127738E-09  0.629E-05    4.43     385.8  T

   *** convergence criteria satisfied after 8 iterations ***

         #    Occupation            Energy/Eh            Energy/eV
      -------------------------------------------------------------
         1        2.0000           -0.7179411             -19.5362
       ...           ...                  ...                  ...
        18        2.0000           -0.4741035             -12.9010
        19        2.0000           -0.4700440             -12.7905
        20        2.0000           -0.4652199             -12.6593
        21        2.0000           -0.4551572             -12.3855
        22        2.0000           -0.4101519             -11.1608
        23        2.0000           -0.3982534             -10.8370
        24        1.0000           -0.3690743             -10.0430 (HOMO)
        25                         -0.2063922              -5.6162 (LUMO)
        26                         -0.1422253              -3.8701
        27                          0.0497744               1.3544
        28                          0.0859966               2.3401
        29                          0.1249097               3.3990
       ...                                ...                  ...
        41                          0.5913690              16.0920
      -------------------------------------------------------------
                  HL-Gap            0.1626821 Eh            4.4268 eV
             Fermi-level           -0.3356985 Eh           -9.1348 eV

 SCC (total)                   0 d,  0 h,  0 min,  0.020 sec
 SCC setup                      ...        0 min,  0.000 sec (  2.240%)
 Dispersion                     ...        0 min,  0.000 sec (  1.214%)
 classical contributions        ...        0 min,  0.000 sec (  0.872%)
 integral evaluation            ...        0 min,  0.001 sec (  4.423%)
 iterations                     ...        0 min,  0.014 sec ( 72.224%)
 molecular gradient             ...        0 min,  0.003 sec ( 15.462%)
 printout                       ...        0 min,  0.001 sec (  3.448%)

         :::::::::::::::::::::::::::::::::::::::::::::::::::::
         ::                     SUMMARY                     ::
         :::::::::::::::::::::::::::::::::::::::::::::::::::::
         :: total energy             -27.335234147038 Eh    ::
         :: gradient norm              0.001871235327 Eh/a0 ::
         :: HOMO-LUMO gap              4.426805571191 eV    ::
         ::.................................................::
         :: SCC energy               -27.598047328481 Eh    ::
         :: -> isotropic ES            0.056945885679 Eh    ::
         :: -> anisotropic ES         -0.004286927635 Eh    ::
         :: -> anisotropic XC         -0.001157481506 Eh    ::
         :: -> dispersion             -0.009424258215 Eh    ::
         :: repulsion energy           0.262813181443 Eh    ::
         :: add. restraining           0.000000000000 Eh    ::
         :: total charge               0.000000000001 e     ::
         :::::::::::::::::::::::::::::::::::::::::::::::::::::


Property printout bound to 'properties.out'

           -------------------------------------------------
          | TOTAL ENERGY              -27.335234147038 Eh   |
          | GRADIENT NORM               0.001871235327 Eh/α |
          | HOMO-LUMO GAP               4.426805571191 eV   |
           -------------------------------------------------

------------------------------------------------------------------------
 * finished run on 2026/02/22 at 12:32:54.272     
------------------------------------------------------------------------
 total:
 * wall-time:     0 d,  0 h,  0 min,  0.040 sec
 *  cpu-time:     0 d,  0 h,  0 min,  0.155 sec
 * ratio c/w:     3.875 speedup
 SCF:
 * wall-time:     0 d,  0 h,  0 min,  0.020 sec
 *  cpu-time:     0 d,  0 h,  0 min,  0.078 sec
 * ratio c/w:     3.978 speedup


-------------------------   --------------------
FINAL SINGLE POINT ENERGY       -27.335234147040
-------------------------   --------------------


-------------
DIPOLE MOMENT
-------------
                                X             Y             Z
Total Dipole Moment    :     -0.92200       0.84500      -1.04100
                        -----------------------------------------
Magnitude (a.u.)       :      1.62720
Magnitude (Debye)      :      4.13602


------------------
CARTESIAN GRADIENT
------------------

   1   C   :   -0.000560651   -0.000071251   -0.000181787
   2   C   :   -0.000200579    0.000006146   -0.000573460
   3   C   :    0.000453139   -0.000019374    0.000144366
   4   C   :   -0.000225168    0.000215278   -0.000256180
   5   C   :    0.000266937    0.000077696   -0.000227745
   6   O   :    0.000199065   -0.000153678    0.000945512
   7   O   :   -0.000034470    0.000493142   -0.000162530
   8   O   :   -0.000188642   -0.000642098   -0.000097073
   9   H   :   -0.000109667   -0.000043667    0.000077293
  10   H   :    0.000057978    0.000025878    0.000135965
  11   H   :   -0.000094151    0.000071855    0.000004077
  12   H   :    0.000040486   -0.000022228   -0.000161627
  13   H   :    0.000122700    0.000146672   -0.000112445
  14   H   :   -0.000141670    0.000052030    0.000089176
  15   H   :   -0.000235534   -0.000083355    0.000049983
  16   H   :    0.000149940   -0.000068805    0.000074941
  17   H   :    0.000500287    0.000015760    0.000251534

Difference to translation invariance:
           :    0.0000000000   -0.0000000000    0.0000000000

Difference to rotation invariance:
           :    0.0000004323    0.0000009549   -0.0000003687

Norm of the Cartesian gradient     ...    0.0018712353
RMS gradient                       ...    0.0002620254
MAX gradient                       ...    0.0009455124
------------------------------------------------------------------------------
                         ORCA GEOMETRY RELAXATION STEP
------------------------------------------------------------------------------

Reading the OPT-File                    .... done
Getting information on internals        .... done
Copying old internal coords+grads       .... done
Making the new internal coordinates     .... (2022 redundants) done
Validating the new internal coordinates .... (2022 redundants) done
Calculating the B-matrix                .... done
Calculating the G,G- and P matrices     .... done
Transforming gradient to internals      .... done
Projecting the internal gradient        .... done
Number of atoms                         ....  17
Number of internal coordinates          ....  66
Current Energy                          ....   -27.335234147 Eh
Current gradient norm                   ....     0.001871235 Eh/bohr
Maximum allowed component of the step   ....  0.300
Current trust radius                    ....  0.675
Updating the Hessian (BFGS)             .... done
Forming the augmented Hessian           .... done
Diagonalizing the augmented Hessian     .... done
Last element of RFO vector              ....  0.998181056
Lowest eigenvalues of augmented Hessian:
 -0.000034802  0.006462367  0.011647805  0.012050027  0.013801070
Length of the computed step             ....  0.060397325
The final length of the internal step   ....  0.060397325
Converting the step to Cartesian space:
 Initial RMS(Int)=    0.0074343968
Transforming coordinates:
 Iter   0:  RMS(Cart)=    0.0116171833 RMS(Int)=    0.7714299474
done
Storing new coordinates                 .... done
The predicted energy change is          ....    -0.000017464
Previously predicted energy change      ....    -0.000064569
Actually observed energy change         ....    -0.000072620
Ratio of predicted to observed change   ....     1.124683737
New trust radius                        ....     0.700000000

                                .--------------------.
          ----------------------|Geometry convergence|-------------------------
          Item                value                   Tolerance       Converged
          ---------------------------------------------------------------------
          Energy change      -0.0000726199            0.0000050000      NO
          RMS gradient        0.0002666566            0.0001000000      NO
          MAX gradient        0.0011066584            0.0003000000      NO
          RMS step            0.0074343968            0.0020000000      NO
          MAX step            0.0196308326            0.0040000000      NO
          -------------------------------------------------------------------------
          ........................................................
          Max(Bonds)      0.0008      Max(Angles)    0.13
          Max(Dihed)        1.12      Max(Improp)    0.00
          ---------------------------------------------------------------------

    ---------------------------------------------------------------------------
                         Redundant Internal Coordinates
                            (Angstroem and degrees)

        Definition                    Value    dE/dq     Step     New-Value
    ----------------------------------------------------------------------------
     1. B(C   1,C   0)                1.4695  0.000672 -0.0002    1.4694   
     2. B(C   3,C   2)                1.5216 -0.000099  0.0003    1.5219   
     3. B(C   4,C   1)                1.4259  0.001107 -0.0008    1.4251   
     4. B(C   4,C   2)                1.5231  0.000382 -0.0001    1.5230   
     5. B(O   5,C   4)                1.2304  0.000937 -0.0004    1.2300   
     6. B(O   7,O   6)                1.4191  0.000330  0.0001    1.4192   
     7. B(O   7,C   3)                1.4134  0.000213 -0.0002    1.4131   
     8. B(H   8,C   0)                1.0933  0.000016 -0.0001    1.0932   
     9. B(H   9,C   0)                1.0878  0.000127 -0.0001    1.0877   
    10. B(H  10,C   0)                1.0928 -0.000012  0.0000    1.0928   
    11. B(H  11,C   1)                1.0795  0.000155 -0.0001    1.0794   
    12. B(H  12,C   2)                1.0916  0.000023  0.0000    1.0916   
    13. B(H  13,C   2)                1.0929  0.000020 -0.0000    1.0928   
    14. B(H  14,C   3)                1.0963  0.000102 -0.0002    1.0961   
    15. B(H  15,C   3)                1.0974  0.000012 -0.0001    1.0973   
    16. B(H  16,O   6)                0.9674  0.000265 -0.0001    0.9673   
    17. A(H   9,C   0,H  10)          109.88  0.000032    0.02    109.90   
    18. A(C   1,C   0,H   8)          110.65  0.000182   -0.01    110.65   
    19. A(H   8,C   0,H  10)          106.09 -0.000132   -0.06    106.03   
    20. A(C   1,C   0,H   9)          109.80 -0.000142   -0.02    109.79   
    21. A(H   8,C   0,H   9)          109.64 -0.000070    0.06    109.71   
    22. A(C   1,C   0,H  10)          110.70  0.000132    0.00    110.71   
    23. A(C   0,C   1,H  11)          119.10 -0.000081   -0.04    119.06   
    24. A(C   0,C   1,C   4)          121.66  0.000191    0.00    121.66   
    25. A(C   4,C   1,H  11)          119.24 -0.000110    0.04    119.28   
    26. A(C   4,C   2,H  13)          108.93 -0.000095    0.01    108.95   
    27. A(H  12,C   2,H  13)          107.53 -0.000016    0.02    107.55   
    28. A(C   3,C   2,H  13)          109.69  0.000097   -0.05    109.64   
    29. A(C   4,C   2,H  12)          109.87  0.000076   -0.01    109.85   
    30. A(C   3,C   2,H  12)          109.42 -0.000099    0.02    109.44   
    31. A(C   3,C   2,C   4)          111.33  0.000036    0.00    111.33   
    32. A(C   2,C   3,O   7)          106.37  0.000002   -0.06    106.31   
    33. A(H  14,C   3,H  15)          108.31  0.000025    0.01    108.32   
    34. A(O   7,C   3,H  15)          110.67 -0.000107    0.08    110.75   
    35. A(C   2,C   3,H  15)          110.66  0.000124   -0.06    110.60   
    36. A(O   7,C   3,H  14)          110.50  0.000063    0.02    110.52   
    37. A(C   2,C   3,H  14)          110.34 -0.000108    0.01    110.35   
    38. A(C   1,C   4,C   2)          115.32  0.000012    0.03    115.35   
    39. A(C   2,C   4,O   5)          121.74 -0.000328   -0.04    121.70   
    40. A(C   1,C   4,O   5)          122.94  0.000316    0.03    122.96   
    41. A(O   7,O   6,H  16)          104.04  0.000898   -0.12    103.93   
    42. A(C   3,O   7,O   6)          110.12  0.000449   -0.13    109.99   
    43. D(H  11,C   1,C   0,H   8)    -59.64 -0.000049    0.15    -59.48   
    44. D(C   4,C   1,C   0,H  10)   -122.34 -0.000021    0.13   -122.21   
    45. D(C   4,C   1,C   0,H   9)     -0.84  0.000011    0.14     -0.70   
    46. D(H  11,C   1,C   0,H   9)    179.19  0.000014    0.09    179.28   
    47. D(C   4,C   1,C   0,H   8)    120.33 -0.000052    0.20    120.54   
    48. D(O   7,C   3,C   2,H  12)     56.82 -0.000131    0.94     57.76   
    49. D(O   7,C   3,C   2,C   4)    178.45 -0.000078    0.94    179.39   
    50. D(H  14,C   3,C   2,H  12)    -63.06 -0.000148    0.95    -62.11   
    51. D(H  14,C   3,C   2,C   4)     58.57 -0.000096    0.95     59.52   
    52. D(H  14,C   3,C   2,H  13)    179.21 -0.000126    0.93    180.15   
    53. D(O   7,C   3,C   2,H  13)    -60.91 -0.000109    0.93    -59.98   
    54. D(O   5,C   4,C   1,C   0)      0.06  0.000040    0.06      0.12   
    55. D(C   2,C   4,C   1,H  11)      0.38  0.000040   -0.16      0.23   
    56. D(O   5,C   4,C   1,H  11)   -179.97  0.000037    0.11   -179.86   
    57. D(C   2,C   4,C   1,C   0)   -179.59  0.000043   -0.20   -179.79   
    58. D(O   5,C   4,C   2,H  12)    127.74  0.000072   -0.86    126.88   
    59. D(O   5,C   4,C   2,C   3)      6.36  0.000122   -0.88      5.49   
    60. D(C   1,C   4,C   2,H  13)     64.94  0.000040   -0.58     64.36   
    61. D(C   1,C   4,C   2,H  12)    -52.61  0.000072   -0.61    -53.22   
    62. D(C   1,C   4,C   2,C   3)   -173.99  0.000121   -0.62   -174.61   
    63. D(C   3,O   7,O   6,H  16)   -123.81 -0.000086    0.54   -123.27   
    64. D(O   6,O   7,C   3,H  15)     60.04 -0.000226    1.12     61.16   
    65. D(O   6,O   7,C   3,H  14)    -59.94 -0.000228    1.05    -58.89   
    66. D(O   6,O   7,C   3,C   2)   -179.71 -0.000134    1.06   -178.64   
    ----------------------------------------------------------------------------

Geometry step timings:
Preparation and reading OPT file:      0.000 s ( 1.017 %)
Internal coordinates            :      0.000 s ( 1.299 %)
B/P matrices and projection     :      0.000 s (23.729 %)
Hessian update/contruction      :      0.000 s (28.192 %)
Making the step                 :      0.000 s (21.412 %)
Converting the step to Cartesian:      0.000 s ( 2.147 %)
Storing new data                :      0.000 s ( 1.356 %)
Checking convergence            :      0.000 s ( 2.034 %)
Final printing                  :      0.000 s (18.814 %)
Total time                      :      0.002 s

Time for energy+gradient        :      0.051 s
Time for complete geometry iter :      0.053 s

         *************************************************************
         *                GEOMETRY OPTIMIZATION CYCLE   6            *
         *************************************************************
---------------------------------
CARTESIAN COORDINATES (ANGSTROEM)
---------------------------------
  C    -3.209033   -0.256090   -0.397970
  C    -1.842557   -0.027634   -0.887470
  C     0.636518    0.121977   -0.686377
  C     1.785636   -0.163153    0.269824
  C    -0.710581   -0.151413   -0.030609
  O    -0.800922   -0.455404    1.157815
  O     4.103411   -0.162411    0.369818
  O     2.973744    0.109461   -0.445055
  H    -3.821281    0.639618   -0.532034
  H    -3.182339   -0.527928    0.654878
  H    -3.698796   -1.045419   -0.973631
  H    -1.694389    0.240322   -1.922542
  H     0.745802   -0.495246   -1.580118
  H     0.671931    1.167732   -1.001749
  H     1.762602   -1.210666    0.591689
  H     1.713389    0.473185    1.160901
  H     4.588780    0.674184    0.381551

----------------------------
CARTESIAN COORDINATES (A.U.)
----------------------------
  NO LB    ZA    FRAG    MASS        X           Y           Z
   0 C   6.0000    1    12.011   -6.064193   -0.483941   -0.752055
   1 C   6.0000    1    12.011   -3.481928   -0.052221   -1.677075
   2 C   6.0000    1    12.011    1.202844    0.230503   -1.297065
   3 C   6.0000    1    12.011    3.374362   -0.308315    0.509894
   4 C   6.0000    1    12.011   -1.342804   -0.286130   -0.057842
   5 O   8.0000    1    15.999   -1.513524   -0.860589    2.187953
   6 O   8.0000    1    15.999    7.754324   -0.306912    0.698855
   7 O   8.0000    1    15.999    5.619561    0.206852   -0.841032
   8 H   1.0000    1     1.008   -7.221174    1.208702   -1.005399
   9 H   1.0000    1     1.008   -6.013748   -0.997639    1.237541
  10 H   1.0000    1     1.008   -6.989712   -1.975556   -1.839895
  11 H   1.0000    1     1.008   -3.201932    0.454142   -3.633077
  12 H   1.0000    1     1.008    1.409361   -0.935879   -2.985989
  13 H   1.0000    1     1.008    1.269766    2.206694   -1.893031
  14 H   1.0000    1     1.008    3.330835   -2.287827    1.118131
  15 H   1.0000    1     1.008    3.237836    0.894191    2.193786
  16 H   1.0000    1     1.008    8.671537    1.274023    0.721027

      -----------------------------------------------------------      
     |                   =====================                   |     
     |                           x T B                           |     
     |                   =====================                   |     
     |                         S. Grimme                         |     
     |          Mulliken Center for Theoretical Chemistry        |     
     |                    University of Bonn                     |     
      -----------------------------------------------------------      

   * xtb version 6.7.1 (edcfbbe) compiled by 'albert@albert-system' on 2024-07-22

   xtb is free software: you can redistribute it and/or modify it under
   the terms of the GNU Lesser General Public License as published by
   the Free Software Foundation, either version 3 of the License, or
   (at your option) any later version.
   
   xtb is distributed in the hope that it will be useful,
   but WITHOUT ANY WARRANTY; without even the implied warranty of
   MERCHANTABILITY or FITNESS FOR A PARTICULAR PURPOSE.  See the
   GNU Lesser General Public License for more details.
   
   Cite this work as:
   * C. Bannwarth, E. Caldeweyher, S. Ehlert, A. Hansen, P. Pracht,
     J. Seibert, S. Spicher, S. Grimme, WIREs Comput. Mol. Sci., 2020, 11,
     e01493. DOI: 10.1002/wcms.1493
   
   for GFN2-xTB:
   * C. Bannwarth, S. Ehlert and S. Grimme., J. Chem. Theory Comput., 2019,
     15, 1652-1671. DOI: 10.1021/acs.jctc.8b01176
   for GFN1-xTB:
   * S. Grimme, C. Bannwarth, P. Shushkov, J. Chem. Theory Comput., 2017,
     13, 1989-2009. DOI: 10.1021/acs.jctc.7b00118
   for GFN0-xTB:
   * P. Pracht, E. Caldeweyher, S. Ehlert, S. Grimme, ChemRxiv, 2019, preprint.
     DOI: 10.26434/chemrxiv.8326202.v1
   for GFN-FF:
   * S. Spicher and S. Grimme, Angew. Chem. Int. Ed., 2020, 59, 15665-15673.
     DOI: 10.1002/anie.202004239
   
   for ALPB and GBSA implicit solvation:
   * S. Ehlert, M. Stahn, S. Spicher, S. Grimme, J. Chem. Theory Comput.,
     2021, 17, 4250-4261. DOI: 10.1021/acs.jctc.1c00471
   
   for ddCOSMO and CPCM-X implicit solvation:
   * M. Stahn, S. Ehlert, S. Grimme, J. Phys. Chem. A,
     2023, XX, XXXX-XXXX. DOI: 10.1021/acs.jpca.3c04382
   
   for DFT-D4:
   * E. Caldeweyher, C. Bannwarth and S. Grimme, J. Chem. Phys., 2017,
     147, 034112. DOI: 10.1063/1.4993215
   * E. Caldeweyher, S. Ehlert, A. Hansen, H. Neugebauer, S. Spicher,
     C. Bannwarth and S. Grimme, J. Chem. Phys., 2019, 150, 154122.
     DOI: 10.1063/1.5090222
   * E. Caldeweyher, J.-M. Mewes, S. Ehlert and S. Grimme, Phys. Chem. Chem. Phys.
     2020, 22, 8499-8512. DOI: 10.1039/D0CP00502A
   
   for sTDA-xTB:
   * S. Grimme and C. Bannwarth, J. Chem. Phys., 2016, 145, 054103.
     DOI: 10.1063/1.4959605
   
   in the mass-spec context:
   * V. Asgeirsson, C. Bauer and S. Grimme, Chem. Sci., 2017, 8, 4879.
     DOI: 10.1039/c7sc00601b
   * J. Koopman and S. Grimme, ACS Omega 2019, 4, 12, 15120-15133.
     DOI: 10.1021/acsomega.9b02011
   
   for metadynamics refer to:
   * S. Grimme, J. Chem. Theory Comput., 2019, 155, 2847-2862
     DOI: 10.1021/acs.jctc.9b00143
   
   for SPH calculations refer to:
   * S. Spicher and S. Grimme, J. Chem. Theory Comput., 2021, 17, 1701-1714
     DOI: 10.1021/acs.jctc.0c01306
   
   for ONIOM refer to:
   * C. Plett, A. Katbashev, S. Ehlert, S. Grimme, M. Bursch,
     Phys. Chem. Chem. Phys., 2023, 25, 17860-17868. DOI: 10.1039/D3CP02178E
   
   for DIPRO refer to:
   * J. Kohn, N. Gildemeister, S. Grimme, D. Fazzi, A. Hansen,
     J. Chem. Phys., 2023, just accepted.
   
   for PTB refer to:
   * S. Grimme, M. Mueller, A. Hansen, J. Chem. Phys., 2023, 158, 124111.
     DOI: 10.1063/5.0137838
   
   with help from (in alphabetical order)
   P. Atkinson, C. Bannwarth, F. Bohle, G. Brandenburg, E. Caldeweyher
   M. Checinski, S. Dohm, S. Ehlert, S. Ehrlich, I. Gerasimov, C. Hölzer
   A. Katbashev, J. Kohn, J. Koopman, C. Lavigne, S. Lehtola, F. März, M. Müller,
   F. Musil, H. Neugebauer, J. Pisarek, C. Plett, P. Pracht, F. Pultar,
   J. Seibert, P. Shushkov, S. Spicher, M. Stahn, M. Steiner, T. Strunk,
   J. Stückrath, T. Rose, and J. Unsleber
   
 * started run on 2026/02/22 at 12:32:54.285     
   ID    Z sym.   atoms
    1    6 C      1-5
    2    8 O      6-8
    3    1 H      9-17

           -------------------------------------------------
          |                Calculation Setup                |
           -------------------------------------------------

          program call               : /apps/eb/ORCA/6.1.1-gompi-2024a-avx2/bin/otool_xtb goat_XTB.xyz --grad -c 0 -u 1 -P 8 --namespace goat --input goat_XTB.input.tmp --acc 0.200000
          hostname                   : e2-9
          calculation namespace      : goat
          coordinate file            : goat_XTB.xyz
          omp threads                :                     8


           -------------------------------------------------
          |                 G F N 2 - x T B                 |
           -------------------------------------------------

        Reference                      10.1021/acs.jctc.8b01176
      * Hamiltonian:
        H0-scaling (s, p, d)           1.850000    2.230000    2.230000
        zeta-weighting                 0.500000
      * Dispersion:
        s8                             2.700000
        a1                             0.520000
        a2                             5.000000
        s9                             5.000000
      * Repulsion:
        kExp                           1.500000    1.000000
        rExp                           1.000000
      * Coulomb:
        alpha                          2.000000
        third order                    shell-resolved
        anisotropic                    true
        a3                             3.000000
        a5                             4.000000
        cn-shift                       1.200000
        cn-exp                         4.000000
        max-rad                        5.000000

q/qsh data taken from xtbrestart
CAMM data taken from xtbrestart

          ...................................................
          :                      SETUP                      :
          :.................................................:
          :  # basis functions                  41          :
          :  # atomic orbitals                  41          :
          :  # shells                           25          :
          :  # electrons                        47          :
          :  max. iterations                   250          :
          :  Hamiltonian                  GFN2-xTB          :
          :  restarted?                       true          :
          :  GBSA solvation                  false          :
          :  PC potential                    false          :
          :  electronic temp.          300.0000000     K    :
          :  accuracy                    0.2000000          :
          :  -> integral cutoff          0.3198970E+02      :
          :  -> integral neglect         0.2000000E-08      :
          :  -> SCF convergence          0.2000000E-06 Eh   :
          :  -> wf. convergence          0.2000000E-04 e    :
          :  Broyden damping             0.4000000          :
          :  net charge                          0          :
          :  unpaired electrons                  1          :
          ...................................................

 iter      E             dE          RMSdq      gap      omega  full diag
   1    -27.5983819 -0.275984E+02  0.465E-02    4.43       0.0  T
   2    -27.5983822 -0.302771E-06  0.289E-02    4.43       1.0  T
   3    -27.5983824 -0.169187E-06  0.249E-03    4.43       9.8  T
   4    -27.5983824 -0.264324E-07  0.145E-03    4.43      16.8  T
   5    -27.5983824 -0.442450E-08  0.415E-04    4.43      58.4  T
   6    -27.5983824 -0.539977E-09  0.158E-04    4.43     153.9  T
   7    -27.5983824 -0.112767E-09  0.908E-05    4.43     267.2  T

   *** convergence criteria satisfied after 7 iterations ***

         #    Occupation            Energy/Eh            Energy/eV
      -------------------------------------------------------------
         1        2.0000           -0.7180331             -19.5387
       ...           ...                  ...                  ...
        18        2.0000           -0.4737195             -12.8906
        19        2.0000           -0.4702239             -12.7954
        20        2.0000           -0.4652781             -12.6609
        21        2.0000           -0.4551620             -12.3856
        22        2.0000           -0.4103390             -11.1659
        23        2.0000           -0.3982183             -10.8361
        24        1.0000           -0.3690903             -10.0435 (HOMO)
        25                         -0.2061372              -5.6093 (LUMO)
        26                         -0.1421507              -3.8681
        27                          0.0499897               1.3603
        28                          0.0860354               2.3411
        29                          0.1250430               3.4026
       ...                                ...                  ...
        41                          0.5925735              16.1247
      -------------------------------------------------------------
                  HL-Gap            0.1629532 Eh            4.4342 eV
             Fermi-level           -0.3356340 Eh           -9.1331 eV

 SCC (total)                   0 d,  0 h,  0 min,  0.011 sec
 SCC setup                      ...        0 min,  0.000 sec (  1.464%)
 Dispersion                     ...        0 min,  0.000 sec (  1.598%)
 classical contributions        ...        0 min,  0.000 sec (  0.798%)
 integral evaluation            ...        0 min,  0.001 sec (  8.112%)
 iterations                     ...        0 min,  0.008 sec ( 69.941%)
 molecular gradient             ...        0 min,  0.002 sec ( 14.261%)
 printout                       ...        0 min,  0.000 sec (  3.586%)

         :::::::::::::::::::::::::::::::::::::::::::::::::::::
         ::                     SUMMARY                     ::
         :::::::::::::::::::::::::::::::::::::::::::::::::::::
         :: total energy             -27.335262147073 Eh    ::
         :: gradient norm              0.001406429588 Eh/a0 ::
         :: HOMO-LUMO gap              4.434181426334 eV    ::
         ::.................................................::
         :: SCC energy               -27.598420522393 Eh    ::
         :: -> isotropic ES            0.056931656053 Eh    ::
         :: -> anisotropic ES         -0.004274932221 Eh    ::
         :: -> anisotropic XC         -0.001143199602 Eh    ::
         :: -> dispersion             -0.009426326125 Eh    ::
         :: repulsion energy           0.263158375321 Eh    ::
         :: add. restraining           0.000000000000 Eh    ::
         :: total charge               0.000000000001 e     ::
         :::::::::::::::::::::::::::::::::::::::::::::::::::::


Property printout bound to 'properties.out'

           -------------------------------------------------
          | TOTAL ENERGY              -27.335262147073 Eh   |
          | GRADIENT NORM               0.001406429588 Eh/α |
          | HOMO-LUMO GAP               4.434181426334 eV   |
           -------------------------------------------------

------------------------------------------------------------------------
 * finished run on 2026/02/22 at 12:32:54.328     
------------------------------------------------------------------------
 total:
 * wall-time:     0 d,  0 h,  0 min,  0.042 sec
 *  cpu-time:     0 d,  0 h,  0 min,  0.203 sec
 * ratio c/w:     4.819 speedup
 SCF:
 * wall-time:     0 d,  0 h,  0 min,  0.011 sec
 *  cpu-time:     0 d,  0 h,  0 min,  0.056 sec
 * ratio c/w:     4.955 speedup


-------------------------   --------------------
FINAL SINGLE POINT ENERGY       -27.335262147070
-------------------------   --------------------


-------------
DIPOLE MOMENT
-------------
                                X             Y             Z
Total Dipole Moment    :     -0.92900       0.84300      -1.02400
                        -----------------------------------------
Magnitude (a.u.)       :      1.61934
Magnitude (Debye)      :      4.11604


------------------
CARTESIAN GRADIENT
------------------

   1   C   :   -0.000465011   -0.000074334   -0.000125897
   2   C   :    0.000197248   -0.000116973   -0.000237108
   3   C   :    0.000409299   -0.000178285    0.000095446
   4   C   :    0.000259426    0.000124055    0.000184324
   5   C   :   -0.000266728    0.000422844    0.000018671
   6   O   :    0.000361165   -0.000138133    0.000250556
   7   O   :   -0.000045448    0.000219181    0.000146631
   8   O   :   -0.000301780   -0.000261116   -0.000516455
   9   H   :   -0.000100465   -0.000097564   -0.000006890
  10   H   :    0.000134534    0.000026239    0.000094905
  11   H   :   -0.000117055    0.000144854   -0.000022990
  12   H   :   -0.000037539   -0.000049757   -0.000066877
  13   H   :    0.000137845    0.000076193   -0.000103630
  14   H   :   -0.000180664    0.000059484    0.000115310
  15   H   :   -0.000271636   -0.000014099    0.000052811
  16   H   :    0.000049250   -0.000150181    0.000011992
  17   H   :    0.000237561    0.000007592    0.000109203

Difference to translation invariance:
           :   -0.0000000000    0.0000000000   -0.0000000000

Difference to rotation invariance:
           :    0.0000005632    0.0000010302   -0.0000003355

Norm of the Cartesian gradient     ...    0.0014064296
RMS gradient                       ...    0.0001969395
MAX gradient                       ...    0.0005164553
------------------------------------------------------------------------------
                         ORCA GEOMETRY RELAXATION STEP
------------------------------------------------------------------------------

Reading the OPT-File                    .... done
Getting information on internals        .... done
Copying old internal coords+grads       .... done
Making the new internal coordinates     .... (2022 redundants) done
Validating the new internal coordinates .... (2022 redundants) done
Calculating the B-matrix                .... done
Calculating the G,G- and P matrices     .... done
Transforming gradient to internals      .... done
Projecting the internal gradient        .... done
Number of atoms                         ....  17
Number of internal coordinates          ....  66
Current Energy                          ....   -27.335262147 Eh
Current gradient norm                   ....     0.001406430 Eh/bohr
Maximum allowed component of the step   ....  0.300
Current trust radius                    ....  0.700
Updating the Hessian (BFGS)             .... done
Forming the augmented Hessian           .... done
Diagonalizing the augmented Hessian     .... done
Last element of RFO vector              ....  0.991003776
Lowest eigenvalues of augmented Hessian:
 -0.000053784  0.002549954  0.011553681  0.012050129  0.013457774
Length of the computed step             ....  0.135048842
The final length of the internal step   ....  0.135048842
Converting the step to Cartesian space:
 Initial RMS(Int)=    0.0166233633
Transforming coordinates:
 Iter   0:  RMS(Cart)=    0.0272137550 RMS(Int)=    1.0903099544
done
Storing new coordinates                 .... done
The predicted energy change is          ....    -0.000027382
Previously predicted energy change      ....    -0.000017464
Actually observed energy change         ....    -0.000028000
Ratio of predicted to observed change   ....     1.603263642
New trust radius                        ....     0.466666667

                                .--------------------.
          ----------------------|Geometry convergence|-------------------------
          Item                value                   Tolerance       Converged
          ---------------------------------------------------------------------
          Energy change      -0.0000280000            0.0000050000      NO
          RMS gradient        0.0001726875            0.0001000000      NO
          MAX gradient        0.0005132816            0.0003000000      NO
          RMS step            0.0166233633            0.0020000000      NO
          MAX step            0.0428007995            0.0040000000      NO
          -------------------------------------------------------------------------
          ........................................................
          Max(Bonds)      0.0012      Max(Angles)    0.18
          Max(Dihed)        2.45      Max(Improp)    0.00
          ---------------------------------------------------------------------

    ---------------------------------------------------------------------------
                         Redundant Internal Coordinates
                            (Angstroem and degrees)

        Definition                    Value    dE/dq     Step     New-Value
    ----------------------------------------------------------------------------
     1. B(C   1,C   0)                1.4694  0.000489 -0.0006    1.4688   
     2. B(C   3,C   2)                1.5219 -0.000048  0.0005    1.5224   
     3. B(C   4,C   1)                1.4251  0.000513 -0.0012    1.4239   
     4. B(C   4,C   2)                1.5230  0.000198 -0.0002    1.5228   
     5. B(O   5,C   4)                1.2300  0.000250 -0.0003    1.2297   
     6. B(O   7,O   6)                1.4192  0.000256  0.0001    1.4193   
     7. B(O   7,C   3)                1.4131  0.000033 -0.0002    1.4130   
     8. B(H   8,C   0)                1.0932 -0.000023  0.0000    1.0932   
     9. B(H   9,C   0)                1.0877  0.000089 -0.0002    1.0875   
    10. B(H  10,C   0)                1.0928 -0.000040  0.0001    1.0930   
    11. B(H  11,C   1)                1.0794  0.000047 -0.0001    1.0793   
    12. B(H  12,C   2)                1.0916  0.000056 -0.0000    1.0916   
    13. B(H  13,C   2)                1.0928  0.000018 -0.0001    1.0928   
    14. B(H  14,C   3)                1.0961  0.000035 -0.0004    1.0957   
    15. B(H  15,C   3)                1.0973 -0.000081  0.0002    1.0975   
    16. B(H  16,O   6)                0.9673  0.000127 -0.0001    0.9671   
    17. A(H   9,C   0,H  10)          109.90  0.000095   -0.01    109.89   
    18. A(C   1,C   0,H   8)          110.65  0.000160   -0.03    110.62   
    19. A(H   8,C   0,H  10)          106.03 -0.000197   -0.05    105.99   
    20. A(C   1,C   0,H   9)          109.79 -0.000222    0.01    109.80   
    21. A(H   8,C   0,H   9)          109.71  0.000012    0.10    109.81   
    22. A(C   1,C   0,H  10)          110.71  0.000156   -0.03    110.68   
    23. A(C   0,C   1,H  11)          119.06 -0.000140   -0.05    119.01   
    24. A(C   0,C   1,C   4)          121.66  0.000180   -0.01    121.65   
    25. A(C   4,C   1,H  11)          119.28 -0.000040    0.06    119.34   
    26. A(C   4,C   2,H  13)          108.95 -0.000154    0.08    109.03   
    27. A(H  12,C   2,H  13)          107.55  0.000000    0.02    107.57   
    28. A(C   3,C   2,H  13)          109.64  0.000134   -0.12    109.53   
    29. A(C   4,C   2,H  12)          109.85  0.000100   -0.06    109.79   
    30. A(C   3,C   2,H  12)          109.44 -0.000111    0.06    109.50   
    31. A(C   3,C   2,C   4)          111.33  0.000030    0.01    111.34   
    32. A(C   2,C   3,O   7)          106.31 -0.000262   -0.01    106.30   
    33. A(H  14,C   3,H  15)          108.32 -0.000044    0.02    108.35   
    34. A(O   7,C   3,H  15)          110.75  0.000087    0.09    110.84   
    35. A(C   2,C   3,H  15)          110.60  0.000130   -0.14    110.46   
    36. A(O   7,C   3,H  14)          110.52  0.000192   -0.03    110.50   
    37. A(C   2,C   3,H  14)          110.35 -0.000102    0.05    110.40   
    38. A(C   1,C   4,C   2)          115.35  0.000136    0.01    115.35   
    39. A(C   2,C   4,O   5)          121.69 -0.000502   -0.00    121.69   
    40. A(C   1,C   4,O   5)          122.96  0.000367   -0.01    122.95   
    41. A(O   7,O   6,H  16)          103.93  0.000414   -0.18    103.75   
    42. A(C   3,O   7,O   6)          109.99 -0.000249   -0.07    109.92   
    43. D(H  11,C   1,C   0,H   8)    -59.48 -0.000028    0.39    -59.09   
    44. D(C   4,C   1,C   0,H  10)   -122.21 -0.000063    0.36   -121.85   
    45. D(C   4,C   1,C   0,H   9)     -0.70  0.000011    0.33     -0.36   
    46. D(H  11,C   1,C   0,H   9)    179.28 -0.000001    0.28    179.56   
    47. D(C   4,C   1,C   0,H   8)    120.54 -0.000015    0.45    120.98   
    48. D(O   7,C   3,C   2,H  12)     57.76 -0.000099    2.15     59.91   
    49. D(O   7,C   3,C   2,C   4)    179.39 -0.000029    2.12    181.51   
    50. D(H  14,C   3,C   2,H  12)    -62.11 -0.000118    2.15    -59.96   
    51. D(H  14,C   3,C   2,C   4)     59.52 -0.000047    2.13     61.65   
    52. D(H  14,C   3,C   2,H  13)   -179.85 -0.000132    2.16   -177.70   
    53. D(O   7,C   3,C   2,H  13)    -59.98 -0.000113    2.15    -57.83   
    54. D(O   5,C   4,C   1,C   0)      0.12  0.000093   -0.19     -0.08   
    55. D(C   2,C   4,C   1,H  11)      0.23 -0.000025   -0.18      0.05   
    56. D(O   5,C   4,C   1,H  11)   -179.86  0.000105   -0.14   -180.00   
    57. D(C   2,C   4,C   1,C   0)   -179.79 -0.000038   -0.23   -180.02   
    58. D(O   5,C   4,C   2,H  12)    126.87 -0.000026   -1.62    125.26   
    59. D(O   5,C   4,C   2,C   3)      5.48  0.000026   -1.66      3.82   
    60. D(C   1,C   4,C   2,H  13)     64.36  0.000072   -1.54     62.82   
    61. D(C   1,C   4,C   2,H  12)    -53.22  0.000104   -1.58    -54.80   
    62. D(C   1,C   4,C   2,C   3)   -174.61  0.000156   -1.62   -176.23   
    63. D(C   3,O   7,O   6,H  16)   -123.27 -0.000056    1.18   -122.08   
    64. D(O   6,O   7,C   3,H  15)     61.16 -0.000118    2.45     63.62   
    65. D(O   6,O   7,C   3,H  14)    -58.89 -0.000245    2.37    -56.51   
    66. D(O   6,O   7,C   3,C   2)   -178.65 -0.000071    2.33   -176.32   
    ----------------------------------------------------------------------------

Geometry step timings:
Preparation and reading OPT file:      0.000 s ( 1.335 %)
Internal coordinates            :      0.000 s ( 1.526 %)
B/P matrices and projection     :      0.000 s (27.654 %)
Hessian update/contruction      :      0.000 s (13.350 %)
Making the step                 :      0.000 s (19.962 %)
Converting the step to Cartesian:      0.000 s ( 2.479 %)
Storing new data                :      0.000 s ( 1.653 %)
Checking convergence            :      0.000 s ( 2.161 %)
Final printing                  :      0.000 s (29.879 %)
Total time                      :      0.002 s

Time for energy+gradient        :      0.054 s
Time for complete geometry iter :      0.057 s

         *************************************************************
         *                GEOMETRY OPTIMIZATION CYCLE   7            *
         *************************************************************
---------------------------------
CARTESIAN COORDINATES (ANGSTROEM)
---------------------------------
  C    -3.208230   -0.245001   -0.391156
  C    -1.843076   -0.022520   -0.885402
  C     0.637375    0.101173   -0.696880
  C     1.787753   -0.162916    0.264637
  C    -0.708927   -0.162426   -0.035917
  O    -0.796241   -0.472921    1.150726
  O     4.104598   -0.154821    0.361184
  O     2.972646    0.146224   -0.440285
  H    -3.816137    0.654197   -0.521567
  H    -3.178906   -0.520647    0.660408
  H    -3.704319   -1.029964   -0.967619
  H    -1.698983    0.252624   -1.919066
  H     0.746596   -0.532830   -1.578747
  H     0.672456    1.140827   -1.031589
  H     1.790428   -1.212929    0.577769
  H     1.691120    0.464373    1.160030
  H     4.573759    0.688671    0.422398

----------------------------
CARTESIAN COORDINATES (A.U.)
----------------------------
  NO LB    ZA    FRAG    MASS        X           Y           Z
   0 C   6.0000    1    12.011   -6.062676   -0.462986   -0.739178
   1 C   6.0000    1    12.011   -3.482909   -0.042556   -1.673167
   2 C   6.0000    1    12.011    1.204465    0.191190   -1.316913
   3 C   6.0000    1    12.011    3.378363   -0.307867    0.500091
   4 C   6.0000    1    12.011   -1.339678   -0.306941   -0.067874
   5 O   8.0000    1    15.999   -1.504677   -0.893691    2.174558
   6 O   8.0000    1    15.999    7.756567   -0.292569    0.682538
   7 O   8.0000    1    15.999    5.617488    0.276323   -0.832018
   8 H   1.0000    1     1.008   -7.211453    1.236253   -0.985619
   9 H   1.0000    1     1.008   -6.007263   -0.983881    1.247990
  10 H   1.0000    1     1.008   -7.000148   -1.946350   -1.828535
  11 H   1.0000    1     1.008   -3.210612    0.477391   -3.626508
  12 H   1.0000    1     1.008    1.410863   -1.006903   -2.983399
  13 H   1.0000    1     1.008    1.270757    2.155851   -1.949420
  14 H   1.0000    1     1.008    3.383419   -2.292103    1.091825
  15 H   1.0000    1     1.008    3.195754    0.877537    2.192139
  16 H   1.0000    1     1.008    8.643152    1.301400    0.798217

      -----------------------------------------------------------      
     |                   =====================                   |     
     |                           x T B                           |     
     |                   =====================                   |     
     |                         S. Grimme                         |     
     |          Mulliken Center for Theoretical Chemistry        |     
     |                    University of Bonn                     |     
      -----------------------------------------------------------      

   * xtb version 6.7.1 (edcfbbe) compiled by 'albert@albert-system' on 2024-07-22

   xtb is free software: you can redistribute it and/or modify it under
   the terms of the GNU Lesser General Public License as published by
   the Free Software Foundation, either version 3 of the License, or
   (at your option) any later version.
   
   xtb is distributed in the hope that it will be useful,
   but WITHOUT ANY WARRANTY; without even the implied warranty of
   MERCHANTABILITY or FITNESS FOR A PARTICULAR PURPOSE.  See the
   GNU Lesser General Public License for more details.
   
   Cite this work as:
   * C. Bannwarth, E. Caldeweyher, S. Ehlert, A. Hansen, P. Pracht,
     J. Seibert, S. Spicher, S. Grimme, WIREs Comput. Mol. Sci., 2020, 11,
     e01493. DOI: 10.1002/wcms.1493
   
   for GFN2-xTB:
   * C. Bannwarth, S. Ehlert and S. Grimme., J. Chem. Theory Comput., 2019,
     15, 1652-1671. DOI: 10.1021/acs.jctc.8b01176
   for GFN1-xTB:
   * S. Grimme, C. Bannwarth, P. Shushkov, J. Chem. Theory Comput., 2017,
     13, 1989-2009. DOI: 10.1021/acs.jctc.7b00118
   for GFN0-xTB:
   * P. Pracht, E. Caldeweyher, S. Ehlert, S. Grimme, ChemRxiv, 2019, preprint.
     DOI: 10.26434/chemrxiv.8326202.v1
   for GFN-FF:
   * S. Spicher and S. Grimme, Angew. Chem. Int. Ed., 2020, 59, 15665-15673.
     DOI: 10.1002/anie.202004239
   
   for ALPB and GBSA implicit solvation:
   * S. Ehlert, M. Stahn, S. Spicher, S. Grimme, J. Chem. Theory Comput.,
     2021, 17, 4250-4261. DOI: 10.1021/acs.jctc.1c00471
   
   for ddCOSMO and CPCM-X implicit solvation:
   * M. Stahn, S. Ehlert, S. Grimme, J. Phys. Chem. A,
     2023, XX, XXXX-XXXX. DOI: 10.1021/acs.jpca.3c04382
   
   for DFT-D4:
   * E. Caldeweyher, C. Bannwarth and S. Grimme, J. Chem. Phys., 2017,
     147, 034112. DOI: 10.1063/1.4993215
   * E. Caldeweyher, S. Ehlert, A. Hansen, H. Neugebauer, S. Spicher,
     C. Bannwarth and S. Grimme, J. Chem. Phys., 2019, 150, 154122.
     DOI: 10.1063/1.5090222
   * E. Caldeweyher, J.-M. Mewes, S. Ehlert and S. Grimme, Phys. Chem. Chem. Phys.
     2020, 22, 8499-8512. DOI: 10.1039/D0CP00502A
   
   for sTDA-xTB:
   * S. Grimme and C. Bannwarth, J. Chem. Phys., 2016, 145, 054103.
     DOI: 10.1063/1.4959605
   
   in the mass-spec context:
   * V. Asgeirsson, C. Bauer and S. Grimme, Chem. Sci., 2017, 8, 4879.
     DOI: 10.1039/c7sc00601b
   * J. Koopman and S. Grimme, ACS Omega 2019, 4, 12, 15120-15133.
     DOI: 10.1021/acsomega.9b02011
   
   for metadynamics refer to:
   * S. Grimme, J. Chem. Theory Comput., 2019, 155, 2847-2862
     DOI: 10.1021/acs.jctc.9b00143
   
   for SPH calculations refer to:
   * S. Spicher and S. Grimme, J. Chem. Theory Comput., 2021, 17, 1701-1714
     DOI: 10.1021/acs.jctc.0c01306
   
   for ONIOM refer to:
   * C. Plett, A. Katbashev, S. Ehlert, S. Grimme, M. Bursch,
     Phys. Chem. Chem. Phys., 2023, 25, 17860-17868. DOI: 10.1039/D3CP02178E
   
   for DIPRO refer to:
   * J. Kohn, N. Gildemeister, S. Grimme, D. Fazzi, A. Hansen,
     J. Chem. Phys., 2023, just accepted.
   
   for PTB refer to:
   * S. Grimme, M. Mueller, A. Hansen, J. Chem. Phys., 2023, 158, 124111.
     DOI: 10.1063/5.0137838
   
   with help from (in alphabetical order)
   P. Atkinson, C. Bannwarth, F. Bohle, G. Brandenburg, E. Caldeweyher
   M. Checinski, S. Dohm, S. Ehlert, S. Ehrlich, I. Gerasimov, C. Hölzer
   A. Katbashev, J. Kohn, J. Koopman, C. Lavigne, S. Lehtola, F. März, M. Müller,
   F. Musil, H. Neugebauer, J. Pisarek, C. Plett, P. Pracht, F. Pultar,
   J. Seibert, P. Shushkov, S. Spicher, M. Stahn, M. Steiner, T. Strunk,
   J. Stückrath, T. Rose, and J. Unsleber
   
 * started run on 2026/02/22 at 12:32:54.342     
   ID    Z sym.   atoms
    1    6 C      1-5
    2    8 O      6-8
    3    1 H      9-17

           -------------------------------------------------
          |                Calculation Setup                |
           -------------------------------------------------

          program call               : /apps/eb/ORCA/6.1.1-gompi-2024a-avx2/bin/otool_xtb goat_XTB.xyz --grad -c 0 -u 1 -P 8 --namespace goat --input goat_XTB.input.tmp --acc 0.200000
          hostname                   : e2-9
          calculation namespace      : goat
          coordinate file            : goat_XTB.xyz
          omp threads                :                     8


           -------------------------------------------------
          |                 G F N 2 - x T B                 |
           -------------------------------------------------

        Reference                      10.1021/acs.jctc.8b01176
      * Hamiltonian:
        H0-scaling (s, p, d)           1.850000    2.230000    2.230000
        zeta-weighting                 0.500000
      * Dispersion:
        s8                             2.700000
        a1                             0.520000
        a2                             5.000000
        s9                             5.000000
      * Repulsion:
        kExp                           1.500000    1.000000
        rExp                           1.000000
      * Coulomb:
        alpha                          2.000000
        third order                    shell-resolved
        anisotropic                    true
        a3                             3.000000
        a5                             4.000000
        cn-shift                       1.200000
        cn-exp                         4.000000
        max-rad                        5.000000

q/qsh data taken from xtbrestart
CAMM data taken from xtbrestart

          ...................................................
          :                      SETUP                      :
          :.................................................:
          :  # basis functions                  41          :
          :  # atomic orbitals                  41          :
          :  # shells                           25          :
          :  # electrons                        47          :
          :  max. iterations                   250          :
          :  Hamiltonian                  GFN2-xTB          :
          :  restarted?                       true          :
          :  GBSA solvation                  false          :
          :  PC potential                    false          :
          :  electronic temp.          300.0000000     K    :
          :  accuracy                    0.2000000          :
          :  -> integral cutoff          0.3198970E+02      :
          :  -> integral neglect         0.2000000E-08      :
          :  -> SCF convergence          0.2000000E-06 Eh   :
          :  -> wf. convergence          0.2000000E-04 e    :
          :  Broyden damping             0.4000000          :
          :  net charge                          0          :
          :  unpaired electrons                  1          :
          ...................................................

 iter      E             dE          RMSdq      gap      omega  full diag
   1    -27.5988380 -0.275988E+02  0.108E-01    4.44       0.0  T
   2    -27.5988397 -0.164872E-05  0.667E-02    4.44       1.0  T
   3    -27.5988405 -0.840540E-06  0.586E-03    4.44       4.1  T
   4    -27.5988407 -0.141253E-06  0.346E-03    4.44       7.0  T
   5    -27.5988407 -0.358778E-07  0.134E-03    4.44      18.1  T
   6    -27.5988407 -0.598508E-08  0.417E-04    4.44      58.2  T
   7    -27.5988407 -0.758011E-09  0.240E-04    4.44     101.1  T
   8    -27.5988407 -0.256520E-09  0.136E-04    4.44     177.9  T
   9    -27.5988407 -0.138321E-09  0.554E-05    4.44     438.1  T

   *** convergence criteria satisfied after 9 iterations ***

         #    Occupation            Energy/Eh            Energy/eV
      -------------------------------------------------------------
         1        2.0000           -0.7181602             -19.5421
       ...           ...                  ...                  ...
        18        2.0000           -0.4730476             -12.8723
        19        2.0000           -0.4705348             -12.8039
        20        2.0000           -0.4653627             -12.6632
        21        2.0000           -0.4551845             -12.3862
        22        2.0000           -0.4106721             -11.1750
        23        2.0000           -0.3981931             -10.8354
        24        1.0000           -0.3691012             -10.0438 (HOMO)
        25                         -0.2058290              -5.6009 (LUMO)
        26                         -0.1421251              -3.8674
        27                          0.0503503               1.3701
        28                          0.0861771               2.3450
        29                          0.1250773               3.4035
       ...                                ...                  ...
        41                          0.5937843              16.1577
      -------------------------------------------------------------
                  HL-Gap            0.1632722 Eh            4.4429 eV
             Fermi-level           -0.3355561 Eh           -9.1309 eV

 SCC (total)                   0 d,  0 h,  0 min,  0.007 sec
 SCC setup                      ...        0 min,  0.000 sec (  1.899%)
 Dispersion                     ...        0 min,  0.000 sec (  1.026%)
 classical contributions        ...        0 min,  0.000 sec (  0.261%)
 integral evaluation            ...        0 min,  0.000 sec (  4.525%)
 iterations                     ...        0 min,  0.006 sec ( 79.738%)
 molecular gradient             ...        0 min,  0.001 sec (  9.470%)
 printout                       ...        0 min,  0.000 sec (  2.746%)

         :::::::::::::::::::::::::::::::::::::::::::::::::::::
         ::                     SUMMARY                     ::
         :::::::::::::::::::::::::::::::::::::::::::::::::::::
         :: total energy             -27.335295047738 Eh    ::
         :: gradient norm              0.002057290709 Eh/a0 ::
         :: HOMO-LUMO gap              4.442862321294 eV    ::
         ::.................................................::
         :: SCC energy               -27.598878741712 Eh    ::
         :: -> isotropic ES            0.056924457708 Eh    ::
         :: -> anisotropic ES         -0.004257055292 Eh    ::
         :: -> anisotropic XC         -0.001125939753 Eh    ::
         :: -> dispersion             -0.009428273066 Eh    ::
         :: repulsion energy           0.263583693974 Eh    ::
         :: add. restraining           0.000000000000 Eh    ::
         :: total charge               0.000000000000 e     ::
         :::::::::::::::::::::::::::::::::::::::::::::::::::::


Property printout bound to 'properties.out'

           -------------------------------------------------
          | TOTAL ENERGY              -27.335295047738 Eh   |
          | GRADIENT NORM               0.002057290709 Eh/α |
          | HOMO-LUMO GAP               4.442862321294 eV   |
           -------------------------------------------------

------------------------------------------------------------------------
 * finished run on 2026/02/22 at 12:32:54.356     
------------------------------------------------------------------------
 total:
 * wall-time:     0 d,  0 h,  0 min,  0.013 sec
 *  cpu-time:     0 d,  0 h,  0 min,  0.091 sec
 * ratio c/w:     7.047 speedup
 SCF:
 * wall-time:     0 d,  0 h,  0 min,  0.007 sec
 *  cpu-time:     0 d,  0 h,  0 min,  0.059 sec
 * ratio c/w:     7.897 speedup


-------------------------   --------------------
FINAL SINGLE POINT ENERGY       -27.335295047740
-------------------------   --------------------


-------------
DIPOLE MOMENT
-------------
                                X             Y             Z
Total Dipole Moment    :     -0.94400       0.83500      -0.98700
                        -----------------------------------------
Magnitude (a.u.)       :      1.60079
Magnitude (Debye)      :      4.06889


------------------
CARTESIAN GRADIENT
------------------

   1   C   :   -0.000084853   -0.000087598    0.000033473
   2   C   :    0.000563890   -0.000154909    0.000340513
   3   C   :    0.000142020   -0.000228532   -0.000103857
   4   C   :    0.000806988   -0.000014306    0.000528607
   5   C   :   -0.000888668    0.000379195    0.000087924
   6   O   :    0.000370612    0.000026164   -0.000418934
   7   O   :    0.000128034   -0.000278089    0.000495133
   8   O   :   -0.000398108    0.000324194   -0.000737482
   9   H   :   -0.000061850   -0.000083204   -0.000121692
  10   H   :    0.000187411    0.000022408   -0.000017428
  11   H   :   -0.000112417    0.000169292   -0.000073069
  12   H   :   -0.000139786   -0.000041268    0.000016536
  13   H   :    0.000143135    0.000007015   -0.000011339
  14   H   :   -0.000162778    0.000050713    0.000101621
  15   H   :   -0.000245083    0.000056871    0.000051062
  16   H   :   -0.000084934   -0.000182393   -0.000037231
  17   H   :   -0.000163613    0.000034446   -0.000133836

Difference to translation invariance:
           :    0.0000000000   -0.0000000000   -0.0000000000

Difference to rotation invariance:
           :    0.0000002108    0.0000009462   -0.0000003200

Norm of the Cartesian gradient     ...    0.0020572907
RMS gradient                       ...    0.0002880783
MAX gradient                       ...    0.0008886682
------------------------------------------------------------------------------
                         ORCA GEOMETRY RELAXATION STEP
------------------------------------------------------------------------------

Reading the OPT-File                    .... done
Getting information on internals        .... done
Copying old internal coords+grads       .... done
Making the new internal coordinates     .... (2022 redundants) done
Validating the new internal coordinates .... (2022 redundants) done
Calculating the B-matrix                .... done
Calculating the G,G- and P matrices     .... done
Transforming gradient to internals      .... done
Projecting the internal gradient        .... done
Number of atoms                         ....  17
Number of internal coordinates          ....  66
Current Energy                          ....   -27.335295048 Eh
Current gradient norm                   ....     0.002057291 Eh/bohr
Maximum allowed component of the step   ....  0.300
Current trust radius                    ....  0.467
Updating the Hessian (BFGS)             .... done
Forming the augmented Hessian           .... done
Diagonalizing the augmented Hessian     .... done
Last element of RFO vector              ....  0.998584541
Lowest eigenvalues of augmented Hessian:
 -0.000011452  0.001963209  0.011523325  0.012050053  0.013424976
Length of the computed step             ....  0.053262931
The final length of the internal step   ....  0.053262931
Converting the step to Cartesian space:
 Initial RMS(Int)=    0.0065562135
Transforming coordinates:
 Iter   0:  RMS(Cart)=    0.0112540897 RMS(Int)=    0.7731890861
done
Storing new coordinates                 .... done
The predicted energy change is          ....    -0.000005742
Previously predicted energy change      ....    -0.000027382
Actually observed energy change         ....    -0.000032901
Ratio of predicted to observed change   ....     1.201525458
New trust radius                        ....     0.700000000

                                .--------------------.
          ----------------------|Geometry convergence|-------------------------
          Item                value                   Tolerance       Converged
          ---------------------------------------------------------------------
          Energy change      -0.0000329007            0.0000050000      NO
          RMS gradient        0.0001862877            0.0001000000      NO
          MAX gradient        0.0007666467            0.0003000000      NO
          RMS step            0.0065562135            0.0020000000      NO
          MAX step            0.0155581828            0.0040000000      NO
          -------------------------------------------------------------------------
          ........................................................
          Max(Bonds)      0.0003      Max(Angles)    0.09
          Max(Dihed)        0.89      Max(Improp)    0.00
          ---------------------------------------------------------------------

    ---------------------------------------------------------------------------
                         Redundant Internal Coordinates
                            (Angstroem and degrees)

        Definition                    Value    dE/dq     Step     New-Value
    ----------------------------------------------------------------------------
     1. B(C   1,C   0)                1.4688  0.000003 -0.0002    1.4687   
     2. B(C   3,C   2)                1.5224  0.000148 -0.0001    1.5223   
     3. B(C   4,C   1)                1.4239 -0.000404  0.0001    1.4240   
     4. B(C   4,C   2)                1.5228  0.000040 -0.0002    1.5226   
     5. B(O   5,C   4)                1.2297 -0.000437  0.0001    1.2298   
     6. B(O   7,O   6)                1.4193  0.000227 -0.0003    1.4189   
     7. B(O   7,C   3)                1.4130 -0.000158  0.0001    1.4131   
     8. B(H   8,C   0)                1.0932 -0.000020  0.0000    1.0932   
     9. B(H   9,C   0)                1.0875 -0.000017 -0.0000    1.0875   
    10. B(H  10,C   0)                1.0930 -0.000032  0.0001    1.0931   
    11. B(H  11,C   1)                1.0793 -0.000045  0.0000    1.0793   
    12. B(H  12,C   2)                1.0916  0.000019 -0.0000    1.0916   
    13. B(H  13,C   2)                1.0928  0.000012 -0.0001    1.0927   
    14. B(H  14,C   3)                1.0957 -0.000041 -0.0001    1.0956   
    15. B(H  15,C   3)                1.0975 -0.000127  0.0002    1.0978   
    16. B(H  16,O   6)                0.9671 -0.000058  0.0000    0.9671   
    17. A(H   9,C   0,H  10)          109.89  0.000153   -0.04    109.85   
    18. A(C   1,C   0,H   8)          110.62  0.000045   -0.01    110.60   
    19. A(H   8,C   0,H  10)          105.99 -0.000198    0.04    106.02   
    20. A(C   1,C   0,H   9)          109.80 -0.000241    0.04    109.84   
    21. A(H   8,C   0,H   9)          109.81  0.000124    0.00    109.81   
    22. A(C   1,C   0,H  10)          110.68  0.000126   -0.03    110.65   
    23. A(C   0,C   1,H  11)          119.01 -0.000177    0.01    119.02   
    24. A(C   0,C   1,C   4)          121.65  0.000074   -0.02    121.63   
    25. A(C   4,C   1,H  11)          119.34  0.000103    0.00    119.35   
    26. A(C   4,C   2,H  13)          109.03 -0.000173    0.07    109.09   
    27. A(H  12,C   2,H  13)          107.57  0.000033   -0.01    107.56   
    28. A(C   3,C   2,H  13)          109.53  0.000111   -0.05    109.47   
    29. A(C   4,C   2,H  12)          109.79  0.000125   -0.05    109.74   
    30. A(C   3,C   2,H  12)          109.50 -0.000128    0.04    109.55   
    31. A(C   3,C   2,C   4)          111.34  0.000033    0.00    111.34   
    32. A(C   2,C   3,O   7)          106.30 -0.000385    0.06    106.35   
    33. A(H  14,C   3,H  15)          108.35 -0.000121    0.02    108.37   
    34. A(O   7,C   3,H  15)          110.84  0.000278   -0.02    110.82   
    35. A(C   2,C   3,H  15)          110.46  0.000076   -0.06    110.41   
    36. A(O   7,C   3,H  14)          110.50  0.000265   -0.06    110.44   
    37. A(C   2,C   3,H  14)          110.40 -0.000111    0.05    110.45   
    38. A(C   1,C   4,C   2)          115.36  0.000217   -0.03    115.33   
    39. A(C   2,C   4,O   5)          121.69 -0.000497    0.07    121.76   
    40. A(C   1,C   4,O   5)          122.95  0.000280   -0.04    122.92   
    41. A(O   7,O   6,H  16)          103.75 -0.000376    0.01    103.76   
    42. A(C   3,O   7,O   6)          109.92 -0.000767    0.09    110.01   
    43. D(H  11,C   1,C   0,H   8)    -59.09  0.000007    0.19    -58.91   
    44. D(C   4,C   1,C   0,H  10)   -121.85 -0.000108    0.22   -121.63   
    45. D(C   4,C   1,C   0,H   9)     -0.36  0.000006    0.17     -0.19   
    46. D(H  11,C   1,C   0,H   9)    179.56 -0.000018    0.16    179.73   
    47. D(C   4,C   1,C   0,H   8)    120.98  0.000031    0.20    121.18   
    48. D(O   7,C   3,C   2,H  12)     59.91 -0.000041    0.87     60.78   
    49. D(O   7,C   3,C   2,C   4)   -178.49  0.000051    0.83   -177.65   
    50. D(H  14,C   3,C   2,H  12)    -59.96 -0.000069    0.88    -59.08   
    51. D(H  14,C   3,C   2,C   4)     61.65  0.000024    0.84     62.49   
    52. D(H  14,C   3,C   2,H  13)   -177.70 -0.000098    0.89   -176.80   
    53. D(O   7,C   3,C   2,H  13)    -57.83 -0.000071    0.89    -56.94   
    54. D(O   5,C   4,C   1,C   0)     -0.08  0.000049   -0.13     -0.20   
    55. D(C   2,C   4,C   1,H  11)      0.05 -0.000038   -0.02      0.03   
    56. D(O   5,C   4,C   1,H  11)   -180.00  0.000074   -0.11   -180.11   
    57. D(C   2,C   4,C   1,C   0)    179.98 -0.000063   -0.03    179.95   
    58. D(O   5,C   4,C   2,H  12)    125.26 -0.000067   -0.57    124.69   
    59. D(O   5,C   4,C   2,C   3)      3.82 -0.000012   -0.59      3.23   
    60. D(C   1,C   4,C   2,H  13)     62.82  0.000054   -0.67     62.15   
    61. D(C   1,C   4,C   2,H  12)    -54.80  0.000044   -0.66    -55.46   
    62. D(C   1,C   4,C   2,C   3)   -176.23  0.000099   -0.68   -176.91   
    63. D(C   3,O   7,O   6,H  16)   -122.08 -0.000030    0.59   -121.50   
    64. D(O   6,O   7,C   3,H  15)     63.62  0.000037    0.86     64.48   
    65. D(O   6,O   7,C   3,H  14)    -56.51 -0.000167    0.88    -55.63   
    66. D(O   6,O   7,C   3,C   2)   -176.32  0.000050    0.81   -175.50   
    ----------------------------------------------------------------------------

Geometry step timings:
Preparation and reading OPT file:      0.000 s ( 1.499 %)
Internal coordinates            :      0.000 s ( 1.269 %)
B/P matrices and projection     :      0.000 s (23.183 %)
Hessian update/contruction      :      0.000 s (27.566 %)
Making the step                 :      0.000 s (22.145 %)
Converting the step to Cartesian:      0.000 s ( 2.134 %)
Storing new data                :      0.000 s ( 1.384 %)
Checking convergence            :      0.000 s ( 1.961 %)
Final printing                  :      0.000 s (18.800 %)
Total time                      :      0.002 s

Time for energy+gradient        :      0.025 s
Time for complete geometry iter :      0.027 s

         *************************************************************
         *                GEOMETRY OPTIMIZATION CYCLE   8            *
         *************************************************************
---------------------------------
CARTESIAN COORDINATES (ANGSTROEM)
---------------------------------
  C    -3.208185   -0.239855   -0.388664
  C    -1.843328   -0.020636   -0.884734
  C     0.637549    0.092147   -0.700805
  C     1.788428   -0.163716    0.262208
  C    -0.708167   -0.168195   -0.037717
  O    -0.795558   -0.480817    1.148472
  O     4.106393   -0.149493    0.356971
  O     2.972449    0.160052   -0.437814
  H    -3.813776    0.661118   -0.517693
  H    -3.178787   -0.516702    0.662550
  H    -3.706623   -1.023542   -0.964996
  H    -1.699961    0.257778   -1.917642
  H     0.746190   -0.548159   -1.578159
  H     0.672697    1.129261   -1.043118
  H     1.802173   -1.214615    0.571828
  H     1.682632    0.459945    1.159391
  H     4.567788    0.696541    0.438845

----------------------------
CARTESIAN COORDINATES (A.U.)
----------------------------
  NO LB    ZA    FRAG    MASS        X           Y           Z
   0 C   6.0000    1    12.011   -6.062591   -0.453260   -0.734469
   1 C   6.0000    1    12.011   -3.483385   -0.038997   -1.671904
   2 C   6.0000    1    12.011    1.204793    0.174133   -1.324330
   3 C   6.0000    1    12.011    3.379640   -0.309379    0.495501
   4 C   6.0000    1    12.011   -1.338242   -0.317842   -0.071275
   5 O   8.0000    1    15.999   -1.503387   -0.908612    2.170298
   6 O   8.0000    1    15.999    7.759958   -0.282501    0.674578
   7 O   8.0000    1    15.999    5.617115    0.302455   -0.827349
   8 H   1.0000    1     1.008   -7.206992    1.249333   -0.978298
   9 H   1.0000    1     1.008   -6.007036   -0.976424    1.252038
  10 H   1.0000    1     1.008   -7.004502   -1.934214   -1.823578
  11 H   1.0000    1     1.008   -3.212460    0.487129   -3.623817
  12 H   1.0000    1     1.008    1.410095   -1.035870   -2.982289
  13 H   1.0000    1     1.008    1.271214    2.133995   -1.971207
  14 H   1.0000    1     1.008    3.405613   -2.295291    1.080599
  15 H   1.0000    1     1.008    3.179713    0.869170    2.190932
  16 H   1.0000    1     1.008    8.631868    1.316272    0.829297

      -----------------------------------------------------------      
     |                   =====================                   |     
     |                           x T B                           |     
     |                   =====================                   |     
     |                         S. Grimme                         |     
     |          Mulliken Center for Theoretical Chemistry        |     
     |                    University of Bonn                     |     
      -----------------------------------------------------------      

   * xtb version 6.7.1 (edcfbbe) compiled by 'albert@albert-system' on 2024-07-22

   xtb is free software: you can redistribute it and/or modify it under
   the terms of the GNU Lesser General Public License as published by
   the Free Software Foundation, either version 3 of the License, or
   (at your option) any later version.
   
   xtb is distributed in the hope that it will be useful,
   but WITHOUT ANY WARRANTY; without even the implied warranty of
   MERCHANTABILITY or FITNESS FOR A PARTICULAR PURPOSE.  See the
   GNU Lesser General Public License for more details.
   
   Cite this work as:
   * C. Bannwarth, E. Caldeweyher, S. Ehlert, A. Hansen, P. Pracht,
     J. Seibert, S. Spicher, S. Grimme, WIREs Comput. Mol. Sci., 2020, 11,
     e01493. DOI: 10.1002/wcms.1493
   
   for GFN2-xTB:
   * C. Bannwarth, S. Ehlert and S. Grimme., J. Chem. Theory Comput., 2019,
     15, 1652-1671. DOI: 10.1021/acs.jctc.8b01176
   for GFN1-xTB:
   * S. Grimme, C. Bannwarth, P. Shushkov, J. Chem. Theory Comput., 2017,
     13, 1989-2009. DOI: 10.1021/acs.jctc.7b00118
   for GFN0-xTB:
   * P. Pracht, E. Caldeweyher, S. Ehlert, S. Grimme, ChemRxiv, 2019, preprint.
     DOI: 10.26434/chemrxiv.8326202.v1
   for GFN-FF:
   * S. Spicher and S. Grimme, Angew. Chem. Int. Ed., 2020, 59, 15665-15673.
     DOI: 10.1002/anie.202004239
   
   for ALPB and GBSA implicit solvation:
   * S. Ehlert, M. Stahn, S. Spicher, S. Grimme, J. Chem. Theory Comput.,
     2021, 17, 4250-4261. DOI: 10.1021/acs.jctc.1c00471
   
   for ddCOSMO and CPCM-X implicit solvation:
   * M. Stahn, S. Ehlert, S. Grimme, J. Phys. Chem. A,
     2023, XX, XXXX-XXXX. DOI: 10.1021/acs.jpca.3c04382
   
   for DFT-D4:
   * E. Caldeweyher, C. Bannwarth and S. Grimme, J. Chem. Phys., 2017,
     147, 034112. DOI: 10.1063/1.4993215
   * E. Caldeweyher, S. Ehlert, A. Hansen, H. Neugebauer, S. Spicher,
     C. Bannwarth and S. Grimme, J. Chem. Phys., 2019, 150, 154122.
     DOI: 10.1063/1.5090222
   * E. Caldeweyher, J.-M. Mewes, S. Ehlert and S. Grimme, Phys. Chem. Chem. Phys.
     2020, 22, 8499-8512. DOI: 10.1039/D0CP00502A
   
   for sTDA-xTB:
   * S. Grimme and C. Bannwarth, J. Chem. Phys., 2016, 145, 054103.
     DOI: 10.1063/1.4959605
   
   in the mass-spec context:
   * V. Asgeirsson, C. Bauer and S. Grimme, Chem. Sci., 2017, 8, 4879.
     DOI: 10.1039/c7sc00601b
   * J. Koopman and S. Grimme, ACS Omega 2019, 4, 12, 15120-15133.
     DOI: 10.1021/acsomega.9b02011
   
   for metadynamics refer to:
   * S. Grimme, J. Chem. Theory Comput., 2019, 155, 2847-2862
     DOI: 10.1021/acs.jctc.9b00143
   
   for SPH calculations refer to:
   * S. Spicher and S. Grimme, J. Chem. Theory Comput., 2021, 17, 1701-1714
     DOI: 10.1021/acs.jctc.0c01306
   
   for ONIOM refer to:
   * C. Plett, A. Katbashev, S. Ehlert, S. Grimme, M. Bursch,
     Phys. Chem. Chem. Phys., 2023, 25, 17860-17868. DOI: 10.1039/D3CP02178E
   
   for DIPRO refer to:
   * J. Kohn, N. Gildemeister, S. Grimme, D. Fazzi, A. Hansen,
     J. Chem. Phys., 2023, just accepted.
   
   for PTB refer to:
   * S. Grimme, M. Mueller, A. Hansen, J. Chem. Phys., 2023, 158, 124111.
     DOI: 10.1063/5.0137838
   
   with help from (in alphabetical order)
   P. Atkinson, C. Bannwarth, F. Bohle, G. Brandenburg, E. Caldeweyher
   M. Checinski, S. Dohm, S. Ehlert, S. Ehrlich, I. Gerasimov, C. Hölzer
   A. Katbashev, J. Kohn, J. Koopman, C. Lavigne, S. Lehtola, F. März, M. Müller,
   F. Musil, H. Neugebauer, J. Pisarek, C. Plett, P. Pracht, F. Pultar,
   J. Seibert, P. Shushkov, S. Spicher, M. Stahn, M. Steiner, T. Strunk,
   J. Stückrath, T. Rose, and J. Unsleber
   
 * started run on 2026/02/22 at 12:32:54.369     
   ID    Z sym.   atoms
    1    6 C      1-5
    2    8 O      6-8
    3    1 H      9-17

           -------------------------------------------------
          |                Calculation Setup                |
           -------------------------------------------------

          program call               : /apps/eb/ORCA/6.1.1-gompi-2024a-avx2/bin/otool_xtb goat_XTB.xyz --grad -c 0 -u 1 -P 8 --namespace goat --input goat_XTB.input.tmp --acc 0.200000
          hostname                   : e2-9
          calculation namespace      : goat
          coordinate file            : goat_XTB.xyz
          omp threads                :                     8


           -------------------------------------------------
          |                 G F N 2 - x T B                 |
           -------------------------------------------------

        Reference                      10.1021/acs.jctc.8b01176
      * Hamiltonian:
        H0-scaling (s, p, d)           1.850000    2.230000    2.230000
        zeta-weighting                 0.500000
      * Dispersion:
        s8                             2.700000
        a1                             0.520000
        a2                             5.000000
        s9                             5.000000
      * Repulsion:
        kExp                           1.500000    1.000000
        rExp                           1.000000
      * Coulomb:
        alpha                          2.000000
        third order                    shell-resolved
        anisotropic                    true
        a3                             3.000000
        a5                             4.000000
        cn-shift                       1.200000
        cn-exp                         4.000000
        max-rad                        5.000000

q/qsh data taken from xtbrestart
CAMM data taken from xtbrestart

          ...................................................
          :                      SETUP                      :
          :.................................................:
          :  # basis functions                  41          :
          :  # atomic orbitals                  41          :
          :  # shells                           25          :
          :  # electrons                        47          :
          :  max. iterations                   250          :
          :  Hamiltonian                  GFN2-xTB          :
          :  restarted?                       true          :
          :  GBSA solvation                  false          :
          :  PC potential                    false          :
          :  electronic temp.          300.0000000     K    :
          :  accuracy                    0.2000000          :
          :  -> integral cutoff          0.3198970E+02      :
          :  -> integral neglect         0.2000000E-08      :
          :  -> SCF convergence          0.2000000E-06 Eh   :
          :  -> wf. convergence          0.2000000E-04 e    :
          :  Broyden damping             0.4000000          :
          :  net charge                          0          :
          :  unpaired electrons                  1          :
          ...................................................

 iter      E             dE          RMSdq      gap      omega  full diag
   1    -27.5988175 -0.275988E+02  0.436E-02    4.44       0.0  T
   2    -27.5988178 -0.285087E-06  0.268E-02    4.44       1.0  T
   3    -27.5988179 -0.128265E-06  0.242E-03    4.44      10.0  T
   4    -27.5988179 -0.224782E-07  0.139E-03    4.44      17.4  T
   5    -27.5988179 -0.423529E-08  0.633E-04    4.44      38.3  T
   6    -27.5988179 -0.175699E-08  0.203E-04    4.44     119.4  T
   7    -27.5988179 -0.214786E-09  0.103E-04    4.44     235.0  T
   8    -27.5988179 -0.549853E-10  0.482E-05    4.44     503.1  T

   *** convergence criteria satisfied after 8 iterations ***

         #    Occupation            Energy/Eh            Energy/eV
      -------------------------------------------------------------
         1        2.0000           -0.7181994             -19.5432
       ...           ...                  ...                  ...
        18        2.0000           -0.4728434             -12.8667
        19        2.0000           -0.4706214             -12.8063
        20        2.0000           -0.4654018             -12.6642
        21        2.0000           -0.4551509             -12.3853
        22        2.0000           -0.4107898             -11.1782
        23        2.0000           -0.3982188             -10.8361
        24        1.0000           -0.3690785             -10.0431 (HOMO)
        25                         -0.2058835              -5.6024 (LUMO)
        26                         -0.1419523              -3.8627
        27                          0.0504407               1.3726
        28                          0.0862985               2.3483
        29                          0.1250244               3.4021
       ...                                ...                  ...
        41                          0.5935108              16.1503
      -------------------------------------------------------------
                  HL-Gap            0.1631951 Eh            4.4408 eV
             Fermi-level           -0.3355648 Eh           -9.1312 eV

 SCC (total)                   0 d,  0 h,  0 min,  0.011 sec
 SCC setup                      ...        0 min,  0.000 sec (  1.683%)
 Dispersion                     ...        0 min,  0.000 sec (  1.535%)
 classical contributions        ...        0 min,  0.000 sec (  0.680%)
 integral evaluation            ...        0 min,  0.000 sec (  3.804%)
 iterations                     ...        0 min,  0.009 sec ( 76.474%)
 molecular gradient             ...        0 min,  0.001 sec ( 11.811%)
 printout                       ...        0 min,  0.000 sec (  3.793%)

         :::::::::::::::::::::::::::::::::::::::::::::::::::::
         ::                     SUMMARY                     ::
         :::::::::::::::::::::::::::::::::::::::::::::::::::::
         :: total energy             -27.335303172586 Eh    ::
         :: gradient norm              0.001476200753 Eh/a0 ::
         :: HOMO-LUMO gap              4.440763427282 eV    ::
         ::.................................................::
         :: SCC energy               -27.598855940053 Eh    ::
         :: -> isotropic ES            0.056932079831 Eh    ::
         :: -> anisotropic ES         -0.004249272950 Eh    ::
         :: -> anisotropic XC         -0.001136649434 Eh    ::
         :: -> dispersion             -0.009427917716 Eh    ::
         :: repulsion energy           0.263552767467 Eh    ::
         :: add. restraining           0.000000000000 Eh    ::
         :: total charge               0.000000000000 e     ::
         :::::::::::::::::::::::::::::::::::::::::::::::::::::


Property printout bound to 'properties.out'

           -------------------------------------------------
          | TOTAL ENERGY              -27.335303172586 Eh   |
          | GRADIENT NORM               0.001476200753 Eh/α |
          | HOMO-LUMO GAP               4.440763427282 eV   |
           -------------------------------------------------

------------------------------------------------------------------------
 * finished run on 2026/02/22 at 12:32:54.398     
------------------------------------------------------------------------
 total:
 * wall-time:     0 d,  0 h,  0 min,  0.028 sec
 *  cpu-time:     0 d,  0 h,  0 min,  0.154 sec
 * ratio c/w:     5.585 speedup
 SCF:
 * wall-time:     0 d,  0 h,  0 min,  0.012 sec
 *  cpu-time:     0 d,  0 h,  0 min,  0.069 sec
 * ratio c/w:     5.937 speedup


-------------------------   --------------------
FINAL SINGLE POINT ENERGY       -27.335303172590
-------------------------   --------------------


-------------
DIPOLE MOMENT
-------------
                                X             Y             Z
Total Dipole Moment    :     -0.94900       0.83200      -0.97200
                        -----------------------------------------
Magnitude (a.u.)       :      1.59299
Magnitude (Debye)      :      4.04905


------------------
CARTESIAN GRADIENT
------------------

   1   C   :    0.000047011   -0.000086167    0.000079014
   2   C   :    0.000416213   -0.000084052    0.000309169
   3   C   :   -0.000008384   -0.000153531   -0.000145420
   4   C   :    0.000627773   -0.000019134    0.000284710
   5   C   :   -0.000648970    0.000199260   -0.000015559
   6   O   :    0.000197314    0.000041337   -0.000250057
   7   O   :    0.000180573   -0.000299084    0.000378999
   8   O   :   -0.000297804    0.000320173   -0.000382014
   9   H   :   -0.000030111   -0.000026924   -0.000099673
  10   H   :    0.000116864    0.000014772   -0.000035936
  11   H   :   -0.000072589    0.000106169   -0.000067084
  12   H   :   -0.000120932   -0.000017828    0.000007228
  13   H   :    0.000114544    0.000005459    0.000026822
  14   H   :   -0.000099014    0.000028261    0.000065690
  15   H   :   -0.000150848    0.000040815    0.000031036
  16   H   :   -0.000076486   -0.000102605   -0.000022704
  17   H   :   -0.000195154    0.000033079   -0.000164222

Difference to translation invariance:
           :    0.0000000000    0.0000000000    0.0000000000

Difference to rotation invariance:
           :    0.0000002717    0.0000008362   -0.0000002567

Norm of the Cartesian gradient     ...    0.0014762008
RMS gradient                       ...    0.0002067095
MAX gradient                       ...    0.0006489704
------------------------------------------------------------------------------
                         ORCA GEOMETRY RELAXATION STEP
------------------------------------------------------------------------------

Reading the OPT-File                    .... done
Getting information on internals        .... done
Copying old internal coords+grads       .... done
Making the new internal coordinates     .... (2022 redundants) done
Validating the new internal coordinates .... (2022 redundants) done
Calculating the B-matrix                .... done
Calculating the G,G- and P matrices     .... done
Transforming gradient to internals      .... done
Projecting the internal gradient        .... done
Number of atoms                         ....  17
Number of internal coordinates          ....  66
Current Energy                          ....   -27.335303173 Eh
Current gradient norm                   ....     0.001476201 Eh/bohr
Maximum allowed component of the step   ....  0.300
Current trust radius                    ....  0.700
Updating the Hessian (BFGS)             .... done
Forming the augmented Hessian           .... done
Diagonalizing the augmented Hessian     .... done
Last element of RFO vector              ....  0.999425392
Lowest eigenvalues of augmented Hessian:
 -0.000006651  0.001771385  0.011385770  0.012048222  0.013517936
Length of the computed step             ....  0.033914693
The final length of the internal step   ....  0.033914693
Converting the step to Cartesian space:
 Initial RMS(Int)=    0.0041746102
Transforming coordinates:
 Iter   0:  RMS(Cart)=    0.0079602614 RMS(Int)=    0.0041755923
done
Storing new coordinates                 .... done
The predicted energy change is          ....    -0.000003329
Previously predicted energy change      ....    -0.000005742
Actually observed energy change         ....    -0.000008125
Ratio of predicted to observed change   ....     1.414937873
New trust radius                        ....     0.700000000

                                .--------------------.
          ----------------------|Geometry convergence|-------------------------
          Item                value                   Tolerance       Converged
          ---------------------------------------------------------------------
          Energy change      -0.0000081248            0.0000050000      NO
          RMS gradient        0.0001306144            0.0001000000      NO
          MAX gradient        0.0004451813            0.0003000000      NO
          RMS step            0.0041746102            0.0020000000      NO
          MAX step            0.0124610990            0.0040000000      NO
          -------------------------------------------------------------------------
          ........................................................
          Max(Bonds)      0.0006      Max(Angles)    0.11
          Max(Dihed)        0.71      Max(Improp)    0.00
          ---------------------------------------------------------------------

    ---------------------------------------------------------------------------
                         Redundant Internal Coordinates
                            (Angstroem and degrees)

        Definition                    Value    dE/dq     Step     New-Value
    ----------------------------------------------------------------------------
     1. B(C   1,C   0)                1.4687 -0.000100  0.0000    1.4687   
     2. B(C   3,C   2)                1.5223  0.000151 -0.0003    1.5220   
     3. B(C   4,C   1)                1.4240 -0.000409  0.0005    1.4245   
     4. B(C   4,C   2)                1.5226  0.000027 -0.0002    1.5224   
     5. B(O   5,C   4)                1.2298 -0.000266  0.0001    1.2299   
     6. B(O   7,O   6)                1.4189  0.000167 -0.0006    1.4184   
     7. B(O   7,C   3)                1.4131 -0.000167  0.0003    1.4133   
     8. B(H   8,C   0)                1.0932  0.000006 -0.0000    1.0932   
     9. B(H   9,C   0)                1.0875 -0.000035  0.0000    1.0875   
    10. B(H  10,C   0)                1.0931 -0.000008  0.0000    1.0931   
    11. B(H  11,C   1)                1.0793 -0.000028  0.0000    1.0794   
    12. B(H  12,C   2)                1.0916 -0.000013  0.0000    1.0916   
    13. B(H  13,C   2)                1.0927  0.000003 -0.0000    1.0927   
    14. B(H  14,C   3)                1.0956 -0.000032  0.0000    1.0957   
    15. B(H  15,C   3)                1.0978 -0.000069  0.0002    1.0980   
    16. B(H  16,O   6)                0.9671 -0.000078  0.0001    0.9672   
    17. A(H   9,C   0,H  10)          109.85  0.000109   -0.06    109.79   
    18. A(C   1,C   0,H   8)          110.60 -0.000017    0.00    110.61   
    19. A(H   8,C   0,H  10)          106.02 -0.000118    0.06    106.09   
    20. A(C   1,C   0,H   9)          109.84 -0.000133    0.04    109.88   
    21. A(H   8,C   0,H   9)          109.81  0.000098   -0.02    109.78   
    22. A(C   1,C   0,H  10)          110.65  0.000067   -0.03    110.62   
    23. A(C   0,C   1,H  11)          119.02 -0.000126    0.04    119.06   
    24. A(C   0,C   1,C   4)          121.63  0.000008   -0.01    121.62   
    25. A(C   4,C   1,H  11)          119.35  0.000117   -0.03    119.32   
    26. A(C   4,C   2,H  13)          109.09 -0.000115    0.07    109.17   
    27. A(H  12,C   2,H  13)          107.56  0.000031   -0.02    107.54   
    28. A(C   3,C   2,H  13)          109.47  0.000061   -0.03    109.44   
    29. A(C   4,C   2,H  12)          109.74  0.000105   -0.07    109.67   
    30. A(C   3,C   2,H  12)          109.55 -0.000104    0.05    109.60   
    31. A(C   3,C   2,C   4)          111.34  0.000022   -0.00    111.34   
    32. A(C   2,C   3,O   7)          106.35 -0.000201    0.06    106.42   
    33. A(H  14,C   3,H  15)          108.37 -0.000083    0.03    108.40   
    34. A(O   7,C   3,H  15)          110.82  0.000193   -0.05    110.77   
    35. A(C   2,C   3,H  15)          110.41  0.000026   -0.03    110.37   
    36. A(O   7,C   3,H  14)          110.44  0.000162   -0.07    110.37   
    37. A(C   2,C   3,H  14)          110.45 -0.000094    0.06    110.52   
    38. A(C   1,C   4,C   2)          115.33  0.000130   -0.04    115.29   
    39. A(C   2,C   4,O   5)          121.76 -0.000271    0.08    121.84   
    40. A(C   1,C   4,O   5)          122.92  0.000141   -0.04    122.87   
    41. A(O   7,O   6,H  16)          103.76 -0.000445    0.10    103.85   
    42. A(C   3,O   7,O   6)          110.01 -0.000433    0.11    110.12   
    43. D(H  11,C   1,C   0,H   8)    -58.91  0.000008    0.16    -58.75   
    44. D(C   4,C   1,C   0,H  10)   -121.63 -0.000090    0.23   -121.40   
    45. D(C   4,C   1,C   0,H   9)     -0.19  0.000002    0.17     -0.02   
    46. D(H  11,C   1,C   0,H   9)    179.73 -0.000015    0.16    179.88   
    47. D(C   4,C   1,C   0,H   8)    121.18  0.000025    0.17    121.35   
    48. D(O   7,C   3,C   2,H  12)     60.78 -0.000023    0.55     61.34   
    49. D(O   7,C   3,C   2,C   4)   -177.65  0.000054    0.51   -177.15   
    50. D(H  14,C   3,C   2,H  12)    -59.08 -0.000046    0.56    -58.52   
    51. D(H  14,C   3,C   2,C   4)     62.49  0.000031    0.51     63.00   
    52. D(H  14,C   3,C   2,H  13)   -176.80 -0.000058    0.58   -176.23   
    53. D(O   7,C   3,C   2,H  13)    -56.94 -0.000035    0.57    -56.37   
    54. D(O   5,C   4,C   1,C   0)     -0.20  0.000006   -0.06     -0.26   
    55. D(C   2,C   4,C   1,H  11)      0.03 -0.000017    0.03      0.06   
    56. D(O   5,C   4,C   1,H  11)    179.89  0.000024   -0.05    179.84   
    57. D(C   2,C   4,C   1,C   0)    179.95 -0.000034    0.02    179.96   
    58. D(O   5,C   4,C   2,H  12)    124.69 -0.000042   -0.32    124.37   
    59. D(O   5,C   4,C   2,C   3)      3.23  0.000003   -0.34      2.89   
    60. D(C   1,C   4,C   2,H  13)     62.15  0.000029   -0.42     61.73   
    61. D(C   1,C   4,C   2,H  12)    -55.46 -0.000002   -0.40    -55.86   
    62. D(C   1,C   4,C   2,C   3)   -176.91  0.000043   -0.42   -177.33   
    63. D(C   3,O   7,O   6,H  16)   -121.50 -0.000048    0.71   -120.78   
    64. D(O   6,O   7,C   3,H  15)     64.48  0.000050    0.39     64.87   
    65. D(O   6,O   7,C   3,H  14)    -55.63 -0.000078    0.44    -55.19   
    66. D(O   6,O   7,C   3,C   2)   -175.50  0.000066    0.36   -175.14   
    ----------------------------------------------------------------------------

Geometry step timings:
Preparation and reading OPT file:      0.000 s ( 1.092 %)
Internal coordinates            :      0.000 s ( 1.494 %)
B/P matrices and projection     :      0.000 s (24.598 %)
Hessian update/contruction      :      0.000 s (25.690 %)
Making the step                 :      0.000 s (22.931 %)
Converting the step to Cartesian:      0.000 s ( 2.184 %)
Storing new data                :      0.000 s ( 1.379 %)
Checking convergence            :      0.000 s ( 2.126 %)
Final printing                  :      0.000 s (18.506 %)
Total time                      :      0.002 s

Time for energy+gradient        :      0.040 s
Time for complete geometry iter :      0.042 s

         *************************************************************
         *                GEOMETRY OPTIMIZATION CYCLE   9            *
         *************************************************************
---------------------------------
CARTESIAN COORDINATES (ANGSTROEM)
---------------------------------
  C    -3.208293   -0.235911   -0.386967
  C    -1.843469   -0.019492   -0.884357
  C     0.637670    0.086106   -0.703400
  C     1.788943   -0.165272    0.259826
  C    -0.707370   -0.172400   -0.038698
  O    -0.795313   -0.486541    1.147192
  O     4.108234   -0.144582    0.353557
  O     2.972698    0.167405   -0.437002
  H    -3.812313    0.666109   -0.515822
  H    -3.179318   -0.512424    0.664385
  H    -3.707909   -1.019771   -0.962130
  H    -1.699963    0.260715   -1.916777
  H     0.744972   -0.557832   -1.578301
  H     0.673253    1.121637   -1.050302
  H     1.809927   -1.216740    0.567142
  H     1.678293    0.456180    1.158239
  H     4.561874    0.703929    0.452338

----------------------------
CARTESIAN COORDINATES (A.U.)
----------------------------
  NO LB    ZA    FRAG    MASS        X           Y           Z
   0 C   6.0000    1    12.011   -6.062796   -0.445807   -0.731261
   1 C   6.0000    1    12.011   -3.483652   -0.036835   -1.671192
   2 C   6.0000    1    12.011    1.205021    0.162716   -1.329234
   3 C   6.0000    1    12.011    3.380611   -0.312320    0.491000
   4 C   6.0000    1    12.011   -1.336736   -0.325789   -0.073129
   5 O   8.0000    1    15.999   -1.502924   -0.919429    2.167878
   6 O   8.0000    1    15.999    7.763437   -0.273220    0.668126
   7 O   8.0000    1    15.999    5.617585    0.316349   -0.825814
   8 H   1.0000    1     1.008   -7.204227    1.258763   -0.974762
   9 H   1.0000    1     1.008   -6.008041   -0.968341    1.255506
  10 H   1.0000    1     1.008   -7.006933   -1.927087   -1.818162
  11 H   1.0000    1     1.008   -3.212464    0.492679   -3.622183
  12 H   1.0000    1     1.008    1.407793   -1.054150   -2.982556
  13 H   1.0000    1     1.008    1.272264    2.119588   -1.984784
  14 H   1.0000    1     1.008    3.420267   -2.299305    1.071744
  15 H   1.0000    1     1.008    3.171514    0.862055    2.188754
  16 H   1.0000    1     1.008    8.620692    1.330233    0.854796

      -----------------------------------------------------------      
     |                   =====================                   |     
     |                           x T B                           |     
     |                   =====================                   |     
     |                         S. Grimme                         |     
     |          Mulliken Center for Theoretical Chemistry        |     
     |                    University of Bonn                     |     
      -----------------------------------------------------------      

   * xtb version 6.7.1 (edcfbbe) compiled by 'albert@albert-system' on 2024-07-22

   xtb is free software: you can redistribute it and/or modify it under
   the terms of the GNU Lesser General Public License as published by
   the Free Software Foundation, either version 3 of the License, or
   (at your option) any later version.
   
   xtb is distributed in the hope that it will be useful,
   but WITHOUT ANY WARRANTY; without even the implied warranty of
   MERCHANTABILITY or FITNESS FOR A PARTICULAR PURPOSE.  See the
   GNU Lesser General Public License for more details.
   
   Cite this work as:
   * C. Bannwarth, E. Caldeweyher, S. Ehlert, A. Hansen, P. Pracht,
     J. Seibert, S. Spicher, S. Grimme, WIREs Comput. Mol. Sci., 2020, 11,
     e01493. DOI: 10.1002/wcms.1493
   
   for GFN2-xTB:
   * C. Bannwarth, S. Ehlert and S. Grimme., J. Chem. Theory Comput., 2019,
     15, 1652-1671. DOI: 10.1021/acs.jctc.8b01176
   for GFN1-xTB:
   * S. Grimme, C. Bannwarth, P. Shushkov, J. Chem. Theory Comput., 2017,
     13, 1989-2009. DOI: 10.1021/acs.jctc.7b00118
   for GFN0-xTB:
   * P. Pracht, E. Caldeweyher, S. Ehlert, S. Grimme, ChemRxiv, 2019, preprint.
     DOI: 10.26434/chemrxiv.8326202.v1
   for GFN-FF:
   * S. Spicher and S. Grimme, Angew. Chem. Int. Ed., 2020, 59, 15665-15673.
     DOI: 10.1002/anie.202004239
   
   for ALPB and GBSA implicit solvation:
   * S. Ehlert, M. Stahn, S. Spicher, S. Grimme, J. Chem. Theory Comput.,
     2021, 17, 4250-4261. DOI: 10.1021/acs.jctc.1c00471
   
   for ddCOSMO and CPCM-X implicit solvation:
   * M. Stahn, S. Ehlert, S. Grimme, J. Phys. Chem. A,
     2023, XX, XXXX-XXXX. DOI: 10.1021/acs.jpca.3c04382
   
   for DFT-D4:
   * E. Caldeweyher, C. Bannwarth and S. Grimme, J. Chem. Phys., 2017,
     147, 034112. DOI: 10.1063/1.4993215
   * E. Caldeweyher, S. Ehlert, A. Hansen, H. Neugebauer, S. Spicher,
     C. Bannwarth and S. Grimme, J. Chem. Phys., 2019, 150, 154122.
     DOI: 10.1063/1.5090222
   * E. Caldeweyher, J.-M. Mewes, S. Ehlert and S. Grimme, Phys. Chem. Chem. Phys.
     2020, 22, 8499-8512. DOI: 10.1039/D0CP00502A
   
   for sTDA-xTB:
   * S. Grimme and C. Bannwarth, J. Chem. Phys., 2016, 145, 054103.
     DOI: 10.1063/1.4959605
   
   in the mass-spec context:
   * V. Asgeirsson, C. Bauer and S. Grimme, Chem. Sci., 2017, 8, 4879.
     DOI: 10.1039/c7sc00601b
   * J. Koopman and S. Grimme, ACS Omega 2019, 4, 12, 15120-15133.
     DOI: 10.1021/acsomega.9b02011
   
   for metadynamics refer to:
   * S. Grimme, J. Chem. Theory Comput., 2019, 155, 2847-2862
     DOI: 10.1021/acs.jctc.9b00143
   
   for SPH calculations refer to:
   * S. Spicher and S. Grimme, J. Chem. Theory Comput., 2021, 17, 1701-1714
     DOI: 10.1021/acs.jctc.0c01306
   
   for ONIOM refer to:
   * C. Plett, A. Katbashev, S. Ehlert, S. Grimme, M. Bursch,
     Phys. Chem. Chem. Phys., 2023, 25, 17860-17868. DOI: 10.1039/D3CP02178E
   
   for DIPRO refer to:
   * J. Kohn, N. Gildemeister, S. Grimme, D. Fazzi, A. Hansen,
     J. Chem. Phys., 2023, just accepted.
   
   for PTB refer to:
   * S. Grimme, M. Mueller, A. Hansen, J. Chem. Phys., 2023, 158, 124111.
     DOI: 10.1063/5.0137838
   
   with help from (in alphabetical order)
   P. Atkinson, C. Bannwarth, F. Bohle, G. Brandenburg, E. Caldeweyher
   M. Checinski, S. Dohm, S. Ehlert, S. Ehrlich, I. Gerasimov, C. Hölzer
   A. Katbashev, J. Kohn, J. Koopman, C. Lavigne, S. Lehtola, F. März, M. Müller,
   F. Musil, H. Neugebauer, J. Pisarek, C. Plett, P. Pracht, F. Pultar,
   J. Seibert, P. Shushkov, S. Spicher, M. Stahn, M. Steiner, T. Strunk,
   J. Stückrath, T. Rose, and J. Unsleber
   
 * started run on 2026/02/22 at 12:32:54.412     
   ID    Z sym.   atoms
    1    6 C      1-5
    2    8 O      6-8
    3    1 H      9-17

           -------------------------------------------------
          |                Calculation Setup                |
           -------------------------------------------------

          program call               : /apps/eb/ORCA/6.1.1-gompi-2024a-avx2/bin/otool_xtb goat_XTB.xyz --grad -c 0 -u 1 -P 8 --namespace goat --input goat_XTB.input.tmp --acc 0.200000
          hostname                   : e2-9
          calculation namespace      : goat
          coordinate file            : goat_XTB.xyz
          omp threads                :                     8


           -------------------------------------------------
          |                 G F N 2 - x T B                 |
           -------------------------------------------------

        Reference                      10.1021/acs.jctc.8b01176
      * Hamiltonian:
        H0-scaling (s, p, d)           1.850000    2.230000    2.230000
        zeta-weighting                 0.500000
      * Dispersion:
        s8                             2.700000
        a1                             0.520000
        a2                             5.000000
        s9                             5.000000
      * Repulsion:
        kExp                           1.500000    1.000000
        rExp                           1.000000
      * Coulomb:
        alpha                          2.000000
        third order                    shell-resolved
        anisotropic                    true
        a3                             3.000000
        a5                             4.000000
        cn-shift                       1.200000
        cn-exp                         4.000000
        max-rad                        5.000000

q/qsh data taken from xtbrestart
CAMM data taken from xtbrestart

          ...................................................
          :                      SETUP                      :
          :.................................................:
          :  # basis functions                  41          :
          :  # atomic orbitals                  41          :
          :  # shells                           25          :
          :  # electrons                        47          :
          :  max. iterations                   250          :
          :  Hamiltonian                  GFN2-xTB          :
          :  restarted?                       true          :
          :  GBSA solvation                  false          :
          :  PC potential                    false          :
          :  electronic temp.          300.0000000     K    :
          :  accuracy                    0.2000000          :
          :  -> integral cutoff          0.3198970E+02      :
          :  -> integral neglect         0.2000000E-08      :
          :  -> SCF convergence          0.2000000E-06 Eh   :
          :  -> wf. convergence          0.2000000E-04 e    :
          :  Broyden damping             0.4000000          :
          :  net charge                          0          :
          :  unpaired electrons                  1          :
          ...................................................

 iter      E             dE          RMSdq      gap      omega  full diag
   1    -27.5986881 -0.275987E+02  0.281E-02    4.44       0.0  T
   2    -27.5986882 -0.139564E-06  0.172E-02    4.44       1.4  T
   3    -27.5986883 -0.519989E-07  0.164E-03    4.44      14.8  T
   4    -27.5986883 -0.106037E-07  0.882E-04    4.44      27.5  T
   5    -27.5986883 -0.740048E-09  0.300E-04    4.44      80.8  T
   6    -27.5986883 -0.219700E-09  0.121E-04    4.44     199.8  T
   7    -27.5986883 -0.115104E-09  0.622E-05    4.44     390.2  T

   *** convergence criteria satisfied after 7 iterations ***

         #    Occupation            Energy/Eh            Energy/eV
      -------------------------------------------------------------
         1        2.0000           -0.7182297             -19.5440
       ...           ...                  ...                  ...
        18        2.0000           -0.4726644             -12.8619
        19        2.0000           -0.4706940             -12.8082
        20        2.0000           -0.4654493             -12.6655
        21        2.0000           -0.4550575             -12.3827
        22        2.0000           -0.4109492             -11.1825
        23        2.0000           -0.3982667             -10.8374
        24        1.0000           -0.3690500             -10.0424 (HOMO)
        25                         -0.2060341              -5.6065 (LUMO)
        26                         -0.1416417              -3.8543
        27                          0.0503891               1.3712
        28                          0.0863835               2.3506
        29                          0.1249632               3.4004
       ...                                ...                  ...
        41                          0.5930411              16.1375
      -------------------------------------------------------------
                  HL-Gap            0.1630159 Eh            4.4359 eV
             Fermi-level           -0.3356002 Eh           -9.1321 eV

 SCC (total)                   0 d,  0 h,  0 min,  0.009 sec
 SCC setup                      ...        0 min,  0.000 sec (  1.845%)
 Dispersion                     ...        0 min,  0.000 sec (  1.614%)
 classical contributions        ...        0 min,  0.000 sec (  0.668%)
 integral evaluation            ...        0 min,  0.001 sec (  5.895%)
 iterations                     ...        0 min,  0.006 sec ( 73.843%)
 molecular gradient             ...        0 min,  0.001 sec ( 12.549%)
 printout                       ...        0 min,  0.000 sec (  3.311%)

         :::::::::::::::::::::::::::::::::::::::::::::::::::::
         ::                     SUMMARY                     ::
         :::::::::::::::::::::::::::::::::::::::::::::::::::::
         :: total energy             -27.335307358350 Eh    ::
         :: gradient norm              0.000551681394 Eh/a0 ::
         :: HOMO-LUMO gap              4.435889042891 eV    ::
         ::.................................................::
         :: SCC energy               -27.598726256143 Eh    ::
         :: -> isotropic ES            0.056939278269 Eh    ::
         :: -> anisotropic ES         -0.004234731963 Eh    ::
         :: -> anisotropic XC         -0.001156352376 Eh    ::
         :: -> dispersion             -0.009427233576 Eh    ::
         :: repulsion energy           0.263418897793 Eh    ::
         :: add. restraining           0.000000000000 Eh    ::
         :: total charge               0.000000000000 e     ::
         :::::::::::::::::::::::::::::::::::::::::::::::::::::


Property printout bound to 'properties.out'

           -------------------------------------------------
          | TOTAL ENERGY              -27.335307358350 Eh   |
          | GRADIENT NORM               0.000551681394 Eh/α |
          | HOMO-LUMO GAP               4.435889042891 eV   |
           -------------------------------------------------

------------------------------------------------------------------------
 * finished run on 2026/02/22 at 12:32:54.436     
------------------------------------------------------------------------
 total:
 * wall-time:     0 d,  0 h,  0 min,  0.023 sec
 *  cpu-time:     0 d,  0 h,  0 min,  0.129 sec
 * ratio c/w:     5.541 speedup
 SCF:
 * wall-time:     0 d,  0 h,  0 min,  0.009 sec
 *  cpu-time:     0 d,  0 h,  0 min,  0.052 sec
 * ratio c/w:     5.938 speedup


-------------------------   --------------------
FINAL SINGLE POINT ENERGY       -27.335307358350
-------------------------   --------------------


-------------
DIPOLE MOMENT
-------------
                                X             Y             Z
Total Dipole Moment    :     -0.95400       0.83200      -0.96000
                        -----------------------------------------
Magnitude (a.u.)       :      1.58869
Magnitude (Debye)      :      4.03813


------------------
CARTESIAN GRADIENT
------------------

   1   C   :    0.000064875   -0.000068035    0.000064055
   2   C   :    0.000135789    0.000004968    0.000089862
   3   C   :   -0.000093503   -0.000051114   -0.000092053
   4   C   :    0.000225267   -0.000002267   -0.000051544
   5   C   :   -0.000142898    0.000029085   -0.000077585
   6   O   :   -0.000002219    0.000009292    0.000027992
   7   O   :    0.000147481   -0.000166338    0.000161677
   8   O   :   -0.000144110    0.000159949    0.000030587
   9   H   :    0.000003084    0.000022201   -0.000027937
  10   H   :    0.000012282    0.000008103   -0.000022908
  11   H   :   -0.000017555    0.000027174   -0.000032266
  12   H   :   -0.000059073   -0.000002908   -0.000006509
  13   H   :    0.000057180    0.000007076    0.000030138
  14   H   :   -0.000023307    0.000005511    0.000021232
  15   H   :   -0.000030820    0.000004433    0.000006913
  16   H   :   -0.000027275   -0.000000705   -0.000000350
  17   H   :   -0.000105198    0.000013576   -0.000121302

Difference to translation invariance:
           :   -0.0000000000    0.0000000000    0.0000000000

Difference to rotation invariance:
           :    0.0000004619    0.0000008575   -0.0000001835

Norm of the Cartesian gradient     ...    0.0005516814
RMS gradient                       ...    0.0000772508
MAX gradient                       ...    0.0002252672
------------------------------------------------------------------------------
                         ORCA GEOMETRY RELAXATION STEP
------------------------------------------------------------------------------

Reading the OPT-File                    .... done
Getting information on internals        .... done
Copying old internal coords+grads       .... done
Making the new internal coordinates     .... (2022 redundants) done
Validating the new internal coordinates .... (2022 redundants) done
Calculating the B-matrix                .... done
Calculating the G,G- and P matrices     .... done
Transforming gradient to internals      .... done
Projecting the internal gradient        .... done
Number of atoms                         ....  17
Number of internal coordinates          ....  66
Current Energy                          ....   -27.335307358 Eh
Current gradient norm                   ....     0.000551681 Eh/bohr
Maximum allowed component of the step   ....  0.300
Current trust radius                    ....  0.700
Updating the Hessian (BFGS)             .... done
Forming the augmented Hessian           .... done
Diagonalizing the augmented Hessian     .... done
Last element of RFO vector              ....  0.999891139
Lowest eigenvalues of augmented Hessian:
 -0.000001959  0.001759753  0.009944377  0.012047591  0.013521012
Length of the computed step             ....  0.014756613
The final length of the internal step   ....  0.014756613
Converting the step to Cartesian space:
 Initial RMS(Int)=    0.0018164135
Transforming coordinates:
 Iter   0:  RMS(Cart)=    0.0037766355 RMS(Int)=    0.0018167121
done
Storing new coordinates                 .... done
The predicted energy change is          ....    -0.000000980
Previously predicted energy change      ....    -0.000003329
Actually observed energy change         ....    -0.000004186
Ratio of predicted to observed change   ....     1.257316899
New trust radius                        ....     0.700000000

                                .--------------------.
          ----------------------|Geometry convergence|-------------------------
          Item                value                   Tolerance       Converged
          ---------------------------------------------------------------------
          Energy change      -0.0000041858            0.0000050000      YES
          RMS gradient        0.0000504974            0.0001000000      YES
          MAX gradient        0.0002689953            0.0003000000      YES
          RMS step            0.0018164135            0.0020000000      YES
          MAX step            0.0119081027            0.0040000000      NO
          -------------------------------------------------------------------------
          ........................................................
          Max(Bonds)      0.0004      Max(Angles)    0.09
          Max(Dihed)        0.68      Max(Improp)    0.00
          ---------------------------------------------------------------------

    ---------------------------------------------------------------------------
                         Redundant Internal Coordinates
                            (Angstroem and degrees)

        Definition                    Value    dE/dq     Step     New-Value
    ----------------------------------------------------------------------------
     1. B(C   1,C   0)                1.4687 -0.000063  0.0000    1.4687   
     2. B(C   3,C   2)                1.5220  0.000064 -0.0002    1.5218   
     3. B(C   4,C   1)                1.4245 -0.000150  0.0003    1.4248   
     4. B(C   4,C   2)                1.5224  0.000006 -0.0001    1.5223   
     5. B(O   5,C   4)                1.2299  0.000025  0.0000    1.2300   
     6. B(O   7,O   6)                1.4184  0.000090 -0.0004    1.4180   
     7. B(O   7,C   3)                1.4133 -0.000119  0.0002    1.4136   
     8. B(H   8,C   0)                1.0932  0.000020 -0.0000    1.0932   
     9. B(H   9,C   0)                1.0875 -0.000024  0.0000    1.0875   
    10. B(H  10,C   0)                1.0931  0.000006  0.0000    1.0931   
    11. B(H  11,C   1)                1.0794 -0.000002 -0.0000    1.0794   
    12. B(H  12,C   2)                1.0916 -0.000023  0.0000    1.0917   
    13. B(H  13,C   2)                1.0927 -0.000002 -0.0000    1.0927   
    14. B(H  14,C   3)                1.0957 -0.000003  0.0000    1.0957   
    15. B(H  15,C   3)                1.0980  0.000002  0.0001    1.0981   
    16. B(H  16,O   6)                0.9672 -0.000050  0.0001    0.9673   
    17. A(H   9,C   0,H  10)          109.79  0.000033   -0.03    109.76   
    18. A(C   1,C   0,H   8)          110.61 -0.000047    0.01    110.62   
    19. A(H   8,C   0,H  10)          106.09 -0.000019    0.03    106.12   
    20. A(C   1,C   0,H   9)          109.88  0.000003    0.01    109.90   
    21. A(H   8,C   0,H   9)          109.78  0.000024   -0.01    109.77   
    22. A(C   1,C   0,H  10)          110.62  0.000006   -0.01    110.61   
    23. A(C   0,C   1,H  11)          119.06 -0.000046    0.02    119.09   
    24. A(C   0,C   1,C   4)          121.62 -0.000029    0.00    121.62   
    25. A(C   4,C   1,H  11)          119.32  0.000075   -0.02    119.29   
    26. A(C   4,C   2,H  13)          109.17 -0.000031    0.03    109.20   
    27. A(H  12,C   2,H  13)          107.54  0.000015   -0.01    107.53   
    28. A(C   3,C   2,H  13)          109.44  0.000009   -0.01    109.43   
    29. A(C   4,C   2,H  12)          109.67  0.000055   -0.04    109.63   
    30. A(C   3,C   2,H  12)          109.60 -0.000049    0.03    109.63   
    31. A(C   3,C   2,C   4)          111.34  0.000001   -0.00    111.34   
    32. A(C   2,C   3,O   7)          106.42  0.000019    0.02    106.44   
    33. A(H  14,C   3,H  15)          108.40 -0.000014    0.01    108.41   
    34. A(O   7,C   3,H  15)          110.77  0.000036   -0.03    110.74   
    35. A(C   2,C   3,H  15)          110.37 -0.000012   -0.01    110.37   
    36. A(O   7,C   3,H  14)          110.37  0.000020   -0.03    110.35   
    37. A(C   2,C   3,H  14)          110.52 -0.000048    0.03    110.55   
    38. A(C   1,C   4,C   2)          115.29  0.000011   -0.02    115.27   
    39. A(C   2,C   4,O   5)          121.84 -0.000006    0.03    121.87   
    40. A(C   1,C   4,O   5)          122.87 -0.000005   -0.01    122.86   
    41. A(O   7,O   6,H  16)          103.85 -0.000269    0.09    103.94   
    42. A(C   3,O   7,O   6)          110.12  0.000007    0.04    110.16   
    43. D(H  11,C   1,C   0,H   8)    -58.75 -0.000003    0.08    -58.66   
    44. D(C   4,C   1,C   0,H  10)   -121.40 -0.000046    0.14   -121.26   
    45. D(C   4,C   1,C   0,H   9)     -0.02  0.000001    0.10      0.08   
    46. D(H  11,C   1,C   0,H   9)    179.88 -0.000005    0.09    179.97   
    47. D(C   4,C   1,C   0,H   8)    121.35  0.000002    0.10    121.45   
    48. D(O   7,C   3,C   2,H  12)     61.34 -0.000011    0.16     61.49   
    49. D(O   7,C   3,C   2,C   4)   -177.15  0.000027    0.13   -177.02   
    50. D(H  14,C   3,C   2,H  12)    -58.52 -0.000019    0.16    -58.36   
    51. D(H  14,C   3,C   2,C   4)     63.00  0.000018    0.13     63.13   
    52. D(H  14,C   3,C   2,H  13)   -176.23 -0.000014    0.17   -176.06   
    53. D(O   7,C   3,C   2,H  13)    -56.37 -0.000006    0.16    -56.21   
    54. D(O   5,C   4,C   1,C   0)     -0.26 -0.000017    0.01     -0.25   
    55. D(C   2,C   4,C   1,H  11)      0.06  0.000005    0.03      0.09   
    56. D(O   5,C   4,C   1,H  11)    179.84 -0.000011    0.02    179.86   
    57. D(C   2,C   4,C   1,C   0)    179.96 -0.000001    0.02    179.98   
    58. D(O   5,C   4,C   2,H  12)    124.37 -0.000010   -0.06    124.30   
    59. D(O   5,C   4,C   2,C   3)      2.89  0.000013   -0.07      2.82   
    60. D(C   1,C   4,C   2,H  13)     61.73  0.000006   -0.09     61.64   
    61. D(C   1,C   4,C   2,H  12)    -55.86 -0.000025   -0.07    -55.93   
    62. D(C   1,C   4,C   2,C   3)   -177.33 -0.000002   -0.08   -177.41   
    63. D(C   3,O   7,O   6,H  16)   -120.78 -0.000076    0.68   -120.10   
    64. D(O   6,O   7,C   3,H  15)     64.87  0.000028   -0.01     64.86   
    65. D(O   6,O   7,C   3,H  14)    -55.19  0.000009    0.01    -55.18   
    66. D(O   6,O   7,C   3,C   2)   -175.14  0.000044   -0.03   -175.16   
    ----------------------------------------------------------------------------

Geometry step timings:
Preparation and reading OPT file:      0.000 s ( 1.182 %)
Internal coordinates            :      0.000 s ( 1.368 %)
B/P matrices and projection     :      0.000 s (25.435 %)
Hessian update/contruction      :      0.000 s (20.274 %)
Making the step                 :      0.000 s (24.502 %)
Converting the step to Cartesian:      0.000 s ( 2.363 %)
Storing new data                :      0.000 s ( 1.617 %)
Checking convergence            :      0.000 s ( 2.425 %)
Final printing                  :      0.000 s (20.833 %)
Total time                      :      0.002 s

Time for energy+gradient        :      0.036 s
Time for complete geometry iter :      0.038 s

         *************************************************************
         *                GEOMETRY OPTIMIZATION CYCLE  10            *
         *************************************************************
---------------------------------
CARTESIAN COORDINATES (ANGSTROEM)
---------------------------------
  C    -3.208263   -0.234284   -0.386149
  C    -1.843434   -0.019134   -0.884176
  C     0.637843    0.084245   -0.704492
  C     1.789396   -0.166644    0.258194
  C    -0.706825   -0.173579   -0.038980
  O    -0.794803   -0.488231    1.146788
  O     4.109091   -0.142455    0.351543
  O     2.973089    0.168125   -0.438210
  H    -3.812039    0.667722   -0.515865
  H    -3.179371   -0.509489    0.665594
  H    -3.707970   -1.019154   -0.959860
  H    -1.699691    0.261084   -1.916560
  H     0.743888   -0.560494   -1.579009
  H     0.673918    1.119380   -1.052496
  H     1.812266   -1.218305    0.564756
  H     1.678245    0.454204    1.157048
  H     4.556572    0.708123    0.460799

----------------------------
CARTESIAN COORDINATES (A.U.)
----------------------------
  NO LB    ZA    FRAG    MASS        X           Y           Z
   0 C   6.0000    1    12.011   -6.062738   -0.442733   -0.729716
   1 C   6.0000    1    12.011   -3.483586   -0.036158   -1.670851
   2 C   6.0000    1    12.011    1.205348    0.159201   -1.331297
   3 C   6.0000    1    12.011    3.381469   -0.314912    0.487915
   4 C   6.0000    1    12.011   -1.335705   -0.328016   -0.073661
   5 O   8.0000    1    15.999   -1.501960   -0.922623    2.167115
   6 O   8.0000    1    15.999    7.765057   -0.269200    0.664320
   7 O   8.0000    1    15.999    5.618324    0.317710   -0.828096
   8 H   1.0000    1     1.008   -7.203709    1.261811   -0.974844
   9 H   1.0000    1     1.008   -6.008140   -0.962794    1.257790
  10 H   1.0000    1     1.008   -7.007047   -1.925922   -1.813873
  11 H   1.0000    1     1.008   -3.211950    0.493378   -3.621773
  12 H   1.0000    1     1.008    1.405745   -1.059180   -2.983895
  13 H   1.0000    1     1.008    1.273521    2.115321   -1.988928
  14 H   1.0000    1     1.008    3.424686   -2.302264    1.067234
  15 H   1.0000    1     1.008    3.171424    0.858320    2.186504
  16 H   1.0000    1     1.008    8.610673    1.338159    0.870783

      -----------------------------------------------------------      
     |                   =====================                   |     
     |                           x T B                           |     
     |                   =====================                   |     
     |                         S. Grimme                         |     
     |          Mulliken Center for Theoretical Chemistry        |     
     |                    University of Bonn                     |     
      -----------------------------------------------------------      

   * xtb version 6.7.1 (edcfbbe) compiled by 'albert@albert-system' on 2024-07-22

   xtb is free software: you can redistribute it and/or modify it under
   the terms of the GNU Lesser General Public License as published by
   the Free Software Foundation, either version 3 of the License, or
   (at your option) any later version.
   
   xtb is distributed in the hope that it will be useful,
   but WITHOUT ANY WARRANTY; without even the implied warranty of
   MERCHANTABILITY or FITNESS FOR A PARTICULAR PURPOSE.  See the
   GNU Lesser General Public License for more details.
   
   Cite this work as:
   * C. Bannwarth, E. Caldeweyher, S. Ehlert, A. Hansen, P. Pracht,
     J. Seibert, S. Spicher, S. Grimme, WIREs Comput. Mol. Sci., 2020, 11,
     e01493. DOI: 10.1002/wcms.1493
   
   for GFN2-xTB:
   * C. Bannwarth, S. Ehlert and S. Grimme., J. Chem. Theory Comput., 2019,
     15, 1652-1671. DOI: 10.1021/acs.jctc.8b01176
   for GFN1-xTB:
   * S. Grimme, C. Bannwarth, P. Shushkov, J. Chem. Theory Comput., 2017,
     13, 1989-2009. DOI: 10.1021/acs.jctc.7b00118
   for GFN0-xTB:
   * P. Pracht, E. Caldeweyher, S. Ehlert, S. Grimme, ChemRxiv, 2019, preprint.
     DOI: 10.26434/chemrxiv.8326202.v1
   for GFN-FF:
   * S. Spicher and S. Grimme, Angew. Chem. Int. Ed., 2020, 59, 15665-15673.
     DOI: 10.1002/anie.202004239
   
   for ALPB and GBSA implicit solvation:
   * S. Ehlert, M. Stahn, S. Spicher, S. Grimme, J. Chem. Theory Comput.,
     2021, 17, 4250-4261. DOI: 10.1021/acs.jctc.1c00471
   
   for ddCOSMO and CPCM-X implicit solvation:
   * M. Stahn, S. Ehlert, S. Grimme, J. Phys. Chem. A,
     2023, XX, XXXX-XXXX. DOI: 10.1021/acs.jpca.3c04382
   
   for DFT-D4:
   * E. Caldeweyher, C. Bannwarth and S. Grimme, J. Chem. Phys., 2017,
     147, 034112. DOI: 10.1063/1.4993215
   * E. Caldeweyher, S. Ehlert, A. Hansen, H. Neugebauer, S. Spicher,
     C. Bannwarth and S. Grimme, J. Chem. Phys., 2019, 150, 154122.
     DOI: 10.1063/1.5090222
   * E. Caldeweyher, J.-M. Mewes, S. Ehlert and S. Grimme, Phys. Chem. Chem. Phys.
     2020, 22, 8499-8512. DOI: 10.1039/D0CP00502A
   
   for sTDA-xTB:
   * S. Grimme and C. Bannwarth, J. Chem. Phys., 2016, 145, 054103.
     DOI: 10.1063/1.4959605
   
   in the mass-spec context:
   * V. Asgeirsson, C. Bauer and S. Grimme, Chem. Sci., 2017, 8, 4879.
     DOI: 10.1039/c7sc00601b
   * J. Koopman and S. Grimme, ACS Omega 2019, 4, 12, 15120-15133.
     DOI: 10.1021/acsomega.9b02011
   
   for metadynamics refer to:
   * S. Grimme, J. Chem. Theory Comput., 2019, 155, 2847-2862
     DOI: 10.1021/acs.jctc.9b00143
   
   for SPH calculations refer to:
   * S. Spicher and S. Grimme, J. Chem. Theory Comput., 2021, 17, 1701-1714
     DOI: 10.1021/acs.jctc.0c01306
   
   for ONIOM refer to:
   * C. Plett, A. Katbashev, S. Ehlert, S. Grimme, M. Bursch,
     Phys. Chem. Chem. Phys., 2023, 25, 17860-17868. DOI: 10.1039/D3CP02178E
   
   for DIPRO refer to:
   * J. Kohn, N. Gildemeister, S. Grimme, D. Fazzi, A. Hansen,
     J. Chem. Phys., 2023, just accepted.
   
   for PTB refer to:
   * S. Grimme, M. Mueller, A. Hansen, J. Chem. Phys., 2023, 158, 124111.
     DOI: 10.1063/5.0137838
   
   with help from (in alphabetical order)
   P. Atkinson, C. Bannwarth, F. Bohle, G. Brandenburg, E. Caldeweyher
   M. Checinski, S. Dohm, S. Ehlert, S. Ehrlich, I. Gerasimov, C. Hölzer
   A. Katbashev, J. Kohn, J. Koopman, C. Lavigne, S. Lehtola, F. März, M. Müller,
   F. Musil, H. Neugebauer, J. Pisarek, C. Plett, P. Pracht, F. Pultar,
   J. Seibert, P. Shushkov, S. Spicher, M. Stahn, M. Steiner, T. Strunk,
   J. Stückrath, T. Rose, and J. Unsleber
   
 * started run on 2026/02/22 at 12:32:54.450     
   ID    Z sym.   atoms
    1    6 C      1-5
    2    8 O      6-8
    3    1 H      9-17

           -------------------------------------------------
          |                Calculation Setup                |
           -------------------------------------------------

          program call               : /apps/eb/ORCA/6.1.1-gompi-2024a-avx2/bin/otool_xtb goat_XTB.xyz --grad -c 0 -u 1 -P 8 --namespace goat --input goat_XTB.input.tmp --acc 0.200000
          hostname                   : e2-9
          calculation namespace      : goat
          coordinate file            : goat_XTB.xyz
          omp threads                :                     8


           -------------------------------------------------
          |                 G F N 2 - x T B                 |
           -------------------------------------------------

        Reference                      10.1021/acs.jctc.8b01176
      * Hamiltonian:
        H0-scaling (s, p, d)           1.850000    2.230000    2.230000
        zeta-weighting                 0.500000
      * Dispersion:
        s8                             2.700000
        a1                             0.520000
        a2                             5.000000
        s9                             5.000000
      * Repulsion:
        kExp                           1.500000    1.000000
        rExp                           1.000000
      * Coulomb:
        alpha                          2.000000
        third order                    shell-resolved
        anisotropic                    true
        a3                             3.000000
        a5                             4.000000
        cn-shift                       1.200000
        cn-exp                         4.000000
        max-rad                        5.000000

q/qsh data taken from xtbrestart
CAMM data taken from xtbrestart

          ...................................................
          :                      SETUP                      :
          :.................................................:
          :  # basis functions                  41          :
          :  # atomic orbitals                  41          :
          :  # shells                           25          :
          :  # electrons                        47          :
          :  max. iterations                   250          :
          :  Hamiltonian                  GFN2-xTB          :
          :  restarted?                       true          :
          :  GBSA solvation                  false          :
          :  PC potential                    false          :
          :  electronic temp.          300.0000000     K    :
          :  accuracy                    0.2000000          :
          :  -> integral cutoff          0.3198970E+02      :
          :  -> integral neglect         0.2000000E-08      :
          :  -> SCF convergence          0.2000000E-06 Eh   :
          :  -> wf. convergence          0.2000000E-04 e    :
          :  Broyden damping             0.4000000          :
          :  net charge                          0          :
          :  unpaired electrons                  1          :
          ...................................................

 iter      E             dE          RMSdq      gap      omega  full diag
   1    -27.5986224 -0.275986E+02  0.110E-02    4.43       0.0  T
   2    -27.5986225 -0.329903E-07  0.674E-03    4.43       3.6  T
   3    -27.5986225 -0.750419E-08  0.797E-04    4.43      30.4  T
   4    -27.5986225 -0.367496E-08  0.355E-04    4.43      68.4  T
   5    -27.5986225 -0.194227E-10  0.140E-04    4.43     172.9  T
   6    -27.5986225 -0.115829E-09  0.457E-05    4.43     530.6  T

   *** convergence criteria satisfied after 6 iterations ***

         #    Occupation            Energy/Eh            Energy/eV
      -------------------------------------------------------------
         1        2.0000           -0.7182576             -19.5448
       ...           ...                  ...                  ...
        18        2.0000           -0.4725179             -12.8579
        19        2.0000           -0.4707412             -12.8095
        20        2.0000           -0.4654867             -12.6665
        21        2.0000           -0.4549560             -12.3800
        22        2.0000           -0.4111475             -11.1879
        23        2.0000           -0.3983029             -10.8384
        24        1.0000           -0.3690495             -10.0423 (HOMO)
        25                         -0.2061201              -5.6088 (LUMO)
        26                         -0.1413889              -3.8474
        27                          0.0502495               1.3674
        28                          0.0863672               2.3502
        29                          0.1249298               3.3995
       ...                                ...                  ...
        41                          0.5929223              16.1342
      -------------------------------------------------------------
                  HL-Gap            0.1629294 Eh            4.4335 eV
             Fermi-level           -0.3356305 Eh           -9.1330 eV

 SCC (total)                   0 d,  0 h,  0 min,  0.015 sec
 SCC setup                      ...        0 min,  0.000 sec (  2.915%)
 Dispersion                     ...        0 min,  0.000 sec (  1.475%)
 classical contributions        ...        0 min,  0.000 sec (  0.843%)
 integral evaluation            ...        0 min,  0.001 sec (  5.145%)
 iterations                     ...        0 min,  0.010 sec ( 71.355%)
 molecular gradient             ...        0 min,  0.002 sec ( 15.131%)
 printout                       ...        0 min,  0.000 sec (  2.996%)

         :::::::::::::::::::::::::::::::::::::::::::::::::::::
         ::                     SUMMARY                     ::
         :::::::::::::::::::::::::::::::::::::::::::::::::::::
         :: total energy             -27.335308872264 Eh    ::
         :: gradient norm              0.000344609528 Eh/a0 ::
         :: HOMO-LUMO gap              4.433534354775 eV    ::
         ::.................................................::
         :: SCC energy               -27.598660389920 Eh    ::
         :: -> isotropic ES            0.056938802491 Eh    ::
         :: -> anisotropic ES         -0.004215753528 Eh    ::
         :: -> anisotropic XC         -0.001167231755 Eh    ::
         :: -> dispersion             -0.009427120554 Eh    ::
         :: repulsion energy           0.263351517657 Eh    ::
         :: add. restraining           0.000000000000 Eh    ::
         :: total charge               0.000000000000 e     ::
         :::::::::::::::::::::::::::::::::::::::::::::::::::::


Property printout bound to 'properties.out'

           -------------------------------------------------
          | TOTAL ENERGY              -27.335308872264 Eh   |
          | GRADIENT NORM               0.000344609528 Eh/α |
          | HOMO-LUMO GAP               4.433534354775 eV   |
           -------------------------------------------------

------------------------------------------------------------------------
 * finished run on 2026/02/22 at 12:32:54.491     
------------------------------------------------------------------------
 total:
 * wall-time:     0 d,  0 h,  0 min,  0.040 sec
 *  cpu-time:     0 d,  0 h,  0 min,  0.155 sec
 * ratio c/w:     3.861 speedup
 SCF:
 * wall-time:     0 d,  0 h,  0 min,  0.015 sec
 *  cpu-time:     0 d,  0 h,  0 min,  0.059 sec
 * ratio c/w:     3.978 speedup


-------------------------   --------------------
FINAL SINGLE POINT ENERGY       -27.335308872260
-------------------------   --------------------


-------------
DIPOLE MOMENT
-------------
                                X             Y             Z
Total Dipole Moment    :     -0.95900       0.83300      -0.95200
                        -----------------------------------------
Magnitude (a.u.)       :      1.58741
Magnitude (Debye)      :      4.03488


------------------
CARTESIAN GRADIENT
------------------

   1   C   :    0.000028580   -0.000044634    0.000019636
   2   C   :   -0.000009464    0.000032834   -0.000032742
   3   C   :   -0.000078324    0.000002101   -0.000026112
   4   C   :    0.000001503   -0.000002151   -0.000147166
   5   C   :    0.000110041   -0.000027572   -0.000046827
   6   O   :   -0.000070545   -0.000010697    0.000097383
   7   O   :    0.000085339   -0.000064561    0.000068395
   8   O   :   -0.000068852    0.000069227    0.000131706
   9   H   :    0.000015783    0.000030712    0.000018531
  10   H   :   -0.000030787    0.000006725   -0.000006847
  11   H   :    0.000009948   -0.000005335   -0.000005715
  12   H   :   -0.000015748   -0.000003688   -0.000006920
  13   H   :    0.000012861    0.000003359    0.000013003
  14   H   :    0.000009633   -0.000003346   -0.000002535
  15   H   :    0.000025093   -0.000011140   -0.000002316
  16   H   :    0.000004122    0.000034798    0.000004592
  17   H   :   -0.000029183   -0.000006632   -0.000076066

Difference to translation invariance:
           :    0.0000000000   -0.0000000000   -0.0000000000

Difference to rotation invariance:
           :    0.0000004380    0.0000005412    0.0000001435

Norm of the Cartesian gradient     ...    0.0003446095
RMS gradient                       ...    0.0000482550
MAX gradient                       ...    0.0001471664
------------------------------------------------------------------------------
                         ORCA GEOMETRY RELAXATION STEP
------------------------------------------------------------------------------

Reading the OPT-File                    .... done
Getting information on internals        .... done
Copying old internal coords+grads       .... done
Making the new internal coordinates     .... (2022 redundants) done
Validating the new internal coordinates .... (2022 redundants) done
Calculating the B-matrix                .... done
Calculating the G,G- and P matrices     .... done
Transforming gradient to internals      .... done
Projecting the internal gradient        .... done
Number of atoms                         ....  17
Number of internal coordinates          ....  66
Current Energy                          ....   -27.335308872 Eh
Current gradient norm                   ....     0.000344610 Eh/bohr
Maximum allowed component of the step   ....  0.300
Current trust radius                    ....  0.700
Updating the Hessian (BFGS)             .... done
Forming the augmented Hessian           .... done
Diagonalizing the augmented Hessian     .... done
Last element of RFO vector              ....  0.999512388
Lowest eigenvalues of augmented Hessian:
 -0.000002998  0.001546067  0.004100951  0.012047688  0.013440472
Length of the computed step             ....  0.031240018
The final length of the internal step   ....  0.031240018
Converting the step to Cartesian space:
 Initial RMS(Int)=    0.0038453804
Transforming coordinates:
 Iter   0:  RMS(Cart)=    0.0075946769 RMS(Int)=    0.7730733044
done
Storing new coordinates                 .... done
The predicted energy change is          ....    -0.000001500
Previously predicted energy change      ....    -0.000000980
Actually observed energy change         ....    -0.000001514
Ratio of predicted to observed change   ....     1.545541107
New trust radius                        ....     0.466666667

                                .--------------------.
          ----------------------|Geometry convergence|-------------------------
          Item                value                   Tolerance       Converged
          ---------------------------------------------------------------------
          Energy change      -0.0000015139            0.0000050000      YES
          RMS gradient        0.0000362241            0.0001000000      YES
          MAX gradient        0.0001144433            0.0003000000      YES
          RMS step            0.0038453804            0.0020000000      NO
          MAX step            0.0285031575            0.0040000000      NO
          -------------------------------------------------------------------------
          ........................................................
          Max(Bonds)      0.0007      Max(Angles)    0.15
          Max(Dihed)        1.63      Max(Improp)    0.00
          ---------------------------------------------------------------------

    ---------------------------------------------------------------------------
                         Redundant Internal Coordinates
                            (Angstroem and degrees)

        Definition                    Value    dE/dq     Step     New-Value
    ----------------------------------------------------------------------------
     1. B(C   1,C   0)                1.4687 -0.000011  0.0000    1.4687   
     2. B(C   3,C   2)                1.5218 -0.000003 -0.0003    1.5215   
     3. B(C   4,C   1)                1.4248  0.000012  0.0003    1.4251   
     4. B(C   4,C   2)                1.5223 -0.000014 -0.0001    1.5223   
     5. B(O   5,C   4)                1.2300  0.000102 -0.0000    1.2299   
     6. B(O   7,O   6)                1.4180  0.000056 -0.0007    1.4173   
     7. B(O   7,C   3)                1.4136 -0.000072  0.0004    1.4140   
     8. B(H   8,C   0)                1.0932  0.000014 -0.0001    1.0931   
     9. B(H   9,C   0)                1.0875 -0.000009  0.0001    1.0876   
    10. B(H  10,C   0)                1.0931  0.000002  0.0000    1.0931   
    11. B(H  11,C   1)                1.0794  0.000004 -0.0000    1.0793   
    12. B(H  12,C   2)                1.0917 -0.000011  0.0001    1.0917   
    13. B(H  13,C   2)                1.0927 -0.000002 -0.0000    1.0927   
    14. B(H  14,C   3)                1.0957  0.000011 -0.0000    1.0957   
    15. B(H  15,C   3)                1.0981  0.000023  0.0001    1.0981   
    16. B(H  16,O   6)                0.9673 -0.000028  0.0001    0.9674   
    17. A(H   9,C   0,H  10)          109.76 -0.000005   -0.04    109.71   
    18. A(C   1,C   0,H   8)          110.62 -0.000037    0.03    110.65   
    19. A(H   8,C   0,H  10)          106.12  0.000024    0.04    106.16   
    20. A(C   1,C   0,H   9)          109.90  0.000050    0.00    109.90   
    21. A(H   8,C   0,H   9)          109.77 -0.000018   -0.01    109.76   
    22. A(C   1,C   0,H  10)          110.61 -0.000015   -0.01    110.60   
    23. A(C   0,C   1,H  11)          119.09 -0.000004    0.04    119.12   
    24. A(C   0,C   1,C   4)          121.62 -0.000026    0.00    121.62   
    25. A(C   4,C   1,H  11)          119.29  0.000030   -0.04    119.25   
    26. A(C   4,C   2,H  13)          109.20  0.000011    0.04    109.24   
    27. A(H  12,C   2,H  13)          107.53  0.000002   -0.02    107.51   
    28. A(C   3,C   2,H  13)          109.43 -0.000009   -0.01    109.42   
    29. A(C   4,C   2,H  12)          109.63  0.000013   -0.05    109.58   
    30. A(C   3,C   2,H  12)          109.63 -0.000006    0.04    109.67   
    31. A(C   3,C   2,C   4)          111.34 -0.000010    0.00    111.34   
    32. A(C   2,C   3,O   7)          106.44  0.000080    0.01    106.45   
    33. A(H  14,C   3,H  15)          108.41  0.000018    0.01    108.42   
    34. A(O   7,C   3,H  15)          110.74 -0.000037   -0.03    110.71   
    35. A(C   2,C   3,H  15)          110.37 -0.000015   -0.01    110.36   
    36. A(O   7,C   3,H  14)          110.35 -0.000038   -0.03    110.32   
    37. A(C   2,C   3,H  14)          110.55 -0.000009    0.04    110.59   
    38. A(C   1,C   4,C   2)          115.27 -0.000036   -0.02    115.26   
    39. A(C   2,C   4,O   5)          121.87  0.000091    0.03    121.89   
    40. A(C   1,C   4,O   5)          122.86 -0.000055   -0.01    122.85   
    41. A(O   7,O   6,H  16)          103.94 -0.000108    0.15    104.10   
    42. A(C   3,O   7,O   6)          110.16  0.000114    0.04    110.20   
    43. D(H  11,C   1,C   0,H   8)    -58.66 -0.000013    0.17    -58.50   
    44. D(C   4,C   1,C   0,H  10)   -121.26 -0.000016    0.25   -121.01   
    45. D(C   4,C   1,C   0,H   9)      0.08  0.000001    0.19      0.27   
    46. D(H  11,C   1,C   0,H   9)    179.97  0.000001    0.16    180.13   
    47. D(C   4,C   1,C   0,H   8)    121.45 -0.000013    0.20    121.64   
    48. D(O   7,C   3,C   2,H  12)     61.49 -0.000005    0.20     61.69   
    49. D(O   7,C   3,C   2,C   4)   -177.02  0.000001    0.16   -176.86   
    50. D(H  14,C   3,C   2,H  12)    -58.36 -0.000002    0.20    -58.16   
    51. D(H  14,C   3,C   2,C   4)     63.13  0.000004    0.16     63.29   
    52. D(H  14,C   3,C   2,H  13)   -176.06  0.000005    0.21   -175.85   
    53. D(O   7,C   3,C   2,H  13)    -56.21  0.000002    0.20    -56.01   
    54. D(O   5,C   4,C   1,C   0)     -0.25 -0.000012    0.02     -0.23   
    55. D(C   2,C   4,C   1,H  11)      0.09  0.000009    0.04      0.14   
    56. D(O   5,C   4,C   1,H  11)    179.86 -0.000013    0.05    179.91   
    57. D(C   2,C   4,C   1,C   0)    179.98  0.000010    0.01    180.00   
    58. D(O   5,C   4,C   2,H  12)    124.30  0.000003   -0.05    124.25   
    59. D(O   5,C   4,C   2,C   3)      2.82  0.000008   -0.06      2.75   
    60. D(C   1,C   4,C   2,H  13)     61.64 -0.000004   -0.07     61.57   
    61. D(C   1,C   4,C   2,H  12)    -55.93 -0.000020   -0.04    -55.97   
    62. D(C   1,C   4,C   2,C   3)   -177.41 -0.000015   -0.05   -177.47   
    63. D(C   3,O   7,O   6,H  16)   -120.10 -0.000087    1.63   -118.47   
    64. D(O   6,O   7,C   3,H  15)     64.86  0.000010   -0.13     64.72   
    65. D(O   6,O   7,C   3,H  14)    -55.18  0.000037   -0.11    -55.29   
    66. D(O   6,O   7,C   3,C   2)   -175.16  0.000021   -0.15   -175.32   
    ----------------------------------------------------------------------------

Geometry step timings:
Preparation and reading OPT file:      0.000 s ( 1.248 %)
Internal coordinates            :      0.000 s ( 2.234 %)
B/P matrices and projection     :      0.000 s (27.530 %)
Hessian update/contruction      :      0.000 s (13.666 %)
Making the step                 :      0.000 s (26.938 %)
Converting the step to Cartesian:      0.000 s ( 2.431 %)
Storing new data                :      0.000 s ( 1.577 %)
Checking convergence            :      0.000 s ( 2.365 %)
Final printing                  :      0.000 s (22.011 %)
Total time                      :      0.002 s

Time for energy+gradient        :      0.053 s
Time for complete geometry iter :      0.055 s

         *************************************************************
         *                GEOMETRY OPTIMIZATION CYCLE  11            *
         *************************************************************
---------------------------------
CARTESIAN COORDINATES (ANGSTROEM)
---------------------------------
  C    -3.207938   -0.231762   -0.384468
  C    -1.843241   -0.018530   -0.883751
  C     0.638337    0.081721   -0.706596
  C     1.790569   -0.169422    0.254790
  C    -0.705748   -0.174618   -0.039494
  O    -0.793163   -0.489575    1.146197
  O     4.110616   -0.139393    0.347010
  O     2.973954    0.167531   -0.441957
  H    -3.811899    0.669673   -0.516551
  H    -3.178701   -0.503803    0.668159
  H    -3.707530   -1.019019   -0.955012
  H    -1.699360    0.261064   -1.916281
  H     0.741895   -0.563929   -1.580819
  H     0.675452    1.116385   -1.055849
  H     1.815364   -1.221362    0.560234
  H     1.679652    0.450566    1.154335
  H     4.543654    0.715589    0.478976

----------------------------
CARTESIAN COORDINATES (A.U.)
----------------------------
  NO LB    ZA    FRAG    MASS        X           Y           Z
   0 C   6.0000    1    12.011   -6.062124   -0.437967   -0.726539
   1 C   6.0000    1    12.011   -3.483221   -0.035016   -1.670047
   2 C   6.0000    1    12.011    1.206282    0.154430   -1.335273
   3 C   6.0000    1    12.011    3.383686   -0.320161    0.481483
   4 C   6.0000    1    12.011   -1.333670   -0.329980   -0.074633
   5 O   8.0000    1    15.999   -1.498861   -0.925163    2.165999
   6 O   8.0000    1    15.999    7.767939   -0.263415    0.655754
   7 O   8.0000    1    15.999    5.619958    0.316589   -0.835178
   8 H   1.0000    1     1.008   -7.203446    1.265498   -0.976139
   9 H   1.0000    1     1.008   -6.006874   -0.952051    1.262638
  10 H   1.0000    1     1.008   -7.006217   -1.925666   -1.804712
  11 H   1.0000    1     1.008   -3.211324    0.493339   -3.621246
  12 H   1.0000    1     1.008    1.401978   -1.065672   -2.987314
  13 H   1.0000    1     1.008    1.276419    2.109661   -1.995265
  14 H   1.0000    1     1.008    3.430541   -2.308040    1.058689
  15 H   1.0000    1     1.008    3.174083    0.851446    2.181377
  16 H   1.0000    1     1.008    8.586262    1.352266    0.905133

      -----------------------------------------------------------      
     |                   =====================                   |     
     |                           x T B                           |     
     |                   =====================                   |     
     |                         S. Grimme                         |     
     |          Mulliken Center for Theoretical Chemistry        |     
     |                    University of Bonn                     |     
      -----------------------------------------------------------      

   * xtb version 6.7.1 (edcfbbe) compiled by 'albert@albert-system' on 2024-07-22

   xtb is free software: you can redistribute it and/or modify it under
   the terms of the GNU Lesser General Public License as published by
   the Free Software Foundation, either version 3 of the License, or
   (at your option) any later version.
   
   xtb is distributed in the hope that it will be useful,
   but WITHOUT ANY WARRANTY; without even the implied warranty of
   MERCHANTABILITY or FITNESS FOR A PARTICULAR PURPOSE.  See the
   GNU Lesser General Public License for more details.
   
   Cite this work as:
   * C. Bannwarth, E. Caldeweyher, S. Ehlert, A. Hansen, P. Pracht,
     J. Seibert, S. Spicher, S. Grimme, WIREs Comput. Mol. Sci., 2020, 11,
     e01493. DOI: 10.1002/wcms.1493
   
   for GFN2-xTB:
   * C. Bannwarth, S. Ehlert and S. Grimme., J. Chem. Theory Comput., 2019,
     15, 1652-1671. DOI: 10.1021/acs.jctc.8b01176
   for GFN1-xTB:
   * S. Grimme, C. Bannwarth, P. Shushkov, J. Chem. Theory Comput., 2017,
     13, 1989-2009. DOI: 10.1021/acs.jctc.7b00118
   for GFN0-xTB:
   * P. Pracht, E. Caldeweyher, S. Ehlert, S. Grimme, ChemRxiv, 2019, preprint.
     DOI: 10.26434/chemrxiv.8326202.v1
   for GFN-FF:
   * S. Spicher and S. Grimme, Angew. Chem. Int. Ed., 2020, 59, 15665-15673.
     DOI: 10.1002/anie.202004239
   
   for ALPB and GBSA implicit solvation:
   * S. Ehlert, M. Stahn, S. Spicher, S. Grimme, J. Chem. Theory Comput.,
     2021, 17, 4250-4261. DOI: 10.1021/acs.jctc.1c00471
   
   for ddCOSMO and CPCM-X implicit solvation:
   * M. Stahn, S. Ehlert, S. Grimme, J. Phys. Chem. A,
     2023, XX, XXXX-XXXX. DOI: 10.1021/acs.jpca.3c04382
   
   for DFT-D4:
   * E. Caldeweyher, C. Bannwarth and S. Grimme, J. Chem. Phys., 2017,
     147, 034112. DOI: 10.1063/1.4993215
   * E. Caldeweyher, S. Ehlert, A. Hansen, H. Neugebauer, S. Spicher,
     C. Bannwarth and S. Grimme, J. Chem. Phys., 2019, 150, 154122.
     DOI: 10.1063/1.5090222
   * E. Caldeweyher, J.-M. Mewes, S. Ehlert and S. Grimme, Phys. Chem. Chem. Phys.
     2020, 22, 8499-8512. DOI: 10.1039/D0CP00502A
   
   for sTDA-xTB:
   * S. Grimme and C. Bannwarth, J. Chem. Phys., 2016, 145, 054103.
     DOI: 10.1063/1.4959605
   
   in the mass-spec context:
   * V. Asgeirsson, C. Bauer and S. Grimme, Chem. Sci., 2017, 8, 4879.
     DOI: 10.1039/c7sc00601b
   * J. Koopman and S. Grimme, ACS Omega 2019, 4, 12, 15120-15133.
     DOI: 10.1021/acsomega.9b02011
   
   for metadynamics refer to:
   * S. Grimme, J. Chem. Theory Comput., 2019, 155, 2847-2862
     DOI: 10.1021/acs.jctc.9b00143
   
   for SPH calculations refer to:
   * S. Spicher and S. Grimme, J. Chem. Theory Comput., 2021, 17, 1701-1714
     DOI: 10.1021/acs.jctc.0c01306
   
   for ONIOM refer to:
   * C. Plett, A. Katbashev, S. Ehlert, S. Grimme, M. Bursch,
     Phys. Chem. Chem. Phys., 2023, 25, 17860-17868. DOI: 10.1039/D3CP02178E
   
   for DIPRO refer to:
   * J. Kohn, N. Gildemeister, S. Grimme, D. Fazzi, A. Hansen,
     J. Chem. Phys., 2023, just accepted.
   
   for PTB refer to:
   * S. Grimme, M. Mueller, A. Hansen, J. Chem. Phys., 2023, 158, 124111.
     DOI: 10.1063/5.0137838
   
   with help from (in alphabetical order)
   P. Atkinson, C. Bannwarth, F. Bohle, G. Brandenburg, E. Caldeweyher
   M. Checinski, S. Dohm, S. Ehlert, S. Ehrlich, I. Gerasimov, C. Hölzer
   A. Katbashev, J. Kohn, J. Koopman, C. Lavigne, S. Lehtola, F. März, M. Müller,
   F. Musil, H. Neugebauer, J. Pisarek, C. Plett, P. Pracht, F. Pultar,
   J. Seibert, P. Shushkov, S. Spicher, M. Stahn, M. Steiner, T. Strunk,
   J. Stückrath, T. Rose, and J. Unsleber
   
 * started run on 2026/02/22 at 12:32:54.504     
   ID    Z sym.   atoms
    1    6 C      1-5
    2    8 O      6-8
    3    1 H      9-17

           -------------------------------------------------
          |                Calculation Setup                |
           -------------------------------------------------

          program call               : /apps/eb/ORCA/6.1.1-gompi-2024a-avx2/bin/otool_xtb goat_XTB.xyz --grad -c 0 -u 1 -P 8 --namespace goat --input goat_XTB.input.tmp --acc 0.200000
          hostname                   : e2-9
          calculation namespace      : goat
          coordinate file            : goat_XTB.xyz
          omp threads                :                     8


           -------------------------------------------------
          |                 G F N 2 - x T B                 |
           -------------------------------------------------

        Reference                      10.1021/acs.jctc.8b01176
      * Hamiltonian:
        H0-scaling (s, p, d)           1.850000    2.230000    2.230000
        zeta-weighting                 0.500000
      * Dispersion:
        s8                             2.700000
        a1                             0.520000
        a2                             5.000000
        s9                             5.000000
      * Repulsion:
        kExp                           1.500000    1.000000
        rExp                           1.000000
      * Coulomb:
        alpha                          2.000000
        third order                    shell-resolved
        anisotropic                    true
        a3                             3.000000
        a5                             4.000000
        cn-shift                       1.200000
        cn-exp                         4.000000
        max-rad                        5.000000

q/qsh data taken from xtbrestart
CAMM data taken from xtbrestart

          ...................................................
          :                      SETUP                      :
          :.................................................:
          :  # basis functions                  41          :
          :  # atomic orbitals                  41          :
          :  # shells                           25          :
          :  # electrons                        47          :
          :  max. iterations                   250          :
          :  Hamiltonian                  GFN2-xTB          :
          :  restarted?                       true          :
          :  GBSA solvation                  false          :
          :  PC potential                    false          :
          :  electronic temp.          300.0000000     K    :
          :  accuracy                    0.2000000          :
          :  -> integral cutoff          0.3198970E+02      :
          :  -> integral neglect         0.2000000E-08      :
          :  -> SCF convergence          0.2000000E-06 Eh   :
          :  -> wf. convergence          0.2000000E-04 e    :
          :  Broyden damping             0.4000000          :
          :  net charge                          0          :
          :  unpaired electrons                  1          :
          ...................................................

 iter      E             dE          RMSdq      gap      omega  full diag
   1    -27.5985548 -0.275986E+02  0.215E-02    4.43       0.0  T
   2    -27.5985550 -0.146463E-06  0.133E-02    4.43       1.8  T
   3    -27.5985550 -0.356308E-07  0.159E-03    4.43      15.3  T
   4    -27.5985550 -0.127540E-07  0.689E-04    4.43      35.2  T
   5    -27.5985550 -0.184148E-09  0.248E-04    4.43      97.9  T
   6    -27.5985550 -0.257067E-09  0.882E-05    4.43     275.0  T
   7    -27.5985550 -0.246771E-10  0.331E-05    4.43     732.9  T

   *** convergence criteria satisfied after 7 iterations ***

         #    Occupation            Energy/Eh            Energy/eV
      -------------------------------------------------------------
         1        2.0000           -0.7183350             -19.5469
       ...           ...                  ...                  ...
        18        2.0000           -0.4721914             -12.8490
        19        2.0000           -0.4708346             -12.8121
        20        2.0000           -0.4655686             -12.6688
        21        2.0000           -0.4547180             -12.3735
        22        2.0000           -0.4116604             -11.2018
        23        2.0000           -0.3983760             -10.8404
        24        1.0000           -0.3690822             -10.0432 (HOMO)
        25                         -0.2062369              -5.6120 (LUMO)
        26                         -0.1408966              -3.8340
        27                          0.0499256               1.3585
        28                          0.0862629               2.3473
        29                          0.1248549               3.3975
       ...                                ...                  ...
        41                          0.5929057              16.1338
      -------------------------------------------------------------
                  HL-Gap            0.1628453 Eh            4.4312 eV
             Fermi-level           -0.3356943 Eh           -9.1347 eV

 SCC (total)                   0 d,  0 h,  0 min,  0.014 sec
 SCC setup                      ...        0 min,  0.000 sec (  1.914%)
 Dispersion                     ...        0 min,  0.000 sec (  1.856%)
 classical contributions        ...        0 min,  0.000 sec (  0.868%)
 integral evaluation            ...        0 min,  0.001 sec (  7.697%)
 iterations                     ...        0 min,  0.010 sec ( 70.144%)
 molecular gradient             ...        0 min,  0.002 sec ( 13.383%)
 printout                       ...        0 min,  0.001 sec (  3.977%)

         :::::::::::::::::::::::::::::::::::::::::::::::::::::
         ::                     SUMMARY                     ::
         :::::::::::::::::::::::::::::::::::::::::::::::::::::
         :: total energy             -27.335311084825 Eh    ::
         :: gradient norm              0.000637396691 Eh/a0 ::
         :: HOMO-LUMO gap              4.431245450554 eV    ::
         ::.................................................::
         :: SCC energy               -27.598592792780 Eh    ::
         :: -> isotropic ES            0.056933277242 Eh    ::
         :: -> anisotropic ES         -0.004167531052 Eh    ::
         :: -> anisotropic XC         -0.001182226599 Eh    ::
         :: -> dispersion             -0.009427427531 Eh    ::
         :: repulsion energy           0.263281707955 Eh    ::
         :: add. restraining           0.000000000000 Eh    ::
         :: total charge               0.000000000000 e     ::
         :::::::::::::::::::::::::::::::::::::::::::::::::::::


Property printout bound to 'properties.out'

           -------------------------------------------------
          | TOTAL ENERGY              -27.335311084825 Eh   |
          | GRADIENT NORM               0.000637396691 Eh/α |
          | HOMO-LUMO GAP               4.431245450554 eV   |
           -------------------------------------------------

------------------------------------------------------------------------
 * finished run on 2026/02/22 at 12:32:54.533     
------------------------------------------------------------------------
 total:
 * wall-time:     0 d,  0 h,  0 min,  0.028 sec
 *  cpu-time:     0 d,  0 h,  0 min,  0.108 sec
 * ratio c/w:     3.831 speedup
 SCF:
 * wall-time:     0 d,  0 h,  0 min,  0.014 sec
 *  cpu-time:     0 d,  0 h,  0 min,  0.056 sec
 * ratio c/w:     3.968 speedup


-------------------------   --------------------
FINAL SINGLE POINT ENERGY       -27.335311084820
-------------------------   --------------------


-------------
DIPOLE MOMENT
-------------
                                X             Y             Z
Total Dipole Moment    :     -0.97100       0.83600      -0.93300
                        -----------------------------------------
Magnitude (a.u.)       :      1.58500
Magnitude (Debye)      :      4.02875


------------------
CARTESIAN GRADIENT
------------------

   1   C   :   -0.000029411    0.000001688   -0.000064754
   2   C   :   -0.000179532    0.000045999   -0.000148918
   3   C   :   -0.000010522    0.000075136    0.000072269
   4   C   :   -0.000270069   -0.000015935   -0.000165692
   5   C   :    0.000357097   -0.000085484    0.000037059
   6   O   :   -0.000119423   -0.000027425    0.000096094
   7   O   :   -0.000017945    0.000073090   -0.000012271
   8   O   :    0.000027929   -0.000027137    0.000136712
   9   H   :    0.000026273    0.000027313    0.000076821
  10   H   :   -0.000065394    0.000005750    0.000016570
  11   H   :    0.000041529   -0.000038946    0.000030507
  12   H   :    0.000047218   -0.000008562   -0.000001740
  13   H   :   -0.000058714   -0.000005786   -0.000017363
  14   H   :    0.000047052   -0.000015130   -0.000035323
  15   H   :    0.000090829   -0.000020413   -0.000012744
  16   H   :    0.000043715    0.000057618    0.000002743
  17   H   :    0.000069369   -0.000041776   -0.000009969

Difference to translation invariance:
           :    0.0000000000    0.0000000000   -0.0000000000

Difference to rotation invariance:
           :    0.0000000993    0.0000002392    0.0000001589

Norm of the Cartesian gradient     ...    0.0006373967
RMS gradient                       ...    0.0000892534
MAX gradient                       ...    0.0003570971
------------------------------------------------------------------------------
                         ORCA GEOMETRY RELAXATION STEP
------------------------------------------------------------------------------

Reading the OPT-File                    .... done
Getting information on internals        .... done
Copying old internal coords+grads       .... done
Making the new internal coordinates     .... (2022 redundants) done
Validating the new internal coordinates .... (2022 redundants) done
Calculating the B-matrix                .... done
Calculating the G,G- and P matrices     .... done
Transforming gradient to internals      .... done
Projecting the internal gradient        .... done
Number of atoms                         ....  17
Number of internal coordinates          ....  66
Current Energy                          ....   -27.335311085 Eh
Current gradient norm                   ....     0.000637397 Eh/bohr
Maximum allowed component of the step   ....  0.300
Current trust radius                    ....  0.467
Updating the Hessian (BFGS)             .... done
Forming the augmented Hessian           .... done
Diagonalizing the augmented Hessian     .... done
Last element of RFO vector              ....  0.998868404
Lowest eigenvalues of augmented Hessian:
 -0.000003388  0.001032703  0.002556375  0.012048524  0.013487160
Length of the computed step             ....  0.047613427
The final length of the internal step   ....  0.047613427
Converting the step to Cartesian space:
 Initial RMS(Int)=    0.0058608078
Transforming coordinates:
 Iter   0:  RMS(Cart)=    0.0112016894 RMS(Int)=    0.0058638852
done
Storing new coordinates                 .... done
The predicted energy change is          ....    -0.000001698
Previously predicted energy change      ....    -0.000001500
Actually observed energy change         ....    -0.000002213
Ratio of predicted to observed change   ....     1.474653461
New trust radius                        ....     0.466666667

                                .--------------------.
          ----------------------|Geometry convergence|-------------------------
          Item                value                   Tolerance       Converged
          ---------------------------------------------------------------------
          Energy change      -0.0000022126            0.0000050000      YES
          RMS gradient        0.0000579591            0.0001000000      YES
          MAX gradient        0.0001850255            0.0003000000      YES
          RMS step            0.0058608078            0.0020000000      NO
          MAX step            0.0449616976            0.0040000000      NO
          -------------------------------------------------------------------------
          ........................................................
          Max(Bonds)      0.0009      Max(Angles)    0.18
          Max(Dihed)        2.58      Max(Improp)    0.00
          ---------------------------------------------------------------------

    ---------------------------------------------------------------------------
                         Redundant Internal Coordinates
                            (Angstroem and degrees)

        Definition                    Value    dE/dq     Step     New-Value
    ----------------------------------------------------------------------------
     1. B(C   1,C   0)                1.4687  0.000046 -0.0000    1.4687   
     2. B(C   3,C   2)                1.5215 -0.000085 -0.0002    1.5213   
     3. B(C   4,C   1)                1.4251  0.000185  0.0002    1.4253   
     4. B(C   4,C   2)                1.5223 -0.000038  0.0000    1.5223   
     5. B(O   5,C   4)                1.2299  0.000108 -0.0001    1.2299   
     6. B(O   7,O   6)                1.4173  0.000022 -0.0009    1.4163   
     7. B(O   7,C   3)                1.4140  0.000011  0.0005    1.4145   
     8. B(H   8,C   0)                1.0931 -0.000001 -0.0001    1.0930   
     9. B(H   9,C   0)                1.0876  0.000013  0.0001    1.0877   
    10. B(H  10,C   0)                1.0931 -0.000007  0.0000    1.0931   
    11. B(H  11,C   1)                1.0793  0.000006 -0.0000    1.0793   
    12. B(H  12,C   2)                1.0917  0.000012  0.0000    1.0918   
    13. B(H  13,C   2)                1.0927 -0.000001 -0.0000    1.0926   
    14. B(H  14,C   3)                1.0957  0.000018 -0.0000    1.0956   
    15. B(H  15,C   3)                1.0981  0.000030  0.0000    1.0982   
    16. B(H  16,O   6)                0.9674 -0.000007  0.0002    0.9676   
    17. A(H   9,C   0,H  10)          109.71 -0.000044   -0.04    109.67   
    18. A(C   1,C   0,H   8)          110.65 -0.000004    0.03    110.68   
    19. A(H   8,C   0,H  10)          106.16  0.000068    0.02    106.18   
    20. A(C   1,C   0,H   9)          109.90  0.000076   -0.01    109.89   
    21. A(H   8,C   0,H   9)          109.76 -0.000065    0.01    109.77   
    22. A(C   1,C   0,H  10)          110.60 -0.000033   -0.01    110.59   
    23. A(C   0,C   1,H  11)          119.12  0.000050    0.03    119.15   
    24. A(C   0,C   1,C   4)          121.62 -0.000006    0.01    121.63   
    25. A(C   4,C   1,H  11)          119.25 -0.000044   -0.04    119.22   
    26. A(C   4,C   2,H  13)          109.24  0.000061    0.03    109.27   
    27. A(H  12,C   2,H  13)          107.51 -0.000018   -0.01    107.49   
    28. A(C   3,C   2,H  13)          109.42 -0.000028   -0.01    109.41   
    29. A(C   4,C   2,H  12)          109.58 -0.000057   -0.04    109.53   
    30. A(C   3,C   2,H  12)          109.67  0.000059    0.03    109.70   
    31. A(C   3,C   2,C   4)          111.34 -0.000018    0.00    111.35   
    32. A(C   2,C   3,O   7)          106.45  0.000105   -0.01    106.44   
    33. A(H  14,C   3,H  15)          108.42  0.000049    0.01    108.43   
    34. A(O   7,C   3,H  15)          110.71 -0.000109   -0.02    110.69   
    35. A(C   2,C   3,H  15)          110.36 -0.000005   -0.01    110.35   
    36. A(O   7,C   3,H  14)          110.32 -0.000096   -0.01    110.31   
    37. A(C   2,C   3,H  14)          110.59  0.000054    0.03    110.63   
    38. A(C   1,C   4,C   2)          115.26 -0.000081   -0.01    115.25   
    39. A(C   2,C   4,O   5)          121.89  0.000170    0.00    121.90   
    40. A(C   1,C   4,O   5)          122.85 -0.000090    0.01    122.85   
    41. A(O   7,O   6,H  16)          104.10  0.000115    0.18    104.27   
    42. A(C   3,O   7,O   6)          110.20  0.000119    0.05    110.25   
    43. D(H  11,C   1,C   0,H   8)    -58.50 -0.000025    0.24    -58.26   
    44. D(C   4,C   1,C   0,H  10)   -121.01  0.000027    0.32   -120.69   
    45. D(C   4,C   1,C   0,H   9)      0.27  0.000000    0.25      0.52   
    46. D(H  11,C   1,C   0,H   9)   -179.87  0.000009    0.21   -179.66   
    47. D(C   4,C   1,C   0,H   8)    121.64 -0.000033    0.28    121.92   
    48. D(O   7,C   3,C   2,H  12)     61.69  0.000005    0.23     61.92   
    49. D(O   7,C   3,C   2,C   4)   -176.86 -0.000038    0.20   -176.67   
    50. D(H  14,C   3,C   2,H  12)    -58.16  0.000027    0.22    -57.93   
    51. D(H  14,C   3,C   2,C   4)     63.29 -0.000017    0.19     63.48   
    52. D(H  14,C   3,C   2,H  13)   -175.85  0.000031    0.23   -175.62   
    53. D(O   7,C   3,C   2,H  13)    -56.01  0.000009    0.23    -55.77   
    54. D(O   5,C   4,C   1,C   0)     -0.23  0.000003    0.00     -0.22   
    55. D(C   2,C   4,C   1,H  11)      0.14  0.000010    0.02      0.16   
    56. D(O   5,C   4,C   1,H  11)    179.91 -0.000006    0.04    179.96   
    57. D(C   2,C   4,C   1,C   0)    180.00  0.000018   -0.02    179.98   
    58. D(O   5,C   4,C   2,H  12)    124.25  0.000015   -0.02    124.23   
    59. D(O   5,C   4,C   2,C   3)      2.75 -0.000009   -0.03      2.72   
    60. D(C   1,C   4,C   2,H  13)     61.57 -0.000020   -0.02     61.54   
    61. D(C   1,C   4,C   2,H  12)    -55.97 -0.000001    0.00    -55.97   
    62. D(C   1,C   4,C   2,C   3)   -177.47 -0.000025   -0.01   -177.48   
    63. D(C   3,O   7,O   6,H  16)   -118.47 -0.000091    2.58   -115.89   
    64. D(O   6,O   7,C   3,H  15)     64.72 -0.000014   -0.18     64.54   
    65. D(O   6,O   7,C   3,H  14)    -55.29  0.000058   -0.18    -55.47   
    66. D(O   6,O   7,C   3,C   2)   -175.32 -0.000017   -0.21   -175.53   
    ----------------------------------------------------------------------------

Geometry step timings:
Preparation and reading OPT file:      0.000 s ( 1.081 %)
Internal coordinates            :      0.000 s ( 1.251 %)
B/P matrices and projection     :      0.000 s (23.549 %)
Hessian update/contruction      :      0.001 s (31.570 %)
Making the step                 :      0.000 s (18.771 %)
Converting the step to Cartesian:      0.000 s ( 2.162 %)
Storing new data                :      0.000 s ( 1.365 %)
Checking convergence            :      0.000 s ( 1.934 %)
Final printing                  :      0.000 s (18.259 %)
Total time                      :      0.002 s

Time for energy+gradient        :      0.040 s
Time for complete geometry iter :      0.042 s

         *************************************************************
         *                GEOMETRY OPTIMIZATION CYCLE  12            *
         *************************************************************
---------------------------------
CARTESIAN COORDINATES (ANGSTROEM)
---------------------------------
  C    -3.207159   -0.228844   -0.381873
  C    -1.842859   -0.017712   -0.883073
  C     0.639180    0.078867   -0.709771
  C     1.792507   -0.173052    0.249818
  C    -0.704225   -0.175018   -0.040326
  O    -0.790218   -0.489428    1.145552
  O     4.112899   -0.136105    0.339576
  O     2.975198    0.166180   -0.448015
  H    -3.811913    0.671382   -0.517756
  H    -3.176912   -0.496159    0.671996
  H    -3.706491   -1.019553   -0.947903
  H    -1.699369    0.260660   -1.915987
  H     0.739584   -0.567855   -1.583621
  H     0.677673    1.113015   -1.060357
  H     1.818926   -1.225346    0.553813
  H     1.682193    0.445768    1.150281
  H     4.522903    0.724314    0.506568

----------------------------
CARTESIAN COORDINATES (A.U.)
----------------------------
  NO LB    ZA    FRAG    MASS        X           Y           Z
   0 C   6.0000    1    12.011   -6.060653   -0.432452   -0.721636
   1 C   6.0000    1    12.011   -3.482500   -0.033471   -1.668766
   2 C   6.0000    1    12.011    1.207876    0.149038   -1.341272
   3 C   6.0000    1    12.011    3.387346   -0.327020    0.472088
   4 C   6.0000    1    12.011   -1.330793   -0.330737   -0.076205
   5 O   8.0000    1    15.999   -1.493296   -0.924884    2.164780
   6 O   8.0000    1    15.999    7.772252   -0.257202    0.641706
   7 O   8.0000    1    15.999    5.622310    0.314034   -0.846626
   8 H   1.0000    1     1.008   -7.203473    1.268727   -0.978418
   9 H   1.0000    1     1.008   -6.003493   -0.937605    1.269888
  10 H   1.0000    1     1.008   -7.004253   -1.926676   -1.791276
  11 H   1.0000    1     1.008   -3.211342    0.492576   -3.620691
  12 H   1.0000    1     1.008    1.397611   -1.073090   -2.992610
  13 H   1.0000    1     1.008    1.280616    2.103294   -2.003784
  14 H   1.0000    1     1.008    3.437272   -2.315568    1.046555
  15 H   1.0000    1     1.008    3.178883    0.842379    2.173717
  16 H   1.0000    1     1.008    8.547049    1.368755    0.957275

      -----------------------------------------------------------      
     |                   =====================                   |     
     |                           x T B                           |     
     |                   =====================                   |     
     |                         S. Grimme                         |     
     |          Mulliken Center for Theoretical Chemistry        |     
     |                    University of Bonn                     |     
      -----------------------------------------------------------      

   * xtb version 6.7.1 (edcfbbe) compiled by 'albert@albert-system' on 2024-07-22

   xtb is free software: you can redistribute it and/or modify it under
   the terms of the GNU Lesser General Public License as published by
   the Free Software Foundation, either version 3 of the License, or
   (at your option) any later version.
   
   xtb is distributed in the hope that it will be useful,
   but WITHOUT ANY WARRANTY; without even the implied warranty of
   MERCHANTABILITY or FITNESS FOR A PARTICULAR PURPOSE.  See the
   GNU Lesser General Public License for more details.
   
   Cite this work as:
   * C. Bannwarth, E. Caldeweyher, S. Ehlert, A. Hansen, P. Pracht,
     J. Seibert, S. Spicher, S. Grimme, WIREs Comput. Mol. Sci., 2020, 11,
     e01493. DOI: 10.1002/wcms.1493
   
   for GFN2-xTB:
   * C. Bannwarth, S. Ehlert and S. Grimme., J. Chem. Theory Comput., 2019,
     15, 1652-1671. DOI: 10.1021/acs.jctc.8b01176
   for GFN1-xTB:
   * S. Grimme, C. Bannwarth, P. Shushkov, J. Chem. Theory Comput., 2017,
     13, 1989-2009. DOI: 10.1021/acs.jctc.7b00118
   for GFN0-xTB:
   * P. Pracht, E. Caldeweyher, S. Ehlert, S. Grimme, ChemRxiv, 2019, preprint.
     DOI: 10.26434/chemrxiv.8326202.v1
   for GFN-FF:
   * S. Spicher and S. Grimme, Angew. Chem. Int. Ed., 2020, 59, 15665-15673.
     DOI: 10.1002/anie.202004239
   
   for ALPB and GBSA implicit solvation:
   * S. Ehlert, M. Stahn, S. Spicher, S. Grimme, J. Chem. Theory Comput.,
     2021, 17, 4250-4261. DOI: 10.1021/acs.jctc.1c00471
   
   for ddCOSMO and CPCM-X implicit solvation:
   * M. Stahn, S. Ehlert, S. Grimme, J. Phys. Chem. A,
     2023, XX, XXXX-XXXX. DOI: 10.1021/acs.jpca.3c04382
   
   for DFT-D4:
   * E. Caldeweyher, C. Bannwarth and S. Grimme, J. Chem. Phys., 2017,
     147, 034112. DOI: 10.1063/1.4993215
   * E. Caldeweyher, S. Ehlert, A. Hansen, H. Neugebauer, S. Spicher,
     C. Bannwarth and S. Grimme, J. Chem. Phys., 2019, 150, 154122.
     DOI: 10.1063/1.5090222
   * E. Caldeweyher, J.-M. Mewes, S. Ehlert and S. Grimme, Phys. Chem. Chem. Phys.
     2020, 22, 8499-8512. DOI: 10.1039/D0CP00502A
   
   for sTDA-xTB:
   * S. Grimme and C. Bannwarth, J. Chem. Phys., 2016, 145, 054103.
     DOI: 10.1063/1.4959605
   
   in the mass-spec context:
   * V. Asgeirsson, C. Bauer and S. Grimme, Chem. Sci., 2017, 8, 4879.
     DOI: 10.1039/c7sc00601b
   * J. Koopman and S. Grimme, ACS Omega 2019, 4, 12, 15120-15133.
     DOI: 10.1021/acsomega.9b02011
   
   for metadynamics refer to:
   * S. Grimme, J. Chem. Theory Comput., 2019, 155, 2847-2862
     DOI: 10.1021/acs.jctc.9b00143
   
   for SPH calculations refer to:
   * S. Spicher and S. Grimme, J. Chem. Theory Comput., 2021, 17, 1701-1714
     DOI: 10.1021/acs.jctc.0c01306
   
   for ONIOM refer to:
   * C. Plett, A. Katbashev, S. Ehlert, S. Grimme, M. Bursch,
     Phys. Chem. Chem. Phys., 2023, 25, 17860-17868. DOI: 10.1039/D3CP02178E
   
   for DIPRO refer to:
   * J. Kohn, N. Gildemeister, S. Grimme, D. Fazzi, A. Hansen,
     J. Chem. Phys., 2023, just accepted.
   
   for PTB refer to:
   * S. Grimme, M. Mueller, A. Hansen, J. Chem. Phys., 2023, 158, 124111.
     DOI: 10.1063/5.0137838
   
   with help from (in alphabetical order)
   P. Atkinson, C. Bannwarth, F. Bohle, G. Brandenburg, E. Caldeweyher
   M. Checinski, S. Dohm, S. Ehlert, S. Ehrlich, I. Gerasimov, C. Hölzer
   A. Katbashev, J. Kohn, J. Koopman, C. Lavigne, S. Lehtola, F. März, M. Müller,
   F. Musil, H. Neugebauer, J. Pisarek, C. Plett, P. Pracht, F. Pultar,
   J. Seibert, P. Shushkov, S. Spicher, M. Stahn, M. Steiner, T. Strunk,
   J. Stückrath, T. Rose, and J. Unsleber
   
 * started run on 2026/02/22 at 12:32:54.546     
   ID    Z sym.   atoms
    1    6 C      1-5
    2    8 O      6-8
    3    1 H      9-17

           -------------------------------------------------
          |                Calculation Setup                |
           -------------------------------------------------

          program call               : /apps/eb/ORCA/6.1.1-gompi-2024a-avx2/bin/otool_xtb goat_XTB.xyz --grad -c 0 -u 1 -P 8 --namespace goat --input goat_XTB.input.tmp --acc 0.200000
          hostname                   : e2-9
          calculation namespace      : goat
          coordinate file            : goat_XTB.xyz
          omp threads                :                     8


           -------------------------------------------------
          |                 G F N 2 - x T B                 |
           -------------------------------------------------

        Reference                      10.1021/acs.jctc.8b01176
      * Hamiltonian:
        H0-scaling (s, p, d)           1.850000    2.230000    2.230000
        zeta-weighting                 0.500000
      * Dispersion:
        s8                             2.700000
        a1                             0.520000
        a2                             5.000000
        s9                             5.000000
      * Repulsion:
        kExp                           1.500000    1.000000
        rExp                           1.000000
      * Coulomb:
        alpha                          2.000000
        third order                    shell-resolved
        anisotropic                    true
        a3                             3.000000
        a5                             4.000000
        cn-shift                       1.200000
        cn-exp                         4.000000
        max-rad                        5.000000

q/qsh data taken from xtbrestart
CAMM data taken from xtbrestart

          ...................................................
          :                      SETUP                      :
          :.................................................:
          :  # basis functions                  41          :
          :  # atomic orbitals                  41          :
          :  # shells                           25          :
          :  # electrons                        47          :
          :  max. iterations                   250          :
          :  Hamiltonian                  GFN2-xTB          :
          :  restarted?                       true          :
          :  GBSA solvation                  false          :
          :  PC potential                    false          :
          :  electronic temp.          300.0000000     K    :
          :  accuracy                    0.2000000          :
          :  -> integral cutoff          0.3198970E+02      :
          :  -> integral neglect         0.2000000E-08      :
          :  -> SCF convergence          0.2000000E-06 Eh   :
          :  -> wf. convergence          0.2000000E-04 e    :
          :  Broyden damping             0.4000000          :
          :  net charge                          0          :
          :  unpaired electrons                  1          :
          ...................................................

 iter      E             dE          RMSdq      gap      omega  full diag
   1    -27.5985114 -0.275985E+02  0.322E-02    4.43       0.0  T
   2    -27.5985117 -0.361088E-06  0.200E-02    4.43       1.2  T
   3    -27.5985118 -0.763958E-07  0.265E-03    4.43       9.2  T
   4    -27.5985119 -0.426289E-07  0.113E-03    4.43      21.5  T
   5    -27.5985119 -0.181119E-08  0.599E-04    4.43      40.5  T
   6    -27.5985119 -0.151817E-08  0.148E-04    4.43     164.3  T
   7    -27.5985119 -0.493188E-10  0.515E-05    4.43     470.9  T

   *** convergence criteria satisfied after 7 iterations ***

         #    Occupation            Energy/Eh            Energy/eV
      -------------------------------------------------------------
         1        2.0000           -0.7184705             -19.5506
       ...           ...                  ...                  ...
        18        2.0000           -0.4717362             -12.8366
        19        2.0000           -0.4709573             -12.8154
        20        2.0000           -0.4656947             -12.6722
        21        2.0000           -0.4543330             -12.3630
        22        2.0000           -0.4124910             -11.2245
        23        2.0000           -0.3984850             -10.8433
        24        1.0000           -0.3691679             -10.0456 (HOMO)
        25                         -0.2063563              -5.6152 (LUMO)
        26                         -0.1402298              -3.8158
        27                          0.0494925               1.3468
        28                          0.0860676               2.3420
        29                          0.1247228               3.3939
       ...                                ...                  ...
        41                          0.5929534              16.1351
      -------------------------------------------------------------
                  HL-Gap            0.1628116 Eh            4.4303 eV
             Fermi-level           -0.3357943 Eh           -9.1374 eV

 SCC (total)                   0 d,  0 h,  0 min,  0.010 sec
 SCC setup                      ...        0 min,  0.000 sec (  1.431%)
 Dispersion                     ...        0 min,  0.000 sec (  1.743%)
 classical contributions        ...        0 min,  0.000 sec (  0.706%)
 integral evaluation            ...        0 min,  0.001 sec (  7.047%)
 iterations                     ...        0 min,  0.007 sec ( 71.326%)
 molecular gradient             ...        0 min,  0.001 sec ( 13.854%)
 printout                       ...        0 min,  0.000 sec (  3.684%)

         :::::::::::::::::::::::::::::::::::::::::::::::::::::
         ::                     SUMMARY                     ::
         :::::::::::::::::::::::::::::::::::::::::::::::::::::
         :: total energy             -27.335313521082 Eh    ::
         :: gradient norm              0.000904222013 Eh/a0 ::
         :: HOMO-LUMO gap              4.430328689313 eV    ::
         ::.................................................::
         :: SCC energy               -27.598549458624 Eh    ::
         :: -> isotropic ES            0.056921873439 Eh    ::
         :: -> anisotropic ES         -0.004088868074 Eh    ::
         :: -> anisotropic XC         -0.001197101742 Eh    ::
         :: -> dispersion             -0.009428343819 Eh    ::
         :: repulsion energy           0.263235937541 Eh    ::
         :: add. restraining           0.000000000000 Eh    ::
         :: total charge               0.000000000000 e     ::
         :::::::::::::::::::::::::::::::::::::::::::::::::::::


Property printout bound to 'properties.out'

           -------------------------------------------------
          | TOTAL ENERGY              -27.335313521082 Eh   |
          | GRADIENT NORM               0.000904222013 Eh/α |
          | HOMO-LUMO GAP               4.430328689313 eV   |
           -------------------------------------------------

------------------------------------------------------------------------
 * finished run on 2026/02/22 at 12:32:54.587     
------------------------------------------------------------------------
 total:
 * wall-time:     0 d,  0 h,  0 min,  0.040 sec
 *  cpu-time:     0 d,  0 h,  0 min,  0.154 sec
 * ratio c/w:     3.880 speedup
 SCF:
 * wall-time:     0 d,  0 h,  0 min,  0.010 sec
 *  cpu-time:     0 d,  0 h,  0 min,  0.040 sec
 * ratio c/w:     3.970 speedup


-------------------------   --------------------
FINAL SINGLE POINT ENERGY       -27.335313521080
-------------------------   --------------------


-------------
DIPOLE MOMENT
-------------
                                X             Y             Z
Total Dipole Moment    :     -0.99100       0.83800      -0.90500
                        -----------------------------------------
Magnitude (a.u.)       :      1.58220
Magnitude (Debye)      :      4.02163


------------------
CARTESIAN GRADIENT
------------------

   1   C   :   -0.000071068    0.000052313   -0.000143739
   2   C   :   -0.000283076    0.000034782   -0.000181433
   3   C   :    0.000083396    0.000138717    0.000146246
   4   C   :   -0.000454473   -0.000034268   -0.000079115
   5   C   :    0.000433945   -0.000122550    0.000120754
   6   O   :   -0.000114871   -0.000029743    0.000023965
   7   O   :   -0.000105548    0.000176229   -0.000040187
   8   O   :    0.000111121   -0.000084745    0.000033524
   9   H   :    0.000025039    0.000012108    0.000111365
  10   H   :   -0.000066387    0.000004337    0.000034737
  11   H   :    0.000057928   -0.000056184    0.000055554
  12   H   :    0.000100328   -0.000011773    0.000004955
  13   H   :   -0.000123676   -0.000017951   -0.000041369
  14   H   :    0.000070958   -0.000025482   -0.000061696
  15   H   :    0.000133434   -0.000015709   -0.000022144
  16   H   :    0.000070877    0.000051639   -0.000006177
  17   H   :    0.000132073   -0.000071720    0.000044759

Difference to translation invariance:
           :   -0.0000000000   -0.0000000000   -0.0000000000

Difference to rotation invariance:
           :    0.0000001318    0.0000004608    0.0000002414

Norm of the Cartesian gradient     ...    0.0009042220
RMS gradient                       ...    0.0001266164
MAX gradient                       ...    0.0004544734
------------------------------------------------------------------------------
                         ORCA GEOMETRY RELAXATION STEP
------------------------------------------------------------------------------

Reading the OPT-File                    .... done
Getting information on internals        .... done
Copying old internal coords+grads       .... done
Making the new internal coordinates     .... (2022 redundants) done
Validating the new internal coordinates .... (2022 redundants) done
Calculating the B-matrix                .... done
Calculating the G,G- and P matrices     .... done
Transforming gradient to internals      .... done
Projecting the internal gradient        .... done
Number of atoms                         ....  17
Number of internal coordinates          ....  66
Current Energy                          ....   -27.335313521 Eh
Current gradient norm                   ....     0.000904222 Eh/bohr
Maximum allowed component of the step   ....  0.300
Current trust radius                    ....  0.467
Updating the Hessian (BFGS)             .... done
Forming the augmented Hessian           .... done
Diagonalizing the augmented Hessian     .... done
Last element of RFO vector              ....  0.998801923
Lowest eigenvalues of augmented Hessian:
 -0.000003195  0.000724382  0.002246680  0.012054775  0.013506826
Length of the computed step             ....  0.048994567
The final length of the internal step   ....  0.048994567
Converting the step to Cartesian space:
 Initial RMS(Int)=    0.0060308142
Transforming coordinates:
 Iter   0:  RMS(Cart)=    0.0111234683 RMS(Int)=    0.0060333880
done
Storing new coordinates                 .... done
The predicted energy change is          ....    -0.000001602
Previously predicted energy change      ....    -0.000001698
Actually observed energy change         ....    -0.000002436
Ratio of predicted to observed change   ....     1.435013693
New trust radius                        ....     0.466666667

                                .--------------------.
          ----------------------|Geometry convergence|-------------------------
          Item                value                   Tolerance       Converged
          ---------------------------------------------------------------------
          Energy change      -0.0000024363            0.0000050000      YES
          RMS gradient        0.0000792431            0.0001000000      YES
          MAX gradient        0.0002760610            0.0003000000      YES
          RMS step            0.0060308142            0.0020000000      NO
          MAX step            0.0472711889            0.0040000000      NO
          -------------------------------------------------------------------------
          ........................................................
          Max(Bonds)      0.0009      Max(Angles)    0.13
          Max(Dihed)        2.71      Max(Improp)    0.00
          ---------------------------------------------------------------------

    ---------------------------------------------------------------------------
                         Redundant Internal Coordinates
                            (Angstroem and degrees)

        Definition                    Value    dE/dq     Step     New-Value
    ----------------------------------------------------------------------------
     1. B(C   1,C   0)                1.4687  0.000069 -0.0000    1.4687   
     2. B(C   3,C   2)                1.5213 -0.000133  0.0000    1.5214   
     3. B(C   4,C   1)                1.4253  0.000264 -0.0001    1.4252   
     4. B(C   4,C   2)                1.5223 -0.000041  0.0001    1.5224   
     5. B(O   5,C   4)                1.2299  0.000039 -0.0000    1.2298   
     6. B(O   7,O   6)                1.4163  0.000002 -0.0009    1.4155   
     7. B(O   7,C   3)                1.4145  0.000101  0.0003    1.4148   
     8. B(H   8,C   0)                1.0930 -0.000018 -0.0001    1.0929   
     9. B(H   9,C   0)                1.0877  0.000031  0.0000    1.0877   
    10. B(H  10,C   0)                1.0931 -0.000015  0.0000    1.0932   
    11. B(H  11,C   1)                1.0793  0.000006  0.0000    1.0794   
    12. B(H  12,C   2)                1.0918  0.000032 -0.0000    1.0917   
    13. B(H  13,C   2)                1.0926 -0.000002 -0.0000    1.0926   
    14. B(H  14,C   3)                1.0956  0.000012 -0.0000    1.0956   
    15. B(H  15,C   3)                1.0982  0.000017  0.0000    1.0982   
    16. B(H  16,O   6)                0.9676 -0.000000  0.0002    0.9678   
    17. A(H   9,C   0,H  10)          109.67 -0.000062   -0.02    109.66   
    18. A(C   1,C   0,H   8)          110.68  0.000040    0.02    110.70   
    19. A(H   8,C   0,H  10)          106.18  0.000086   -0.02    106.16   
    20. A(C   1,C   0,H   9)          109.89  0.000058   -0.02    109.87   
    21. A(H   8,C   0,H   9)          109.77 -0.000087    0.04    109.81   
    22. A(C   1,C   0,H  10)          110.59 -0.000037   -0.00    110.58   
    23. A(C   0,C   1,H  11)          119.15  0.000092    0.01    119.16   
    24. A(C   0,C   1,C   4)          121.63  0.000020    0.00    121.64   
    25. A(C   4,C   1,H  11)          119.22 -0.000112   -0.01    119.20   
    26. A(C   4,C   2,H  13)          109.27  0.000095   -0.00    109.27   
    27. A(H  12,C   2,H  13)          107.49 -0.000033    0.00    107.49   
    28. A(C   3,C   2,H  13)          109.41 -0.000038   -0.01    109.41   
    29. A(C   4,C   2,H  12)          109.53 -0.000123   -0.00    109.53   
    30. A(C   3,C   2,H  12)          109.70  0.000112    0.00    109.70   
    31. A(C   3,C   2,C   4)          111.35 -0.000013    0.00    111.35   
    32. A(C   2,C   3,O   7)          106.44  0.000078   -0.02    106.42   
    33. A(H  14,C   3,H  15)          108.43  0.000062   -0.00    108.43   
    34. A(O   7,C   3,H  15)          110.69 -0.000142    0.01    110.71   
    35. A(C   2,C   3,H  15)          110.35  0.000012   -0.01    110.33   
    36. A(O   7,C   3,H  14)          110.31 -0.000122    0.02    110.33   
    37. A(C   2,C   3,H  14)          110.63  0.000109    0.00    110.63   
    38. A(C   1,C   4,C   2)          115.25 -0.000099    0.01    115.26   
    39. A(C   2,C   4,O   5)          121.90  0.000181   -0.03    121.87   
    40. A(C   1,C   4,O   5)          122.85 -0.000083    0.02    122.87   
    41. A(O   7,O   6,H  16)          104.27  0.000276    0.13    104.40   
    42. A(C   3,O   7,O   6)          110.25  0.000023    0.05    110.30   
    43. D(H  11,C   1,C   0,H   8)    -58.26 -0.000031    0.24    -58.02   
    44. D(C   4,C   1,C   0,H  10)   -120.69  0.000063    0.26   -120.43   
    45. D(C   4,C   1,C   0,H   9)      0.52 -0.000001    0.22      0.74   
    46. D(H  11,C   1,C   0,H   9)   -179.66  0.000013    0.19   -179.47   
    47. D(C   4,C   1,C   0,H   8)    121.92 -0.000045    0.27    122.19   
    48. D(O   7,C   3,C   2,H  12)     61.92  0.000015    0.15     62.07   
    49. D(O   7,C   3,C   2,C   4)   -176.67 -0.000073    0.16   -176.51   
    50. D(H  14,C   3,C   2,H  12)    -57.93  0.000054    0.14    -57.79   
    51. D(H  14,C   3,C   2,C   4)     63.48 -0.000034    0.14     63.62   
    52. D(H  14,C   3,C   2,H  13)   -175.62  0.000051    0.14   -175.48   
    53. D(O   7,C   3,C   2,H  13)    -55.77  0.000012    0.15    -55.62   
    54. D(O   5,C   4,C   1,C   0)     -0.22  0.000019   -0.03     -0.26   
    55. D(C   2,C   4,C   1,H  11)      0.16  0.000005   -0.02      0.14   
    56. D(O   5,C   4,C   1,H  11)    179.96  0.000005   -0.00    179.96   
    57. D(C   2,C   4,C   1,C   0)    179.98  0.000019   -0.05    179.93   
    58. D(O   5,C   4,C   2,H  12)    124.23  0.000021    0.06    124.29   
    59. D(O   5,C   4,C   2,C   3)      2.72 -0.000029    0.05      2.77   
    60. D(C   1,C   4,C   2,H  13)     61.54 -0.000036    0.07     61.62   
    61. D(C   1,C   4,C   2,H  12)    -55.97  0.000021    0.07    -55.90   
    62. D(C   1,C   4,C   2,C   3)   -177.48 -0.000029    0.07   -177.41   
    63. D(C   3,O   7,O   6,H  16)   -115.89 -0.000075    2.71   -113.19   
    64. D(O   6,O   7,C   3,H  15)     64.54 -0.000035   -0.14     64.39   
    65. D(O   6,O   7,C   3,H  14)    -55.47  0.000059   -0.16    -55.63   
    66. D(O   6,O   7,C   3,C   2)   -175.53 -0.000052   -0.17   -175.69   
    ----------------------------------------------------------------------------

Geometry step timings:
Preparation and reading OPT file:      0.000 s ( 1.112 %)
Internal coordinates            :      0.000 s ( 1.545 %)
B/P matrices and projection     :      0.000 s (25.649 %)
Hessian update/contruction      :      0.000 s (23.300 %)
Making the step                 :      0.000 s (21.014 %)
Converting the step to Cartesian:      0.000 s ( 2.410 %)
Storing new data                :      0.000 s ( 1.731 %)
Checking convergence            :      0.000 s ( 2.163 %)
Final printing                  :      0.000 s (21.014 %)
Total time                      :      0.002 s

Time for energy+gradient        :      0.052 s
Time for complete geometry iter :      0.054 s

         *************************************************************
         *                GEOMETRY OPTIMIZATION CYCLE  13            *
         *************************************************************
---------------------------------
CARTESIAN COORDINATES (ANGSTROEM)
---------------------------------
  C    -3.206095   -0.226945   -0.379192
  C    -1.842397   -0.017075   -0.882411
  C     0.640101    0.077148   -0.712970
  C     1.794579   -0.175979    0.244957
  C    -0.702762   -0.174139   -0.041205
  O    -0.786852   -0.486706    1.145265
  O     4.115344   -0.134315    0.331246
  O     2.976413    0.164589   -0.454324
  H    -3.812188    0.671668   -0.519287
  H    -3.174450   -0.489390    0.675871
  H    -3.704979   -1.021115   -0.940841
  H    -1.699963    0.259674   -1.915910
  H     0.738036   -0.570245   -1.586581
  H     0.679748    1.111022   -1.064211
  H     1.821329   -1.228605    0.547674
  H     1.685045    0.441767    1.146270
  H     4.501004    0.729761    0.534573

----------------------------
CARTESIAN COORDINATES (A.U.)
----------------------------
  NO LB    ZA    FRAG    MASS        X           Y           Z
   0 C   6.0000    1    12.011   -6.058641   -0.428865   -0.716568
   1 C   6.0000    1    12.011   -3.481626   -0.032267   -1.667515
   2 C   6.0000    1    12.011    1.209616    0.145788   -1.347317
   3 C   6.0000    1    12.011    3.391262   -0.332552    0.462901
   4 C   6.0000    1    12.011   -1.328028   -0.329074   -0.077866
   5 O   8.0000    1    15.999   -1.486935   -0.919742    2.164237
   6 O   8.0000    1    15.999    7.776873   -0.253818    0.625964
   7 O   8.0000    1    15.999    5.624606    0.311027   -0.858549
   8 H   1.0000    1     1.008   -7.203991    1.269269   -0.981310
   9 H   1.0000    1     1.008   -5.998841   -0.924813    1.277211
  10 H   1.0000    1     1.008   -7.001395   -1.929628   -1.777932
  11 H   1.0000    1     1.008   -3.212464    0.490713   -3.620546
  12 H   1.0000    1     1.008    1.394686   -1.077606   -2.998203
  13 H   1.0000    1     1.008    1.284537    2.099527   -2.011067
  14 H   1.0000    1     1.008    3.441814   -2.321727    1.034954
  15 H   1.0000    1     1.008    3.184274    0.834818    2.166137
  16 H   1.0000    1     1.008    8.505665    1.379048    1.010196

      -----------------------------------------------------------      
     |                   =====================                   |     
     |                           x T B                           |     
     |                   =====================                   |     
     |                         S. Grimme                         |     
     |          Mulliken Center for Theoretical Chemistry        |     
     |                    University of Bonn                     |     
      -----------------------------------------------------------      

   * xtb version 6.7.1 (edcfbbe) compiled by 'albert@albert-system' on 2024-07-22

   xtb is free software: you can redistribute it and/or modify it under
   the terms of the GNU Lesser General Public License as published by
   the Free Software Foundation, either version 3 of the License, or
   (at your option) any later version.
   
   xtb is distributed in the hope that it will be useful,
   but WITHOUT ANY WARRANTY; without even the implied warranty of
   MERCHANTABILITY or FITNESS FOR A PARTICULAR PURPOSE.  See the
   GNU Lesser General Public License for more details.
   
   Cite this work as:
   * C. Bannwarth, E. Caldeweyher, S. Ehlert, A. Hansen, P. Pracht,
     J. Seibert, S. Spicher, S. Grimme, WIREs Comput. Mol. Sci., 2020, 11,
     e01493. DOI: 10.1002/wcms.1493
   
   for GFN2-xTB:
   * C. Bannwarth, S. Ehlert and S. Grimme., J. Chem. Theory Comput., 2019,
     15, 1652-1671. DOI: 10.1021/acs.jctc.8b01176
   for GFN1-xTB:
   * S. Grimme, C. Bannwarth, P. Shushkov, J. Chem. Theory Comput., 2017,
     13, 1989-2009. DOI: 10.1021/acs.jctc.7b00118
   for GFN0-xTB:
   * P. Pracht, E. Caldeweyher, S. Ehlert, S. Grimme, ChemRxiv, 2019, preprint.
     DOI: 10.26434/chemrxiv.8326202.v1
   for GFN-FF:
   * S. Spicher and S. Grimme, Angew. Chem. Int. Ed., 2020, 59, 15665-15673.
     DOI: 10.1002/anie.202004239
   
   for ALPB and GBSA implicit solvation:
   * S. Ehlert, M. Stahn, S. Spicher, S. Grimme, J. Chem. Theory Comput.,
     2021, 17, 4250-4261. DOI: 10.1021/acs.jctc.1c00471
   
   for ddCOSMO and CPCM-X implicit solvation:
   * M. Stahn, S. Ehlert, S. Grimme, J. Phys. Chem. A,
     2023, XX, XXXX-XXXX. DOI: 10.1021/acs.jpca.3c04382
   
   for DFT-D4:
   * E. Caldeweyher, C. Bannwarth and S. Grimme, J. Chem. Phys., 2017,
     147, 034112. DOI: 10.1063/1.4993215
   * E. Caldeweyher, S. Ehlert, A. Hansen, H. Neugebauer, S. Spicher,
     C. Bannwarth and S. Grimme, J. Chem. Phys., 2019, 150, 154122.
     DOI: 10.1063/1.5090222
   * E. Caldeweyher, J.-M. Mewes, S. Ehlert and S. Grimme, Phys. Chem. Chem. Phys.
     2020, 22, 8499-8512. DOI: 10.1039/D0CP00502A
   
   for sTDA-xTB:
   * S. Grimme and C. Bannwarth, J. Chem. Phys., 2016, 145, 054103.
     DOI: 10.1063/1.4959605
   
   in the mass-spec context:
   * V. Asgeirsson, C. Bauer and S. Grimme, Chem. Sci., 2017, 8, 4879.
     DOI: 10.1039/c7sc00601b
   * J. Koopman and S. Grimme, ACS Omega 2019, 4, 12, 15120-15133.
     DOI: 10.1021/acsomega.9b02011
   
   for metadynamics refer to:
   * S. Grimme, J. Chem. Theory Comput., 2019, 155, 2847-2862
     DOI: 10.1021/acs.jctc.9b00143
   
   for SPH calculations refer to:
   * S. Spicher and S. Grimme, J. Chem. Theory Comput., 2021, 17, 1701-1714
     DOI: 10.1021/acs.jctc.0c01306
   
   for ONIOM refer to:
   * C. Plett, A. Katbashev, S. Ehlert, S. Grimme, M. Bursch,
     Phys. Chem. Chem. Phys., 2023, 25, 17860-17868. DOI: 10.1039/D3CP02178E
   
   for DIPRO refer to:
   * J. Kohn, N. Gildemeister, S. Grimme, D. Fazzi, A. Hansen,
     J. Chem. Phys., 2023, just accepted.
   
   for PTB refer to:
   * S. Grimme, M. Mueller, A. Hansen, J. Chem. Phys., 2023, 158, 124111.
     DOI: 10.1063/5.0137838
   
   with help from (in alphabetical order)
   P. Atkinson, C. Bannwarth, F. Bohle, G. Brandenburg, E. Caldeweyher
   M. Checinski, S. Dohm, S. Ehlert, S. Ehrlich, I. Gerasimov, C. Hölzer
   A. Katbashev, J. Kohn, J. Koopman, C. Lavigne, S. Lehtola, F. März, M. Müller,
   F. Musil, H. Neugebauer, J. Pisarek, C. Plett, P. Pracht, F. Pultar,
   J. Seibert, P. Shushkov, S. Spicher, M. Stahn, M. Steiner, T. Strunk,
   J. Stückrath, T. Rose, and J. Unsleber
   
 * started run on 2026/02/22 at 12:32:54.601     
   ID    Z sym.   atoms
    1    6 C      1-5
    2    8 O      6-8
    3    1 H      9-17

           -------------------------------------------------
          |                Calculation Setup                |
           -------------------------------------------------

          program call               : /apps/eb/ORCA/6.1.1-gompi-2024a-avx2/bin/otool_xtb goat_XTB.xyz --grad -c 0 -u 1 -P 8 --namespace goat --input goat_XTB.input.tmp --acc 0.200000
          hostname                   : e2-9
          calculation namespace      : goat
          coordinate file            : goat_XTB.xyz
          omp threads                :                     8


           -------------------------------------------------
          |                 G F N 2 - x T B                 |
           -------------------------------------------------

        Reference                      10.1021/acs.jctc.8b01176
      * Hamiltonian:
        H0-scaling (s, p, d)           1.850000    2.230000    2.230000
        zeta-weighting                 0.500000
      * Dispersion:
        s8                             2.700000
        a1                             0.520000
        a2                             5.000000
        s9                             5.000000
      * Repulsion:
        kExp                           1.500000    1.000000
        rExp                           1.000000
      * Coulomb:
        alpha                          2.000000
        third order                    shell-resolved
        anisotropic                    true
        a3                             3.000000
        a5                             4.000000
        cn-shift                       1.200000
        cn-exp                         4.000000
        max-rad                        5.000000

q/qsh data taken from xtbrestart
CAMM data taken from xtbrestart

          ...................................................
          :                      SETUP                      :
          :.................................................:
          :  # basis functions                  41          :
          :  # atomic orbitals                  41          :
          :  # shells                           25          :
          :  # electrons                        47          :
          :  max. iterations                   250          :
          :  Hamiltonian                  GFN2-xTB          :
          :  restarted?                       true          :
          :  GBSA solvation                  false          :
          :  PC potential                    false          :
          :  electronic temp.          300.0000000     K    :
          :  accuracy                    0.2000000          :
          :  -> integral cutoff          0.3198970E+02      :
          :  -> integral neglect         0.2000000E-08      :
          :  -> SCF convergence          0.2000000E-06 Eh   :
          :  -> wf. convergence          0.2000000E-04 e    :
          :  Broyden damping             0.4000000          :
          :  net charge                          0          :
          :  unpaired electrons                  1          :
          ...................................................

 iter      E             dE          RMSdq      gap      omega  full diag
   1    -27.5985035 -0.275985E+02  0.332E-02    4.43       0.0  T
   2    -27.5985039 -0.418164E-06  0.206E-02    4.43       1.2  T
   3    -27.5985040 -0.522531E-07  0.325E-03    4.43       7.5  T
   4    -27.5985041 -0.854855E-07  0.129E-03    4.43      18.8  T
   5    -27.5985041 -0.581903E-08  0.695E-04    4.43      34.9  T
   6    -27.5985041 -0.107502E-08  0.159E-04    4.43     152.1  T
   7    -27.5985041 -0.488853E-10  0.535E-05    4.43     453.1  T

   *** convergence criteria satisfied after 7 iterations ***

         #    Occupation            Energy/Eh            Energy/eV
      -------------------------------------------------------------
         1        2.0000           -0.7186294             -19.5549
       ...           ...                  ...                  ...
        18        2.0000           -0.4714006             -12.8275
        19        2.0000           -0.4709948             -12.8164
        20        2.0000           -0.4658266             -12.6758
        21        2.0000           -0.4539152             -12.3517
        22        2.0000           -0.4133678             -11.2483
        23        2.0000           -0.3985981             -10.8464
        24        1.0000           -0.3692877             -10.0488 (HOMO)
        25                         -0.2064385              -5.6175 (LUMO)
        26                         -0.1396108              -3.7990
        27                          0.0491551               1.3376
        28                          0.0858550               2.3362
        29                          0.1245628               3.3895
       ...                                ...                  ...
        41                          0.5929577              16.1352
      -------------------------------------------------------------
                  HL-Gap            0.1628492 Eh            4.4314 eV
             Fermi-level           -0.3359030 Eh           -9.1404 eV

 SCC (total)                   0 d,  0 h,  0 min,  0.013 sec
 SCC setup                      ...        0 min,  0.000 sec (  1.206%)
 Dispersion                     ...        0 min,  0.000 sec (  1.922%)
 classical contributions        ...        0 min,  0.000 sec (  0.879%)
 integral evaluation            ...        0 min,  0.001 sec (  4.716%)
 iterations                     ...        0 min,  0.010 sec ( 73.375%)
 molecular gradient             ...        0 min,  0.002 sec ( 13.417%)
 printout                       ...        0 min,  0.001 sec (  4.329%)

         :::::::::::::::::::::::::::::::::::::::::::::::::::::
         ::                     SUMMARY                     ::
         :::::::::::::::::::::::::::::::::::::::::::::::::::::
         :: total energy             -27.335315657853 Eh    ::
         :: gradient norm              0.000822807107 Eh/a0 ::
         :: HOMO-LUMO gap              4.431351620351 eV    ::
         ::.................................................::
         :: SCC energy               -27.598541484089 Eh    ::
         :: -> isotropic ES            0.056909695771 Eh    ::
         :: -> anisotropic ES         -0.004003511277 Eh    ::
         :: -> anisotropic XC         -0.001207154247 Eh    ::
         :: -> dispersion             -0.009429659123 Eh    ::
         :: repulsion energy           0.263225826236 Eh    ::
         :: add. restraining           0.000000000000 Eh    ::
         :: total charge               0.000000000000 e     ::
         :::::::::::::::::::::::::::::::::::::::::::::::::::::


Property printout bound to 'properties.out'

           -------------------------------------------------
          | TOTAL ENERGY              -27.335315657853 Eh   |
          | GRADIENT NORM               0.000822807107 Eh/α |
          | HOMO-LUMO GAP               4.431351620351 eV   |
           -------------------------------------------------

------------------------------------------------------------------------
 * finished run on 2026/02/22 at 12:32:54.628     
------------------------------------------------------------------------
 total:
 * wall-time:     0 d,  0 h,  0 min,  0.027 sec
 *  cpu-time:     0 d,  0 h,  0 min,  0.104 sec
 * ratio c/w:     3.828 speedup
 SCF:
 * wall-time:     0 d,  0 h,  0 min,  0.014 sec
 *  cpu-time:     0 d,  0 h,  0 min,  0.054 sec
 * ratio c/w:     3.972 speedup


-------------------------   --------------------
FINAL SINGLE POINT ENERGY       -27.335315657850
-------------------------   --------------------


-------------
DIPOLE MOMENT
-------------
                                X             Y             Z
Total Dipole Moment    :     -1.01400       0.83700      -0.87600
                        -----------------------------------------
Magnitude (a.u.)       :      1.57992
Magnitude (Debye)      :      4.01583


------------------
CARTESIAN GRADIENT
------------------

   1   C   :   -0.000070556    0.000077441   -0.000159163
   2   C   :   -0.000248917    0.000006184   -0.000110446
   3   C   :    0.000147798    0.000154254    0.000146350
   4   C   :   -0.000435986   -0.000038486    0.000057565
   5   C   :    0.000272862   -0.000111709    0.000139382
   6   O   :   -0.000051130   -0.000018441   -0.000062035
   7   O   :   -0.000128025    0.000183780   -0.000021258
   8   O   :    0.000143399   -0.000084841   -0.000097361
   9   H   :    0.000009381   -0.000008619    0.000094284
  10   H   :   -0.000029419    0.000002051    0.000035891
  11   H   :    0.000045165   -0.000044512    0.000051577
  12   H   :    0.000110253   -0.000009108    0.000008759
  13   H   :   -0.000137196   -0.000027540   -0.000041116
  14   H   :    0.000064611   -0.000027498   -0.000062824
  15   H   :    0.000120731   -0.000001968   -0.000025477
  16   H   :    0.000068116    0.000018836   -0.000015177
  17   H   :    0.000118912   -0.000069822    0.000061049

Difference to translation invariance:
           :   -0.0000000000    0.0000000000   -0.0000000000

Difference to rotation invariance:
           :    0.0000001328    0.0000005921    0.0000001876

Norm of the Cartesian gradient     ...    0.0008228071
RMS gradient                       ...    0.0001152160
MAX gradient                       ...    0.0004359855
------------------------------------------------------------------------------
                         ORCA GEOMETRY RELAXATION STEP
------------------------------------------------------------------------------

Reading the OPT-File                    .... done
Getting information on internals        .... done
Copying old internal coords+grads       .... done
Making the new internal coordinates     .... (2022 redundants) done
Validating the new internal coordinates .... (2022 redundants) done
Calculating the B-matrix                .... done
Calculating the G,G- and P matrices     .... done
Transforming gradient to internals      .... done
Projecting the internal gradient        .... done
Number of atoms                         ....  17
Number of internal coordinates          ....  66
Current Energy                          ....   -27.335315658 Eh
Current gradient norm                   ....     0.000822807 Eh/bohr
Maximum allowed component of the step   ....  0.300
Current trust radius                    ....  0.467
Updating the Hessian (BFGS)             .... done
Forming the augmented Hessian           .... done
Diagonalizing the augmented Hessian     .... done
Last element of RFO vector              ....  0.999783163
Lowest eigenvalues of augmented Hessian:
 -0.000002162  0.000817171  0.002139092  0.012064436  0.013486080
Length of the computed step             ....  0.020828222
The final length of the internal step   ....  0.020828222
Converting the step to Cartesian space:
 Initial RMS(Int)=    0.0025637770
Transforming coordinates:
 Iter   0:  RMS(Cart)=    0.0044945498 RMS(Int)=    0.0025639468
done
Storing new coordinates                 .... done
The predicted energy change is          ....    -0.000001082
Previously predicted energy change      ....    -0.000001602
Actually observed energy change         ....    -0.000002137
Ratio of predicted to observed change   ....     1.334217081
New trust radius                        ....     0.466666667

                                .--------------------.
          ----------------------|Geometry convergence|-------------------------
          Item                value                   Tolerance       Converged
          ---------------------------------------------------------------------
          Energy change      -0.0000021368            0.0000050000      YES
          RMS gradient        0.0000719076            0.0001000000      YES
          MAX gradient        0.0002734894            0.0003000000      YES
          RMS step            0.0025637770            0.0020000000      NO
          MAX step            0.0196427335            0.0040000000      NO
          -------------------------------------------------------------------------
          ........................................................
          Max(Bonds)      0.0003      Max(Angles)    0.05
          Max(Dihed)        1.13      Max(Improp)    0.00
          ---------------------------------------------------------------------

    ---------------------------------------------------------------------------
                         Redundant Internal Coordinates
                            (Angstroem and degrees)

        Definition                    Value    dE/dq     Step     New-Value
    ----------------------------------------------------------------------------
     1. B(C   1,C   0)                1.4687  0.000046 -0.0000    1.4686   
     2. B(C   3,C   2)                1.5214 -0.000112  0.0002    1.5216   
     3. B(C   4,C   1)                1.4252  0.000197 -0.0003    1.4248   
     4. B(C   4,C   2)                1.5224 -0.000016  0.0001    1.5225   
     5. B(O   5,C   4)                1.2298 -0.000052  0.0000    1.2299   
     6. B(O   7,O   6)                1.4155 -0.000009 -0.0002    1.4153   
     7. B(O   7,C   3)                1.4148  0.000148 -0.0001    1.4147   
     8. B(H   8,C   0)                1.0929 -0.000024  0.0000    1.0929   
     9. B(H   9,C   0)                1.0877  0.000033 -0.0001    1.0876   
    10. B(H  10,C   0)                1.0932 -0.000015  0.0000    1.0932   
    11. B(H  11,C   1)                1.0794  0.000004  0.0000    1.0794   
    12. B(H  12,C   2)                1.0917  0.000037 -0.0001    1.0917   
    13. B(H  13,C   2)                1.0926 -0.000003  0.0000    1.0926   
    14. B(H  14,C   3)                1.0956 -0.000002  0.0000    1.0956   
    15. B(H  15,C   3)                1.0982 -0.000009  0.0000    1.0982   
    16. B(H  16,O   6)                0.9678 -0.000002  0.0001    0.9679   
    17. A(H   9,C   0,H  10)          109.66 -0.000046    0.02    109.67   
    18. A(C   1,C   0,H   8)          110.70  0.000070   -0.01    110.70   
    19. A(H   8,C   0,H  10)          106.16  0.000061   -0.04    106.12   
    20. A(C   1,C   0,H   9)          109.87  0.000002   -0.01    109.86   
    21. A(H   8,C   0,H   9)          109.81 -0.000066    0.04    109.84   
    22. A(C   1,C   0,H  10)          110.58 -0.000021    0.00    110.59   
    23. A(C   0,C   1,H  11)          119.16  0.000095   -0.02    119.14   
    24. A(C   0,C   1,C   4)          121.64  0.000035   -0.00    121.63   
    25. A(C   4,C   1,H  11)          119.20 -0.000130    0.02    119.23   
    26. A(C   4,C   2,H  13)          109.27  0.000088   -0.04    109.23   
    27. A(H  12,C   2,H  13)          107.49 -0.000032    0.02    107.51   
    28. A(C   3,C   2,H  13)          109.41 -0.000034    0.00    109.41   
    29. A(C   4,C   2,H  12)          109.53 -0.000142    0.05    109.58   
    30. A(C   3,C   2,H  12)          109.70  0.000117   -0.03    109.67   
    31. A(C   3,C   2,C   4)          111.35  0.000002   -0.00    111.35   
    32. A(C   2,C   3,O   7)          106.42  0.000015   -0.02    106.40   
    33. A(H  14,C   3,H  15)          108.43  0.000047   -0.01    108.42   
    34. A(O   7,C   3,H  15)          110.71 -0.000110    0.03    110.74   
    35. A(C   2,C   3,H  15)          110.33  0.000025   -0.01    110.32   
    36. A(O   7,C   3,H  14)          110.33 -0.000096    0.05    110.38   
    37. A(C   2,C   3,H  14)          110.63  0.000118   -0.04    110.59   
    38. A(C   1,C   4,C   2)          115.26 -0.000075    0.02    115.28   
    39. A(C   2,C   4,O   5)          121.87  0.000103   -0.04    121.83   
    40. A(C   1,C   4,O   5)          122.87 -0.000028    0.02    122.89   
    41. A(O   7,O   6,H  16)          104.40  0.000273   -0.00    104.40   
    42. A(C   3,O   7,O   6)          110.30 -0.000090    0.03    110.33   
    43. D(H  11,C   1,C   0,H   8)    -58.02 -0.000024    0.08    -57.94   
    44. D(C   4,C   1,C   0,H  10)   -120.43  0.000067    0.03   -120.40   
    45. D(C   4,C   1,C   0,H   9)      0.74 -0.000002    0.05      0.79   
    46. D(H  11,C   1,C   0,H   9)   -179.47  0.000011    0.04   -179.43   
    47. D(C   4,C   1,C   0,H   8)    122.19 -0.000038    0.08    122.28   
    48. D(O   7,C   3,C   2,H  12)     62.07  0.000020   -0.04     62.03   
    49. D(O   7,C   3,C   2,C   4)   -176.51 -0.000078    0.01   -176.51   
    50. D(H  14,C   3,C   2,H  12)    -57.79  0.000061   -0.06    -57.85   
    51. D(H  14,C   3,C   2,C   4)     63.62 -0.000037   -0.02     63.61   
    52. D(H  14,C   3,C   2,H  13)   -175.48  0.000052   -0.06   -175.55   
    53. D(O   7,C   3,C   2,H  13)    -55.62  0.000011   -0.04    -55.66   
    54. D(O   5,C   4,C   1,C   0)     -0.26  0.000025   -0.05     -0.31   
    55. D(C   2,C   4,C   1,H  11)      0.14 -0.000003   -0.05      0.10   
    56. D(O   5,C   4,C   1,H  11)    179.96  0.000012   -0.05    179.91   
    57. D(C   2,C   4,C   1,C   0)    179.93  0.000011   -0.05    179.88   
    58. D(O   5,C   4,C   2,H  12)    124.29  0.000015    0.13    124.42   
    59. D(O   5,C   4,C   2,C   3)      2.77 -0.000038    0.14      2.91   
    60. D(C   1,C   4,C   2,H  13)     61.62 -0.000041    0.16     61.78   
    61. D(C   1,C   4,C   2,H  12)    -55.90  0.000029    0.13    -55.77   
    62. D(C   1,C   4,C   2,C   3)   -177.41 -0.000023    0.13   -177.28   
    63. D(C   3,O   7,O   6,H  16)   -113.19 -0.000034    1.13   -112.06   
    64. D(O   6,O   7,C   3,H  15)     64.39 -0.000043    0.01     64.40   
    65. D(O   6,O   7,C   3,H  14)    -55.63  0.000033   -0.03    -55.67   
    66. D(O   6,O   7,C   3,C   2)   -175.69 -0.000065   -0.00   -175.70   
    ----------------------------------------------------------------------------

Geometry step timings:
Preparation and reading OPT file:      0.000 s ( 1.156 %)
Internal coordinates            :      0.000 s ( 1.606 %)
B/P matrices and projection     :      0.000 s (26.975 %)
Hessian update/contruction      :      0.000 s (21.002 %)
Making the step                 :      0.000 s (21.516 %)
Converting the step to Cartesian:      0.000 s ( 2.312 %)
Storing new data                :      0.000 s ( 1.606 %)
Checking convergence            :      0.000 s ( 2.826 %)
Final printing                  :      0.000 s (20.938 %)
Total time                      :      0.002 s

Time for energy+gradient        :      0.039 s
Time for complete geometry iter :      0.041 s

         *************************************************************
         *                GEOMETRY OPTIMIZATION CYCLE  14            *
         *************************************************************
---------------------------------
CARTESIAN COORDINATES (ANGSTROEM)
---------------------------------
  C    -3.205444   -0.227474   -0.378145
  C    -1.842175   -0.017145   -0.882240
  C     0.640482    0.077983   -0.714100
  C     1.795420   -0.176342    0.243293
  C    -0.702304   -0.172262   -0.041536
  O    -0.785273   -0.482530    1.145651
  O     4.116444   -0.136049    0.327043
  O     2.976828    0.163510   -0.456848
  H    -3.812642    0.670073   -0.520462
  H    -3.172977   -0.487744    0.677379
  H    -3.703862   -1.023107   -0.938203
  H    -1.700862    0.258355   -1.916229
  H     0.738272   -0.568980   -1.587955
  H     0.680347    1.112125   -1.064555
  H     1.820664   -1.229106    0.545664
  H     1.686495    0.441080    1.144906
  H     4.492500    0.728726    0.545260

----------------------------
CARTESIAN COORDINATES (A.U.)
----------------------------
  NO LB    ZA    FRAG    MASS        X           Y           Z
   0 C   6.0000    1    12.011   -6.057411   -0.429864   -0.714590
   1 C   6.0000    1    12.011   -3.481206   -0.032399   -1.667192
   2 C   6.0000    1    12.011    1.210336    0.147367   -1.349454
   3 C   6.0000    1    12.011    3.392853   -0.333238    0.459757
   4 C   6.0000    1    12.011   -1.327162   -0.325528   -0.078492
   5 O   8.0000    1    15.999   -1.483951   -0.911850    2.164967
   6 O   8.0000    1    15.999    7.778952   -0.257095    0.618022
   7 O   8.0000    1    15.999    5.625390    0.308989   -0.863317
   8 H   1.0000    1     1.008   -7.204850    1.266255   -0.983531
   9 H   1.0000    1     1.008   -5.996057   -0.921702    1.280061
  10 H   1.0000    1     1.008   -6.999286   -1.933392   -1.772947
  11 H   1.0000    1     1.008   -3.214163    0.488220   -3.621147
  12 H   1.0000    1     1.008    1.395132   -1.075216   -3.000800
  13 H   1.0000    1     1.008    1.285670    2.101612   -2.011718
  14 H   1.0000    1     1.008    3.440556   -2.322673    1.031156
  15 H   1.0000    1     1.008    3.187014    0.833520    2.163558
  16 H   1.0000    1     1.008    8.489594    1.377092    1.030392

      -----------------------------------------------------------      
     |                   =====================                   |     
     |                           x T B                           |     
     |                   =====================                   |     
     |                         S. Grimme                         |     
     |          Mulliken Center for Theoretical Chemistry        |     
     |                    University of Bonn                     |     
      -----------------------------------------------------------      

   * xtb version 6.7.1 (edcfbbe) compiled by 'albert@albert-system' on 2024-07-22

   xtb is free software: you can redistribute it and/or modify it under
   the terms of the GNU Lesser General Public License as published by
   the Free Software Foundation, either version 3 of the License, or
   (at your option) any later version.
   
   xtb is distributed in the hope that it will be useful,
   but WITHOUT ANY WARRANTY; without even the implied warranty of
   MERCHANTABILITY or FITNESS FOR A PARTICULAR PURPOSE.  See the
   GNU Lesser General Public License for more details.
   
   Cite this work as:
   * C. Bannwarth, E. Caldeweyher, S. Ehlert, A. Hansen, P. Pracht,
     J. Seibert, S. Spicher, S. Grimme, WIREs Comput. Mol. Sci., 2020, 11,
     e01493. DOI: 10.1002/wcms.1493
   
   for GFN2-xTB:
   * C. Bannwarth, S. Ehlert and S. Grimme., J. Chem. Theory Comput., 2019,
     15, 1652-1671. DOI: 10.1021/acs.jctc.8b01176
   for GFN1-xTB:
   * S. Grimme, C. Bannwarth, P. Shushkov, J. Chem. Theory Comput., 2017,
     13, 1989-2009. DOI: 10.1021/acs.jctc.7b00118
   for GFN0-xTB:
   * P. Pracht, E. Caldeweyher, S. Ehlert, S. Grimme, ChemRxiv, 2019, preprint.
     DOI: 10.26434/chemrxiv.8326202.v1
   for GFN-FF:
   * S. Spicher and S. Grimme, Angew. Chem. Int. Ed., 2020, 59, 15665-15673.
     DOI: 10.1002/anie.202004239
   
   for ALPB and GBSA implicit solvation:
   * S. Ehlert, M. Stahn, S. Spicher, S. Grimme, J. Chem. Theory Comput.,
     2021, 17, 4250-4261. DOI: 10.1021/acs.jctc.1c00471
   
   for ddCOSMO and CPCM-X implicit solvation:
   * M. Stahn, S. Ehlert, S. Grimme, J. Phys. Chem. A,
     2023, XX, XXXX-XXXX. DOI: 10.1021/acs.jpca.3c04382
   
   for DFT-D4:
   * E. Caldeweyher, C. Bannwarth and S. Grimme, J. Chem. Phys., 2017,
     147, 034112. DOI: 10.1063/1.4993215
   * E. Caldeweyher, S. Ehlert, A. Hansen, H. Neugebauer, S. Spicher,
     C. Bannwarth and S. Grimme, J. Chem. Phys., 2019, 150, 154122.
     DOI: 10.1063/1.5090222
   * E. Caldeweyher, J.-M. Mewes, S. Ehlert and S. Grimme, Phys. Chem. Chem. Phys.
     2020, 22, 8499-8512. DOI: 10.1039/D0CP00502A
   
   for sTDA-xTB:
   * S. Grimme and C. Bannwarth, J. Chem. Phys., 2016, 145, 054103.
     DOI: 10.1063/1.4959605
   
   in the mass-spec context:
   * V. Asgeirsson, C. Bauer and S. Grimme, Chem. Sci., 2017, 8, 4879.
     DOI: 10.1039/c7sc00601b
   * J. Koopman and S. Grimme, ACS Omega 2019, 4, 12, 15120-15133.
     DOI: 10.1021/acsomega.9b02011
   
   for metadynamics refer to:
   * S. Grimme, J. Chem. Theory Comput., 2019, 155, 2847-2862
     DOI: 10.1021/acs.jctc.9b00143
   
   for SPH calculations refer to:
   * S. Spicher and S. Grimme, J. Chem. Theory Comput., 2021, 17, 1701-1714
     DOI: 10.1021/acs.jctc.0c01306
   
   for ONIOM refer to:
   * C. Plett, A. Katbashev, S. Ehlert, S. Grimme, M. Bursch,
     Phys. Chem. Chem. Phys., 2023, 25, 17860-17868. DOI: 10.1039/D3CP02178E
   
   for DIPRO refer to:
   * J. Kohn, N. Gildemeister, S. Grimme, D. Fazzi, A. Hansen,
     J. Chem. Phys., 2023, just accepted.
   
   for PTB refer to:
   * S. Grimme, M. Mueller, A. Hansen, J. Chem. Phys., 2023, 158, 124111.
     DOI: 10.1063/5.0137838
   
   with help from (in alphabetical order)
   P. Atkinson, C. Bannwarth, F. Bohle, G. Brandenburg, E. Caldeweyher
   M. Checinski, S. Dohm, S. Ehlert, S. Ehrlich, I. Gerasimov, C. Hölzer
   A. Katbashev, J. Kohn, J. Koopman, C. Lavigne, S. Lehtola, F. März, M. Müller,
   F. Musil, H. Neugebauer, J. Pisarek, C. Plett, P. Pracht, F. Pultar,
   J. Seibert, P. Shushkov, S. Spicher, M. Stahn, M. Steiner, T. Strunk,
   J. Stückrath, T. Rose, and J. Unsleber
   
 * started run on 2026/02/22 at 12:32:54.642     
   ID    Z sym.   atoms
    1    6 C      1-5
    2    8 O      6-8
    3    1 H      9-17

           -------------------------------------------------
          |                Calculation Setup                |
           -------------------------------------------------

          program call               : /apps/eb/ORCA/6.1.1-gompi-2024a-avx2/bin/otool_xtb goat_XTB.xyz --grad -c 0 -u 1 -P 8 --namespace goat --input goat_XTB.input.tmp --acc 0.200000
          hostname                   : e2-9
          calculation namespace      : goat
          coordinate file            : goat_XTB.xyz
          omp threads                :                     8


           -------------------------------------------------
          |                 G F N 2 - x T B                 |
           -------------------------------------------------

        Reference                      10.1021/acs.jctc.8b01176
      * Hamiltonian:
        H0-scaling (s, p, d)           1.850000    2.230000    2.230000
        zeta-weighting                 0.500000
      * Dispersion:
        s8                             2.700000
        a1                             0.520000
        a2                             5.000000
        s9                             5.000000
      * Repulsion:
        kExp                           1.500000    1.000000
        rExp                           1.000000
      * Coulomb:
        alpha                          2.000000
        third order                    shell-resolved
        anisotropic                    true
        a3                             3.000000
        a5                             4.000000
        cn-shift                       1.200000
        cn-exp                         4.000000
        max-rad                        5.000000

q/qsh data taken from xtbrestart
CAMM data taken from xtbrestart

          ...................................................
          :                      SETUP                      :
          :.................................................:
          :  # basis functions                  41          :
          :  # atomic orbitals                  41          :
          :  # shells                           25          :
          :  # electrons                        47          :
          :  max. iterations                   250          :
          :  Hamiltonian                  GFN2-xTB          :
          :  restarted?                       true          :
          :  GBSA solvation                  false          :
          :  PC potential                    false          :
          :  electronic temp.          300.0000000     K    :
          :  accuracy                    0.2000000          :
          :  -> integral cutoff          0.3198970E+02      :
          :  -> integral neglect         0.2000000E-08      :
          :  -> SCF convergence          0.2000000E-06 Eh   :
          :  -> wf. convergence          0.2000000E-04 e    :
          :  Broyden damping             0.4000000          :
          :  net charge                          0          :
          :  unpaired electrons                  1          :
          ...................................................

 iter      E             dE          RMSdq      gap      omega  full diag
   1    -27.5985286 -0.275985E+02  0.153E-02    4.43       0.0  T
   2    -27.5985287 -0.872245E-07  0.944E-03    4.43       2.6  T
   3    -27.5985286  0.145340E-07  0.198E-03    4.43      12.2  T
   4    -27.5985287 -0.457666E-07  0.657E-04    4.43      36.9  T
   5    -27.5985287 -0.141797E-08  0.340E-04    4.43      71.2  T
   6    -27.5985287 -0.145441E-09  0.800E-05    4.43     303.3  T
   7    -27.5985287 -0.146585E-10  0.281E-05    4.43     863.3  T

   *** convergence criteria satisfied after 7 iterations ***

         #    Occupation            Energy/Eh            Energy/eV
      -------------------------------------------------------------
         1        2.0000           -0.7187096             -19.5571
       ...           ...                  ...                  ...
        18        2.0000           -0.4713355             -12.8257
        19        2.0000           -0.4709357             -12.8148
        20        2.0000           -0.4658775             -12.6772
        21        2.0000           -0.4537519             -12.3472
        22        2.0000           -0.4137262             -11.2581
        23        2.0000           -0.3986409             -10.8476
        24        1.0000           -0.3693615             -10.0508 (HOMO)
        25                         -0.2064347              -5.6174 (LUMO)
        26                         -0.1394316              -3.7941
        27                          0.0491776               1.3382
        28                          0.0857809               2.3342
        29                          0.1244866               3.3875
       ...                                ...                  ...
        41                          0.5928693              16.1328
      -------------------------------------------------------------
                  HL-Gap            0.1629269 Eh            4.4335 eV
             Fermi-level           -0.3359496 Eh           -9.1417 eV

 SCC (total)                   0 d,  0 h,  0 min,  0.017 sec
 SCC setup                      ...        0 min,  0.000 sec (  2.924%)
 Dispersion                     ...        0 min,  0.000 sec (  1.328%)
 classical contributions        ...        0 min,  0.000 sec (  0.791%)
 integral evaluation            ...        0 min,  0.001 sec (  5.769%)
 iterations                     ...        0 min,  0.012 sec ( 71.278%)
 molecular gradient             ...        0 min,  0.002 sec ( 14.953%)
 printout                       ...        0 min,  0.000 sec (  2.833%)

         :::::::::::::::::::::::::::::::::::::::::::::::::::::
         ::                     SUMMARY                     ::
         :::::::::::::::::::::::::::::::::::::::::::::::::::::
         :: total energy             -27.335317149247 Eh    ::
         :: gradient norm              0.000440538229 Eh/a0 ::
         :: HOMO-LUMO gap              4.433465821507 eV    ::
         ::.................................................::
         :: SCC energy               -27.598566043458 Eh    ::
         :: -> isotropic ES            0.056904422865 Eh    ::
         :: -> anisotropic ES         -0.003966656069 Eh    ::
         :: -> anisotropic XC         -0.001206701181 Eh    ::
         :: -> dispersion             -0.009430522166 Eh    ::
         :: repulsion energy           0.263248894212 Eh    ::
         :: add. restraining           0.000000000000 Eh    ::
         :: total charge               0.000000000000 e     ::
         :::::::::::::::::::::::::::::::::::::::::::::::::::::


Property printout bound to 'properties.out'

           -------------------------------------------------
          | TOTAL ENERGY              -27.335317149247 Eh   |
          | GRADIENT NORM               0.000440538229 Eh/α |
          | HOMO-LUMO GAP               4.433465821507 eV   |
           -------------------------------------------------

------------------------------------------------------------------------
 * finished run on 2026/02/22 at 12:32:54.693     
------------------------------------------------------------------------
 total:
 * wall-time:     0 d,  0 h,  0 min,  0.051 sec
 *  cpu-time:     0 d,  0 h,  0 min,  0.197 sec
 * ratio c/w:     3.891 speedup
 SCF:
 * wall-time:     0 d,  0 h,  0 min,  0.017 sec
 *  cpu-time:     0 d,  0 h,  0 min,  0.066 sec
 * ratio c/w:     3.980 speedup


-------------------------   --------------------
FINAL SINGLE POINT ENERGY       -27.335317149250
-------------------------   --------------------


-------------
DIPOLE MOMENT
-------------
                                X             Y             Z
Total Dipole Moment    :     -1.02300       0.83400      -0.86500
                        -----------------------------------------
Magnitude (a.u.)       :      1.57807
Magnitude (Debye)      :      4.01114


------------------
CARTESIAN GRADIENT
------------------

   1   C   :   -0.000030097    0.000056008   -0.000089540
   2   C   :   -0.000097304   -0.000015713    0.000001921
   3   C   :    0.000127664    0.000104259    0.000070898
   4   C   :   -0.000208529   -0.000026203    0.000121918
   5   C   :   -0.000001477   -0.000054265    0.000073212
   6   O   :    0.000025495   -0.000004303   -0.000086928
   7   O   :   -0.000071781    0.000076605    0.000021102
   8   O   :    0.000089891   -0.000024201   -0.000137004
   9   H   :   -0.000009135   -0.000020123    0.000034693
  10   H   :    0.000015838    0.000000061    0.000018423
  11   H   :    0.000011093   -0.000011788    0.000020387
  12   H   :    0.000065959   -0.000002120    0.000006958
  13   H   :   -0.000081784   -0.000027366   -0.000015845
  14   H   :    0.000030651   -0.000018201   -0.000034297
  15   H   :    0.000054475    0.000006151   -0.000017086
  16   H   :    0.000036582   -0.000013620   -0.000014550
  17   H   :    0.000042459   -0.000025181    0.000025738

Difference to translation invariance:
           :    0.0000000000   -0.0000000000   -0.0000000000

Difference to rotation invariance:
           :    0.0000000846    0.0000003959    0.0000000094

Norm of the Cartesian gradient     ...    0.0004405382
RMS gradient                       ...    0.0000616877
MAX gradient                       ...    0.0002085295
------------------------------------------------------------------------------
                         ORCA GEOMETRY RELAXATION STEP
------------------------------------------------------------------------------

Reading the OPT-File                    .... done
Getting information on internals        .... done
Copying old internal coords+grads       .... done
Making the new internal coordinates     .... (2022 redundants) done
Validating the new internal coordinates .... (2022 redundants) done
Calculating the B-matrix                .... done
Calculating the G,G- and P matrices     .... done
Transforming gradient to internals      .... done
Projecting the internal gradient        .... done
Number of atoms                         ....  17
Number of internal coordinates          ....  66
Current Energy                          ....   -27.335317149 Eh
Current gradient norm                   ....     0.000440538 Eh/bohr
Maximum allowed component of the step   ....  0.300
Current trust radius                    ....  0.467
Updating the Hessian (BFGS)             .... done
Forming the augmented Hessian           .... done
Diagonalizing the augmented Hessian     .... done
Last element of RFO vector              ....  0.999966813
Lowest eigenvalues of augmented Hessian:
 -0.000001094  0.000918185  0.002148866  0.011389005  0.012715718
Length of the computed step             ....  0.008147277
The final length of the internal step   ....  0.008147277
Converting the step to Cartesian space:
 Initial RMS(Int)=    0.0010028605
Transforming coordinates:
 Iter   0:  RMS(Cart)=    0.0023479867 RMS(Int)=    0.0010028989
done
Storing new coordinates                 .... done
The predicted energy change is          ....    -0.000000547
Previously predicted energy change      ....    -0.000001082
Actually observed energy change         ....    -0.000001491
Ratio of predicted to observed change   ....     1.378820021
New trust radius                        ....     0.466666667

                                .--------------------.
          ----------------------|Geometry convergence|-------------------------
          Item                value                   Tolerance       Converged
          ---------------------------------------------------------------------
          Energy change      -0.0000014914            0.0000050000      YES
          RMS gradient        0.0000397130            0.0001000000      YES
          MAX gradient        0.0001290353            0.0003000000      YES
          RMS step            0.0010028605            0.0020000000      YES
          MAX step            0.0025563084            0.0040000000      YES
          -------------------------------------------------------------------------
          ........................................................
          Max(Bonds)      0.0003      Max(Angles)    0.06
          Max(Dihed)        0.15      Max(Improp)    0.00
          ---------------------------------------------------------------------

                    ***********************HURRAY********************
                    ***        THE OPTIMIZATION HAS CONVERGED     ***
                    *************************************************


    ---------------------------------------------------------------------------
                         Redundant Internal Coordinates

                          --- Optimized Parameters ---  
                            (Angstroem and degrees)

        Definition                    OldVal   dE/dq     Step     FinalVal
    ----------------------------------------------------------------------------
     1. B(C   1,C   0)                1.4686  0.000002  0.0000    1.4686   
     2. B(C   3,C   2)                1.5216 -0.000042  0.0002    1.5218   
     3. B(C   4,C   1)                1.4248  0.000040 -0.0002    1.4246   
     4. B(C   4,C   2)                1.5225  0.000017  0.0000    1.5225   
     5. B(O   5,C   4)                1.2299 -0.000085  0.0001    1.2299   
     6. B(O   7,O   6)                1.4153 -0.000009  0.0001    1.4153   
     7. B(O   7,C   3)                1.4147  0.000102 -0.0003    1.4145   
     8. B(H   8,C   0)                1.0929 -0.000016  0.0001    1.0930   
     9. B(H   9,C   0)                1.0876  0.000018 -0.0001    1.0876   
    10. B(H  10,C   0)                1.0932 -0.000007  0.0000    1.0932   
    11. B(H  11,C   1)                1.0794  0.000001 -0.0000    1.0793   
    12. B(H  12,C   2)                1.0917  0.000022 -0.0001    1.0916   
    13. B(H  13,C   2)                1.0926 -0.000005  0.0000    1.0927   
    14. B(H  14,C   3)                1.0956 -0.000009  0.0000    1.0956   
    15. B(H  15,C   3)                1.0982 -0.000023  0.0000    1.0982   
    16. B(H  16,O   6)                0.9679 -0.000000  0.0000    0.9679   
    17. A(H   9,C   0,H  10)          109.67 -0.000008    0.02    109.69   
    18. A(C   1,C   0,H   8)          110.70  0.000060   -0.02    110.67   
    19. A(H   8,C   0,H  10)          106.12  0.000009   -0.03    106.09   
    20. A(C   1,C   0,H   9)          109.86 -0.000045    0.01    109.86   
    21. A(H   8,C   0,H   9)          109.84 -0.000016    0.02    109.86   
    22. A(C   1,C   0,H  10)          110.59  0.000002    0.00    110.59   
    23. A(C   0,C   1,H  11)          119.14  0.000055   -0.03    119.11   
    24. A(C   0,C   1,C   4)          121.63  0.000026   -0.00    121.63   
    25. A(C   4,C   1,H  11)          119.23 -0.000080    0.03    119.26   
    26. A(C   4,C   2,H  13)          109.23  0.000043   -0.04    109.20   
    27. A(H  12,C   2,H  13)          107.51 -0.000014    0.02    107.53   
    28. A(C   3,C   2,H  13)          109.41 -0.000016    0.00    109.41   
    29. A(C   4,C   2,H  12)          109.58 -0.000091    0.06    109.64   
    30. A(C   3,C   2,H  12)          109.67  0.000063   -0.03    109.64   
    31. A(C   3,C   2,C   4)          111.35  0.000014   -0.01    111.34   
    32. A(C   2,C   3,O   7)          106.40 -0.000037   -0.00    106.40   
    33. A(H  14,C   3,H  15)          108.42  0.000015   -0.01    108.41   
    34. A(O   7,C   3,H  15)          110.74 -0.000039    0.03    110.76   
    35. A(C   2,C   3,H  15)          110.32  0.000024   -0.01    110.32   
    36. A(O   7,C   3,H  14)          110.38 -0.000032    0.03    110.41   
    37. A(C   2,C   3,H  14)          110.59  0.000069   -0.04    110.56   
    38. A(C   1,C   4,C   2)          115.28 -0.000022    0.01    115.29   
    39. A(C   2,C   4,O   5)          121.83 -0.000010   -0.02    121.81   
    40. A(C   1,C   4,O   5)          122.89  0.000033    0.00    122.90   
    41. A(O   7,O   6,H  16)          104.40  0.000102   -0.05    104.35   
    42. A(C   3,O   7,O   6)          110.33 -0.000129    0.02    110.35   
    43. D(H  11,C   1,C   0,H   8)    -57.94 -0.000008   -0.01    -57.96   
    44. D(C   4,C   1,C   0,H  10)   -120.40  0.000035   -0.07   -120.47   
    45. D(C   4,C   1,C   0,H   9)      0.79 -0.000003   -0.04      0.76   
    46. D(H  11,C   1,C   0,H   9)   -179.43  0.000003   -0.03   -179.46   
    47. D(C   4,C   1,C   0,H   8)    122.28 -0.000014   -0.02    122.26   
    48. D(O   7,C   3,C   2,H  12)     62.03  0.000017   -0.09     61.94   
    49. D(O   7,C   3,C   2,C   4)   -176.51 -0.000046   -0.04   -176.54   
    50. D(H  14,C   3,C   2,H  12)    -57.85  0.000040   -0.11    -57.96   
    51. D(H  14,C   3,C   2,C   4)     63.61 -0.000023   -0.06     63.55   
    52. D(H  14,C   3,C   2,H  13)   -175.55  0.000029   -0.11   -175.66   
    53. D(O   7,C   3,C   2,H  13)    -55.66  0.000006   -0.09    -55.75   
    54. D(O   5,C   4,C   1,C   0)     -0.31  0.000016   -0.04     -0.35   
    55. D(C   2,C   4,C   1,H  11)      0.10 -0.000007   -0.03      0.06   
    56. D(O   5,C   4,C   1,H  11)    179.91  0.000009   -0.05    179.86   
    57. D(C   2,C   4,C   1,C   0)    179.88 -0.000000   -0.03    179.85   
    58. D(O   5,C   4,C   2,H  12)    124.42 -0.000000    0.13    124.55   
    59. D(O   5,C   4,C   2,C   3)      2.91 -0.000027    0.13      3.04   
    60. D(C   1,C   4,C   2,H  13)     61.78 -0.000028    0.15     61.92   
    61. D(C   1,C   4,C   2,H  12)    -55.77  0.000016    0.11    -55.65   
    62. D(C   1,C   4,C   2,C   3)   -177.28 -0.000011    0.12   -177.16   
    63. D(C   3,O   7,O   6,H  16)   -112.06 -0.000006    0.08   -111.98   
    64. D(O   6,O   7,C   3,H  15)     64.40 -0.000031    0.14     64.54   
    65. D(O   6,O   7,C   3,H  14)    -55.67 -0.000003    0.11    -55.56   
    66. D(O   6,O   7,C   3,C   2)   -175.69 -0.000046    0.14   -175.55   
    ----------------------------------------------------------------------------

Geometry step timings:
Preparation and reading OPT file:      0.000 s ( 1.294 %)
Internal coordinates            :      0.000 s ( 1.567 %)
B/P matrices and projection     :      0.000 s (30.926 %)
Hessian update/contruction      :      0.000 s (14.510 %)
Making the step                 :      0.000 s (22.207 %)
Converting the step to Cartesian:      0.000 s ( 2.384 %)
Storing new data                :      0.000 s ( 1.567 %)
Checking convergence            :      0.000 s ( 2.929 %)
Final printing                  :      0.000 s (22.548 %)
Total time                      :      0.001 s
                 *******************************************************
                 *** FINAL ENERGY EVALUATION AT THE STATIONARY POINT ***
                 ***               (AFTER   14 CYCLES)               ***
                 *******************************************************
---------------------------------
CARTESIAN COORDINATES (ANGSTROEM)
---------------------------------
  C    -3.205217   -0.228890   -0.378098
  C    -1.842160   -0.017622   -0.882387
  C     0.640441    0.079688   -0.714029
  C     1.795411   -0.175282    0.243457
  C    -0.702388   -0.170601   -0.041519
  O    -0.785120   -0.478955    1.146254
  O     4.116724   -0.139260    0.325488
  O     2.976736    0.163716   -0.456705
  H    -3.812990    0.668197   -0.521250
  H    -3.172597   -0.488599    0.677496
  H    -3.703254   -1.024843   -0.938077
  H    -1.701652    0.257002   -1.916715
  H     0.739138   -0.566500   -1.588267
  H     0.680003    1.114237   -1.063366
  H     1.819234   -1.228113    0.545771
  H     1.686538    0.442054    1.145171
  H     4.493067    0.724886    0.545700

----------------------------
CARTESIAN COORDINATES (A.U.)
----------------------------
  NO LB    ZA    FRAG    MASS        X           Y           Z
   0 C   6.0000    1    12.011   -6.056982   -0.432540   -0.714502
   1 C   6.0000    1    12.011   -3.481179   -0.033301   -1.667469
   2 C   6.0000    1    12.011    1.210257    0.150588   -1.349320
   3 C   6.0000    1    12.011    3.392834   -0.331234    0.460068
   4 C   6.0000    1    12.011   -1.327322   -0.322389   -0.078459
   5 O   8.0000    1    15.999   -1.483663   -0.905094    2.166106
   6 O   8.0000    1    15.999    7.779482   -0.263163    0.615084
   7 O   8.0000    1    15.999    5.625216    0.309379   -0.863048
   8 H   1.0000    1     1.008   -7.205506    1.262709   -0.985020
   9 H   1.0000    1     1.008   -5.995339   -0.923318    1.280282
  10 H   1.0000    1     1.008   -6.998136   -1.936673   -1.772709
  11 H   1.0000    1     1.008   -3.215656    0.485663   -3.622066
  12 H   1.0000    1     1.008    1.396769   -1.070530   -3.001390
  13 H   1.0000    1     1.008    1.285020    2.105603   -2.009471
  14 H   1.0000    1     1.008    3.437855   -2.320798    1.031359
  15 H   1.0000    1     1.008    3.187095    0.835360    2.164059
  16 H   1.0000    1     1.008    8.490667    1.369836    1.031224

      -----------------------------------------------------------      
     |                   =====================                   |     
     |                           x T B                           |     
     |                   =====================                   |     
     |                         S. Grimme                         |     
     |          Mulliken Center for Theoretical Chemistry        |     
     |                    University of Bonn                     |     
      -----------------------------------------------------------      

   * xtb version 6.7.1 (edcfbbe) compiled by 'albert@albert-system' on 2024-07-22

   xtb is free software: you can redistribute it and/or modify it under
   the terms of the GNU Lesser General Public License as published by
   the Free Software Foundation, either version 3 of the License, or
   (at your option) any later version.
   
   xtb is distributed in the hope that it will be useful,
   but WITHOUT ANY WARRANTY; without even the implied warranty of
   MERCHANTABILITY or FITNESS FOR A PARTICULAR PURPOSE.  See the
   GNU Lesser General Public License for more details.
   
   Cite this work as:
   * C. Bannwarth, E. Caldeweyher, S. Ehlert, A. Hansen, P. Pracht,
     J. Seibert, S. Spicher, S. Grimme, WIREs Comput. Mol. Sci., 2020, 11,
     e01493. DOI: 10.1002/wcms.1493
   
   for GFN2-xTB:
   * C. Bannwarth, S. Ehlert and S. Grimme., J. Chem. Theory Comput., 2019,
     15, 1652-1671. DOI: 10.1021/acs.jctc.8b01176
   for GFN1-xTB:
   * S. Grimme, C. Bannwarth, P. Shushkov, J. Chem. Theory Comput., 2017,
     13, 1989-2009. DOI: 10.1021/acs.jctc.7b00118
   for GFN0-xTB:
   * P. Pracht, E. Caldeweyher, S. Ehlert, S. Grimme, ChemRxiv, 2019, preprint.
     DOI: 10.26434/chemrxiv.8326202.v1
   for GFN-FF:
   * S. Spicher and S. Grimme, Angew. Chem. Int. Ed., 2020, 59, 15665-15673.
     DOI: 10.1002/anie.202004239
   
   for ALPB and GBSA implicit solvation:
   * S. Ehlert, M. Stahn, S. Spicher, S. Grimme, J. Chem. Theory Comput.,
     2021, 17, 4250-4261. DOI: 10.1021/acs.jctc.1c00471
   
   for ddCOSMO and CPCM-X implicit solvation:
   * M. Stahn, S. Ehlert, S. Grimme, J. Phys. Chem. A,
     2023, XX, XXXX-XXXX. DOI: 10.1021/acs.jpca.3c04382
   
   for DFT-D4:
   * E. Caldeweyher, C. Bannwarth and S. Grimme, J. Chem. Phys., 2017,
     147, 034112. DOI: 10.1063/1.4993215
   * E. Caldeweyher, S. Ehlert, A. Hansen, H. Neugebauer, S. Spicher,
     C. Bannwarth and S. Grimme, J. Chem. Phys., 2019, 150, 154122.
     DOI: 10.1063/1.5090222
   * E. Caldeweyher, J.-M. Mewes, S. Ehlert and S. Grimme, Phys. Chem. Chem. Phys.
     2020, 22, 8499-8512. DOI: 10.1039/D0CP00502A
   
   for sTDA-xTB:
   * S. Grimme and C. Bannwarth, J. Chem. Phys., 2016, 145, 054103.
     DOI: 10.1063/1.4959605
   
   in the mass-spec context:
   * V. Asgeirsson, C. Bauer and S. Grimme, Chem. Sci., 2017, 8, 4879.
     DOI: 10.1039/c7sc00601b
   * J. Koopman and S. Grimme, ACS Omega 2019, 4, 12, 15120-15133.
     DOI: 10.1021/acsomega.9b02011
   
   for metadynamics refer to:
   * S. Grimme, J. Chem. Theory Comput., 2019, 155, 2847-2862
     DOI: 10.1021/acs.jctc.9b00143
   
   for SPH calculations refer to:
   * S. Spicher and S. Grimme, J. Chem. Theory Comput., 2021, 17, 1701-1714
     DOI: 10.1021/acs.jctc.0c01306
   
   for ONIOM refer to:
   * C. Plett, A. Katbashev, S. Ehlert, S. Grimme, M. Bursch,
     Phys. Chem. Chem. Phys., 2023, 25, 17860-17868. DOI: 10.1039/D3CP02178E
   
   for DIPRO refer to:
   * J. Kohn, N. Gildemeister, S. Grimme, D. Fazzi, A. Hansen,
     J. Chem. Phys., 2023, just accepted.
   
   for PTB refer to:
   * S. Grimme, M. Mueller, A. Hansen, J. Chem. Phys., 2023, 158, 124111.
     DOI: 10.1063/5.0137838
   
   with help from (in alphabetical order)
   P. Atkinson, C. Bannwarth, F. Bohle, G. Brandenburg, E. Caldeweyher
   M. Checinski, S. Dohm, S. Ehlert, S. Ehrlich, I. Gerasimov, C. Hölzer
   A. Katbashev, J. Kohn, J. Koopman, C. Lavigne, S. Lehtola, F. März, M. Müller,
   F. Musil, H. Neugebauer, J. Pisarek, C. Plett, P. Pracht, F. Pultar,
   J. Seibert, P. Shushkov, S. Spicher, M. Stahn, M. Steiner, T. Strunk,
   J. Stückrath, T. Rose, and J. Unsleber
   
 * started run on 2026/02/22 at 12:32:54.707     
   ID    Z sym.   atoms
    1    6 C      1-5
    2    8 O      6-8
    3    1 H      9-17

           -------------------------------------------------
          |                Calculation Setup                |
           -------------------------------------------------

          program call               : /apps/eb/ORCA/6.1.1-gompi-2024a-avx2/bin/otool_xtb goat_XTB.xyz --grad -c 0 -u 1 -P 8 --namespace goat --input goat_XTB.input.tmp --acc 0.200000
          hostname                   : e2-9
          calculation namespace      : goat
          coordinate file            : goat_XTB.xyz
          omp threads                :                     8


           -------------------------------------------------
          |                 G F N 2 - x T B                 |
           -------------------------------------------------

        Reference                      10.1021/acs.jctc.8b01176
      * Hamiltonian:
        H0-scaling (s, p, d)           1.850000    2.230000    2.230000
        zeta-weighting                 0.500000
      * Dispersion:
        s8                             2.700000
        a1                             0.520000
        a2                             5.000000
        s9                             5.000000
      * Repulsion:
        kExp                           1.500000    1.000000
        rExp                           1.000000
      * Coulomb:
        alpha                          2.000000
        third order                    shell-resolved
        anisotropic                    true
        a3                             3.000000
        a5                             4.000000
        cn-shift                       1.200000
        cn-exp                         4.000000
        max-rad                        5.000000

q/qsh data taken from xtbrestart
CAMM data taken from xtbrestart

          ...................................................
          :                      SETUP                      :
          :.................................................:
          :  # basis functions                  41          :
          :  # atomic orbitals                  41          :
          :  # shells                           25          :
          :  # electrons                        47          :
          :  max. iterations                   250          :
          :  Hamiltonian                  GFN2-xTB          :
          :  restarted?                       true          :
          :  GBSA solvation                  false          :
          :  PC potential                    false          :
          :  electronic temp.          300.0000000     K    :
          :  accuracy                    0.2000000          :
          :  -> integral cutoff          0.3198970E+02      :
          :  -> integral neglect         0.2000000E-08      :
          :  -> SCF convergence          0.2000000E-06 Eh   :
          :  -> wf. convergence          0.2000000E-04 e    :
          :  Broyden damping             0.4000000          :
          :  net charge                          0          :
          :  unpaired electrons                  1          :
          ...................................................

 iter      E             dE          RMSdq      gap      omega  full diag
   1    -27.5985442 -0.275985E+02  0.905E-03    4.43       0.0  T
   2    -27.5985442 -0.152505E-07  0.550E-03    4.43       4.4  T
   3    -27.5985442  0.670201E-08  0.102E-03    4.43      23.8  T
   4    -27.5985442 -0.141167E-07  0.347E-04    4.43      69.8  T
   5    -27.5985442 -0.275325E-09  0.153E-04    4.43     158.7  T
   6    -27.5985442 -0.559375E-10  0.482E-05    4.43     503.1  T

   *** convergence criteria satisfied after 6 iterations ***

         #    Occupation            Energy/Eh            Energy/eV
      -------------------------------------------------------------
         1        2.0000           -0.7187278             -19.5576
       ...           ...                  ...                  ...
        18        2.0000           -0.4712967             -12.8246
        19        2.0000           -0.4709428             -12.8150
        20        2.0000           -0.4658760             -12.6771
        21        2.0000           -0.4537601             -12.3474
        22        2.0000           -0.4137429             -11.2585
        23        2.0000           -0.3986395             -10.8475
        24        1.0000           -0.3693804             -10.0514 (HOMO)
        25                         -0.2064112              -5.6167 (LUMO)
        26                         -0.1395101              -3.7963
        27                          0.0493846               1.3438
        28                          0.0858150               2.3351
        29                          0.1244810               3.3873
       ...                                ...                  ...
        41                          0.5927054              16.1283
      -------------------------------------------------------------
                  HL-Gap            0.1629692 Eh            4.4346 eV
             Fermi-level           -0.3359529 Eh           -9.1417 eV

 SCC (total)                   0 d,  0 h,  0 min,  0.021 sec
 SCC setup                      ...        0 min,  0.000 sec (  2.168%)
 Dispersion                     ...        0 min,  0.000 sec (  1.485%)
 classical contributions        ...        0 min,  0.000 sec (  0.796%)
 integral evaluation            ...        0 min,  0.001 sec (  4.780%)
 iterations                     ...        0 min,  0.017 sec ( 78.334%)
 molecular gradient             ...        0 min,  0.002 sec ( 10.220%)
 printout                       ...        0 min,  0.000 sec (  2.116%)

         :::::::::::::::::::::::::::::::::::::::::::::::::::::
         ::                     SUMMARY                     ::
         :::::::::::::::::::::::::::::::::::::::::::::::::::::
         :: total energy             -27.335317805430 Eh    ::
         :: gradient norm              0.000236484881 Eh/a0 ::
         :: HOMO-LUMO gap              4.434616574797 eV    ::
         ::.................................................::
         :: SCC energy               -27.598581608224 Eh    ::
         :: -> isotropic ES            0.056903460533 Eh    ::
         :: -> anisotropic ES         -0.003963135492 Eh    ::
         :: -> anisotropic XC         -0.001203207147 Eh    ::
         :: -> dispersion             -0.009430815286 Eh    ::
         :: repulsion energy           0.263263802794 Eh    ::
         :: add. restraining           0.000000000000 Eh    ::
         :: total charge               0.000000000000 e     ::
         :::::::::::::::::::::::::::::::::::::::::::::::::::::


Property printout bound to 'properties.out'

           -------------------------------------------------
          | TOTAL ENERGY              -27.335317805430 Eh   |
          | GRADIENT NORM               0.000236484881 Eh/α |
          | HOMO-LUMO GAP               4.434616574797 eV   |
           -------------------------------------------------

------------------------------------------------------------------------
 * finished run on 2026/02/22 at 12:32:54.756     
------------------------------------------------------------------------
 total:
 * wall-time:     0 d,  0 h,  0 min,  0.048 sec
 *  cpu-time:     0 d,  0 h,  0 min,  0.186 sec
 * ratio c/w:     3.876 speedup
 SCF:
 * wall-time:     0 d,  0 h,  0 min,  0.021 sec
 *  cpu-time:     0 d,  0 h,  0 min,  0.085 sec
 * ratio c/w:     3.979 speedup


-------------------------   --------------------
FINAL SINGLE POINT ENERGY       -27.335317805430
-------------------------   --------------------


-------------
DIPOLE MOMENT
-------------
                                X             Y             Z
Total Dipole Moment    :     -1.02300       0.83200      -0.86400
                        -----------------------------------------
Magnitude (a.u.)       :      1.57647
Magnitude (Debye)      :      4.00706

                                *** OPTIMIZATION RUN DONE ***

		     ------------------------------
			                   _   
			                  | |  
			  __ _  ___   __ _| |_ 
			 / _` |/ _ \ / _` | __|
			| (_| | (_) | (_| | |_ 
			 \__, |\___/ \__,_|\__|
			 __/ |                
			|___/                 

		      A Global Optimizer Algorithm
		     ------------------------------

Global parameters
-----------------
  GOAT version                               ... default
  Minimum global steps                       ... 3
  Number of base workers                     ... 4
  Split workers by                           ... 2
  Final number of workers                    ... 8
  Number of available CPUs                   ... 8
  Parameter list (worker : temperature)      ...  0 : 2903.97,  1 : 1451.98, 
                                                  2 :  725.99,  3 :  363.00, 
                                                  4 : 2903.97,  5 : 1451.98, 
                                                  6 :  725.99,  7 :  363.00 
  GradComp (mean : sigma)                    ... 1.00 : 0.50
  Number of fragments                        ... 1
  Number of atoms                            ... 17
  Flexibility parameter                      ... 1.00
  Optimizations per global step              ... 280
  Optimizations per worker                   ... 35

Filtering criteria
------------------
  RMSD                                       ... 0.125 Angs (atom. pos.)
  EnDiff                                     ... 0.100 kcal/mol
  RotConst                                   ... 1.00-2.50 %
  Maximum Conf. Energy                       ... 6.000 kcal/mol

Thermodynamics
--------------
  Ensemble temperature                       ... 298.15 K
  Degeneracy of conformers                   ... 1
  *No rotamers will be included in Gconf

------------------------------------------------------------------------------
   Iter  MinTemp     MaxEn       GradComp    NOpt   NProcs    Output
------------------------------------------------------------------------------
List of participating nodes    ...  goat.goat.0.hostnames

   3      363.00     51.00    1.00 : 0.50      35        1    goat.goat.0.3.out
   6      725.99     51.00    1.00 : 0.50      35        1    goat.goat.0.6.out
   2      725.99     51.00    1.00 : 0.50      35        1    goat.goat.0.2.out
   7      363.00     51.00    1.00 : 0.50      35        1    goat.goat.0.7.out
   0     2903.97     51.00    1.00 : 0.50      35        1    goat.goat.0.0.out
   1     1451.98     51.00    1.00 : 0.50      35        1    goat.goat.0.1.out
   4     2903.97     51.00    1.00 : 0.50      35        1    goat.goat.0.4.out
   5     1451.98     51.00    1.00 : 0.50      35        1    goat.goat.0.5.out

			     GOAT Global Iter 1
		Iter    Min En       Sconf       Gconf   
		        Hartree      cal/(molK)  kcal/mol
		=========================================

		   1    -27.339799   4.710       -0.722

List of participating nodes    ...  goat.goat.1.hostnames

   1     1451.98     51.00    1.00 : 0.50      35        1    goat.goat.1.1.out
   3      363.00     51.00    1.00 : 0.50      35        1    goat.goat.1.3.out
   2      725.99     51.00    1.00 : 0.50      35        1    goat.goat.1.2.out
   5     1451.98     51.00    1.00 : 0.50      35        1    goat.goat.1.5.out
   0     2903.97     51.00    1.00 : 0.50      35        1    goat.goat.1.0.out
   4     2903.97     51.00    1.00 : 0.50      35        1    goat.goat.1.4.out
   6      725.99     51.00    1.00 : 0.50      35        1    goat.goat.1.6.out
   7      363.00     51.00    1.00 : 0.50      35        1    goat.goat.1.7.out

			     GOAT Global Iter 2
		Iter    Min En       Sconf       Gconf   
		        Hartree      cal/(molK)  kcal/mol
		=========================================

		   1    -27.339799   4.710       -0.722
		   2    -27.339799   5.303       -0.786

List of participating nodes    ...  goat.goat.2.hostnames

   1     1451.98     51.00    1.00 : 0.50      35        1    goat.goat.2.1.out
   7      363.00     51.00    1.00 : 0.50      35        1    goat.goat.2.7.out
   6      725.99     51.00    1.00 : 0.50      35        1    goat.goat.2.6.out
   3      363.00     51.00    1.00 : 0.50      35        1    goat.goat.2.3.out
   2      725.99     51.00    1.00 : 0.50      35        1    goat.goat.2.2.out
   0     2903.97     51.00    1.00 : 0.50      35        1    goat.goat.2.0.out
   5     1451.98     51.00    1.00 : 0.50      35        1    goat.goat.2.5.out
   4     2903.97     51.00    1.00 : 0.50      35        1    goat.goat.2.4.out

			     GOAT Global Iter 3
		Iter    Min En       Sconf       Gconf   
		        Hartree      cal/(molK)  kcal/mol
		=========================================

		   1    -27.339799   4.710       -0.722
		   2    -27.339799   5.303       -0.786
		   3    -27.339799   5.649       -0.889

		Global minimum found!
		Writing structure to goat.globalminimum.xyz

		# Final ensemble info #
		Conformer     Energy     Degen.   % total   % cumul.  
		              (kcal/mol)
		------------------------------------------------------
		        0     0.000	     1      22.30      22.30
		        1     0.360	     1      12.14      34.43
		        2     0.603	     1       8.06      42.50
		        3     0.608	     1       8.00      50.49
		        4     0.802	     1       5.76      56.25
		        5     0.802	     1       5.76      62.01
		        6     0.936	     1       4.59      66.60
		        7     0.966	     1       4.37      70.97
		        8     1.078	     1       3.61      74.59
		        9     1.102	     1       3.47      78.06
		       10     1.378	     1       2.18      80.24
		       11     1.387	     1       2.15      82.39
		       12     1.453	     1       1.92      84.31
		       13     1.497	     1       1.78      86.09
		       14     1.542	     1       1.65      87.74
		       15     1.545	     1       1.64      89.39
		       16     1.708	     1       1.25      90.63
		       17     1.789	     1       1.09      91.72
		       18     1.874	     1       0.94      92.67
		       19     1.990	     1       0.78      93.44
		       20     2.020	     1       0.74      94.18
		       21     2.024	     1       0.73      94.91
		       22     2.065	     1       0.68      95.59
		       23     2.259	     1       0.49      96.09
		       24     2.273	     1       0.48      96.57
		       25     2.279	     1       0.48      97.04
		       26     2.399	     1       0.39      97.43
		       27     2.468	     1       0.35      97.78
		       28     2.618	     1       0.27      98.05
		       29     2.645	     1       0.26      98.30
		       30     2.738	     1       0.22      98.52
		       31     2.748	     1       0.22      98.74
		       32     2.767	     1       0.21      98.95
		       33     2.778	     1       0.21      99.15
		       34     2.987	     1       0.14      99.30
		       35     3.095	     1       0.12      99.42
		       36     3.120	     1       0.12      99.53
		       37     3.177	     1       0.10      99.64
		       38     3.373	     1       0.08      99.71
		       39     3.548	     1       0.06      99.77
		       40     3.554	     1       0.06      99.82
		       41     3.693	     1       0.04      99.87
		       42     3.795	     1       0.04      99.90
		       43     3.826	     1       0.03      99.94
		       44     3.917	     1       0.03      99.97
		       45     4.153	     1       0.02      99.99
		       46     4.634	     1       0.01     100.00
		       47     5.546	     1       0.00     100.00

		Conformers below 3 kcal/mol: 35
		Lowest energy conformer    : -27.339799 Eh
		Sconf at 298.15 K          :  5.65 cal/(molK)
		Gconf at 298.15 K          : -0.89 kcal/mol

		Writing final ensemble to goat.finalensemble.xyz

--------------------------------
SUGGESTED CITATIONS FOR THIS RUN
--------------------------------

Below you find a list of papers that are relevant to this ORCA run
We neither can nor want to force you to cite these papers, but we appreciate if you do
You receive ORCA, which is the product of decades of hard work by many enthusiastic individuals, for free
The only thing we kindly ask in return is that you cite our papers,
We deeply appreciate it, if you show your appreciation for ORCA by not just citing the generic ORCA reference.

Please note that relegating all ORCA citations to the supporting information does *not* help us.
SI sections are not indexed - citations you put there will not count into any citation statistics
But we need these citations in order to attract the funding resources that allow us to do what we are doing

Therefore, if you are a happy ORCA user, please consider citing a few of the papers listed below in the main body of your paper

In addition to the list printed below, the program has created the file goat.bibtex that contains the list in bibtex format
You can import this file easily into all common literature databanks and citation aid programs

It goes without saying that in many instances, there are alternative algorithms to achieve similar
results as the ones you have gotten from ORCA. It is, of course, also the case that in some instances
ORCA just re-implements algorithms worked out by others. We are fully aware of that and we are also
fully appreciative of our colleagues work. Hence this citation list should not be read as indicating
that the listed papers, which are focused on our own work, are the only ones worth citing. It simply
meant to make it easier for users to cite ORCA specific papers. It is not a substitute for doing your
own literature research and citing the relevant literature in a scientifically appropriate manner.

List of essential papers. We consider these as the minimum necessary citations

  1. Bannwarth, C.; Ehlert, S.; Grimme, S.
     GFN2-xTB—An Accurate and Broadly Parametrized Self-Consistent Tight-Binding Quantum Chemical Method with Multipole Electrostatics and Density-Dependent Dispersion Contributions
     J. Chem. Theory Comput. 2019 15(3), 1652-1671
     doi.org/10.1021/acs.jctc.8b01176
  2. Neese, F.
     Software update: the ORCA program system, version 6.0
     WIRES Comput. Molec. Sci. 2025 15(1), e70019
     doi.org/10.1002/wcms.70019
  3. de Souza, B.
     GOAT: A Global Optimization Algorithm for Molecules and Atomic Clusters
     Angewandte Chemie 2025 64(18), e202500393
     doi.org/10.1002/anie.202500393

List of papers to cite with high priority. The work reported in these papers was absolutely
necessary for this run to complete.
Our perspective: the developers of density functionals and basis sets usually get cited in chemistry papers
Good! But without the algorithms to do something with them, the functionals or basis sets would not do anything.
Hence, in our opinion, the algorithm design and method developments papers are equally worthy of getting cited

  1. Bannwarth, C.; Caldeweyher, E.; Ehlert, S.; Hansen, A.; Pracht, P.; Seibert, J.; Spicher, S.; Grimme, S.
     Extended tight-binding quantum chemistry methods
     WIRES Comput. Molec. Sci. 2020 11(2), e1493
     doi.org/10.1002/wcms.1493

List of suggested additional citations. These are papers that are important in the 'surrounding' of 
of this run, or papers that preceded the highly important papers. If you like your results we are grateful for a citation.

  1. Neese, F.
     The ORCA program system
     WIRES Comput. Molec. Sci. 2012 2(1), 73-78
     doi.org/10.1002/wcms.81
  2. Neese, F.
     Software update: the ORCA program system, version 4.0
     WIRES Comput. Molec. Sci. 2018 8(1), 1-6
     doi.org/10.1002/wcms.1327
  3. Neese, F.; Wennmohs, F.; Becker, U.; Riplinger, C.
     The ORCA quantum chemistry program package
     J. Chem. Phys. 2020 152(22), 224108
     doi.org/10.1063/5.0004608
  4. Neese, F.
     Software update: The ORCA program system—Version 5.0
     WIRES Comput. Molec. Sci. 2022 12(1), e1606
     doi.org/10.1002/wcms.1606

List of optional additional citations

  1. Neese, F.
     Approximate second-order SCF convergence for spin unrestricted wavefunctions
     Chem. Phys. Lett. 2000 325(1-3), 93-98
     doi.org/10.1016/s0009-2614(00)00662-x

Timings for individual modules:

Sum of individual times          ...      224.466 sec (=   3.741 min)
Geometry relaxation              ...        0.028 sec (=   0.000 min)   0.0 %
GOAT                             ...      223.741 sec (=   3.729 min)  99.7 %
XTB module                       ...        0.697 sec (=   0.012 min)   0.3 %
                             ****ORCA TERMINATED NORMALLY****
TOTAL RUN TIME: 0 days 0 hours 3 minutes 46 seconds 878 msec
