15
Coordinates from ORCA-job scan E -270.906191629958
  C      -1.866785      0.359807     -0.421798
  C      -1.028042     -0.915420     -0.332878
  C       0.226647     -0.604065      0.427921
  C       0.959561      0.469112     -0.326559
  C       2.264172      0.900592      0.319648
  O       2.209234      0.210462     -0.869840
  H      -2.402956      0.450877      0.558906
  H      -2.561372      0.348545     -1.276922
  H      -1.206630      1.275344     -0.457495
  H      -0.797379     -1.306731     -1.342309
  H      -1.641240     -1.651393      0.242667
  H      -0.034848     -0.336595      1.471208
  H       0.833051     -1.537348      0.495120
  H       2.679421      0.335523      1.170150
  H       2.367163      2.001289      0.342183
15
Coordinates from ORCA-job scan E -270.923110938124
  C      -1.916059      0.353450     -0.416881
  C      -1.043888     -0.902125     -0.333532
  C       0.221672     -0.614351      0.418495
  C       1.013425      0.461797     -0.264761
  C       2.306547      0.918526      0.345012
  O       2.240430      0.186199     -0.847066
  H      -2.452031      0.459822      0.536568
  H      -2.617264      0.322457     -1.249976
  H      -1.297066      1.260167     -0.490895
  H      -0.817642     -1.279925     -1.334252
  H      -1.634534     -1.657207      0.203006
  H      -0.023585     -0.356529      1.453729
  H       0.822876     -1.533867      0.475602
  H       2.732778      0.384264      1.193250
  H       2.464337      1.997324      0.311701
15
Coordinates from ORCA-job scan E -270.932851780522
  C      -1.943839      0.352629     -0.411155
  C      -1.057808     -0.891121     -0.332811
  C       0.216589     -0.630221      0.414079
  C       1.053488      0.448535     -0.192938
  C       2.321907      0.938463      0.365391
  O       2.247574      0.162801     -0.831472
  H      -2.491618      0.477935      0.521038
  H      -2.652368      0.306391     -1.232115
  H      -1.343152      1.251546     -0.524334
  H      -0.835300     -1.257038     -1.333812
  H      -1.630322     -1.669878      0.169885
  H      -0.009316     -0.378929      1.450610
  H       0.820372     -1.541600      0.452855
  H       2.779109      0.431692      1.207772
  H       2.524683      1.998797      0.277009
15
Coordinates from ORCA-job scan E -270.937349852668
  C      -1.972621      0.349690     -0.408232
  C      -1.063550     -0.874388     -0.340171
  C       0.204048     -0.638794      0.426439
  C       1.084861      0.441300     -0.104272
  C       2.339160      0.953853      0.385079
  O       2.231443      0.149976     -0.820828
  H      -2.517335      0.494898      0.523298
  H      -2.706431      0.268134     -1.206291
  H      -1.393018      1.253588     -0.585575
  H      -0.823786     -1.211765     -1.348777
  H      -1.615046     -1.696905      0.115101
  H      -0.026777     -0.391485      1.464913
  H       0.806474     -1.552078      0.458935
  H       2.854983      0.458477      1.201840
  H       2.597592      1.995499      0.238542
15
Coordinates from ORCA-job scan E -270.938532577791
  C      -1.981841      0.343873     -0.413335
  C      -1.056771     -0.864395     -0.349562
  C       0.190604     -0.632395      0.450583
  C       1.084022      0.447088     -0.057121
  C       2.353896      0.948658      0.393160
  O       2.193500      0.174811     -0.836497
  H      -2.493193      0.512538      0.534543
  H      -2.748399      0.223355     -1.177102
  H      -1.421999      1.247804     -0.652212
  H      -0.788514     -1.174394     -1.361638
  H      -1.597311     -1.713870      0.072576
  H      -0.067658     -0.380327      1.483323
  H       0.789268     -1.549238      0.498179
  H       2.916689      0.428450      1.165041
  H       2.627705      1.988043      0.250064
15
Coordinates from ORCA-job scan E -270.939823063268
  C      -1.987214      0.331586     -0.428484
  C      -1.037235     -0.850197     -0.362680
  C       0.167594     -0.613085      0.498809
  C       1.069691      0.465034      0.014726
  C       2.377578      0.925447      0.399820
  O       2.102476      0.246786     -0.875289
  H      -2.435586      0.544573      0.543318
  H      -2.801971      0.144488     -1.128313
  H      -1.465393      1.228733     -0.763389
  H      -0.715396     -1.115653     -1.373398
  H      -1.562404     -1.733726      0.010318
  H      -0.143047     -0.350889      1.514896
  H       0.760132     -1.534156      0.580199
  H       3.009971      0.342873      1.068041
  H       2.660802      1.968185      0.301424
15
Coordinates from ORCA-job scan E -270.940354229770
  C      -1.984949      0.320669     -0.446449
  C      -1.016336     -0.843434     -0.366902
  C       0.151275     -0.593374      0.540928
  C       1.051316      0.487634      0.072682
  C       2.393300      0.897907      0.396128
  O       2.005482      0.330565     -0.907905
  H      -2.395152      0.567070      0.534255
  H      -2.822787      0.089751     -1.104606
  H      -1.490330      1.210240     -0.836695
  H      -0.650982     -1.081626     -1.369345
  H      -1.534176     -1.742938     -0.023523
  H      -0.198822     -0.326241      1.541439
  H       0.743272     -1.513830      0.649821
  H       3.067859      0.254399      0.957472
  H       2.681028      1.943209      0.362702
15
Coordinates from ORCA-job scan E -270.940557769351
  C      -1.980016      0.314510     -0.460385
  C      -1.003033     -0.844122     -0.363565
  C       0.144166     -0.581554      0.566486
  C       1.036922      0.506847      0.108330
  C       2.399748      0.880347      0.386290
  O       1.936485      0.392043     -0.924959
  H      -2.386810      0.571441      0.518719
  H      -2.817361      0.070929     -1.113530
  H      -1.491477      1.203353     -0.858276
  H      -0.614028     -1.076672     -1.357515
  H      -1.523277     -1.744460     -0.028653
  H      -0.224747     -0.316917      1.559894
  H       0.741267     -1.498016      0.688139
  H       3.089923      0.197927      0.876347
  H       2.692237      1.924345      0.402679
15
Coordinates from ORCA-job scan E -270.940680853581
  C      -1.973455      0.310131     -0.473336
  C      -0.993651     -0.847498     -0.355984
  C       0.140262     -0.573254      0.586901
  C       1.023281      0.526703      0.139755
  C       2.402574      0.868123      0.373419
  O       1.875355      0.446984     -0.934957
  H      -2.396062      0.565673      0.499210
  H      -2.798104      0.067034     -1.141589
  H      -1.480266      1.202380     -0.856777
  H      -0.589012     -1.085034     -1.341683
  H      -1.521561     -1.742436     -0.021060
  H      -0.239356     -0.317085      1.578136
  H       0.746351     -1.483515      0.713411
  H       3.099398      0.154050      0.803870
  H       2.704243      1.907744      0.430683
15
Coordinates from ORCA-job scan E -270.940739001689
  C      -1.969927      0.308490     -0.479347
  C      -0.991082     -0.849527     -0.349868
  C       0.139497     -0.569960      0.595453
  C       1.016208      0.538815      0.155612
  C       2.403093      0.864449      0.365795
  O       1.847357      0.471643     -0.937421
  H      -2.412768      0.555640      0.486389
  H      -2.780000      0.071397     -1.167027
  H      -1.469765      1.205058     -0.843360
  H      -0.582533     -1.095041     -1.331842
  H      -1.524556     -1.739504     -0.011060
  H      -0.242288     -0.322359      1.588288
  H       0.752779     -1.475572      0.719986
  H       3.099877      0.136062      0.771591
  H       2.714106      1.900408      0.436813
15
Coordinates from ORCA-job scan E -270.940769878884
  C      -1.968622      0.307165     -0.482809
  C      -0.989437     -0.848923     -0.345539
  C       0.138677     -0.566789      0.601964
  C       1.011439      0.548644      0.168793
  C       2.404067      0.861760      0.360896
  O       1.828287      0.487771     -0.937504
  H      -2.428873      0.546418      0.476853
  H      -2.766400      0.072536     -1.185746
  H      -1.464941      1.207309     -0.833336
  H      -0.578681     -1.099450     -1.325523
  H      -1.524152     -1.737789     -0.005109
  H      -0.245420     -0.326698      1.596140
  H       0.757399     -1.468963      0.724085
  H       3.100003      0.123102      0.750094
  H       2.726650      1.893909      0.436742
15
Coordinates from ORCA-job scan E -270.940781070223
  C      -1.969554      0.306422     -0.483205
  C      -0.988296     -0.846879     -0.344699
  C       0.138083     -0.564439      0.604774
  C       1.009974      0.553137      0.174274
  C       2.405207      0.859936      0.359570
  O       1.822321      0.491757     -0.936700
  H      -2.435670      0.542720      0.474359
  H      -2.763451      0.069817     -1.190142
  H      -1.467085      1.208023     -0.831909
  H      -0.576315     -1.096969     -1.324444
  H      -1.520285     -1.738173     -0.005654
  H      -0.248402     -0.327221      1.598845
  H       0.758529     -1.465454      0.726253
  H       3.099947      0.117373      0.744122
  H       2.734995      1.889949      0.434559
15
Coordinates from ORCA-job scan E -270.940786382995
  C      -1.971142      0.305711     -0.482639
  C      -0.987012     -0.844729     -0.345309
  C       0.137572     -0.562150      0.606248
  C       1.009523      0.555904      0.176530
  C       2.406358      0.858040      0.359216
  O       1.820639      0.491578     -0.935908
  H      -2.437647      0.541526      0.474787
  H      -2.765046      0.065572     -1.188553
  H      -1.471766      1.207911     -0.834136
  H      -0.573615     -1.091847     -1.325276
  H      -1.515207     -1.739428     -0.008921
  H      -0.251528     -0.325657      1.599451
  H       0.758481     -1.462688      0.728236
  H       3.099444      0.113612      0.743418
  H       2.740943      1.886646      0.432856
15
Coordinates from ORCA-job scan E -270.940788136573
  C      -1.972270      0.305213     -0.481959
  C      -0.986295     -0.843779     -0.346241
  C       0.137389     -0.560827      0.606267
  C       1.009618      0.556973      0.176116
  C       2.406946      0.856955      0.359327
  O       1.821700      0.489519     -0.935499
  H      -2.436688      0.541680      0.476262
  H      -2.767774      0.062942     -1.185358
  H      -1.475201      1.207500     -0.836331
  H      -0.572053     -1.088225     -1.326495
  H      -1.512337     -1.740405     -0.011664
  H      -0.253019     -0.323830      1.598760
  H       0.758360     -1.461132      0.728976
  H       3.098545      0.112305      0.745674
  H       2.743077      1.885110      0.432167
15
Coordinates from ORCA-job scan E -270.940788743473
  C      -1.972896      0.304852     -0.481536
  C      -0.986019     -0.843607     -0.346923
  C       0.137354     -0.560161      0.605805
  C       1.009759      0.557413      0.175130
  C       2.407154      0.856453      0.359517
  O       1.823142      0.487691     -0.935286
  H      -2.435323      0.541973      0.477463
  H      -2.769842      0.061799     -1.182991
  H      -1.477015      1.207128     -0.837498
  H      -0.571349     -1.086396     -1.327368
  H      -1.511298     -1.740932     -0.013229
  H      -0.253420     -0.322542      1.597952
  H       0.758538     -1.460190      0.728995
  H       3.097641      0.111992      0.748052
  H       2.743572      1.884526      0.431916
15
Coordinates from ORCA-job scan E -270.939601037760
  C      -1.982498      0.311427     -0.495448
  C      -1.006627     -0.847040     -0.365539
  C       0.169228     -0.569792      0.651110
  C       1.010066      0.542656      0.197729
  C       2.407405      0.860541      0.353488
  O       1.804557      0.471448     -0.926637
  H      -2.451860      0.540859      0.462109
  H      -2.774963      0.083636     -1.207282
  H      -1.475637      1.213805     -0.835855
  H      -0.584870     -1.081473     -1.345055
  H      -1.542637     -1.743947     -0.047614
  H      -0.215771     -0.337436      1.646792
  H       0.796907     -1.466483      0.765936
  H       3.114024      0.128372      0.736908
  H       2.732673      1.893427      0.409359
15
Coordinates from ORCA-job scan E -270.939931414025
  C      -1.985096      0.308526     -0.490475
  C      -1.013558     -0.851656     -0.368558
  C       0.165576     -0.565996      0.641944
  C       1.019639      0.547571      0.190795
  C       2.416335      0.864604      0.355662
  O       1.822572      0.471288     -0.927265
  H      -2.453309      0.535230      0.468046
  H      -2.778409      0.083555     -1.202193
  H      -1.477922      1.211333     -0.828746
  H      -0.586243     -1.084995     -1.344198
  H      -1.541907     -1.748553     -0.041107
  H      -0.229985     -0.331302      1.631098
  H       0.780675     -1.469812      0.758249
  H       3.118901      0.133120      0.747292
  H       2.742730      1.897088      0.409458
15
Coordinates from ORCA-job scan E -270.940019518115
  C      -1.987370      0.306771     -0.487129
  C      -1.018583     -0.854391     -0.371023
  C       0.164079     -0.563300      0.633791
  C       1.026430      0.549947      0.185160
  C       2.421961      0.867151      0.358163
  O       1.836461      0.469724     -0.927128
  H      -2.452608      0.532751      0.472842
  H      -2.783675      0.084390     -1.196905
  H      -1.480121      1.209199     -0.825832
  H      -0.586723     -1.088655     -1.344061
  H      -1.538189     -1.751141     -0.032008
  H      -0.240674     -0.326016      1.618092
  H       0.769537     -1.473085      0.748044
  H       3.121639      0.136856      0.756887
  H       2.747833      1.899800      0.411108
15
Coordinates from ORCA-job scan E -270.940025355485
  C      -1.987756      0.306840     -0.487133
  C      -1.019133     -0.854176     -0.371410
  C       0.164632     -0.563435      0.632207
  C       1.026969      0.549237      0.184232
  C       2.421930      0.867438      0.359201
  O       1.838651      0.468661     -0.926671
  H      -2.450703      0.534174      0.473645
  H      -2.786140      0.084793     -1.194749
  H      -1.480613      1.208520     -0.827992
  H      -0.587344     -1.089587     -1.344293
  H      -1.536606     -1.750896     -0.029164
  H      -0.241089     -0.325720      1.616111
  H       0.768906     -1.474248      0.744376
  H       3.121554      0.137952      0.759506
  H       2.746741      1.900448      0.412136
15
Coordinates from ORCA-job scan E -270.940027656009
  C      -1.987807      0.307160     -0.487388
  C      -1.019548     -0.853832     -0.371686
  C       0.165383     -0.564152      0.630861
  C       1.027074      0.547910      0.183374
  C       2.421289      0.867927      0.360462
  O       1.840641      0.467302     -0.926064
  H      -2.447571      0.536859      0.474410
  H      -2.788901      0.085224     -1.191949
  H      -1.480670      1.207638     -0.831535
  H      -0.588769     -1.090662     -1.344749
  H      -1.535689     -1.750426     -0.026886
  H      -0.240192     -0.326416      1.614895
  H       0.768990     -1.475709      0.740625
  H       3.121247      0.139721      0.762502
  H       2.744521      1.901457      0.413128
15
Coordinates from ORCA-job scan E -270.940027955845
  C      -1.987655      0.307365     -0.487404
  C      -1.019799     -0.853886     -0.371763
  C       0.165575     -0.564652      0.630387
  C       1.027141      0.547280      0.182895
  C       2.420990      0.868354      0.360947
  O       1.841641      0.466650     -0.925870
  H      -2.446127      0.538177      0.474760
  H      -2.789773      0.085415     -1.190764
  H      -1.480412      1.207280     -0.832891
  H      -0.589692     -1.091173     -1.345020
  H      -1.536052     -1.750325     -0.026613
  H      -0.239490     -0.327092      1.614664
  H       0.769012     -1.476402      0.739528
  H       3.121180      0.140867      0.763887
  H       2.743458      1.902142      0.413257
15
Coordinates from ORCA-job scan E -270.934920838849
  C      -2.021874      0.302236     -0.501804
  C      -1.054620     -0.860185     -0.392879
  C       0.196425     -0.558540      0.652353
  C       1.056517      0.552742      0.200409
  C       2.451811      0.872122      0.370208
  O       1.864180      0.471985     -0.913370
  H      -2.474231      0.532878      0.463314
  H      -2.828521      0.081688     -1.200442
  H      -1.515722      1.201826     -0.849738
  H      -0.630702     -1.097264     -1.368922
  H      -1.569780     -1.756289     -0.045226
  H      -0.202383     -0.321226      1.639264
  H       0.799502     -1.471047      0.757173
  H       3.153636      0.143561      0.768369
  H       2.775759      1.905511      0.421292
15
Coordinates from ORCA-job scan E -270.935109627696
  C      -2.009536      0.306714     -0.497720
  C      -1.054460     -0.863713     -0.393851
  C       0.195129     -0.564658      0.653865
  C       1.047586      0.546498      0.195315
  C       2.440757      0.876008      0.365814
  O       1.858565      0.462885     -0.915902
  H      -2.465254      0.534603      0.466243
  H      -2.814177      0.096082     -1.202018
  H      -1.494998      1.204532     -0.837824
  H      -0.621699     -1.100249     -1.365005
  H      -1.568046     -1.757488     -0.040465
  H      -0.211087     -0.328090      1.636737
  H       0.793132     -1.479889      0.753477
  H       3.146335      0.154887      0.770874
  H       2.757752      1.911879      0.410462
15
Coordinates from ORCA-job scan E -270.935182528268
  C      -1.999427      0.311200     -0.493211
  C      -1.054853     -0.865958     -0.395227
  C       0.194438     -0.571329      0.654097
  C       1.041359      0.538273      0.189100
  C       2.431440      0.881063      0.362353
  O       1.858482      0.448914     -0.917139
  H      -2.456305      0.536762      0.470558
  H      -2.804172      0.110615     -1.200990
  H      -1.477747      1.206967     -0.827286
  H      -0.612307     -1.101071     -1.361608
  H      -1.565439     -1.758673     -0.036600
  H      -0.220653     -0.335328      1.632658
  H       0.784423     -1.491630      0.747809
  H       3.140727      0.170287      0.778891
  H       2.740033      1.919907      0.396597
15
Coordinates from ORCA-job scan E -270.935186822618
  C      -2.000439      0.311374     -0.492670
  C      -1.055254     -0.865238     -0.395704
  C       0.194781     -0.571914      0.653099
  C       1.043035      0.536356      0.187836
  C       2.432165      0.882067      0.362986
  O       1.862639      0.444557     -0.916297
  H      -2.455430      0.537251      0.471953
  H      -2.806842      0.111005     -1.198639
  H      -1.479421      1.207003     -0.828161
  H      -0.612278     -1.099699     -1.362149
  H      -1.564884     -1.758660     -0.037346
  H      -0.221123     -0.335645      1.631294
  H       0.782322     -1.493851      0.746125
  H       3.141687      0.173891      0.783500
  H       2.739039      1.921502      0.394174
15
Coordinates from ORCA-job scan E -270.935190032973
  C      -2.002188      0.311628     -0.491926
  C      -1.056085     -0.864160     -0.396562
  C       0.195375     -0.572974      0.651138
  C       1.046184      0.532888      0.185680
  C       2.433428      0.883814      0.364441
  O       1.870219      0.437364     -0.914714
  H      -2.453284      0.538690      0.474322
  H      -2.811786      0.111197     -1.194133
  H      -1.482398      1.206824     -0.830619
  H      -0.613838     -1.097952     -1.363666
  H      -1.564793     -1.758485     -0.038883
  H      -0.220589     -0.336046      1.629211
  H       0.779281     -1.497340      0.743208
  H       3.143537      0.180199      0.791564
  H       2.736933      1.924351      0.390940
15
Coordinates from ORCA-job scan E -270.935190569524
  C      -2.002085      0.311936     -0.491704
  C      -1.056462     -0.864238     -0.396777
  C       0.195510     -0.573689      0.650488
  C       1.046768      0.531561      0.184836
  C       2.433240      0.884500      0.364882
  O       1.872246      0.435500     -0.914404
  H      -2.452020      0.539658      0.474944
  H      -2.812573      0.111710     -1.192926
  H      -1.482174      1.206744     -0.831276
  H      -0.615017     -1.098267     -1.364203
  H      -1.565464     -1.758394     -0.039037
  H      -0.219811     -0.336481      1.628757
  H       0.778761     -1.498513      0.742269
  H       3.143851      0.182460      0.793769
  H       2.735228      1.925513      0.390383
15
Coordinates from ORCA-job scan E -270.927613512286
  C      -2.036492      0.306941     -0.506101
  C      -1.091500     -0.870261     -0.417650
  C       0.226627     -0.567888      0.672182
  C       1.076226      0.536821      0.202211
  C       2.464134      0.888221      0.374213
  O       1.895033      0.440685     -0.902032
  H      -2.480415      0.534448      0.463396
  H      -2.851378      0.108031     -1.202616
  H      -1.517701      1.201457     -0.848158
  H      -0.656078     -1.104065     -1.387879
  H      -1.599273     -1.764148     -0.057490
  H      -0.182602     -0.330940      1.653101
  H       0.809485     -1.493370      0.759830
  H       3.176595      0.185158      0.798361
  H       2.767335      1.928909      0.398634
15
Coordinates from ORCA-job scan E -270.927789093603
  C      -2.023877      0.311572     -0.502035
  C      -1.091568     -0.873760     -0.418600
  C       0.225420     -0.574439      0.673448
  C       1.067353      0.530098      0.197136
  C       2.452689      0.892361      0.369883
  O       1.889953      0.431292     -0.904112
  H      -2.471181      0.536395      0.466303
  H      -2.836603      0.122781     -1.204274
  H      -1.496389      1.203951     -0.836234
  H      -0.647802     -1.107547     -1.384117
  H      -1.598177     -1.764998     -0.052310
  H      -0.190475     -0.338128      1.650769
  H       0.803369     -1.502510      0.755360
  H       3.168934      0.197532      0.801194
  H       2.748352      1.935398      0.387590
15
Coordinates from ORCA-job scan E -270.927860950978
  C      -2.012409      0.316775     -0.497484
  C      -1.092510     -0.876397     -0.419584
  C       0.225005     -0.582706      0.673358
  C       1.060627      0.520583      0.190664
  C       2.441922      0.898347      0.366324
  O       1.890357      0.416669     -0.904764
  H      -2.461011      0.539822      0.470459
  H      -2.824913      0.138961     -1.203540
  H      -1.476404      1.206162     -0.825539
  H      -0.639604     -1.109950     -1.380202
  H      -1.597159     -1.765513     -0.047209
  H      -0.198717     -0.347254      1.646833
  H       0.794911     -1.515606      0.747875
  H       3.162348      0.215752      0.809885
  H       2.727555      1.944355      0.372925
15
Coordinates from ORCA-job scan E -270.927866088979
  C      -2.012941      0.317315     -0.496940
  C      -1.093195     -0.875896     -0.419800
  C       0.225540     -0.584051      0.672164
  C       1.062203      0.518070      0.189164
  C       2.442134      0.899844      0.366976
  O       1.894946      0.411978     -0.903713
  H      -2.459596      0.541087      0.471768
  H      -2.827111      0.140067     -1.201229
  H      -1.477004      1.206176     -0.826541
  H      -0.640114     -1.109340     -1.380437
  H      -1.597371     -1.765283     -0.047355
  H      -0.198650     -0.348588      1.645437
  H       0.792827     -1.518606      0.745328
  H       3.163028      0.220702      0.815025
  H       2.725303      1.946524      0.370156
15
Coordinates from ORCA-job scan E -270.927871075859
  C      -2.014360      0.318230     -0.496101
  C      -1.094742     -0.874971     -0.420315
  C       0.226647     -0.586570      0.669352
  C       1.065974      0.512965      0.186154
  C       2.442879      0.902764      0.368838
  O       1.905011      0.403027     -0.901390
  H      -2.456215      0.544214      0.474377
  H      -2.832366      0.141338     -1.195920
  H      -1.478945      1.205900     -0.829898
  H      -0.643152     -1.108706     -1.381748
  H      -1.598697     -1.764644     -0.047987
  H      -0.196876     -0.350820      1.642878
  H       0.789283     -1.524066      0.740240
  H       3.164742      0.230508      0.825625
  H       2.720814      1.950833      0.365896
15
Coordinates from ORCA-job scan E -270.927872024267
  C      -2.014195      0.318727     -0.495806
  C      -1.095395     -0.875099     -0.420516
  C       0.226938     -0.587699      0.668272
  C       1.066889      0.511025      0.184864
  C       2.442549      0.903830      0.369514
  O       1.908188      0.400450     -0.900823
  H      -2.454424      0.545730      0.475187
  H      -2.833404      0.142112     -1.194266
  H      -1.478519      1.205765     -0.830911
  H      -0.645070     -1.109409     -1.382427
  H      -1.599851     -1.764392     -0.047874
  H      -0.195552     -0.351667      1.642175
  H       0.788574     -1.525855      0.738583
  H       3.164993      0.233995      0.828943
  H       2.718277      1.952488      0.365085
15
Coordinates from ORCA-job scan E -270.927872891768
  C      -2.013335      0.319616     -0.495363
  C      -1.096453     -0.875743     -0.420714
  C       0.227288     -0.589568      0.666683
  C       1.067667      0.508268      0.182738
  C       2.441486      0.905353      0.370385
  O       1.912136      0.397545     -0.900395
  H      -2.451763      0.548028      0.476111
  H      -2.833792      0.143721     -1.192537
  H      -1.476714      1.205611     -0.831715
  H      -0.648233     -1.111256     -1.383306
  H      -1.602068     -1.764013     -0.047167
  H      -0.193256     -0.352961      1.641286
  H       0.788170     -1.528271      0.736451
  H       3.164908      0.238790      0.833040
  H       2.713957      1.954880      0.364505
15
Coordinates from ORCA-job scan E -270.927873039696
  C      -2.012944      0.319889     -0.495242
  C      -1.096806     -0.876093     -0.420660
  C       0.227388     -0.590117      0.666237
  C       1.067630      0.507682      0.182024
  C       2.441024      0.905706      0.370555
  O       1.912850      0.397269     -0.900513
  H      -2.451366      0.548495      0.476177
  H      -2.833354      0.144356     -1.192578
  H      -1.475797      1.205611     -0.831448
  H      -0.649097     -1.112055     -1.383360
  H      -1.602852     -1.763899     -0.046638
  H      -0.192548     -0.353276      1.641041
  H       0.788396     -1.528746      0.736032
  H       3.164675      0.239759      0.833740
  H       2.712799      1.955421      0.364633
15
Coordinates from ORCA-job scan E -270.918964027207
  C      -2.047643      0.315068     -0.509615
  C      -1.132123     -0.881771     -0.441195
  C       0.258836     -0.584707      0.687555
  C       1.097218      0.512682      0.199186
  C       2.472063      0.909368      0.379971
  O       1.936023      0.402262     -0.888360
  H      -2.480194      0.543398      0.464519
  H      -2.872278      0.140733     -1.202281
  H      -1.511679      1.200546     -0.848352
  H      -0.690240     -1.117471     -1.406668
  H      -1.636767     -1.769386     -0.064824
  H      -0.155202     -0.348161      1.664971
  H       0.819425     -1.523878      0.753436
  H       3.197831      0.242469      0.838479
  H       2.744727      1.958848      0.373178
15
Coordinates from ORCA-job scan E -270.919131278073
  C      -2.035237      0.319621     -0.505571
  C      -1.132401     -0.884921     -0.442013
  C       0.257880     -0.591394      0.688496
  C       1.088720      0.505838      0.194301
  C       2.460596      0.913732      0.375760
  O       1.931835      0.392541     -0.889656
  H      -2.471163      0.545284      0.467468
  H      -2.857612      0.155507     -1.203872
  H      -1.490570      1.202691     -0.836604
  H      -0.682263     -1.120902     -1.402883
  H      -1.635871     -1.769866     -0.059379
  H      -0.162558     -0.355776      1.662679
  H       0.813285     -1.533175      0.747863
  H       3.189563      0.255734      0.841987
  H       2.725792      1.965088      0.361423
15
Coordinates from ORCA-job scan E -270.919206963695
  C      -2.022830      0.325282     -0.500853
  C      -1.133701     -0.887449     -0.442559
  C       0.257910     -0.600778      0.688073
  C       1.081738      0.495398      0.187666
  C       2.448575      0.920535      0.371994
  O       1.933188      0.376802     -0.889231
  H      -2.460317      0.549340      0.471658
  H      -2.844581      0.173072     -1.203303
  H      -1.468709      1.204658     -0.825521
  H      -0.674285     -1.123959     -1.398211
  H      -1.635455     -1.769697     -0.053196
  H      -0.170135     -0.366808      1.658666
  H       0.804476     -1.547422      0.738034
  H       3.181198      0.276685      0.851885
  H       2.702926      1.974340      0.344900
15
Coordinates from ORCA-job scan E -270.919213225313
  C      -2.023055      0.326083     -0.500305
  C      -1.134569     -0.887009     -0.442517
  C       0.258664     -0.602649      0.686701
  C       1.083331      0.492452      0.185992
  C       2.448365      0.922404      0.372631
  O       1.938364      0.371708     -0.887805
  H      -2.458571      0.551133      0.472895
  H      -2.846425      0.174668     -1.201019
  H      -1.468641      1.204675     -0.826616
  H      -0.675186     -1.123824     -1.398150
  H      -1.636138     -1.769237     -0.052853
  H      -0.169621     -0.369014      1.657245
  H       0.802353     -1.550968      0.734591
  H       3.181334      0.282786      0.857613
  H       2.699793      1.976792      0.341599
15
Coordinates from ORCA-job scan E -270.919220959904
  C      -2.024196      0.327739     -0.499249
  C      -1.136872     -0.886071     -0.442607
  C       0.260480     -0.606750      0.682772
  C       1.088073      0.485398      0.181844
  C       2.448411      0.926701      0.374887
  O       1.952139      0.360036     -0.884092
  H      -2.453884      0.555951      0.475903
  H      -2.852065      0.177217     -1.194703
  H      -1.469685      1.204401     -0.830749
  H      -0.679918     -1.124168     -1.399259
  H      -1.638827     -1.768015     -0.052486
  H      -0.166426     -0.373449      1.653996
  H       0.798097     -1.558605      0.726594
  H       3.182046      0.297130      0.871866
  H       2.692625      1.982485      0.335283
15
Coordinates from ORCA-job scan E -270.919222778078
  C      -2.023966      0.328529     -0.498757
  C      -1.137941     -0.886230     -0.442803
  C       0.261040     -0.608521      0.680949
  C       1.089611      0.482433      0.179759
  C       2.447811      0.928387      0.375875
  O       1.957493      0.355943     -0.882894
  H      -2.451342      0.558142      0.477102
  H      -2.853479      0.178508     -1.192325
  H      -1.469012      1.204246     -0.832071
  H      -0.682970     -1.125298     -1.400196
  H      -1.640640     -1.767524     -0.052059
  H      -0.164335     -0.374932      1.652771
  H       0.797068     -1.561316      0.723775
  H       3.181855      0.302811      0.877286
  H       2.688807      1.984820      0.333589
15
Coordinates from ORCA-job scan E -270.919224600893
  C      -2.022832      0.329874     -0.497882
  C      -1.139688     -0.887060     -0.443149
  C       0.261720     -0.611369      0.678074
  C       1.091264      0.478004      0.176100
  C       2.446152      0.930832      0.377231
  O       1.964894      0.350632     -0.881622
  H      -2.447426      0.561292      0.478757
  H      -2.854187      0.181088     -1.189503
  H      -1.466549      1.204087     -0.832939
  H      -0.688083     -1.127887     -1.401691
  H      -1.643927     -1.766824     -0.050891
  H      -0.160830     -0.376866      1.650920
  H       0.796318     -1.565047      0.720156
  H       3.180879      0.310985      0.884741
  H       2.682292      1.988259      0.331699
15
Coordinates from ORCA-job scan E -270.919224991963
  C      -2.022243      0.330307     -0.497542
  C      -1.140303     -0.887576     -0.443193
  C       0.261888     -0.612260      0.677142
  C       1.091412      0.476825      0.174653
  C       2.445367      0.931467      0.377543
  O       1.966728      0.349565     -0.881611
  H      -2.446685      0.561884      0.479114
  H      -2.853615      0.182216     -1.189321
  H      -1.465176      1.204119     -0.832320
  H      -0.689635     -1.128995     -1.402006
  H      -1.645115     -1.766658     -0.050187
  H      -0.159712     -0.377181      1.650252
  H       0.796563     -1.565881      0.719470
  H       3.180232      0.313014      0.886557
  H       2.680292      1.989154      0.331451
15
Coordinates from ORCA-job scan E -270.909874895691
  C      -2.057325      0.325701     -0.511853
  C      -1.175948     -0.892849     -0.463300
  C       0.293721     -0.607311      0.697979
  C       1.121181      0.481512      0.191518
  C       2.476609      0.935052      0.387049
  O       1.990431      0.354325     -0.869782
  H      -2.476075      0.556936      0.467357
  H      -2.892715      0.178663     -1.199027
  H      -1.501526      1.199336     -0.849205
  H      -0.730877     -1.133956     -1.424822
  H      -1.679166     -1.771830     -0.068019
  H      -0.122207     -0.372574      1.673630
  H       0.827953     -1.561343      0.736651
  H       3.213911      0.315736      0.891497
  H       2.712030      1.992601      0.340328
15
Coordinates from ORCA-job scan E -270.910038155119
  C      -2.044541      0.330404     -0.507672
  C      -1.176525     -0.895880     -0.464007
  C       0.293068     -0.614629      0.698414
  C       1.113036      0.473800      0.186555
  C       2.464485      0.939929      0.382915
  O       1.987604      0.343877     -0.870053
  H      -2.466541      0.559173      0.470537
  H      -2.877615      0.194139     -1.200396
  H      -1.479632      1.201128     -0.837372
  H      -0.723742     -1.137759     -1.421196
  H      -1.678850     -1.771919     -0.062232
  H      -0.128648     -0.380922      1.671278
  H       0.821630     -1.571292      0.729693
  H       3.204473      0.331086      0.896064
  H       2.691796      1.998863      0.327471
15
Coordinates from ORCA-job scan E -270.910126078141
  C      -2.030185      0.337065     -0.502057
  C      -1.178491     -0.898528     -0.464324
  C       0.293733     -0.626326      0.696921
  C       1.106158      0.460374      0.178463
  C       2.449878      0.948445      0.378752
  O       1.992512      0.324437     -0.867606
  H      -2.453952      0.564087      0.475604
  H      -2.862159      0.215004     -1.199505
  H      -1.454050      1.203064     -0.824349
  H      -0.716746     -1.141718     -1.416181
  H      -1.679564     -1.770968     -0.054935
  H      -0.135188     -0.394457      1.666406
  H       0.811508     -1.588266      0.716563
  H       3.192714      0.358610      0.909554
  H       2.663832      2.009177      0.306696
15
Coordinates from ORCA-job scan E -270.910138213509
  C      -2.029788      0.338501     -0.500835
  C      -1.179831     -0.898128     -0.464243
  C       0.294912     -0.629530      0.694643
  C       1.108340      0.455410      0.175289
  C       2.448588      0.951418      0.379278
  O       2.001067      0.316074     -0.864940
  H      -2.451474      0.566243      0.477598
  H      -2.863375      0.218462     -1.196703
  H      -1.452573      1.203406     -0.824195
  H      -0.718381     -1.141788     -1.416129
  H      -1.680913     -1.770248     -0.054228
  H      -0.134181     -0.397834      1.664018
  H       0.808438     -1.593623      0.711406
  H       3.191198      0.369065      0.918588
  H       2.657971      2.012572      0.300454
15
Coordinates from ORCA-job scan E -270.910161972192
  C      -2.030566      0.342406     -0.497186
  C      -1.184473     -0.896694     -0.464489
  C       0.298802     -0.638722      0.685891
  C       1.117958      0.439480      0.164610
  C       2.446132      0.960443      0.382257
  O       2.032503      0.289351     -0.855046
  H      -2.443640      0.573132      0.484375
  H      -2.870463      0.226844     -1.185971
  H      -1.451584      1.204222     -0.825975
  H      -0.728083     -1.142120     -1.418526
  H      -1.686634     -1.767896     -0.053529
  H      -0.127779     -0.406330      1.656083
  H       0.799948     -1.609006      0.695898
  H       3.186677      0.402372      0.949372
  H       2.641201      2.022519      0.282235
15
Coordinates from ORCA-job scan E -270.910169861883
  C      -2.030569      0.344218     -0.495218
  C      -1.187006     -0.896666     -0.465129
  C       0.300398     -0.642901      0.680848
  C       1.122898      0.431536      0.158525
  C       2.444543      0.964541      0.384057
  O       2.048732      0.277019     -0.850187
  H      -2.439139      0.576365      0.487945
  H      -2.873525      0.230667     -1.180500
  H      -1.450676      1.204539     -0.826488
  H      -0.735275     -1.143315     -1.421168
  H      -1.690461     -1.766876     -0.053369
  H      -0.123186     -0.408989      1.652015
  H       0.797057     -1.615431      0.689516
  H       3.183598      0.418306      0.964537
  H       2.632608      2.026987      0.274616
15
Coordinates from ORCA-job scan E -270.910177079301
  C      -2.029435      0.346448     -0.492620
  C      -1.190295     -0.897632     -0.466235
  C       0.301896     -0.647831      0.674376
  C       1.128076      0.422102      0.150296
  C       2.441570      0.969058      0.386192
  O       2.067334      0.263988     -0.845166
  H      -2.433390      0.579853      0.492162
  H      -2.875267      0.235818     -1.174804
  H      -1.447651      1.204882     -0.825593
  H      -0.745352     -1.146129     -1.425037
  H      -1.695906     -1.765814     -0.052605
  H      -0.116892     -0.410868      1.646943
  H       0.795160     -1.622078      0.683456
  H       3.178652      0.436265      0.981536
  H       2.621499      2.031939      0.267101
15
Coordinates from ORCA-job scan E -270.910179115527
  C      -2.028351      0.347134     -0.491742
  C      -1.191506     -0.898621     -0.466568
  C       0.302117     -0.649278      0.672268
  C       1.128846      0.419587      0.147133
  C       2.439975      0.970115      0.386780
  O       2.071718      0.261739     -0.844725
  H      -2.431994      0.580475      0.493148
  H      -2.874162      0.237915     -1.174229
  H      -1.445209      1.204914     -0.823988
  H      -0.748832     -1.147953     -1.426157
  H      -1.698020     -1.765593     -0.051600
  H      -0.114754     -0.410570      1.645258
  H       0.795741     -1.623363      0.682727
  H       3.176545      0.440295      0.985405
  H       2.617885      2.033203      0.266291
15
Coordinates from ORCA-job scan E -270.910179743211
  C      -2.027744      0.347292     -0.491450
  C      -1.191972     -0.899237     -0.466504
  C       0.302130     -0.649641      0.671648
  C       1.128505      0.419255      0.145788
  C       2.439177      0.970227      0.386872
  O       2.072009      0.262187     -0.845373
  H      -2.432324      0.580152      0.493138
  H      -2.872776      0.238925     -1.175072
  H      -1.443652      1.204885     -0.822455
  H      -0.749642     -1.148897     -1.426112
  H      -1.698744     -1.765597     -0.050724
  H      -0.114192     -0.409947      1.644643
  H       0.796556     -1.623330      0.683114
  H       3.175609      0.440354      0.985605
  H       2.617057      2.033373      0.266883
15
Coordinates from ORCA-job scan E -270.901222972744
  C      -2.063422      0.343019     -0.505577
  C      -1.228104     -0.903921     -0.485932
  C       0.334487     -0.645360      0.691729
  C       1.158532      0.423480      0.162093
  C       2.470765      0.973679      0.396459
  O       2.096617      0.266597     -0.834257
  H      -2.462582      0.575443      0.481340
  H      -2.912191      0.235486     -1.184712
  H      -1.480708      1.200546     -0.839187
  H      -0.791067     -1.153180     -1.448085
  H      -1.733044     -1.770307     -0.067971
  H      -0.076474     -0.406088      1.667122
  H       0.828515     -1.619290      0.699909
  H       3.210175      0.443077      0.990883
  H       2.648500      2.036817      0.276188
15
Coordinates from ORCA-job scan E -270.901395888223
  C      -2.049741      0.347944     -0.501108
  C      -1.228702     -0.906630     -0.486533
  C       0.334303     -0.653653      0.691791
  C       1.151004      0.414261      0.157762
  C       2.457327      0.979211      0.392122
  O       2.095267      0.255496     -0.832351
  H      -2.451824      0.578137      0.485002
  H      -2.896186      0.252079     -1.185466
  H      -1.457466      1.201853     -0.827230
  H      -0.784452     -1.157010     -1.444731
  H      -1.733018     -1.769945     -0.062247
  H      -0.082215     -0.415654      1.664693
  H       0.821252     -1.630397      0.691127
  H       3.198243      0.461772      0.996103
  H       2.626205      2.042537      0.261069
15
Coordinates from ORCA-job scan E -270.901515296710
  C      -2.031071      0.356265     -0.494233
  C      -1.230943     -0.909290     -0.486255
  C       0.335990     -0.669370      0.689581
  C       1.144350      0.395761      0.149766
  C       2.437610      0.990239      0.386520
  O       2.103547      0.233037     -0.825377
  H      -2.435139      0.585008      0.491234
  H      -2.875676      0.278527     -1.184004
  H      -1.424591      1.203375     -0.811759
  H      -0.777490     -1.162207     -1.438721
  H      -1.734715     -1.767753     -0.053285
  H      -0.088525     -0.434358      1.659039
  H       0.807759     -1.652259      0.672753
  H       3.179427      0.499877      1.011485
  H       2.589467      2.053150      0.233258
15
Coordinates from ORCA-job scan E -270.901538677786
  C      -2.028566      0.358913     -0.492423
  C      -1.232777     -0.909060     -0.485548
  C       0.337892     -0.675268      0.686532
  C       1.147244      0.387546      0.146106
  C       2.433729      0.994922      0.386372
  O       2.115172      0.222622     -0.820158
  H      -2.430469      0.588915      0.493687
  H      -2.874584      0.285349     -1.180948
  H      -1.419118      1.203705     -0.810620
  H      -0.779824     -1.163501     -1.437829
  H      -1.737312     -1.766267     -0.051035
  H      -0.087122     -0.441300      1.655891
  H       0.802986     -1.660930      0.664503
  H       3.174345      0.517012      1.022295
  H       2.578401      2.057342      0.223174
15
Coordinates from ORCA-job scan E -270.901585616188
  C      -2.025684      0.364803     -0.489220
  C      -1.238283     -0.908102     -0.483354
  C       0.343323     -0.689121      0.676817
  C       1.158869      0.367070      0.137317
  C       2.426975      1.006178      0.388296
  O       2.149367      0.198872     -0.805542
  H      -2.418857      0.600661      0.499196
  H      -2.877344      0.298115     -1.171200
  H      -1.411150      1.203666     -0.813823
  H      -0.792317     -1.167930     -1.437590
  H      -1.746408     -1.761744     -0.045719
  H      -0.078882     -0.457656      1.647876
  H       0.793191     -1.680989      0.643851
  H       3.163498      0.558996      1.050830
  H       2.553700      2.067180      0.202264
15
Coordinates from ORCA-job scan E -270.901616334163
  C      -2.021594      0.370827     -0.485984
  C      -1.244122     -0.908095     -0.481919
  C       0.348320     -0.702968      0.665897
  C       1.170818      0.346323      0.128224
  C       2.418896      1.017012      0.390773
  O       2.184082      0.176975     -0.789933
  H      -2.404664      0.613187      0.504969
  H      -2.879378      0.310632     -1.160635
  H      -1.401972      1.203290     -0.817802
  H      -0.808896     -1.174284     -1.439585
  H      -1.757226     -1.756956     -0.040219
  H      -0.068212     -0.473083      1.639764
  H       0.785893     -1.699684      0.624694
  H       3.150249      0.600822      1.078799
  H       2.527803      2.076002      0.182958
15
Coordinates from ORCA-job scan E -270.901639905564
  C      -2.014248      0.377730     -0.482123
  C      -1.250484     -0.909469     -0.481206
  C       0.352857     -0.718397      0.653792
  C       1.182008      0.324012      0.118081
  C       2.407312      1.028174      0.393086
  O       2.218864      0.156133     -0.773275
  H      -2.386519      0.626760      0.511359
  H      -2.878012      0.325606     -1.149694
  H      -1.388010      1.202660     -0.820612
  H      -0.828553     -1.182984     -1.442897
  H      -1.769906     -1.751618     -0.033658
  H      -0.056166     -0.489176      1.631082
  H       0.780824     -1.718758      0.606441
  H       3.132439      0.644886      1.106443
  H       2.497593      2.084443      0.163185
15
Coordinates from ORCA-job scan E -270.901652634003
  C      -2.007124      0.382315     -0.479778
  C      -1.254731     -0.911680     -0.480986
  C       0.354938     -0.728532      0.646335
  C       1.186908      0.310698      0.111397
  C       2.397845      1.034682      0.394436
  O       2.236573      0.146961     -0.764956
  H      -2.373240      0.635596      0.514886
  H      -2.873796      0.336241     -1.144089
  H      -1.375332      1.201685     -0.821495
  H      -0.841671     -1.190517     -1.444962
  H      -1.778920     -1.748056     -0.028229
  H      -0.048668     -0.498908      1.625903
  H       0.780463     -1.729758      0.597309
  H       3.119826      0.669775      1.120566
  H       2.476928      2.089498      0.153667
15
Coordinates from ORCA-job scan E -270.901657568782
  C      -1.999828      0.386235     -0.477846
  C      -1.258231     -0.914033     -0.480607
  C       0.356383     -0.737342      0.640657
  C       1.189339      0.300364      0.105718
  C       2.388704      1.039926      0.395226
  O       2.248166      0.141428     -0.759543
  H      -2.361750      0.642781      0.517468
  H      -2.868109      0.346193     -1.140545
  H      -1.362359      1.200489     -0.821247
  H      -0.851404     -1.197422     -1.445826
  H      -1.786506     -1.745044     -0.022926
  H      -0.043366     -0.507112      1.621735
  H       0.781256     -1.738750      0.590709
  H       3.108556      0.688654      1.130167
  H       2.459147      2.093633      0.146861
15
Coordinates from ORCA-job scan E -270.901658391116
  C      -1.998940      0.386296     -0.478069
  C      -1.258433     -0.914592     -0.480308
  C       0.356243     -0.737633      0.640824
  C       1.188160      0.300999      0.105369
  C       2.387936      1.039864      0.395370
  O       2.245845      0.143470     -0.761197
  H      -2.361306      0.643125      0.516994
  H      -2.866796      0.346825     -1.141379
  H      -1.360598      1.199975     -0.821183
  H      -0.851161     -1.198544     -1.445125
  H      -1.787064     -1.744931     -0.021942
  H      -0.043606     -0.507140      1.621791
  H       0.782454     -1.738495      0.591362
  H       3.108547      0.686829      1.128696
  H       2.458716      2.093952      0.148798
15
Coordinates from ORCA-job scan E -270.893871335603
  C      -2.035731      0.382780     -0.491926
  C      -1.295230     -0.918103     -0.498534
  C       0.389532     -0.734686      0.659582
  C       1.218809      0.304248      0.120610
  C       2.420010      1.042956      0.405118
  O       2.272230      0.147204     -0.751250
  H      -2.393201      0.639054      0.505063
  H      -2.906852      0.343675     -1.150986
  H      -1.399081      1.196653     -0.837729
  H      -0.892706     -1.201517     -1.465514
  H      -1.821602     -1.748699     -0.038028
  H      -0.005490     -0.504740      1.642645
  H       0.815503     -1.735519      0.607465
  H       3.144232      0.689515      1.134700
  H       2.489573      2.097180      0.158784
15
Coordinates from ORCA-job scan E -270.894094829799
  C      -2.018822      0.388009     -0.487207
  C      -1.295151     -0.920428     -0.498546
  C       0.390081     -0.744457      0.660040
  C       1.211220      0.293341      0.119421
  C       2.403063      1.048715      0.399929
  O       2.268989      0.138924     -0.747175
  H      -2.378430      0.642895      0.509246
  H      -2.887291      0.362045     -1.151059
  H      -1.371629      1.196550     -0.826107
  H      -0.886011     -1.205949     -1.461810
  H      -1.821619     -1.747154     -0.031903
  H      -0.011355     -0.516959      1.640493
  H       0.806973     -1.747400      0.596036
  H       3.127250      0.711146      1.136817
  H       2.462731      2.100723      0.141827
15
Coordinates from ORCA-job scan E -270.894324455483
  C      -1.985703      0.399921     -0.478220
  C      -1.296380     -0.923657     -0.496136
  C       0.393618     -0.769160      0.658564
  C       1.202651      0.265727      0.117874
  C       2.368447      1.063493      0.390142
  O       2.273790      0.120106     -0.733592
  H      -2.346300      0.655799      0.517478
  H      -2.850339      0.401598     -1.148695
  H      -1.316689      1.194832     -0.807228
  H      -0.877116     -1.215880     -1.452129
  H      -1.824887     -1.741247     -0.017728
  H      -0.021337     -0.549612      1.634289
  H       0.786794     -1.777817      0.566490
  H       3.091058      0.766826      1.145761
  H       2.402390      2.109072      0.103134
15
Coordinates from ORCA-job scan E -270.894394819321
  C      -1.976760      0.404914     -0.476283
  C      -1.298265     -0.923717     -0.493407
  C       0.396820     -0.780663      0.655295
  C       1.206499      0.252284      0.117980
  C       2.357887      1.070495      0.388521
  O       2.285616      0.112756     -0.724726
  H      -2.333598      0.665074      0.519732
  H      -2.842546      0.414756     -1.145273
  H      -1.301139      1.193528     -0.807317
  H      -0.880163     -1.220878     -1.448270
  H      -1.829487     -1.737044     -0.010961
  H      -0.021351     -0.566158      1.630597
  H       0.779114     -1.791927      0.551781
  H       3.078733      0.793650      1.153302
  H       2.378641      2.112931      0.089031
15
Coordinates from ORCA-job scan E -270.894595626712
  C      -1.953115      0.421017     -0.472177
  C      -1.305484     -0.922224     -0.483451
  C       0.408851     -0.818252      0.640623
  C       1.228520      0.206998      0.121032
  C       2.327171      1.092723      0.386499
  O       2.335727      0.090457     -0.689197
  H      -2.290564      0.699517      0.525995
  H      -2.826855      0.451942     -1.129825
  H      -1.260662      1.188734     -0.818553
  H      -0.901300     -1.237815     -1.438479
  H      -1.848054     -1.720688      0.011419
  H      -0.014503     -0.622601      1.617352
  H       0.757975     -1.836168      0.502266
  H       3.038464      0.884064      1.181362
  H       2.303828      2.122298      0.045135
15
Coordinates from ORCA-job scan E -270.894731270618
  C      -1.938879      0.431743     -0.470387
  C      -1.310560     -0.920757     -0.477729
  C       0.416670     -0.842791      0.628569
  C       1.248147      0.175623      0.125679
  C       2.307328      1.106265      0.386691
  O       2.373647      0.077219     -0.661580
  H      -2.258641      0.723889      0.529965
  H      -2.820429      0.473800     -1.116533
  H      -1.238247      1.185551     -0.831295
  H      -0.923546     -1.249201     -1.435819
  H      -1.862587     -1.708061      0.025248
  H      -0.005998     -0.660448      1.608298
  H       0.749030     -1.863197      0.471729
  H       3.009906      0.945306      1.200307
  H       2.254158      2.125058      0.016858
15
Coordinates from ORCA-job scan E -270.894888336494
  C      -1.926203      0.441000     -0.469579
  C      -1.314896     -0.919990     -0.475339
  C       0.421537     -0.863192      0.617762
  C       1.267800      0.147097      0.132863
  C       2.289955      1.116303      0.387878
  O       2.404841      0.068497     -0.638614
  H      -2.228020      0.744435      0.533161
  H      -2.815785      0.490873     -1.103740
  H      -1.220555      1.183461     -0.844293
  H      -0.949285     -1.258743     -1.438650
  H      -1.877383     -1.696228      0.034126
  H       0.003584     -0.690888      1.601769
  H       0.748113     -1.884348      0.453531
  H       2.987097      0.996556      1.213366
  H       2.209199      2.125168     -0.004241
15
Coordinates from ORCA-job scan E -270.895029946214
  C      -1.908373      0.450076     -0.468125
  C      -1.317752     -0.920688     -0.476085
  C       0.422930     -0.882758      0.611061
  C       1.281872      0.120094      0.143065
  C       2.268859      1.124532      0.387519
  O       2.421575      0.063786     -0.623335
  H      -2.196143      0.760539      0.536617
  H      -2.803009      0.509886     -1.094275
  H      -1.196063      1.182117     -0.850641
  H      -0.971337     -1.266894     -1.444083
  H      -1.891224     -1.685361      0.039045
  H       0.010597     -0.717169      1.598961
  H       0.750932     -1.903510      0.445350
  H       2.967006      1.041216      1.216739
  H       2.160128      2.124134     -0.021812
15
Coordinates from ORCA-job scan E -270.895153407380
  C      -1.884549      0.459536     -0.465102
  C      -1.318643     -0.921770     -0.477544
  C       0.422698     -0.903679      0.609055
  C       1.289894      0.094161      0.156500
  C       2.242620      1.132670      0.384128
  O       2.425860      0.060706     -0.613112
  H      -2.163733      0.773199      0.541017
  H      -2.780121      0.533900     -1.088610
  H      -1.161916      1.180856     -0.848605
  H      -0.983982     -1.273099     -1.447800
  H      -1.902557     -1.675393      0.041970
  H       0.012265     -0.744012      1.598829
  H       0.751112     -1.923715      0.439091
  H       2.946286      1.084572      1.211489
  H       2.104764      2.122067     -0.041307
15
Coordinates from ORCA-job scan E -270.895296922092
  C      -1.859102      0.467976     -0.462011
  C      -1.317051     -0.922774     -0.479729
  C       0.420453     -0.923334      0.613146
  C       1.293570      0.071383      0.173815
  C       2.216526      1.139259      0.379218
  O       2.414880      0.061764     -0.613550
  H      -2.136036      0.781353      0.544716
  H      -2.751720      0.558216     -1.088029
  H      -1.124734      1.179960     -0.840548
  H      -0.985544     -1.276318     -1.450028
  H      -1.911055     -1.667472      0.040638
  H       0.008349     -0.766750      1.602653
  H       0.749035     -1.942658      0.439293
  H       2.934544      1.119215      1.195263
  H       2.047882      2.120180     -0.054845
15
Coordinates from ORCA-job scan E -270.895464723108
  C      -1.836401      0.475045     -0.459009
  C      -1.312859     -0.922399     -0.481562
  C       0.417965     -0.940465      0.621714
  C       1.295668      0.052072      0.194458
  C       2.193939      1.144352      0.373255
  O       2.395348      0.063557     -0.619428
  H      -2.116243      0.785717      0.547682
  H      -2.723549      0.580317     -1.090756
  H      -1.091071      1.180137     -0.828911
  H      -0.975915     -1.275479     -1.449834
  H      -1.915587     -1.661999      0.035371
  H       0.000200     -0.785734      1.608791
  H       0.742414     -1.959771      0.441277
  H       2.931071      1.147030      1.172183
  H       1.995016      2.117619     -0.065229
15
Coordinates from ORCA-job scan E -270.895728875924
  C      -1.811095      0.483284     -0.455744
  C      -1.304213     -0.919670     -0.483431
  C       0.415197     -0.960296      0.636959
  C       1.300020      0.028886      0.228048
  C       2.169185      1.149344      0.364778
  O       2.362794      0.065187     -0.629795
  H      -2.098558      0.788957      0.550326
  H      -2.689683      0.605983     -1.096548
  H      -1.053694      1.182357     -0.812431
  H      -0.952861     -1.269726     -1.447307
  H      -1.917588     -1.656790      0.023797
  H      -0.013645     -0.808743      1.619190
  H       0.729018     -1.980159      0.443878
  H       2.935937      1.179212      1.134474
  H       1.929185      2.112174     -0.076192
15
Coordinates from ORCA-job scan E -270.896073193765
  C      -1.784008      0.493004     -0.452497
  C      -1.291309     -0.914370     -0.485938
  C       0.412519     -0.981850      0.656740
  C       1.308434      0.002202      0.276732
  C       2.142915      1.153743      0.354189
  O       2.319593      0.063867     -0.638620
  H      -2.080650      0.792452      0.552851
  H      -2.653098      0.633768     -1.102727
  H      -1.015322      1.187271     -0.794248
  H      -0.921165     -1.259424     -1.444241
  H      -1.917255     -1.650749      0.006322
  H      -0.031543     -0.838181      1.632813
  H       0.712519     -2.001563      0.444860
  H       2.945769      1.218539      1.083569
  H       1.852600      2.101289     -0.089804
15
Coordinates from ORCA-job scan E -270.896377342738
  C      -1.746393      0.506093     -0.448601
  C      -1.277539     -0.909093     -0.490167
  C       0.409491     -1.007658      0.674955
  C       1.317247     -0.027907      0.336824
  C       2.106098      1.158680      0.342410
  O       2.269708      0.058596     -0.637824
  H      -2.045287      0.801787      0.557203
  H      -2.608312      0.668103     -1.103848
  H      -0.965051      1.191338     -0.779454
  H      -0.897137     -1.251876     -1.444978
  H      -1.919459     -1.638835     -0.009217
  H      -0.050393     -0.881272      1.645816
  H       0.704994     -2.023374      0.440983
  H       2.942102      1.272468      1.026944
  H       1.759928      2.082949     -0.111044
15
Coordinates from ORCA-job scan E -270.896695639980
  C      -1.711409      0.517350     -0.445106
  C      -1.278989     -0.909704     -0.491581
  C       0.409355     -1.028692      0.669726
  C       1.321917     -0.050504      0.348177
  C       2.067074      1.163747      0.338232
  O       2.274867      0.054316     -0.622839
  H      -1.993500      0.820156      0.563231
  H      -2.576140      0.695692     -1.092808
  H      -0.918981      1.185371     -0.783962
  H      -0.918995     -1.262033     -1.450641
  H      -1.931842     -1.620786      0.001773
  H      -0.048461     -0.913075      1.643200
  H       0.715797     -2.040594      0.432558
  H       2.895193      1.320517      1.023928
  H       1.694112      2.068239     -0.133888
15
Coordinates from ORCA-job scan E -270.897463635481
  C      -1.728804      0.525738     -0.454283
  C      -1.265763     -0.894287     -0.492024
  C       0.409564     -1.038395      0.685180
  C       1.363595     -0.069871      0.367741
  C       2.083350      1.156955      0.331925
  O       2.288886      0.050314     -0.632935
  H      -1.999592      0.834548      0.555269
  H      -2.608665      0.679180     -1.086946
  H      -0.957821      1.205347     -0.814477
  H      -0.902046     -1.238579     -1.453274
  H      -1.927164     -1.614450     -0.022140
  H      -0.043073     -0.925588      1.662600
  H       0.707037     -2.055852      0.457560
  H       2.922378      1.328840      1.000417
  H       1.658116      2.056098     -0.104613
15
Coordinates from ORCA-job scan E -270.898380730464
  C      -1.665520      0.556577     -0.445867
  C      -1.258231     -0.881073     -0.490782
  C       0.418336     -1.084046      0.675933
  C       1.399348     -0.133989      0.380612
  C       1.994245      1.155145      0.315939
  O       2.344440      0.033370     -0.591768
  H      -1.894665      0.879955      0.569232
  H      -2.559634      0.731834     -1.052674
  H      -0.884858      1.208161     -0.834210
  H      -0.931893     -1.238374     -1.460628
  H      -1.940853     -1.571539     -0.006850
  H      -0.025350     -0.983250      1.658591
  H       0.715937     -2.101279      0.446579
  H       2.790706      1.434399      0.999921
  H       1.497989      1.994108     -0.164026
15
Coordinates from ORCA-job scan E -270.899476715742
  C      -1.636254      0.576519     -0.435924
  C      -1.231487     -0.861039     -0.496240
  C       0.422763     -1.105690      0.694095
  C       1.423978     -0.170441      0.446651
  C       1.947572      1.145950      0.295603
  O       2.324082      0.007753     -0.569084
  H      -1.860450      0.891118      0.583270
  H      -2.533552      0.759069     -1.035951
  H      -0.857682      1.231247     -0.823040
  H      -0.890876     -1.204416     -1.466353
  H      -1.926864     -1.556601     -0.037456
  H      -0.036237     -1.024240      1.670826
  H       0.708858     -2.121017      0.443861
  H       2.749790      1.496666      0.938225
  H       1.396358      1.935121     -0.208481
15
Coordinates from ORCA-job scan E -270.900072568344
  C      -1.671469      0.583795     -0.437765
  C      -1.193378     -0.828081     -0.492647
  C       0.442111     -1.093564      0.718959
  C       1.476480     -0.213838      0.485896
  C       1.956294      1.118201      0.295888
  O       2.301759     -0.007848     -0.588360
  H      -1.907721      0.893012      0.581510
  H      -2.578862      0.730741     -1.031689
  H      -0.924336      1.271440     -0.832670
  H      -0.793768     -1.147471     -1.449198
  H      -1.878465     -1.566889     -0.084841
  H      -0.026026     -0.988732      1.687465
  H       0.644493     -2.122824      0.447311
  H       2.782206      1.484057      0.897496
  H       1.370680      1.888001     -0.197355
15
Coordinates from ORCA-job scan E -270.900132978688
  C      -1.623693      0.608524     -0.418996
  C      -1.162714     -0.810165     -0.511441
  C       0.431605     -1.122988      0.742984
  C       1.493247     -0.234241      0.567108
  C       1.895892      1.109174      0.256734
  O       2.279143     -0.047741     -0.547908
  H      -1.864111      0.891244      0.606178
  H      -2.526686      0.772407     -1.015664
  H      -0.871577      1.302155     -0.788929
  H      -0.760621     -1.102109     -1.475472
  H      -1.868355     -1.545761     -0.136148
  H      -0.053543     -1.048308      1.708183
  H       0.667539     -2.146504      0.471966
  H       2.723517      1.563803      0.792183
  H       1.240355      1.810510     -0.250780
15
Coordinates from ORCA-job scan E -270.900311327157
  C      -1.659643      0.593297     -0.420592
  C      -1.183173     -0.821482     -0.520874
  C       0.418943     -1.107854      0.729931
  C       1.497389     -0.220568      0.508168
  C       1.947649      1.115568      0.265601
  O       2.337931     -0.040973     -0.561081
  H      -1.900058      0.868554      0.605909
  H      -2.566718      0.743927     -1.014677
  H      -0.918661      1.298781     -0.788350
  H      -0.788660     -1.106387     -1.489850
  H      -1.876319     -1.563243     -0.137185
  H      -0.048611     -0.998230      1.702915
  H       0.655366     -2.143695      0.507200
  H       2.763124      1.534535      0.847598
  H       1.321439      1.847772     -0.234713
15
Coordinates from ORCA-job scan E -270.900656238672
  C      -1.685088      0.589699     -0.419339
  C      -1.170250     -0.808915     -0.518327
  C       0.428799     -1.092131      0.737112
  C       1.508841     -0.231297      0.512940
  C       1.962971      1.102984      0.268808
  O       2.324828     -0.051936     -0.573466
  H      -1.938174      0.857746      0.606768
  H      -2.592595      0.723883     -1.016419
  H      -0.958368      1.313242     -0.783755
  H      -0.744347     -1.080957     -1.477782
  H      -1.848818     -1.574709     -0.154019
  H      -0.044489     -0.965026      1.702971
  H       0.625534     -2.132812      0.503994
  H       2.785087      1.511505      0.847601
  H       1.346065      1.838724     -0.237086
15
Coordinates from ORCA-job scan E -270.900738557646
  C      -1.685729      0.591334     -0.409283
  C      -1.158815     -0.801468     -0.528722
  C       0.424129     -1.090569      0.745643
  C       1.513161     -0.237325      0.526177
  C       1.958836      1.096095      0.256635
  O       2.323542     -0.071213     -0.566378
  H      -1.951309      0.838322      0.618803
  H      -2.588697      0.726730     -1.013122
  H      -0.962699      1.328401     -0.752987
  H      -0.719099     -1.052878     -1.487386
  H      -1.834164     -1.578429     -0.183310
  H      -0.055381     -0.953603      1.707366
  H       0.620222     -2.134221      0.524906
  H       2.781171      1.521239      0.822762
  H       1.334831      1.817584     -0.261104
15
Coordinates from ORCA-job scan E -270.900904442220
  C      -1.707529      0.590574     -0.374156
  C      -1.120434     -0.770836     -0.560065
  C       0.409907     -1.075815      0.773480
  C       1.530069     -0.253888      0.559043
  C       1.962649      1.068746      0.213688
  O       2.341472     -0.140976     -0.539201
  H      -2.021601      0.759739      0.655711
  H      -2.592766      0.725226     -1.004219
  H      -1.006052      1.378180     -0.640931
  H      -0.626879     -0.944884     -1.509089
  H      -1.774025     -1.592922     -0.286560
  H      -0.090628     -0.898399      1.718334
  H       0.588807     -2.130256      0.592315
  H       2.777980      1.539718      0.752048
  H       1.329029      1.745792     -0.350397
15
Coordinates from ORCA-job scan E -270.901023599610
  C      -1.743525      0.581104     -0.339044
  C      -1.085613     -0.737459     -0.587479
  C       0.395165     -1.052093      0.798738
  C       1.542092     -0.262413      0.580964
  C       1.982528      1.039761      0.170254
  O       2.368875     -0.211563     -0.509938
  H      -2.112313      0.663240      0.683081
  H      -2.604680      0.718386     -1.001315
  H      -1.070387      1.417220     -0.516021
  H      -0.540259     -0.828059     -1.519182
  H      -1.707389     -1.604209     -0.390296
  H      -0.124278     -0.830294      1.723904
  H       0.554346     -2.115863      0.658459
  H       2.790150      1.542656      0.690313
  H       1.355285      1.679586     -0.442438
15
Coordinates from ORCA-job scan E -270.901123870173
  C      -1.768435      0.570681     -0.314355
  C      -1.066306     -0.716770     -0.600888
  C       0.385761     -1.034452      0.814695
  C       1.543040     -0.262859      0.586106
  C       1.997400      1.021311      0.137439
  O       2.393359     -0.256288     -0.488019
  H      -2.183268      0.588865      0.693185
  H      -2.603551      0.724081     -1.005801
  H      -1.109479      1.430921     -0.415920
  H      -0.489960     -0.751793     -1.517529
  H      -1.666036     -1.609017     -0.457836
  H      -0.145375     -0.781663      1.724676
  H       0.534269     -2.102788      0.701166
  H       2.795703      1.541789      0.654395
  H       1.382876      1.637981     -0.511314
15
Coordinates from ORCA-job scan E -270.901211745271
  C      -1.808876      0.551380     -0.281720
  C      -1.037652     -0.684031     -0.614370
  C       0.374695     -1.004867      0.840153
  C       1.544883     -0.259282      0.599107
  C       2.023505      0.992331      0.088923
  O       2.414641     -0.319727     -0.459826
  H      -2.295829      0.472570      0.690145
  H      -2.597798      0.737356     -1.017850
  H      -1.176112      1.437550     -0.262964
  H      -0.420365     -0.635613     -1.503651
  H      -1.601570     -1.608780     -0.558795
  H      -0.170827     -0.711340      1.728224
  H       0.508113     -2.078102      0.761848
  H       2.818188      1.531345      0.592370
  H       1.425001      1.579209     -0.601594
15
Coordinates from ORCA-job scan E -270.901251952465
  C      -1.802269      0.551920     -0.287543
  C      -1.050296     -0.698883     -0.606144
  C       0.378586     -1.009057      0.834477
  C       1.539040     -0.254123      0.587641
  C       2.022284      1.002304      0.096203
  O       2.410034     -0.301712     -0.471333
  H      -2.294145      0.490370      0.683221
  H      -2.584757      0.747320     -1.027913
  H      -1.152348      1.425967     -0.274066
  H      -0.444427     -0.670696     -1.504516
  H      -1.627594     -1.614879     -0.538040
  H      -0.161554     -0.721634      1.727786
  H       0.520404     -2.081031      0.753479
  H       2.818843      1.528496      0.610671
  H       1.428197      1.605639     -0.583923
15
Coordinates from ORCA-job scan E -270.901265887121
  C      -1.804414      0.550328     -0.285563
  C      -1.049848     -0.698804     -0.605212
  C       0.379120     -1.006681      0.835816
  C       1.540762     -0.253513      0.589810
  C       2.023347      1.001238      0.092453
  O       2.409232     -0.303663     -0.471433
  H      -2.308911      0.481759      0.678181
  H      -2.576599      0.753550     -1.034562
  H      -1.152978      1.422830     -0.256253
  H      -0.443877     -0.666790     -1.503605
  H      -1.626658     -1.615748     -0.543497
  H      -0.159699     -0.717588      1.729785
  H       0.519681     -2.079051      0.757511
  H       2.821628      1.527585      0.604204
  H       1.429211      1.604547     -0.587634
15
Coordinates from ORCA-job scan E -270.901272016988
  C      -1.805294      0.549397     -0.283515
  C      -1.048888     -0.698275     -0.605381
  C       0.379169     -1.004968      0.836801
  C       1.543007     -0.253797      0.591630
  C       2.023091      1.000158      0.089068
  O       2.409102     -0.305890     -0.471211
  H      -2.321137      0.473831      0.673546
  H      -2.567768      0.759831     -1.040463
  H      -1.152872      1.420494     -0.239053
  H      -0.443267     -0.663052     -1.503976
  H      -1.624499     -1.616176     -0.546838
  H      -0.158040     -0.714062      1.731474
  H       0.517592     -2.077871      0.761450
  H       2.821878      1.528531      0.598001
  H       1.427925      1.601852     -0.591533
15
Coordinates from ORCA-job scan E -270.901273388912
  C      -1.804847      0.549512     -0.283043
  C      -1.048444     -0.698121     -0.605226
  C       0.379338     -1.005000      0.837188
  C       1.543693     -0.254188      0.591684
  C       2.022146      1.000030      0.088076
  O       2.408803     -0.306200     -0.471764
  H      -2.325008      0.471840      0.671446
  H      -2.563406      0.762804     -1.043139
  H      -1.151688      1.419782     -0.233107
  H      -0.443036     -0.662792     -1.503933
  H      -1.623541     -1.616233     -0.545975
  H      -0.157295     -0.713738      1.732096
  H       0.516533     -2.078064      0.762070
  H       2.820744      1.529562      0.596090
  H       1.426005      1.600807     -0.592461
15
Coordinates from ORCA-job scan E -270.901273972385
  C      -1.804135      0.549889     -0.283091
  C      -1.048156     -0.698116     -0.604784
  C       0.379610     -1.005534      0.837532
  C       1.543828     -0.254485      0.591295
  C       2.021110      1.000205      0.087749
  O       2.407998     -0.305874     -0.472847
  H      -2.327127      0.471374      0.669741
  H      -2.560027      0.765045     -1.045314
  H      -1.150228      1.419432     -0.229991
  H      -0.442922     -0.663582     -1.503593
  H      -1.623086     -1.616170     -0.544022
  H      -0.156773     -0.714408      1.732567
  H       0.516236     -2.078612      0.761930
  H       2.819740      1.530311      0.595086
  H       1.423929      1.600525     -0.592257
15
Coordinates from ORCA-job scan E -270.901274072569
  C      -1.803849      0.550120     -0.283264
  C      -1.048081     -0.698120     -0.604478
  C       0.379774     -1.005880      0.837677
  C       1.543738     -0.254566      0.591139
  C       2.020708      1.000322      0.087803
  O       2.407549     -0.305593     -0.473337
  H      -2.327518      0.471638      0.669199
  H      -2.559096      0.765669     -1.046006
  H      -1.149697      1.419455     -0.229649
  H      -0.442869     -0.664108     -1.503321
  H      -1.623146     -1.616053     -0.543156
  H      -0.156641     -0.715013      1.732748
  H       0.516566     -2.078902      0.761682
  H       2.819479      1.530476      0.594849
  H       1.423081      1.600557     -0.591884
15
Coordinates from ORCA-job scan E -270.895344641601
  C      -1.842167      0.559979     -0.305743
  C      -1.081002     -0.685742     -0.609975
  C       0.430100     -1.018687      0.856090
  C       1.587605     -0.269885      0.603578
  C       2.037789      0.991938      0.104580
  O       2.433791     -0.306993     -0.474001
  H      -2.361370      0.495556      0.650334
  H      -2.601614      0.762029     -1.068141
  H      -1.179100      1.428877     -0.270159
  H      -0.473686     -0.661866     -1.486254
  H      -1.622146     -1.601557     -0.523047
  H      -0.109401     -0.735617      1.729589
  H       0.531268     -2.075934      0.750024
  H       2.837796      1.529877      0.601540
  H       1.412136      1.588026     -0.558414
15
Coordinates from ORCA-job scan E -270.896275496267
  C      -1.833000      0.558984     -0.300576
  C      -1.079191     -0.688244     -0.617063
  C       0.424650     -1.014769      0.857885
  C       1.576008     -0.265609      0.600608
  C       2.034288      0.995770      0.101352
  O       2.428146     -0.304851     -0.472458
  H      -2.348716      0.490891      0.657001
  H      -2.594967      0.767662     -1.059083
  H      -1.173755      1.425981     -0.262778
  H      -0.460962     -0.662413     -1.504576
  H      -1.629453     -1.616177     -0.526417
  H      -0.125189     -0.723790      1.741898
  H       0.529870     -2.086083      0.749856
  H       2.835649      1.531028      0.598382
  H       1.416621      1.591622     -0.564031
15
Coordinates from ORCA-job scan E -270.896386865746
  C      -1.827015      0.556134     -0.297713
  C      -1.079316     -0.692028     -0.622261
  C       0.420125     -1.011695      0.858657
  C       1.566195     -0.262011      0.597034
  C       2.033513      0.998160      0.099906
  O       2.424925     -0.303774     -0.470698
  H      -2.339392      0.485323      0.661454
  H      -2.591672      0.769907     -1.052527
  H      -1.168525      1.422854     -0.258871
  H      -0.460377     -0.666199     -1.512221
  H      -1.633435     -1.620343     -0.530636
  H      -0.131709     -0.717608      1.743377
  H       0.529057     -2.085112      0.752301
  H       2.834792      1.529743      0.600954
  H       1.422831      1.596650     -0.568755
15
Coordinates from ORCA-job scan E -270.896483132497
  C      -1.819821      0.550950     -0.294399
  C      -1.081602     -0.699467     -0.628840
  C       0.413852     -1.007153      0.858633
  C       1.551532     -0.255304      0.589262
  C       2.035032      1.002263      0.098763
  O       2.421996     -0.301153     -0.468601
  H      -2.326806      0.477599      0.667489
  H      -2.588833      0.772572     -1.043112
  H      -1.160460      1.416836     -0.255162
  H      -0.464572     -0.675256     -1.521128
  H      -1.641252     -1.625207     -0.535451
  H      -0.139648     -0.709270      1.741935
  H       0.528969     -2.081076      0.755928
  H       2.834997      1.526415      0.609740
  H       1.436614      1.607249     -0.575056
15
Coordinates from ORCA-job scan E -270.896536895022
  C      -1.817512      0.547005     -0.293510
  C      -1.086116     -0.706439     -0.631170
  C       0.410871     -1.004392      0.856742
  C       1.542158     -0.249277      0.580994
  C       2.039357      1.006102      0.099755
  O       2.422532     -0.297519     -0.468162
  H      -2.320402      0.474880      0.670697
  H      -2.589644      0.773427     -1.037807
  H      -1.155443      1.411222     -0.256324
  H      -0.472652     -0.685584     -1.525098
  H      -1.649923     -1.628576     -0.534969
  H      -0.143286     -0.704744      1.737949
  H       0.530850     -2.077324      0.756710
  H       2.837339      1.522746      0.621576
  H       1.451872      1.618473     -0.577381
15
Coordinates from ORCA-job scan E -270.896583139287
  C      -1.819270      0.543619     -0.294754
  C      -1.094098     -0.714475     -0.629837
  C       0.410594     -1.002598      0.852228
  C       1.535471     -0.242659      0.570290
  C       2.047227      1.010885      0.103570
  O       2.426485     -0.291727     -0.469133
  H      -2.317931      0.477296      0.672184
  H      -2.594267      0.772178     -1.035355
  H      -1.152540      1.404922     -0.263429
  H      -0.486165     -0.699764     -1.526234
  H      -1.662017     -1.632255     -0.527976
  H      -0.143853     -0.702703      1.731439
  H       0.535306     -2.073909      0.753679
  H       2.842481      1.517843      0.639184
  H       1.472574      1.633347     -0.575855
15
Coordinates from ORCA-job scan E -270.896609636177
  C      -1.823769      0.542162     -0.297507
  C      -1.102504     -0.720414     -0.625733
  C       0.412905     -1.002197      0.846600
  C       1.533513     -0.238236      0.561301
  C       2.055154      1.015029      0.109135
  O       2.432073     -0.285800     -0.470928
  H      -2.318947      0.484290      0.671857
  H      -2.600773      0.768719     -1.036346
  H      -1.152677      1.400564     -0.274471
  H      -0.499908     -0.712675     -1.525204
  H      -1.672931     -1.635338     -0.516382
  H      -0.141452     -0.703676      1.725499
  H       0.540276     -2.072492      0.747184
  H       2.848357      1.513615      0.655772
  H       1.490680      1.646449     -0.570777
15
Coordinates from ORCA-job scan E -270.896622896192
  C      -1.828119      0.542037     -0.300488
  C      -1.109509     -0.724135     -0.621433
  C       0.415822     -1.002387      0.841294
  C       1.534046     -0.236123      0.554983
  C       2.061151      1.018260      0.114992
  O       2.437076     -0.280661     -0.472789
  H      -2.319978      0.492742      0.671079
  H      -2.606950      0.764183     -1.038499
  H      -1.154100      1.398325     -0.286451
  H      -0.511426     -0.723083     -1.524168
  H      -1.680890     -1.637739     -0.503811
  H      -0.138067     -0.705955      1.721315
  H       0.543977     -2.072418      0.739464
  H       2.853431      1.510529      0.668744
  H       1.503534      1.656423     -0.564231
15
Coordinates from ORCA-job scan E -270.896628863473
  C      -1.830533      0.542483     -0.302839
  C      -1.113971     -0.726093     -0.618696
  C       0.417888     -1.002625      0.837520
  C       1.535185     -0.235741      0.551483
  C       2.064414      1.020408      0.119759
  O       2.439939     -0.276885     -0.474395
  H      -2.319145      0.499818      0.670667
  H      -2.611340      0.760042     -1.040049
  H      -1.155350      1.397814     -0.296645
  H      -0.519307     -0.730455     -1.524131
  H      -1.685189     -1.639258     -0.493628
  H      -0.135186     -0.708145      1.719146
  H       0.545583     -2.072752      0.732973
  H       2.856827      1.508581      0.676921
  H       1.510184      1.662810     -0.558083
15
Coordinates from ORCA-job scan E -270.896631986910
  C      -1.831206      0.542980     -0.304687
  C      -1.116614     -0.727330     -0.617407
  C       0.419003     -1.002773      0.835053
  C       1.536042     -0.236051      0.549545
  C       2.065886      1.021912      0.123498
  O       2.440889     -0.273887     -0.475984
  H      -2.316428      0.505288      0.670690
  H      -2.614319      0.756703     -1.040619
  H      -1.155860      1.398087     -0.305234
  H      -0.524765     -0.736201     -1.524940
  H      -1.687271     -1.640166     -0.485784
  H      -0.133031     -0.709892      1.718177
  H       0.545761     -2.072997      0.728014
  H       2.859010      1.507132      0.682154
  H       1.512901      1.667195     -0.552475
15
Coordinates from ORCA-job scan E -270.896633728974
  C      -1.830680      0.543329     -0.306243
  C      -1.118117     -0.728421     -0.617054
  C       0.419424     -1.002903      0.833552
  C       1.536354     -0.236415      0.548313
  C       2.066337      1.023071      0.126382
  O       2.440428     -0.271245     -0.477725
  H      -2.312448      0.509458      0.670960
  H      -2.616316      0.754323     -1.040363
  H      -1.155474      1.398469     -0.312544
  H      -0.528688     -0.741162     -1.526160
  H      -1.688379     -1.640674     -0.479830
  H      -0.131515     -0.711239      1.717829
  H       0.545278     -2.073078      0.724466
  H       2.860383      1.505843      0.685795
  H       1.513411      1.670644     -0.547376
15
Coordinates from ORCA-job scan E -270.896634579037
  C      -1.829619      0.543501     -0.307412
  C      -1.118787     -0.729392     -0.617120
  C       0.419452     -1.003122      0.832887
  C       1.536173     -0.236538      0.547522
  C       2.066180      1.023874      0.128170
  O       2.439252     -0.269162     -0.479336
  H      -2.308632      0.512192      0.671228
  H      -2.617343      0.753196     -1.039737
  H      -1.154363      1.398570     -0.317720
  H      -0.531033     -0.744911     -1.527149
  H      -1.689162     -1.640858     -0.476148
  H      -0.130651     -0.712194      1.717823
  H       0.544826     -2.073138      0.722491
  H       2.860952      1.504864      0.688064
  H       1.512755      1.673116     -0.543562
15
Coordinates from ORCA-job scan E -270.896634983643
  C      -1.828583      0.543636     -0.308296
  C      -1.119140     -0.730233     -0.617108
  C       0.419455     -1.003503      0.832609
  C       1.535809     -0.236472      0.546940
  C       2.065780      1.024455      0.129227
  O       2.438074     -0.267538     -0.480662
  H      -2.305677      0.514180      0.671352
  H      -2.617747      0.752893     -1.039215
  H      -1.152923      1.398378     -0.321256
  H      -0.532396     -0.747675     -1.527631
  H      -1.690079     -1.640878     -0.473919
  H      -0.130109     -0.713058      1.717918
  H       0.544771     -2.073343      0.721408
  H       2.860971      1.504267      0.689542
  H       1.511792      1.674891     -0.540907
15
Coordinates from ORCA-job scan E -270.892392962410
  C      -1.855238      0.545712     -0.324654
  C      -1.158536     -0.724686     -0.635870
  C       0.458733     -1.005350      0.844702
  C       1.572508     -0.243799      0.560609
  C       2.083439      1.020439      0.143655
  O       2.471874     -0.269052     -0.467905
  H      -2.305952      0.508703      0.667691
  H      -2.657474      0.759813     -1.040073
  H      -1.165156      1.394359     -0.352608
  H      -0.573389     -0.756306     -1.522741
  H      -1.693605     -1.630300     -0.466538
  H      -0.110321     -0.712730      1.702003
  H       0.548454     -2.060515      0.714307
  H       2.873888      1.511624      0.700963
  H       1.510772      1.662088     -0.523539
15
Coordinates from ORCA-job scan E -270.893289902756
  C      -1.850977      0.548544     -0.321216
  C      -1.154761     -0.726018     -0.637900
  C       0.458233     -1.006024      0.847452
  C       1.563840     -0.242661      0.557974
  C       2.079293      1.022664      0.141286
  O       2.466246     -0.267205     -0.468149
  H      -2.305280      0.517689      0.669302
  H      -2.653190      0.764411     -1.036291
  H      -1.166183      1.396344     -0.348734
  H      -0.556302     -0.756005     -1.537754
  H      -1.699116     -1.644594     -0.462750
  H      -0.116147     -0.709201      1.712676
  H       0.551769     -2.074062      0.712098
  H       2.871277      1.511914      0.697536
  H       1.511298      1.664204     -0.525529
15
Coordinates from ORCA-job scan E -270.893390563701
  C      -1.847879      0.547879     -0.319928
  C      -1.153265     -0.728196     -0.638879
  C       0.457408     -1.006530      0.849305
  C       1.556337     -0.241184      0.554417
  C       2.077831      1.023921      0.140198
  O       2.462352     -0.265977     -0.468625
  H      -2.304180      0.520996      0.669693
  H      -2.650489      0.764257     -1.034684
  H      -1.164837      1.396240     -0.347884
  H      -0.553391     -0.757164     -1.540930
  H      -1.701512     -1.647078     -0.462592
  H      -0.116864     -0.709089      1.716130
  H       0.554101     -2.076043      0.711819
  H       2.870224      1.509698      0.698835
  H       1.514163      1.668269     -0.526874
15
Coordinates from ORCA-job scan E -270.893497920722
  C      -1.842928      0.545215     -0.318739
  C      -1.152960     -0.733617     -0.639351
  C       0.455885     -1.006950      0.851734
  C       1.542710     -0.236565      0.545769
  C       2.077632      1.026862      0.139258
  O       2.456128     -0.262390     -0.470726
  H      -2.301633      0.525670      0.669951
  H      -2.646449      0.762538     -1.032790
  H      -1.160804      1.394021     -0.348751
  H      -0.554003     -0.762212     -1.543453
  H      -1.707889     -1.649490     -0.461121
  H      -0.117245     -0.709678      1.719975
  H       0.558347     -2.076379      0.710469
  H       2.870009      1.503894      0.705446
  H       1.523198      1.679081     -0.527670
15
Coordinates from ORCA-job scan E -270.893566403350
  C      -1.840055      0.542158     -0.319235
  C      -1.156221     -0.740090     -0.637972
  C       0.455056     -1.006611      0.851720
  C       1.532181     -0.230470      0.536254
  C       2.080390      1.030542      0.140453
  O       2.452484     -0.257168     -0.473902
  H      -2.298548      0.529601      0.669801
  H      -2.644629      0.760477     -1.032213
  H      -1.155985      1.389625     -0.353269
  H      -0.560678     -0.771396     -1.543326
  H      -1.716669     -1.651234     -0.456504
  H      -0.117046     -0.710782      1.720400
  H       0.562202     -2.074472      0.707024
  H       2.871997      1.497640      0.716144
  H       1.535519      1.692180     -0.525374
15
Coordinates from ORCA-job scan E -270.893629428339
  C      -1.838957      0.538675     -0.321756
  C      -1.164536     -0.749355     -0.634216
  C       0.455226     -1.005349      0.848101
  C       1.522833     -0.221718      0.523778
  C       2.086668      1.036204      0.145038
  O       2.451413     -0.248503     -0.478462
  H      -2.293521      0.535413      0.669363
  H      -2.645360      0.758034     -1.032519
  H      -1.149503      1.381984     -0.364050
  H      -0.575298     -0.788604     -1.541543
  H      -1.730659     -1.653967     -0.445566
  H      -0.116169     -0.712699      1.717029
  H       0.566993     -2.070779      0.699230
  H       2.876486      1.489923      0.734079
  H       1.554382      1.710743     -0.518505
15
Coordinates from ORCA-job scan E -270.893671705367
  C      -1.840062      0.536591     -0.325634
  C      -1.175350     -0.758181     -0.629342
  C       0.456738     -1.003757      0.841171
  C       1.518343     -0.214106      0.512672
  C       2.093838      1.042114      0.152319
  O       2.454138     -0.238903     -0.482387
  H      -2.287351      0.542954      0.668893
  H      -2.649045      0.756060     -1.033226
  H      -1.143837      1.374003     -0.379066
  H      -0.593175     -0.809246     -1.539559
  H      -1.745184     -1.657274     -0.430092
  H      -0.114592     -0.714957      1.710630
  H       0.571303     -2.067442      0.688605
  H       2.881405      1.483912      0.753608
  H       1.572829      1.728231     -0.508592
15
Coordinates from ORCA-job scan E -270.893703391107
  C      -1.842144      0.535824     -0.330690
  C      -1.187830     -0.766761     -0.623767
  C       0.459402     -1.002350      0.831413
  C       1.516901     -0.208043      0.502115
  C       2.100934      1.048439      0.162255
  O       2.459570     -0.227924     -0.485811
  H      -2.278961      0.553894      0.668368
  H      -2.655135      0.753816     -1.033711
  H      -1.138764      1.366134     -0.399148
  H      -0.613884     -0.833514     -1.538135
  H      -1.759997     -1.660901     -0.409472
  H      -0.112028     -0.717947      1.702072
  H       0.575564     -2.065078      0.675025
  H       2.886043      1.479038      0.774938
  H       1.590327      1.745372     -0.495451
15
Coordinates from ORCA-job scan E -270.893723205217
  C      -1.843547      0.536277     -0.335763
  C      -1.198394     -0.773362     -0.619061
  C       0.462381     -1.002002      0.821764
  C       1.517365     -0.204994      0.493820
  C       2.105686      1.053820      0.172412
  O       2.465132     -0.217599     -0.488475
  H      -2.269230      0.566868      0.667747
  H      -2.661697      0.750978     -1.033441
  H      -1.135084      1.360508     -0.420595
  H      -0.632670     -0.855830     -1.537904
  H      -1.771454     -1.663405     -0.388145
  H      -0.108767     -0.721512      1.694163
  H       0.579049     -2.064480      0.661735
  H       2.888974      1.475654      0.793455
  H       1.602256      1.759081     -0.481710
15
Coordinates from ORCA-job scan E -270.893735161071
  C      -1.843310      0.537375     -0.340303
  C      -1.205620     -0.777804     -0.615763
  C       0.465037     -1.002991      0.814139
  C       1.518326     -0.204482      0.487981
  C       2.107572      1.057812      0.181210
  O       2.468852     -0.208728     -0.490839
  H      -2.258837      0.580291      0.666958
  H      -2.667238      0.747586     -1.032416
  H      -1.132403      1.357472     -0.441000
  H      -0.647626     -0.873609     -1.538661
  H      -1.778743     -1.664165     -0.369035
  H      -0.105165     -0.725605      1.688484
  H       0.581578     -2.065395      0.650625
  H       2.889977      1.473284      0.807521
  H       1.607598      1.768958     -0.468901
15
Coordinates from ORCA-job scan E -270.893742887874
  C      -1.841336      0.538682     -0.344441
  C      -1.210028     -0.780840     -0.613509
  C       0.467196     -1.005124      0.808828
  C       1.518952     -0.205229      0.483935
  C       2.107201      1.060742      0.188449
  O       2.470024     -0.200915     -0.493557
  H      -2.247805      0.593448      0.665914
  H      -2.671282      0.743964     -1.030925
  H      -1.129815      1.356148     -0.460098
  H      -0.659321     -0.887431     -1.539868
  H      -1.783086     -1.663413     -0.352536
  H      -0.101442     -0.730364      1.685198
  H       0.583413     -2.067256      0.641694
  H       2.889601      1.471275      0.817883
  H       1.607727      1.776312     -0.456965
15
Coordinates from ORCA-job scan E -270.893747811705
  C      -1.838117      0.539907     -0.348077
  C      -1.212264     -0.782997     -0.611933
  C       0.468730     -1.007868      0.805853
  C       1.518833     -0.206126      0.481370
  C       2.105349      1.062830      0.193828
  O       2.468628     -0.194273     -0.496743
  H      -2.236994      0.604995      0.664707
  H      -2.673515      0.740887     -1.029423
  H      -1.126783      1.355619     -0.476612
  H      -0.667815     -0.897580     -1.540924
  H      -1.785659     -1.661768     -0.339582
  H      -0.098019     -0.735515      1.684165
  H       0.584778     -2.069404      0.635025
  H       2.888444      1.469456      0.824855
  H       1.604402      1.781839     -0.446509
15
Coordinates from ORCA-job scan E -270.893750668152
  C      -1.834692      0.540891     -0.350951
  C      -1.213222     -0.784619     -0.610710
  C       0.469638     -1.010443      0.804709
  C       1.518041     -0.206456      0.480021
  C       2.103036      1.064277      0.197252
  O       2.465662     -0.189181     -0.499915
  H      -2.227873      0.613585      0.663587
  H      -2.674075      0.739108     -1.028377
  H      -1.123328      1.355097     -0.488949
  H      -0.673204     -0.904495     -1.541344
  H      -1.787577     -1.660101     -0.330913
  H      -0.095380     -0.740387      1.684701
  H       0.585890     -2.071205      0.630494
  H       2.887137      1.468039      0.828865
  H       1.599944      1.785889     -0.438469
15
Coordinates from ORCA-job scan E -270.893752454410
  C      -1.831505      0.541799     -0.353426
  C      -1.214081     -0.786205     -0.609397
  C       0.470291     -1.012669      0.804120
  C       1.516946     -0.206198      0.479199
  C       2.100782      1.065588      0.199803
  O       2.462308     -0.184835     -0.502887
  H      -2.219858      0.620480      0.662566
  H      -2.673790      0.738442     -1.027765
  H      -1.119357      1.354069     -0.498905
  H      -0.677249     -0.910438     -1.541088
  H      -1.789949     -1.658769     -0.324453
  H      -0.093255     -0.745161      1.685724
  H       0.587111     -2.072641      0.626663
  H       2.885898      1.467069      0.831647
  H       1.595705      1.789470     -0.431799
15
Coordinates from ORCA-job scan E -270.893754019991
  C      -1.828131      0.542925     -0.356028
  C      -1.215352     -0.788060     -0.607707
  C       0.470987     -1.014967      0.803391
  C       1.515694     -0.205656      0.478574
  C       2.098257      1.067135      0.202419
  O       2.458697     -0.180217     -0.505876
  H      -2.211292      0.627681      0.661477
  H      -2.673050      0.738504     -1.027341
  H      -1.114380      1.352402     -0.509061
  H      -0.681319     -0.917244     -1.540243
  H      -1.793366     -1.657533     -0.318073
  H      -0.091093     -0.750765      1.686874
  H       0.588751     -2.074090      0.622272
  H       2.884428      1.466581      0.834300
  H       1.591168      1.793306     -0.424979
15
Coordinates from ORCA-job scan E -270.893755657034
  C      -1.824018      0.544546     -0.359173
  C      -1.217346     -0.790394     -0.605379
  C       0.471943     -1.017799      0.802106
  C       1.514330     -0.205061      0.478034
  C       2.094985      1.069204      0.205731
  O       2.454691     -0.174509     -0.509072
  H      -2.200674      0.636843      0.660119
  H      -2.671914      0.739103     -1.026909
  H      -1.107778      1.349962     -0.521437
  H      -0.686320     -0.926293     -1.538719
  H      -1.798373     -1.656041     -0.310266
  H      -0.088467     -0.758227      1.688043
  H       0.591139     -2.075927      0.616332
  H       2.882308      1.466736      0.837440
  H       1.585492      1.797856     -0.416852
15
Coordinates from ORCA-job scan E -270.893757009906
  C      -1.820148      0.546301     -0.362015
  C      -1.219525     -0.792497     -0.603037
  C       0.472971     -1.020563      0.800484
  C       1.513358     -0.204791      0.477769
  C       2.091708      1.071251      0.208932
  O       2.451563     -0.169191     -0.511424
  H      -2.190717      0.645938      0.658808
  H      -2.670721      0.739913     -1.026496
  H      -1.101414      1.347578     -0.533007
  H      -0.690998     -0.935270     -1.536903
  H      -1.803643     -1.654474     -0.302835
  H      -0.086028     -0.765806      1.688788
  H       0.593770     -2.077801      0.610260
  H       2.879894      1.467681      0.840279
  H       1.579928      1.801731     -0.409602
15
Coordinates from ORCA-job scan E -270.893757810284
  C      -1.817615      0.547610     -0.363752
  C      -1.221145     -0.793737     -0.601410
  C       0.473787     -1.022521      0.799051
  C       1.513038     -0.204921      0.477745
  C       2.089457      1.072643      0.211089
  O       2.450210     -0.165796     -0.512321
  H      -2.184376      0.652413      0.657912
  H      -2.669950      0.740396     -1.026172
  H      -1.097394      1.346183     -0.540591
  H      -0.694092     -0.941414     -1.535458
  H      -1.807447     -1.653184     -0.297747
  H      -0.084487     -0.771232      1.688868
  H       0.595907     -2.079194      0.605903
  H       2.877928      1.468901      0.842171
  H       1.576176      1.803853     -0.405288
15
Coordinates from ORCA-job scan E -270.893758133166
  C      -1.816597      0.548192     -0.364388
  C      -1.221919     -0.794154     -0.600684
  C       0.474244     -1.023447      0.798202
  C       1.513100     -0.205130      0.477730
  C       2.088569      1.073237      0.212014
  O       2.450201     -0.164460     -0.512242
  H      -2.182007      0.655449      0.657499
  H      -2.669741      0.740380     -1.025980
  H      -1.096043      1.345856     -0.543789
  H      -0.695507     -0.944041     -1.534748
  H      -1.809178     -1.652412     -0.295354
  H      -0.083929     -0.773726      1.688533
  H       0.597154     -2.079873      0.603887
  H       2.876891      1.469644      0.843165
  H       1.574760      1.804484     -0.403845
15
Coordinates from ORCA-job scan E -270.891483367176
  C      -1.842281      0.550180     -0.380010
  C      -1.260384     -0.789244     -0.617292
  C       0.513945     -1.026168      0.810053
  C       1.549844     -0.214139      0.488487
  C       2.103482      1.069045      0.224643
  O       2.485343     -0.164845     -0.500790
  H      -2.183526      0.647553      0.651954
  H      -2.704563      0.751053     -1.027296
  H      -1.108602      1.340742     -0.570266
  H      -0.731636     -0.951368     -1.525341
  H      -1.811025     -1.641301     -0.291805
  H      -0.063233     -0.772021      1.673284
  H       0.598128     -2.068606      0.600238
  H       2.885796      1.479121      0.854712
  H       1.568711      1.789999     -0.390569
15
Coordinates from ORCA-job scan E -270.892269563669
  C      -1.838226      0.553028     -0.376975
  C      -1.257780     -0.790675     -0.618771
  C       0.513816     -1.027035      0.812058
  C       1.543287     -0.213244      0.487739
  C       2.100339      1.071596      0.222972
  O       2.479810     -0.163070     -0.500597
  H      -2.183009      0.657190      0.652585
  H      -2.700083      0.755516     -1.024395
  H      -1.110052      1.342195     -0.566803
  H      -0.716689     -0.953563     -1.539727
  H      -1.816846     -1.653936     -0.283968
  H      -0.070088     -0.769652      1.681758
  H       0.600997     -2.080560      0.594884
  H       2.884613      1.480275      0.850834
  H       1.569909      1.791934     -0.391592
15
Coordinates from ORCA-job scan E -270.892333139413
  C      -1.835664      0.552400     -0.375487
  C      -1.256325     -0.792251     -0.619630
  C       0.513241     -1.027618      0.813873
  C       1.537894     -0.212201      0.486539
  C       2.099239      1.072518      0.221768
  O       2.476178     -0.162795     -0.500239
  H      -2.182992      0.659942      0.652738
  H      -2.697519      0.755142     -1.023154
  H      -1.109496      1.342433     -0.565326
  H      -0.713817     -0.953578     -1.542448
  H      -1.818166     -1.655710     -0.283476
  H      -0.071772     -0.769752      1.683993
  H       0.602902     -2.081866      0.593634
  H       2.884143      1.478893      0.850243
  H       1.572151      1.794445     -0.393027
15
Coordinates from ORCA-job scan E -270.892392859757
  C      -1.831721      0.550212     -0.373548
  C      -1.254825     -0.795380     -0.620387
  C       0.512065     -1.028128      0.816838
  C       1.528612     -0.208959      0.483278
  C       2.098686      1.074039      0.219792
  O       2.470626     -0.162001     -0.500243
  H      -2.182790      0.662505      0.652856
  H      -2.693548      0.753489     -1.021745
  H      -1.107456      1.341685     -0.563563
  H      -0.712408     -0.953961     -1.544627
  H      -1.820754     -1.656838     -0.283370
  H      -0.074020     -0.770325      1.686562
  H       0.605974     -2.081598      0.591855
  H       2.883833      1.475150      0.851339
  H       1.577723      1.800110     -0.395037
15
Coordinates from ORCA-job scan E -270.892430046299
  C      -1.829088      0.547734     -0.372703
  C      -1.255130     -0.798725     -0.620047
  C       0.511109     -1.027838      0.818562
  C       1.520857     -0.204442      0.478988
  C       2.099704      1.075640      0.218686
  O       2.466874     -0.160438     -0.501042
  H      -2.182078      0.663258      0.652747
  H      -2.690751      0.751993     -1.021272
  H      -1.104799      1.339383     -0.563221
  H      -0.714521     -0.956049     -1.544873
  H      -1.824244     -1.657256     -0.282592
  H      -0.075621     -0.770964      1.687576
  H       0.608611     -2.079734      0.589922
  H       2.884208      1.470780      0.854913
  H       1.584868      1.806659     -0.395645
15
Coordinates from ORCA-job scan E -270.892463046819
  C      -1.827691      0.545047     -0.373034
  C      -1.257848     -0.803010     -0.618390
  C       0.510537     -1.026556      0.818458
  C       1.513794     -0.198178      0.472911
  C       2.102457      1.077852      0.219041
  O       2.464762     -0.157377     -0.502727
  H      -2.180401      0.663290      0.652330
  H      -2.689120      0.750998     -1.021597
  H      -1.101293      1.334939     -0.565008
  H      -0.720644     -0.961608     -1.543768
  H      -1.829768     -1.657940     -0.279682
  H      -0.076684     -0.771584      1.686848
  H       0.611396     -2.076583      0.586819
  H       2.885462      1.465394      0.861972
  H       1.595040      1.815316     -0.394172
15
Coordinates from ORCA-job scan E -270.892488783487
  C      -1.828015      0.543062     -0.374624
  C      -1.262853     -0.807489     -0.615677
  C       0.510741     -1.024568      0.815731
  C       1.509275     -0.192009      0.466181
  C       2.106271      1.080480      0.221557
  O       2.465206     -0.152950     -0.504847
  H      -2.177759      0.663773      0.651559
  H      -2.689376      0.750902     -1.022492
  H      -1.097880      1.329156     -0.569452
  H      -0.729774     -0.970732     -1.541885
  H      -1.836546     -1.659237     -0.273956
  H      -0.076720     -0.771921      1.684079
  H       0.613808     -2.073374      0.582521
  H       2.887403      1.460434      0.871486
  H       1.606216      1.824471     -0.390180
15
Coordinates from ORCA-job scan E -270.892509857646
  C      -1.829507      0.541799     -0.377238
  C      -1.269752     -0.812221     -0.612161
  C       0.511756     -1.022295      0.810438
  C       1.506871     -0.186618      0.458748
  C       2.110612      1.083641      0.226366
  O       2.467792     -0.146918     -0.507263
  H      -2.173990      0.666101      0.650321
  H      -2.691288      0.751188     -1.023586
  H      -1.094779      1.322435     -0.576993
  H      -0.741378     -0.983463     -1.539613
  H      -1.844380     -1.661043     -0.264824
  H      -0.075640     -0.772035      1.679414
  H       0.615961     -2.070687      0.576665
  H       2.889775      1.455915      0.883185
  H       1.617945      1.834202     -0.383459
15
Coordinates from ORCA-job scan E -270.892524056528
  C      -1.831058      0.541331     -0.380061
  C      -1.276377     -0.816186     -0.608862
  C       0.513292     -1.020765      0.804264
  C       1.506449     -0.183591      0.452139
  C       2.114015      1.086602      0.232170
  O       2.471207     -0.140531     -0.509472
  H      -2.169743      0.670772      0.648752
  H      -2.694022      0.751001     -1.024301
  H      -1.092794      1.316755     -0.586311
  H      -0.752373     -0.996425     -1.537624
  H      -1.851138     -1.662441     -0.254133
  H      -0.073638     -0.772121      1.674283
  H       0.617468     -2.069414      0.570415
  H       2.891724      1.452540      0.894230
  H       1.626985      1.842474     -0.375489
15
Coordinates from ORCA-job scan E -270.892533089148
  C      -1.831793      0.541314     -0.382684
  C      -1.281520     -0.819140     -0.606201
  C       0.514999     -1.020412      0.798683
  C       1.507056     -0.182760      0.446845
  C       2.115944      1.088987      0.237820
  O       2.474099     -0.134502     -0.511476
  H      -2.165215      0.677298      0.646945
  H      -2.696762      0.749813     -1.024432
  H      -1.091852      1.312875     -0.596457
  H      -0.761447     -1.007549     -1.536096
  H      -1.855960     -1.662785     -0.243327
  H      -0.071057     -0.772530      1.669810
  H       0.618376     -2.069427      0.564474
  H       2.892859      1.449977      0.903406
  H       1.632272      1.848840     -0.367309
15
Coordinates from ORCA-job scan E -270.892538520454
  C      -1.831408      0.541476     -0.384941
  C      -1.284656     -0.821054     -0.604292
  C       0.516545     -1.021163      0.794751
  C       1.507848     -0.183250      0.443181
  C       2.116386      1.090597      0.242386
  O       2.475544     -0.129437     -0.513352
  H      -2.160570      0.684338      0.645096
  H      -2.698904      0.747836     -1.024065
  H      -1.091515      1.310834     -0.606298
  H      -0.768017     -1.015590     -1.535035
  H      -1.858656     -1.661971     -0.233842
  H      -0.068386     -0.773530      1.666832
  H       0.618840     -2.070228      0.559443
  H       2.893141      1.447901      0.910025
  H       1.633807      1.853241     -0.359888
15
Coordinates from ORCA-job scan E -270.892541674436
  C      -1.830149      0.541718     -0.386957
  C      -1.286196     -0.822237     -0.602902
  C       0.517779     -1.022570      0.792531
  C       1.508306     -0.184025      0.440955
  C       2.115788      1.091591      0.245720
  O       2.475397     -0.125360     -0.515246
  H      -2.155719      0.690823      0.643344
  H      -2.700310      0.745719     -1.023451
  H      -1.091176      1.309927     -0.615345
  H      -0.772601     -1.020988     -1.534297
  H      -1.859868     -1.660430     -0.226103
  H      -0.065959     -0.775245      1.665440
  H       0.619121     -2.071267      0.555355
  H       2.892870      1.446063      0.914413
  H       1.632714      1.856280     -0.353456
15
Coordinates from ORCA-job scan E -270.892543396747
  C      -1.828541      0.542042     -0.388790
  C      -1.286841     -0.823014     -0.601810
  C       0.518646     -1.024071      0.791561
  C       1.508244     -0.184409      0.439832
  C       2.114705      1.092232      0.248007
  O       2.474088     -0.122186     -0.517089
  H      -2.150819      0.696020      0.641864
  H      -2.701071      0.744167     -1.022837
  H      -1.090417      1.309368     -0.623098
  H      -0.775860     -1.024697     -1.533759
  H      -1.860420     -1.658819     -0.220238
  H      -0.064024     -0.777531      1.665274
  H       0.619446     -2.072146      0.552120
  H       2.892405      1.444517      0.917125
  H       1.630457      1.858526     -0.348161
15
Coordinates from ORCA-job scan E -270.892544576633
  C      -1.826715      0.542533     -0.390806
  C      -1.287431     -0.823815     -0.600636
  C       0.519388     -1.025588      0.790904
  C       1.507783     -0.184350      0.439124
  C       2.113368      1.092925      0.250143
  O       2.472099     -0.119020     -0.519065
  H      -2.145097      0.700985      0.640421
  H      -2.701577      0.743168     -1.022207
  H      -1.088984      1.308478     -0.631026
  H      -0.779144     -1.028561     -1.533200
  H      -1.861130     -1.657273     -0.214697
  H      -0.062220     -0.780559      1.665642
  H       0.619991     -2.072916      0.548810
  H       2.891880      1.443123      0.919428
  H       1.627786      1.860870     -0.342835
15
Coordinates from ORCA-job scan E -270.892545736164
  C      -1.824405      0.543318     -0.393355
  C      -1.288358     -0.824880     -0.599122
  C       0.520195     -1.027369      0.790059
  C       1.506974     -0.183984      0.438550
  C       2.111599      1.093937      0.252772
  O       2.469412     -0.115096     -0.521378
  H      -2.137441      0.706980      0.638728
  H      -2.701999      0.742570     -1.021390
  H      -1.086578      1.306905     -0.640764
  H      -0.783353     -1.033833     -1.532458
  H      -1.862434     -1.655577     -0.208149
  H      -0.060159     -0.784896      1.666280
  H       0.620898     -2.073783      0.544584
  H       2.891188      1.441848      0.922037
  H       1.624458      1.863859     -0.336393
15
Coordinates from ORCA-job scan E -270.892547192580
  C      -1.820635      0.544722     -0.397424
  C      -1.290297     -0.826739     -0.596595
  C       0.521454     -1.030130      0.788282
  C       1.505627     -0.183297      0.437711
  C       2.108696      1.095822      0.257182
  O       2.465304     -0.108606     -0.524739
  H      -2.124601      0.716831      0.636022
  H      -2.702489      0.742167     -1.019944
  H      -1.082119      1.303764     -0.656443
  H      -0.790548     -1.043208     -1.531079
  H      -1.865233     -1.652995     -0.197650
  H      -0.056963     -0.792371      1.667076
  H       0.622620     -2.075164      0.537448
  H       2.889898      1.440451      0.926296
  H       1.619282      1.868753     -0.326143
15
Coordinates from ORCA-job scan E -270.892548722700
  C      -1.816004      0.546473     -0.402023
  C      -1.292944     -0.829000     -0.593585
  C       0.522883     -1.033362      0.785798
  C       1.504093     -0.182558      0.436902
  C       2.105125      1.098249      0.262398
  O       2.460815     -0.100916     -0.528117
  H      -2.109135      0.728636      0.632839
  H      -2.702682      0.742228     -1.018044
  H      -1.076342      1.299556     -0.674579
  H      -0.799227     -1.054868     -1.529185
  H      -1.869276     -1.649933     -0.185563
  H      -0.053384     -0.801681      1.667695
  H       0.624960     -2.076835      0.528796
  H       2.887992      1.439701      0.931212
  H       1.613124      1.874310     -0.314544
15
Coordinates from ORCA-job scan E -270.892550551804
  C      -1.809679      0.548751     -0.407651
  C      -1.296721     -0.831968     -0.589625
  C       0.524714     -1.037604      0.782155
  C       1.502253     -0.181768      0.435986
  C       2.100290      1.101554      0.269043
  O       2.455553     -0.090981     -0.531733
  H      -2.088985      0.744088      0.628626
  H      -2.702329      0.742823     -1.015365
  H      -1.068410      1.293648     -0.697423
  H      -0.810581     -1.070368     -1.526270
  H      -1.875406     -1.645723     -0.170299
  H      -0.048973     -0.814194      1.667970
  H       0.628433     -2.079071      0.517390
  H       2.884885      1.439749      0.937490
  H       1.604953      1.881064     -0.300292
15
Coordinates from ORCA-job scan E -270.892552336897
  C      -1.803192      0.550894     -0.412729
  C      -1.300662     -0.834869     -0.585647
  C       0.526529     -1.041846      0.778253
  C       1.500678     -0.181176      0.435163
  C       2.095416      1.104840      0.275234
  O       2.451115     -0.081463     -0.534481
  H      -2.069723      0.759096      0.624403
  H      -2.701278      0.743822     -1.012684
  H      -1.060422      1.287648     -0.718655
  H      -0.821564     -1.085475     -1.522854
  H      -1.882326     -1.641237     -0.155934
  H      -0.044929     -0.826663      1.667602
  H       0.632418     -2.081323      0.506236
  H       2.881137      1.440698      0.943527
  H       1.596803      1.887054     -0.287434
15
Coordinates from ORCA-job scan E -270.892554049610
  C      -1.796370      0.552912     -0.417534
  C      -1.304806     -0.837797     -0.581377
  C       0.528505     -1.046319      0.774048
  C       1.499322     -0.180706      0.434223
  C       2.090363      1.108134      0.281161
  O       2.447294     -0.072001     -0.536727
  H      -2.051002      0.774074      0.619915
  H      -2.699519      0.745096     -1.010133
  H      -1.052283      1.281537     -0.739046
  H      -0.832525     -1.100435     -1.518747
  H      -1.890178     -1.636182     -0.141733
  H      -0.041004     -0.839304      1.666575
  H       0.637163     -2.083714      0.495033
  H       2.876660      1.442146      0.949688
  H       1.588378      1.892559     -0.275343
15
Coordinates from ORCA-job scan E -270.892555194583
  C      -1.791608      0.554174     -0.420646
  C      -1.307673     -0.839789     -0.578151
  C       0.530065     -1.049600      0.771067
  C       1.498571     -0.180437      0.433396
  C       2.086830      1.110298      0.284923
  O       2.445126     -0.065660     -0.538095
  H      -2.039168      0.784056      0.616649
  H      -2.697798      0.746100     -1.008798
  H      -1.046762      1.277505     -0.752086
  H      -0.839832     -1.110180     -1.515431
  H      -1.896152     -1.632287     -0.132136
  H      -0.038347     -0.847817      1.665414
  H       0.641112     -2.085509      0.487570
  H       2.873150      1.443179      0.953987
  H       1.582485      1.895966     -0.267661
15
Coordinates from ORCA-job scan E -270.892555788628
  C      -1.788636      0.554933     -0.422674
  C      -1.309366     -0.841010     -0.575875
  C       0.531249     -1.051853      0.769254
  C       1.498114     -0.180263      0.432636
  C       2.084485      1.111553      0.287199
  O       2.443734     -0.061643     -0.539248
  H      -2.032320      0.790107      0.614391
  H      -2.696461      0.746804     -1.008419
  H      -1.043320      1.275093     -0.759938
  H      -0.844360     -1.115908     -1.513134
  H      -1.899938     -1.629588     -0.125890
  H      -0.036499     -0.852921      1.664581
  H       0.643930     -2.086799      0.483115
  H       2.870807      1.443433      0.956771
  H       1.578581      1.898061     -0.262767
15
Coordinates from ORCA-job scan E -270.892556001140
  C      -1.787706      0.555222     -0.423393
  C      -1.309806     -0.841368     -0.574978
  C       0.531765     -1.052747      0.768758
  C       1.497935     -0.180216      0.432267
  C       2.083569      1.111909      0.287870
  O       2.443143     -0.060324     -0.539903
  H      -2.030555      0.791883      0.613551
  H      -2.695776      0.747192     -1.008738
  H      -1.042091      1.274386     -0.762128
  H      -0.845775     -1.117495     -1.512325
  H      -1.901140     -1.628609     -0.123744
  H      -0.035734     -0.854445      1.664355
  H       0.645084     -2.087396      0.481919
  H       2.869985      1.443269      0.957600
  H       1.577098      1.898740     -0.261110
15
Coordinates from ORCA-job scan E -270.891557849805
  C      -1.813821      0.557596     -0.438641
  C      -1.346674     -0.835944     -0.589441
  C       0.572589     -1.056413      0.780683
  C       1.534874     -0.190750      0.439951
  C       2.096877      1.106565      0.299180
  O       2.478601     -0.060028     -0.530503
  H      -2.035724      0.782030      0.606580
  H      -2.727518      0.759797     -1.011900
  H      -1.056949      1.270877     -0.783948
  H      -0.875855     -1.122792     -1.498598
  H      -1.900533     -1.616238     -0.122381
  H      -0.015340     -0.852130      1.648655
  H       0.645517     -2.077198      0.481614
  H       2.876490      1.452688      0.969594
  H       1.567466      1.881940     -0.250844
15
Coordinates from ORCA-job scan E -270.892278379204
  C      -1.809638      0.560094     -0.435815
  C      -1.345338     -0.837664     -0.590928
  C       0.571812     -1.057527      0.782249
  C       1.529749     -0.189645      0.440272
  C       2.094558      1.109905      0.297841
  O       2.473382     -0.058127     -0.530280
  H      -2.034793      0.790756      0.606733
  H      -2.722257      0.764677     -1.009751
  H      -1.057451      1.270814     -0.779955
  H      -0.863896     -1.126485     -1.513379
  H      -1.907458     -1.627907     -0.113330
  H      -0.022319     -0.850192      1.656949
  H       0.647417     -2.088383      0.475569
  H       2.876469      1.455185      0.965280
  H       1.569760      1.884498     -0.251454
15
Coordinates from ORCA-job scan E -270.892319668931
  C      -1.807143      0.559446     -0.434369
  C      -1.344642     -0.839388     -0.591726
  C       0.570990     -1.058361      0.783710
  C       1.525722     -0.188807      0.440379
  C       2.093618      1.111141      0.296964
  O       2.469731     -0.057861     -0.529956
  H      -2.034516      0.793343      0.606811
  H      -2.719522      0.764608     -1.008789
  H      -1.056186      1.270215     -0.778784
  H      -0.862453     -1.126617     -1.516300
  H      -1.909314     -1.629582     -0.113026
  H      -0.023595     -0.850510      1.659040
  H       0.649028     -2.089458      0.474288
  H       2.876612      1.454695      0.963955
  H       1.571669      1.887137     -0.252197
15
Coordinates from ORCA-job scan E -270.892351312583
  C      -1.803434      0.557671     -0.432549
  C      -1.343909     -0.842168     -0.592538
  C       0.569617     -1.059233      0.786127
  C       1.519303     -0.186509      0.439966
  C       2.092719      1.112723      0.295439
  O       2.464166     -0.057394     -0.529939
  H      -2.033856      0.795638      0.606922
  H      -2.715486      0.763656     -1.007819
  H      -1.053316      1.268750     -0.777497
  H      -0.862472     -1.126435     -1.519008
  H      -1.912101     -1.630584     -0.113762
  H      -0.024796     -0.851365      1.661779
  H       0.651720     -2.089210      0.472910
  H       2.876856      1.452648      0.962962
  H       1.574987      1.891810     -0.252992
15
Coordinates from ORCA-job scan E -270.892367546698
  C      -1.800944      0.556034     -0.431758
  C      -1.343877     -0.844348     -0.592603
  C       0.568648     -1.059322      0.787779
  C       1.514418     -0.183708      0.438877
  C       2.092567      1.113747      0.294356
  O       2.460293     -0.056669     -0.530559
  H      -2.032889      0.796054      0.606914
  H      -2.712642      0.762908     -1.007682
  H      -1.050527      1.266952     -0.776975
  H      -0.864173     -1.126795     -1.519967
  H      -1.914614     -1.630681     -0.114480
  H      -0.025245     -0.852211      1.663591
  H       0.653960     -2.087899      0.472050
  H       2.877050      1.450098      0.963389
  H       1.577975      1.895842     -0.252932
15
Coordinates from ORCA-job scan E -270.892380923072
  C      -1.799020      0.554436     -0.431726
  C      -1.344638     -0.846612     -0.591977
  C       0.567910     -1.058729      0.788816
  C       1.509696     -0.179921      0.436799
  C       2.092982      1.114767      0.293737
  O       2.457057     -0.055256     -0.531884
  H      -2.031316      0.795401      0.606709
  H      -2.710158      0.762681     -1.008231
  H      -1.047255      1.264322     -0.777002
  H      -0.867485     -1.128567     -1.520011
  H      -1.917830     -1.630633     -0.114623
  H      -0.025305     -0.853234      1.664960
  H       0.656327     -2.085881      0.471119
  H       2.877351      1.446807      0.965229
  H       1.581682      1.900420     -0.251916
15
Coordinates from ORCA-job scan E -270.892390681806
  C      -1.798172      0.553447     -0.432448
  C      -1.346179     -0.848502     -0.590796
  C       0.567693     -1.057703      0.788606
  C       1.506369     -0.176386      0.434115
  C       2.093805      1.115767      0.294120
  O       2.455389     -0.053215     -0.533512
  H      -2.029479      0.794492      0.606248
  H      -2.708693      0.763226     -1.009243
  H      -1.044398      1.261419     -0.777782
  H      -0.871508     -1.132008     -1.519263
  H      -1.921139     -1.630756     -0.113510
  H      -0.025007     -0.854163      1.665283
  H       0.658145     -2.084089      0.470018
  H       2.877764      1.443898      0.968147
  H       1.585410      1.904573     -0.249983
15
Coordinates from ORCA-job scan E -270.892399385215
  C      -1.797958      0.552846     -0.433774
  C      -1.348656     -0.850459     -0.589030
  C       0.567956     -1.056442      0.787047
  C       1.503791     -0.173010      0.430491
  C       2.094956      1.117093      0.295700
  O       2.454825     -0.050121     -0.535475
  H      -2.027174      0.794152      0.605354
  H      -2.707847      0.764310     -1.010585
  H      -1.041616      1.257847     -0.779653
  H      -0.876606     -1.137678     -1.517793
  H      -1.925013     -1.631053     -0.110616
  H      -0.024356     -0.855115      1.664473
  H       0.659637     -2.082624      0.468243
  H       2.878341      1.441157      0.972438
  H       1.589718      1.909099     -0.246820
15
Coordinates from ORCA-job scan E -270.892405760179
  C      -1.798069      0.552588     -0.435229
  C      -1.351428     -0.852193     -0.587140
  C       0.568641     -1.055562      0.784500
  C       1.502414     -0.170825      0.426732
  C       2.096024      1.118538      0.298179
  O       2.455249     -0.046538     -0.537237
  H      -2.024919      0.795285      0.604079
  H      -2.707650      0.765193     -1.011739
  H      -1.039597      1.254421     -0.782602
  H      -0.881594     -1.144160     -1.515952
  H      -1.928506     -1.631218     -0.106252
  H      -0.023440     -0.855856      1.662624
  H       0.660462     -2.081981      0.465849
  H       2.878889      1.439132      0.977154
  H       1.593521      1.913173     -0.242967
15
Coordinates from ORCA-job scan E -270.892410470504
  C      -1.798094      0.552408     -0.436657
  C      -1.354185     -0.853782     -0.585236
  C       0.569628     -1.055267      0.781427
  C       1.501924     -0.169754      0.423055
  C       2.096840      1.119973      0.301200
  O       2.456149     -0.042654     -0.538773
  H      -2.022713      0.798069      0.602403
  H      -2.707854      0.765381     -1.012565
  H      -1.038310      1.251307     -0.786731
  H      -0.886325     -1.150661     -1.513870
  H      -1.931402     -1.630937     -0.100660
  H      -0.022215     -0.856392      1.660087
  H       0.660788     -2.081980      0.462784
  H       2.879273      1.437467      0.982042
  H       1.596494      1.916824     -0.238503
15
Coordinates from ORCA-job scan E -270.892413616662
  C      -1.797822      0.552175     -0.437955
  C      -1.356453     -0.855111     -0.583517
  C       0.570699     -1.055565      0.778584
  C       1.502022     -0.169521      0.419997
  C       2.097258      1.121114      0.304115
  O       2.456974     -0.039026     -0.540047
  H      -2.020621      0.801864      0.600502
  H      -2.708254      0.764742     -1.013012
  H      -1.037721      1.248852     -0.791593
  H      -0.890362     -1.156010     -1.511863
  H      -1.933345     -1.630087     -0.094726
  H      -0.020785     -0.856787      1.657587
  H       0.660823     -2.082315      0.459418
  H       2.879420      1.435909      0.986421
  H       1.598166      1.919765     -0.233911
15
Coordinates from ORCA-job scan E -270.892415411968
  C      -1.797319      0.551932     -0.439106
  C      -1.357941     -0.856053     -0.582146
  C       0.571616     -1.056197      0.776591
  C       1.502333     -0.169653      0.418001
  C       2.097279      1.121785      0.306366
  O       2.457324     -0.036182     -0.541067
  H      -2.018681      0.805529      0.598705
  H      -2.708688      0.763684     -1.013190
  H      -1.037601      1.247227     -0.796347
  H      -0.893393     -1.159557     -1.510271
  H      -1.934263     -1.628901     -0.089532
  H      -0.019364     -0.857209      1.655825
  H       0.660807     -2.082625      0.456339
  H       2.879397      1.434415      0.989663
  H       1.598491      1.921805     -0.229828
15
Coordinates from ORCA-job scan E -270.892416228164
  C      -1.796811      0.551807     -0.440083
  C      -1.358669     -0.856574     -0.581222
  C       0.572206     -1.056800      0.775632
  C       1.502521     -0.169724      0.417135
  C       2.097061      1.122053      0.307720
  O       2.457106     -0.034371     -0.541843
  H      -2.016971      0.808072      0.597348
  H      -2.709022      0.762850     -1.013266
  H      -1.037599      1.246323     -0.800062
  H      -0.895354     -1.161458     -1.509305
  H      -1.934458     -1.627837     -0.085918
  H      -0.018248     -0.857815      1.655115
  H       0.660893     -2.082736      0.454081
  H       2.879362      1.433202      0.991481
  H       1.597980      1.923007     -0.226814
15
Coordinates from ORCA-job scan E -270.892416636039
  C      -1.796369      0.551831     -0.441020
  C      -1.359101     -0.856898     -0.580512
  C       0.572594     -1.057277      0.775152
  C       1.502513     -0.169620      0.416818
  C       2.096765      1.122217      0.308669
  O       2.456538     -0.033026     -0.542538
  H      -2.015240      0.809861      0.596267
  H      -2.709260      0.762417     -1.013355
  H      -1.037452      1.245627     -0.803106
  H      -0.896914     -1.162879     -1.508678
  H      -1.934474     -1.626992     -0.083198
  H      -0.017355     -0.858717      1.655004
  H       0.661088     -2.082729      0.452302
  H       2.879407      1.432263      0.992565
  H       1.597257      1.923921     -0.224372
15
Coordinates from ORCA-job scan E -270.892088809210
  C      -1.823007      0.554005     -0.456518
  C      -1.396033     -0.851755     -0.593967
  C       0.613958     -1.060842      0.786551
  C       1.539422     -0.180344      0.423049
  C       2.110226      1.116428      0.320314
  O       2.491780     -0.031653     -0.534474
  H      -2.021610      0.799699      0.588737
  H      -2.740758      0.774819     -1.017337
  H      -1.052754      1.242133     -0.824683
  H      -0.926056     -1.168091     -1.493788
  H      -1.933687     -1.614274     -0.081518
  H       0.003392     -0.855166      1.638804
  H       0.661847     -2.072463      0.452621
  H       2.886115      1.440405      1.005622
  H       1.587163      1.907100     -0.213411
15
Coordinates from ORCA-job scan E -270.892754726649
  C      -1.819037      0.556350     -0.454039
  C      -1.395792     -0.853815     -0.595484
  C       0.612420     -1.062396      0.787697
  C       1.535188     -0.178784      0.423724
  C       2.108724      1.120460      0.319372
  O       2.487371     -0.029169     -0.534103
  H      -2.020175      0.808520      0.588540
  H      -2.735602      0.779796     -1.015309
  H      -1.053429      1.241150     -0.821341
  H      -0.916025     -1.172891     -1.508239
  H      -1.941376     -1.625495     -0.071912
  H      -0.003251     -0.854687      1.646571
  H       0.663365     -2.083269      0.446509
  H       2.886963      1.443704      1.001694
  H       1.590653      1.910527     -0.213678
15
Coordinates from ORCA-job scan E -270.892790656814
  C      -1.816744      0.555751     -0.452982
  C      -1.395879     -0.855716     -0.596215
  C       0.611289     -1.063393      0.788616
  C       1.531844     -0.177744      0.424292
  C       2.108192      1.122060      0.319013
  O       2.484001     -0.028469     -0.533681
  H      -2.019236      0.811675      0.588245
  H      -2.733336      0.779656     -1.014306
  H      -1.052374      1.240034     -0.821458
  H      -0.916014     -1.173860     -1.511099
  H      -1.943838     -1.626940     -0.071029
  H      -0.004020     -0.856006      1.648744
  H       0.665342     -2.084331      0.444842
  H       2.887673      1.443574      1.000673
  H       1.593099      1.913710     -0.213655
15
Coordinates from ORCA-job scan E -270.892816444946
  C      -1.813310      0.554225     -0.452011
  C      -1.396289     -0.858584     -0.596836
  C       0.609677     -1.064430      0.790009
  C       1.526570     -0.175395      0.424840
  C       2.107648      1.124013      0.318539
  O       2.478598     -0.027292     -0.533559
  H      -2.017041      0.815280      0.587563
  H      -2.730276      0.778484     -1.013175
  H      -1.049946      1.237869     -0.823019
  H      -0.918405     -1.175098     -1.513776
  H      -1.947480     -1.627356     -0.070464
  H      -0.003978     -0.858518      1.651827
  H       0.669011     -2.084101      0.442587
  H       2.888677      1.441926      1.000154
  H       1.596540      1.918976     -0.212680
15
Coordinates from ORCA-job scan E -270.892827599832
  C      -1.811002      0.553043     -0.452092
  C      -1.396868     -0.860481     -0.596681
  C       0.608800     -1.064688      0.790837
  C       1.522844     -0.172999      0.424756
  C       2.107401      1.125072      0.318406
  O       2.474741     -0.026026     -0.534158
  H      -2.014483      0.816991      0.586799
  H      -2.728379      0.777575     -1.012856
  H      -1.047667      1.235814     -0.825262
  H      -0.921730     -1.176487     -1.514669
  H      -1.950308     -1.626715     -0.069931
  H      -0.003157     -0.860773      1.654034
  H       0.672058     -2.082964      0.440973
  H       2.889224      1.439760      1.000724
  H       1.598523      1.922877     -0.210880
15
Coordinates from ORCA-job scan E -270.892835569686
  C      -1.808898      0.552161     -0.453044
  C      -1.397796     -0.862180     -0.595830
  C       0.608350     -1.064594      0.791261
  C       1.519375     -0.170127      0.424067
  C       2.107131      1.125985      0.318758
  O       2.471098     -0.023992     -0.535537
  H      -2.010698      0.818216      0.585685
  H      -2.726719      0.777236     -1.013040
  H      -1.044870      1.233225     -0.828591
  H      -0.926247     -1.179129     -1.514703
  H      -1.953491     -1.625618     -0.068617
  H      -0.001783     -0.863618      1.656084
  H       0.675177     -2.081469      0.439166
  H       2.889545      1.437119      1.002178
  H       1.599824      1.926784     -0.207835
15
Coordinates from ORCA-job scan E -270.892840781408
  C      -1.807280      0.551896     -0.454510
  C      -1.398909     -0.863448     -0.594519
  C       0.608435     -1.064471      0.791040
  C       1.516872     -0.167705      0.422891
  C       2.106722      1.126841      0.319717
  O       2.468418     -0.021405     -0.537287
  H      -2.006438      0.819372      0.584408
  H      -2.725444      0.777738     -1.013525
  H      -1.042094      1.230600     -0.832281
  H      -0.930697     -1.182895     -1.514015
  H      -1.956460     -1.624561     -0.066404
  H      -0.000371     -0.866570      1.657362
  H       0.677467     -2.080459      0.437292
  H       2.889558      1.435053      1.004090
  H       1.600221      1.930014     -0.204257
15
Coordinates from ORCA-job scan E -270.892845332611
  C      -1.805474      0.552044     -0.456495
  C      -1.400453     -0.864779     -0.592624
  C       0.608967     -1.064624      0.790093
  C       1.514593     -0.165460      0.421049
  C       2.105952      1.128051      0.321526
  O       2.465895     -0.017671     -0.539534
  H      -2.000894      0.821450      0.582659
  H      -2.724022      0.778921     -1.014161
  H      -1.038693      1.227317     -0.837149
  H      -0.935855     -1.188548     -1.512596
  H      -1.959902     -1.623337     -0.062661
  H       0.001263     -0.870264      1.658016
  H       0.679378     -2.079970      0.434667
  H       2.889250      1.433346      1.006740
  H       1.599992      1.933524     -0.199527
15
Coordinates from ORCA-job scan E -270.892848982379
  C      -1.803413      0.552410     -0.458587
  C      -1.402284     -0.866173     -0.590424
  C       0.609849     -1.065275      0.788448
  C       1.512742     -0.163846      0.418772
  C       2.104805      1.129557      0.324023
  O       2.463683     -0.013170     -0.541866
  H      -1.994740      0.824832      0.580541
  H      -2.722476      0.780270     -1.014700
  H      -1.035064      1.223686     -0.842894
  H      -0.941104     -1.195296     -1.510566
  H      -1.963380     -1.621907     -0.057568
  H       0.002978     -0.874200      1.657799
  H       0.680675     -2.080135      0.431287
  H       2.888578      1.432191      1.009867
  H       1.599151      1.937057     -0.194131
15
Coordinates from ORCA-job scan E -270.892852376850
  C      -1.800663      0.552810     -0.460975
  C      -1.404626     -0.867887     -0.587679
  C       0.611125     -1.066579      0.785958
  C       1.511027     -0.162636      0.415864
  C       2.103127      1.131459      0.327421
  O       2.461353     -0.007426     -0.544485
  H      -1.987280      0.830158      0.577680
  H      -2.720582      0.781506     -1.015119
  H      -1.030872      1.219252     -0.850488
  H      -0.947167     -1.203547     -1.507650
  H      -1.967222     -1.619832     -0.050410
  H       0.005114     -0.878709      1.656743
  H       0.681691     -2.080821      0.426525
  H       2.887422      1.431130      1.013903
  H       1.597553      1.941121     -0.187286
15
Coordinates from ORCA-job scan E -270.892855351834
  C      -1.797428      0.553078     -0.463527
  C      -1.407284     -0.869792     -0.584589
  C       0.612663     -1.068403      0.782883
  C       1.509605     -0.161854      0.412662
  C       2.101065      1.133438      0.331362
  O       2.459037     -0.001001     -0.547165
  H      -1.979140      0.836993      0.574196
  H      -2.718594      0.782268     -1.015387
  H      -1.026638      1.214408     -0.859576
  H      -0.953602     -1.212253     -1.504047
  H      -1.970959     -1.617076     -0.041648
  H       0.007668     -0.883280      1.655015
  H       0.682525     -2.081754      0.420627
  H       2.885869      1.429889      1.018579
  H       1.595211      1.945338     -0.179384
15
Coordinates from ORCA-job scan E -270.892857591593
  C      -1.794299      0.553153     -0.466026
  C      -1.409844     -0.871576     -0.581585
  C       0.614176     -1.070345      0.779828
  C       1.508623     -0.161398      0.409818
  C       2.099008      1.135073      0.335159
  O       2.456977      0.005049     -0.549554
  H      -1.971480      0.844017      0.570549
  H      -2.716955      0.782435     -1.015540
  H      -1.023129      1.209909     -0.868938
  H      -0.959565     -1.219913     -1.500370
  H      -1.973971     -1.614001     -0.032633
  H       0.010363     -0.887278      1.653160
  H       0.683316     -2.082555      0.414464
  H       2.884280      1.428346      1.023146
  H       1.592498      1.949085     -0.171478
15
Coordinates from ORCA-job scan E -270.892858866638
  C      -1.792250      0.553132     -0.467988
  C      -1.411636     -0.872744     -0.579436
  C       0.615218     -1.071754      0.777720
  C       1.508195     -0.161146      0.408203
  C       2.097593      1.135968      0.337793
  O       2.455593      0.009136     -0.551119
  H      -1.966146      0.849047      0.567732
  H      -2.716184      0.782230     -1.015641
  H      -1.021207      1.206905     -0.876101
  H      -0.963681     -1.224739     -1.497717
  H      -1.975611     -1.611552     -0.025877
  H       0.012483     -0.889965      1.651965
  H       0.684056     -2.082906      0.409760
  H       2.883267      1.426885      1.026314
  H       1.590308      1.951504     -0.165607
15
Coordinates from ORCA-job scan E -270.892859626746
  C      -1.791020      0.553186     -0.469668
  C      -1.412890     -0.873459     -0.577876
  C       0.615911     -1.072726      0.776328
  C       1.508008     -0.160901      0.407493
  C       2.096666      1.136462      0.339656
  O       2.454540      0.011933     -0.552184
  H      -1.962219      0.852525      0.565546
  H      -2.716002      0.782059     -1.015760
  H      -1.020209      1.204860     -0.881669
  H      -0.966691     -1.227973     -1.495865
  H      -1.976478     -1.609682     -0.020839
  H       0.014138     -0.892113      1.651405
  H       0.684830     -2.082966      0.406183
  H       2.882786      1.425657      1.028418
  H       1.588628      1.953139     -0.161164
15
Coordinates from ORCA-job scan E -270.892860332087
  C      -1.789808      0.553413     -0.471736
  C      -1.414229     -0.874128     -0.576162
  C       0.616624     -1.073770      0.774909
  C       1.507763     -0.160533      0.407070
  C       2.095690      1.137030      0.341738
  O       2.453163      0.015009     -0.553352
  H      -1.957585      0.856255      0.563048
  H      -2.715982      0.782075     -1.015914
  H      -1.019176      1.202584     -0.888054
  H      -0.970186     -1.231719     -1.493918
  H      -1.977352     -1.607620     -0.015285
  H       0.015984     -0.895017      1.651111
  H       0.685854     -2.082975      0.402179
  H       2.882498      1.424433      1.030501
  H       1.586741      1.954964     -0.156135
15
Coordinates from ORCA-job scan E -270.889754009913
  C      -1.781324      0.565296     -0.465120
  C      -1.370085     -0.885526     -0.551806
  C       0.570539     -1.079207      0.754570
  C       1.494847     -0.150489      0.390849
  C       2.094674      1.142717      0.335666
  O       2.449676      0.025453     -0.561724
  H      -1.958935      0.871005      0.567152
  H      -2.706718      0.786177     -1.013896
  H      -1.020760      1.224078     -0.884551
  H      -0.934951     -1.242981     -1.507659
  H      -1.978354     -1.632009      0.006804
  H      -0.011131     -0.899754      1.668281
  H       0.678745     -2.111180      0.395072
  H       2.879889      1.420608      1.030219
  H       1.593885      1.965812     -0.163855
15
Coordinates from ORCA-job scan E -270.892196339142
  C      -1.778475      0.555256     -0.466024
  C      -1.370496     -0.876509     -0.550419
  C       0.573260     -1.072148      0.750999
  C       1.487690     -0.155735      0.393295
  C       2.088778      1.136167      0.338538
  O       2.440292      0.016607     -0.560619
  H      -1.954093      0.861920      0.565842
  H      -2.704735      0.765365     -1.014576
  H      -1.018413      1.212369     -0.887931
  H      -0.951856     -1.226919     -1.485447
  H      -1.965686     -1.604243     -0.010380
  H       0.006837     -0.898018      1.651851
  H       0.681367     -2.087574      0.401539
  H       2.874224      1.412442      1.033691
  H       1.591303      1.961020     -0.160359
15
Coordinates from ORCA-job scan E -270.892305216985
  C      -1.776045      0.552775     -0.465527
  C      -1.370775     -0.872409     -0.550492
  C       0.574002     -1.068810      0.749286
  C       1.484994     -0.156790      0.394264
  C       2.086285      1.134814      0.339178
  O       2.436058      0.014230     -0.561355
  H      -1.951080      0.861123      0.566274
  H      -2.703459      0.758535     -1.014589
  H      -1.015793      1.210024     -0.887567
  H      -0.953501     -1.223970     -1.483115
  H      -1.963293     -1.599962     -0.012460
  H       0.008670     -0.897124      1.649846
  H       0.680921     -2.083755      0.401884
  H       2.872498      1.410603      1.033658
  H       1.590516      1.960716     -0.159285
15
Coordinates from ORCA-job scan E -270.892325707230
  C      -1.774408      0.552568     -0.464915
  C      -1.370978     -0.871067     -0.550964
  C       0.573828     -1.067710      0.748735
  C       1.484218     -0.156788      0.394938
  C       2.085119      1.134890      0.339082
  O       2.434089      0.013873     -0.562305
  H      -1.949473      0.862207      0.566663
  H      -2.702280      0.756785     -1.014413
  H      -1.013863      1.210138     -0.886263
  H      -0.952782     -1.224580     -1.483160
  H      -1.962129     -1.600752     -0.012866
  H       0.007368     -0.898045      1.649596
  H       0.679271     -2.083631      0.402298
  H       2.872215      1.410831      1.032513
  H       1.589803      1.961280     -0.158937
15
Coordinates from ORCA-job scan E -270.892338545390
  C      -1.772665      0.553011     -0.464157
  C      -1.371125     -0.870407     -0.551714
  C       0.573256     -1.067301      0.748581
  C       1.484019     -0.156650      0.395962
  C       2.083942      1.135328      0.338583
  O       2.432378      0.013923     -0.563327
  H      -1.948084      0.863752      0.567078
  H      -2.700621      0.756554     -1.014102
  H      -1.011683      1.210850     -0.884336
  H      -0.951495     -1.226034     -1.482975
  H      -1.960188     -1.602502     -0.013579
  H       0.005001     -0.900209      1.649296
  H       0.676710     -2.084176      0.403176
  H       2.872208      1.411992      1.030429
  H       1.588347      1.961870     -0.158913
15
Coordinates from ORCA-job scan E -270.892345119695
  C      -1.771258      0.553646     -0.463678
  C      -1.371088     -0.870212     -0.552313
  C       0.572710     -1.067457      0.748799
  C       1.484260     -0.156740      0.397201
  C       2.082855      1.135651      0.337998
  O       2.430815      0.014161     -0.564168
  H      -1.947166      0.864773      0.567312
  H      -2.698922      0.757556     -1.014014
  H      -1.009748      1.211354     -0.882973
  H      -0.950153     -1.227071     -1.482579
  H      -1.958205     -1.603774     -0.013930
  H       0.003022     -0.902397      1.649079
  H       0.674574     -2.084710      0.403861
  H       2.872353      1.413294      1.028077
  H       1.585949      1.961925     -0.158671
15
Coordinates from ORCA-job scan E -270.892350897800
  C      -1.770050      0.554358     -0.463423
  C      -1.370818     -0.870110     -0.552805
  C       0.572250     -1.068016      0.749299
  C       1.484829     -0.157249      0.398827
  C       2.081640      1.135787      0.337302
  O       2.429310      0.014301     -0.564667
  H      -1.946521      0.865151      0.567490
  H      -2.697158      0.759452     -1.014135
  H      -1.007875      1.211615     -0.882021
  H      -0.948650     -1.227365     -1.482219
  H      -1.956227     -1.604376     -0.013822
  H       0.001490     -0.904450      1.649092
  H       0.672930     -2.085239      0.404140
  H       2.872342      1.414873      1.025450
  H       1.582506      1.961269     -0.158508
15
Coordinates from ORCA-job scan E -270.892359585094
  C      -1.768186      0.555485     -0.463244
  C      -1.370040     -0.869718     -0.553489
  C       0.571673     -1.069281      0.750381
  C       1.486069     -0.158768      0.402070
  C       2.079303      1.135689      0.336066
  O       2.426791      0.014184     -0.565034
  H      -1.945567      0.865036      0.567778
  H      -2.694219      0.763124     -1.014630
  H      -1.004753      1.211781     -0.880831
  H      -0.946043     -1.226714     -1.481877
  H      -1.953150     -1.604326     -0.013112
  H      -0.000258     -0.907438      1.649572
  H       0.670985     -2.086067      0.403947
  H       2.871847      1.417841      1.020863
  H       1.575545      1.959170     -0.158458
15
Coordinates from ORCA-job scan E -270.892367575047
  C      -1.766417      0.556553     -0.463252
  C      -1.368872     -0.868910     -0.554087
  C       0.571315     -1.070863      0.751686
  C       1.487622     -0.161079      0.405908
  C       2.076537      1.135223      0.334765
  O       2.424376      0.013517     -0.564871
  H      -1.944599      0.864396      0.568091
  H      -2.691350      0.766911     -1.015396
  H      -1.001656      1.211943     -0.879777
  H      -0.943408     -1.224906     -1.481972
  H      -1.950454     -1.603191     -0.012105
  H      -0.001019     -0.909932      1.650662
  H       0.669918     -2.086895      0.403101
  H       2.870628      1.421318      1.016126
  H       1.567376      1.955914     -0.158879
15
Coordinates from ORCA-job scan E -270.892373166327
  C      -1.765339      0.557268     -0.463364
  C      -1.367655     -0.867858     -0.554446
  C       0.571307     -1.072262      0.752763
  C       1.489047     -0.163433      0.409019
  C       2.074253      1.134548      0.333851
  O       2.423128      0.012379     -0.564179
  H      -1.943918      0.863774      0.568342
  H      -2.689625      0.769133     -1.016093
  H      -0.999789      1.212423     -0.878962
  H      -0.941794     -1.222659     -1.482580
  H      -1.949213     -1.601439     -0.011580
  H      -0.000391     -0.911147      1.652125
  H       0.670127     -2.087575      0.402077
  H       2.868946      1.424302      1.012927
  H       1.560914      1.952546     -0.159900
15
Coordinates from ORCA-job scan E -270.892376311157
  C      -1.765029      0.557662     -0.463409
  C      -1.366731     -0.866923     -0.554592
  C       0.571527     -1.073164      0.753373
  C       1.490047     -0.165059      0.410649
  C       2.072998      1.133977      0.333459
  O       2.423240      0.011205     -0.563343
  H      -1.943662      0.863711      0.568486
  H      -2.689248      0.769364     -1.016413
  H      -0.999477      1.213360     -0.878348
  H      -0.941446     -1.220997     -1.483378
  H      -1.949386     -1.600025     -0.012037
  H       0.000982     -0.911359      1.653441
  H       0.671051     -2.088113      0.401601
  H       2.867454      1.426208      1.011723
  H       1.557680      1.950153     -0.161210
15
Coordinates from ORCA-job scan E -270.892378480045
  C      -1.764973      0.558090     -0.463315
  C      -1.365904     -0.866054     -0.554697
  C       0.571816     -1.073889      0.753814
  C       1.490930     -0.166259      0.411604
  C       2.072191      1.133518      0.333242
  O       2.423971      0.010073     -0.562531
  H      -1.943644      0.864193      0.568610
  H      -2.689413      0.768682     -1.016434
  H      -0.999907      1.214780     -0.877720
  H      -0.941590     -1.219803     -1.484188
  H      -1.950069     -1.599074     -0.013365
  H       0.002477     -0.911510      1.654643
  H       0.672081     -2.088771      0.401829
  H       2.866147      1.427745      1.011191
  H       1.555885      1.948280     -0.162681
15
Coordinates from ORCA-job scan E -270.892380107918
  C      -1.764881      0.558721     -0.463080
  C      -1.365043     -0.865202     -0.554831
  C       0.572104     -1.074629      0.754273
  C       1.491847     -0.167263      0.412390
  C       2.071479      1.133149      0.332976
  O       2.424786      0.009029     -0.561833
  H      -1.943757      0.865038      0.568762
  H      -2.689637      0.767833     -1.016223
  H      -1.000572      1.216538     -0.877100
  H      -0.941684     -1.218827     -1.484902
  H      -1.950727     -1.598533     -0.015336
  H       0.003751     -0.912095      1.655753
  H       0.672936     -2.089665      0.402782
  H       2.865037      1.429269      1.010549
  H       1.554358      1.946636     -0.164181
15
Coordinates from ORCA-job scan E -270.892381051108
  C      -1.764703      0.559398     -0.462802
  C      -1.364308     -0.864544     -0.554954
  C       0.572318     -1.075257      0.754715
  C       1.492579     -0.167950      0.413017
  C       2.070901      1.132921      0.332636
  O       2.425222      0.008340     -0.561444
  H      -1.943920      0.865792      0.568933
  H      -2.689712      0.767388     -1.015895
  H      -1.001096      1.217990     -0.876778
  H      -0.941414     -1.218030     -1.485314
  H      -1.951021     -1.598381     -0.017197
  H       0.004388     -0.913021      1.656520
  H       0.673404     -2.090578      0.404116
  H       2.864366      1.430458      1.009691
  H       1.552995      1.945474     -0.165243
15
Coordinates from ORCA-job scan E -270.892381473689
  C      -1.764530      0.559894     -0.462591
  C      -1.363795     -0.864130     -0.555027
  C       0.572450     -1.075676      0.755071
  C       1.492979     -0.168351      0.413441
  C       2.070502      1.132793      0.332297
  O       2.425234      0.007992     -0.561330
  H      -1.944043      0.866153      0.569104
  H      -2.689695      0.767388     -1.015575
  H      -1.001387      1.218790     -0.876823
  H      -0.940827     -1.217308     -1.485456
  H      -1.951027     -1.598383     -0.018430
  H       0.004498     -0.913844      1.656902
  H       0.673617     -2.091256      0.405314
  H       2.864076      1.431111      1.008890
  H       1.551945      1.944824     -0.165786
15
Coordinates from ORCA-job scan E -270.892381475305
  C      -1.764530      0.559894     -0.462591
  C      -1.363795     -0.864130     -0.555027
  C       0.572450     -1.075676      0.755071
  C       1.492979     -0.168351      0.413441
  C       2.070502      1.132793      0.332297
  O       2.425234      0.007992     -0.561330
  H      -1.944043      0.866153      0.569104
  H      -2.689695      0.767388     -1.015575
  H      -1.001387      1.218790     -0.876823
  H      -0.940827     -1.217308     -1.485456
  H      -1.951027     -1.598383     -0.018430
  H       0.004498     -0.913844      1.656902
  H       0.673617     -2.091256      0.405314
  H       2.864076      1.431111      1.008890
  H       1.551945      1.944824     -0.165786
15
Coordinates from ORCA-job scan E -270.892362947366
  C      -1.763160      0.558975     -0.455971
  C      -1.350461     -0.861525     -0.552109
  C       0.564213     -1.070701      0.753427
  C       1.487442     -0.169303      0.409626
  C       2.067643      1.129443      0.327343
  O       2.423959      0.001344     -0.561712
  H      -1.954089      0.860764      0.574942
  H      -2.685774      0.761519     -1.015021
  H      -1.001683      1.225723     -0.862362
  H      -0.928876     -1.206904     -1.487724
  H      -1.944452     -1.601536     -0.028652
  H      -0.000610     -0.906462      1.658234
  H       0.670425     -2.090589      0.412147
  H       2.858579      1.427644      1.007068
  H       1.556841      1.941608     -0.179234
15
Coordinates from ORCA-job scan E -270.892378025780
  C      -1.763683      0.559125     -0.458261
  C      -1.355041     -0.862766     -0.553154
  C       0.565876     -1.072879      0.753887
  C       1.489481     -0.168469      0.410794
  C       2.069539      1.131145      0.328654
  O       2.424422      0.003733     -0.562060
  H      -1.950757      0.861763      0.573145
  H      -2.686940      0.763546     -1.015508
  H      -1.001784      1.223122     -0.866743
  H      -0.932550     -1.210114     -1.486270
  H      -1.946705     -1.600639     -0.025933
  H       0.000391     -0.909278      1.657084
  H       0.670560     -2.090799      0.411196
  H       2.861916      1.429168      1.006868
  H       1.555273      1.943342     -0.173698
15
Coordinates from ORCA-job scan E -270.892117099923
  C      -1.762207      0.558287     -0.466042
  C      -1.365617     -0.864190     -0.556627
  C       0.567066     -1.081334      0.759216
  C       1.489181     -0.165525      0.418409
  C       2.076053      1.139129      0.332985
  O       2.420507      0.016605     -0.560276
  H      -1.942349      0.858467      0.569207
  H      -2.687289      0.768493     -1.019497
  H      -1.001048      1.212578     -0.875277
  H      -0.942315     -1.214989     -1.482407
  H      -1.953266     -1.594859     -0.022941
  H       0.004410     -0.919056      1.655827
  H       0.668433     -2.091694      0.410292
  H       2.877024      1.433269      0.993105
  H       1.551416      1.944819     -0.155972
15
Coordinates from ORCA-job scan E -270.891751663405
  C      -1.772926      0.555671     -0.463810
  C      -1.370922     -0.862105     -0.564564
  C       0.568116     -1.082264      0.769031
  C       1.487528     -0.161911      0.428961
  C       2.093482      1.142070      0.324224
  O       2.423261      0.012534     -0.553373
  H      -1.968340      0.835499      0.575341
  H      -2.693033      0.770216     -1.025546
  H      -1.006692      1.217557     -0.852042
  H      -0.930005     -1.201970     -1.486116
  H      -1.952995     -1.599119     -0.039324
  H      -0.005234     -0.912446      1.657121
  H       0.667165     -2.089807      0.419862
  H       2.896506      1.433780      0.980271
  H       1.564088      1.942295     -0.170035
15
Coordinates from ORCA-job scan E -270.891465730098
  C      -1.787367      0.552464     -0.456644
  C      -1.370619     -0.858915     -0.570980
  C       0.569459     -1.074993      0.776472
  C       1.482813     -0.157216      0.437067
  C       2.112108      1.142297      0.310923
  O       2.431369      0.002737     -0.545398
  H      -2.003782      0.812869      0.582892
  H      -2.698901      0.771115     -1.029401
  H      -1.012363      1.224537     -0.820199
  H      -0.917421     -1.188555     -1.493007
  H      -1.948379     -1.606846     -0.057747
  H      -0.017991     -0.903164      1.658552
  H       0.668331     -2.084125      0.427422
  H       2.909096      1.431104      0.979901
  H       1.583647      1.936690     -0.199852
15
Coordinates from ORCA-job scan E -270.891379009002
  C      -1.796177      0.549500     -0.447745
  C      -1.360157     -0.859782     -0.571205
  C       0.565743     -1.063268      0.777829
  C       1.473324     -0.149143      0.438787
  C       2.114446      1.136322      0.302326
  O       2.432329     -0.003620     -0.544826
  H      -2.023901      0.806617      0.584115
  H      -2.699881      0.773109     -1.019632
  H      -1.015214      1.230816     -0.800792
  H      -0.902796     -1.181061     -1.499935
  H      -1.940620     -1.619783     -0.072589
  H      -0.030027     -0.893172      1.660769
  H       0.673099     -2.078569      0.432934
  H       2.908705      1.418525      0.986802
  H       1.601125      1.933510     -0.226839
15
Coordinates from ORCA-job scan E -270.891078106644
  C      -1.794030      0.552291     -0.451718
  C      -1.368495     -0.854515     -0.569471
  C       0.573808     -1.067581      0.776464
  C       1.478708     -0.156276      0.440808
  C       2.120805      1.138669      0.303520
  O       2.433404      0.000537     -0.535772
  H      -2.024832      0.800450      0.584449
  H      -2.698696      0.765238     -1.035394
  H      -1.013170      1.233434     -0.800578
  H      -0.917545     -1.183137     -1.496905
  H      -1.947655     -1.607714     -0.063551
  H      -0.020459     -0.897434      1.659934
  H       0.674204     -2.079827      0.424926
  H       2.908816      1.426576      0.985255
  H       1.595134      1.929289     -0.221966
15
Coordinates from ORCA-job scan E -270.890492276855
  C      -1.792665      0.556661     -0.450370
  C      -1.373512     -0.852772     -0.563124
  C       0.579197     -1.068630      0.768249
  C       1.484710     -0.164154      0.436817
  C       2.124669      1.141195      0.304508
  O       2.444870      0.002521     -0.520881
  H      -2.023516      0.800994      0.582153
  H      -2.694777      0.755705     -1.042508
  H      -1.011429      1.243998     -0.796718
  H      -0.934992     -1.189023     -1.499066
  H      -1.959208     -1.601748     -0.050361
  H      -0.012910     -0.904009      1.655085
  H       0.675614     -2.084883      0.412812
  H       2.896681      1.441741      1.002013
  H       1.597266      1.922404     -0.238610
15
Coordinates from ORCA-job scan E -270.890565106724
  C      -1.790979      0.558297     -0.447920
  C      -1.374570     -0.857147     -0.556665
  C       0.577867     -1.064628      0.758891
  C       1.485012     -0.161390      0.428566
  C       2.120948      1.141397      0.305623
  O       2.446252      0.002545     -0.519627
  H      -2.022675      0.811504      0.577248
  H      -2.684850      0.748059     -1.045281
  H      -1.009086      1.248974     -0.793269
  H      -0.946897     -1.199477     -1.499442
  H      -1.963643     -1.602725     -0.035196
  H      -0.011240     -0.907632      1.649731
  H       0.682397     -2.084121      0.402454
  H       2.883818      1.439449      1.019844
  H       1.607645      1.926895     -0.244956
15
Coordinates from ORCA-job scan E -270.890437979666
  C      -1.789128      0.559069     -0.444270
  C      -1.373630     -0.862794     -0.552121
  C       0.574299     -1.060124      0.754766
  C       1.477416     -0.149262      0.425987
  C       2.119348      1.142005      0.302392
  O       2.437591      0.003716     -0.521095
  H      -2.028344      0.819027      0.575994
  H      -2.672388      0.737114     -1.053390
  H      -1.005124      1.253980     -0.779201
  H      -0.951204     -1.207331     -1.496527
  H      -1.965662     -1.604318     -0.028326
  H      -0.017103     -0.914634      1.646995
  H       0.691239     -2.077715      0.393764
  H       2.879098      1.427841      1.027829
  H       1.623590      1.933426     -0.252794
15
Coordinates from ORCA-job scan E -270.890168402565
  C      -1.786088      0.560037     -0.443076
  C      -1.373326     -0.868243     -0.547315
  C       0.570629     -1.057493      0.751286
  C       1.470853     -0.137486      0.422294
  C       2.117646      1.142540      0.298295
  O       2.431162      0.006719     -0.522492
  H      -2.033656      0.824347      0.574357
  H      -2.661367      0.723738     -1.066257
  H      -1.002749      1.260260     -0.764468
  H      -0.955758     -1.215745     -1.490932
  H      -1.968214     -1.602614     -0.019520
  H      -0.020818     -0.920600      1.644943
  H       0.698432     -2.070578      0.384864
  H       2.876228      1.411553      1.032428
  H       1.637026      1.943565     -0.254406
15
Coordinates from ORCA-job scan E -270.889740230705
  C      -1.784322      0.561078     -0.447466
  C      -1.376109     -0.870273     -0.544001
  C       0.569230     -1.057291      0.750066
  C       1.465033     -0.128921      0.419589
  C       2.117711      1.143546      0.295369
  O       2.425389      0.014085     -0.526791
  H      -2.037029      0.822900      0.570485
  H      -2.654468      0.712071     -1.082298
  H      -1.002340      1.264902     -0.759360
  H      -0.962123     -1.223496     -1.483950
  H      -1.966556     -1.597824     -0.006543
  H      -0.016938     -0.924462      1.648927
  H       0.698546     -2.064715      0.376396
  H       2.880273      1.390755      1.033158
  H       1.643701      1.957643     -0.243579
15
Coordinates from ORCA-job scan E -270.889148291965
  C      -1.780537      0.563182     -0.455259
  C      -1.379963     -0.869677     -0.540376
  C       0.569885     -1.060777      0.752943
  C       1.458205     -0.122662      0.420593
  C       2.116714      1.145895      0.294048
  O       2.411821      0.024533     -0.536131
  H      -2.036667      0.815881      0.565320
  H      -2.646941      0.700824     -1.100656
  H      -1.001889      1.269257     -0.763457
  H      -0.967473     -1.230187     -1.476810
  H      -1.964053     -1.589633      0.007876
  H      -0.009750     -0.929626      1.656268
  H       0.694496     -2.061796      0.370369
  H       2.892401      1.368558      1.026040
  H       1.643747      1.976229     -0.220768
15
Coordinates from ORCA-job scan E -270.888596973921
  C      -1.770495      0.563756     -0.462250
  C      -1.382350     -0.867980     -0.540363
  C       0.569453     -1.071896      0.760999
  C       1.449445     -0.123082      0.425976
  C       2.110756      1.150875      0.294609
  O       2.389300      0.038493     -0.549936
  H      -2.021059      0.813046      0.562567
  H      -2.641234      0.696287     -1.112557
  H      -0.999874      1.267292     -0.776195
  H      -0.966952     -1.235784     -1.473357
  H      -1.962535     -1.578966      0.015104
  H      -0.003712     -0.941160      1.668577
  H       0.686371     -2.063692      0.371202
  H       2.904104      1.356835      1.010664
  H       1.638780      1.995976     -0.195039
15
Coordinates from ORCA-job scan E -270.888254746691
  C      -1.780781      0.563547     -0.451941
  C      -1.378761     -0.871140     -0.544302
  C       0.566770     -1.057244      0.758142
  C       1.447018     -0.113018      0.425821
  C       2.119119      1.145617      0.286426
  O       2.398205      0.025729     -0.537996
  H      -2.048194      0.806634      0.569345
  H      -2.637842      0.696577     -1.111608
  H      -0.999347      1.270935     -0.742753
  H      -0.958844     -1.225904     -1.478072
  H      -1.959042     -1.592174      0.002121
  H      -0.017636     -0.929634      1.659754
  H       0.696921     -2.053121      0.375377
  H       2.902169      1.353030      1.014672
  H       1.650243      1.980166     -0.224983
15
Coordinates from ORCA-job scan E -270.887787274501
  C      -1.788764      0.564632     -0.441823
  C      -1.373419     -0.871929     -0.548917
  C       0.561648     -1.044498      0.757203
  C       1.442934     -0.102950      0.424970
  C       2.125491      1.140962      0.279507
  O       2.400850      0.009158     -0.530247
  H      -2.073813      0.798624      0.576809
  H      -2.633424      0.691490     -1.115973
  H      -0.998860      1.272034     -0.709484
  H      -0.947970     -1.211363     -1.483337
  H      -1.948456     -1.601901     -0.010834
  H      -0.031820     -0.918482      1.654538
  H       0.702274     -2.041385      0.382411
  H       2.907265      1.347765      1.009435
  H       1.656063      1.967844     -0.244258
15
Coordinates from ORCA-job scan E -270.887426687627
  C      -1.794547      0.564881     -0.432159
  C      -1.366764     -0.870875     -0.553547
  C       0.554458     -1.034963      0.760528
  C       1.434640     -0.092965      0.427628
  C       2.132106      1.138996      0.272653
  O       2.397880     -0.005899     -0.526135
  H      -2.100868      0.785265      0.583363
  H      -2.626123      0.689908     -1.122739
  H      -0.995264      1.268906     -0.675797
  H      -0.933700     -1.194096     -1.488392
  H      -1.936970     -1.611724     -0.024894
  H      -0.047928     -0.910060      1.652774
  H       0.702439     -2.031738      0.390942
  H       2.920393      1.344840      0.994410
  H       1.660245      1.959525     -0.258633
15
Coordinates from ORCA-job scan E -270.887156868355
  C      -1.798737      0.565391     -0.423114
  C      -1.359408     -0.868987     -0.556923
  C       0.545969     -1.026901      0.764386
  C       1.427337     -0.084722      0.429295
  C       2.137147      1.137751      0.267684
  O       2.391739     -0.020561     -0.525374
  H      -2.127160      0.769896      0.588603
  H      -2.615691      0.687469     -1.131805
  H      -0.990991      1.266053     -0.642460
  H      -0.918478     -1.177509     -1.491759
  H      -1.926711     -1.619660     -0.037939
  H      -0.063051     -0.901694      1.652114
  H       0.699502     -2.024168      0.399229
  H       2.936029      1.343850      0.975937
  H       1.662502      1.953792     -0.267872
15
Coordinates from ORCA-job scan E -270.886915164158
  C      -1.802188      0.565764     -0.414978
  C      -1.350626     -0.866554     -0.559052
  C       0.537174     -1.020022      0.769887
  C       1.420161     -0.078253      0.430708
  C       2.140235      1.136014      0.262946
  O       2.381298     -0.032911     -0.529564
  H      -2.155393      0.752044      0.591633
  H      -2.601928      0.687093     -1.143459
  H      -0.986815      1.264586     -0.606881
  H      -0.899136     -1.162615     -1.492583
  H      -1.917229     -1.626035     -0.051315
  H      -0.075850     -0.892611      1.653594
  H       0.694092     -2.018274      0.408344
  H       2.952653      1.341473      0.954233
  H       1.663550      1.950301     -0.273512
15
Coordinates from ORCA-job scan E -270.886820717843
  C      -1.805032      0.565997     -0.408380
  C      -1.340626     -0.863945     -0.559980
  C       0.529260     -1.015115      0.776435
  C       1.414394     -0.075062      0.430874
  C       2.140846      1.133188      0.258420
  O       2.367417     -0.042259     -0.539195
  H      -2.185463      0.734733      0.591212
  H      -2.585550      0.689641     -1.157208
  H      -0.983890      1.265034     -0.570496
  H      -0.877277     -1.149420     -1.491590
  H      -1.908466     -1.630982     -0.064789
  H      -0.082791     -0.882763      1.658478
  H       0.687193     -2.015155      0.419757
  H       2.967899      1.337611      0.931271
  H       1.662085      1.948496     -0.274808
15
Coordinates from ORCA-job scan E -270.886915211747
  C      -1.806726      0.565593     -0.403437
  C      -1.330614     -0.861530     -0.560406
  C       0.522174     -1.011794      0.782249
  C       1.410210     -0.075111      0.429088
  C       2.139512      1.129701      0.253972
  O       2.353086     -0.048438     -0.551767
  H      -2.213840      0.718779      0.588122
  H      -2.568124      0.695181     -1.170845
  H      -0.981943      1.266489     -0.535979
  H      -0.855894     -1.138507     -1.489681
  H      -1.900333     -1.634548     -0.076414
  H      -0.084488     -0.872438      1.666048
  H       0.679106     -2.014378      0.432077
  H       2.979171      1.333354      0.910582
  H       1.658702      1.947648     -0.273608
15
Coordinates from ORCA-job scan E -270.887156888886
  C      -1.807093      0.564217     -0.399209
  C      -1.321161     -0.859673     -0.560818
  C       0.515102     -1.008718      0.786666
  C       1.407092     -0.076922      0.425376
  C       2.137062      1.126047      0.249314
  O       2.340215     -0.052805     -0.565009
  H      -2.239388      0.703123      0.583884
  H      -2.550027      0.703208     -1.183027
  H      -0.979980      1.267623     -0.502786
  H      -0.836198     -1.129582     -1.487577
  H      -1.892872     -1.637525     -0.086284
  H      -0.083762     -0.861085      1.674026
  H       0.670028     -2.014452      0.444472
  H       2.986305      1.329399      0.893227
  H       1.654675      1.947145     -0.272254
15
Coordinates from ORCA-job scan E -270.887453823821
  C      -1.806670      0.562524     -0.395262
  C      -1.311917     -0.858137     -0.561081
  C       0.507729     -1.005977      0.790213
  C       1.404381     -0.079492      0.420373
  C       2.133799      1.122361      0.244621
  O       2.328541     -0.056429     -0.578260
  H      -2.262870      0.687698      0.578955
  H      -2.531540      0.712615     -1.193856
  H      -0.978074      1.268456     -0.470509
  H      -0.817550     -1.121771     -1.485411
  H      -1.885551     -1.639874     -0.095201
  H      -0.081982     -0.849427      1.681833
  H       0.660655     -2.015072      0.456964
  H       2.990821      1.325906      0.877907
  H       1.650226      1.946617     -0.271285
15
Coordinates from ORCA-job scan E -270.887695038558
  C      -1.806613      0.563027     -0.392082
  C      -1.302264     -0.855902     -0.561020
  C       0.500445     -1.007176      0.794563
  C       1.403553     -0.082844      0.414027
  C       2.129091      1.118947      0.241191
  O       2.319974     -0.060525     -0.591155
  H      -2.283952      0.670310      0.573777
  H      -2.513580      0.723217     -1.203908
  H      -0.977472      1.271351     -0.439736
  H      -0.798288     -1.114681     -1.482886
  H      -1.880167     -1.638972     -0.103637
  H      -0.080339     -0.840329      1.690908
  H       0.650839     -2.019039      0.469679
  H       2.993529      1.327583      0.862606
  H       1.645241      1.945034     -0.272325
15
Coordinates from ORCA-job scan E -270.887726042151
  C      -1.807168      0.565067     -0.388899
  C      -1.292270     -0.852827     -0.560941
  C       0.493113     -1.008726      0.799242
  C       1.402014     -0.086186      0.407895
  C       2.125691      1.115028      0.237042
  O       2.311829     -0.065205     -0.602916
  H      -2.304895      0.649609      0.568659
  H      -2.495633      0.734226     -1.213878
  H      -0.978550      1.275765     -0.408260
  H      -0.778318     -1.106629     -1.480184
  H      -1.874629     -1.637169     -0.112138
  H      -0.078111     -0.832290      1.700255
  H       0.640756     -2.022831      0.482217
  H       2.995068      1.331126      0.848914
  H       1.641101      1.941043     -0.277005
15
Coordinates from ORCA-job scan E -270.887623894411
  C      -1.809240      0.567377     -0.385716
  C      -1.282833     -0.849880     -0.560687
  C       0.485830     -1.009018      0.803105
  C       1.400832     -0.088618      0.401605
  C       2.124379      1.110221      0.232622
  O       2.305594     -0.070634     -0.614182
  H      -2.326211      0.627354      0.563284
  H      -2.479586      0.745059     -1.222897
  H      -0.982476      1.280470     -0.377641
  H      -0.759587     -1.098393     -1.477464
  H      -1.868945     -1.635878     -0.120104
  H      -0.075316     -0.823634      1.708672
  H       0.631204     -2.025305      0.494046
  H       2.995816      1.334690      0.838690
  H       1.640537      1.936188     -0.283333
15
Coordinates from ORCA-job scan E -270.887466749499
  C      -1.813335      0.568602     -0.382081
  C      -1.274673     -0.847692     -0.560479
  C       0.478106     -1.006869      0.805361
  C       1.399879     -0.089571      0.395745
  C       2.126162      1.105029      0.228313
  O       2.301709     -0.076612     -0.623727
  H      -2.348870      0.604752      0.557684
  H      -2.466238      0.754679     -1.230494
  H      -0.989556      1.284160     -0.347664
  H      -0.743602     -1.089634     -1.475602
  H      -1.862999     -1.636506     -0.127903
  H      -0.072619     -0.813449      1.715070
  H       0.622589     -2.025466      0.505163
  H       2.997821      1.337016      0.831503
  H       1.645623      1.931560     -0.290888
15
Coordinates from ORCA-job scan E -270.887420634788
  C      -1.816546      0.568301     -0.377346
  C      -1.266993     -0.846559     -0.560133
  C       0.469681     -1.003073      0.805897
  C       1.398040     -0.090098      0.389570
  C       2.127622      1.099893      0.223689
  O       2.298913     -0.082873     -0.631873
  H      -2.370756      0.585132      0.552130
  H      -2.452505      0.764301     -1.236016
  H      -0.995239      1.285286     -0.317582
  H      -0.730240     -1.080347     -1.474808
  H      -1.856464     -1.639406     -0.136149
  H      -0.069801     -0.802086      1.719449
  H       0.614666     -2.024339      0.516437
  H       2.997859      1.338779      0.826586
  H       1.651763      1.927088     -0.299849
15
Coordinates from ORCA-job scan E -270.887722960407
  C      -1.818729      0.565598     -0.372743
  C      -1.259306     -0.846064     -0.557836
  C       0.461044     -0.998186      0.804187
  C       1.395871     -0.090818      0.382784
  C       2.128906      1.095579      0.219469
  O       2.296183     -0.087819     -0.639853
  H      -2.392023      0.569794      0.545510
  H      -2.438577      0.771805     -1.240903
  H      -1.000843      1.284351     -0.290205
  H      -0.720903     -1.071567     -1.473499
  H      -1.850425     -1.642950     -0.144083
  H      -0.065811     -0.789836      1.722777
  H       0.607990     -2.022642      0.527113
  H       2.998299      1.337422      0.822671
  H       1.658321      1.925331     -0.305388
15
Coordinates from ORCA-job scan E -270.888537394236
  C      -1.817174      0.563382     -0.380952
  C      -1.267944     -0.847692     -0.558166
  C       0.470709     -1.002340      0.801883
  C       1.404773     -0.097980      0.384515
  C       2.127329      1.098434      0.229077
  O       2.305019     -0.080712     -0.637565
  H      -2.368947      0.592620      0.551315
  H      -2.462999      0.770071     -1.231565
  H      -0.997354      1.282136     -0.333291
  H      -0.735202     -1.083553     -1.473251
  H      -1.857124     -1.641786     -0.133729
  H      -0.058911     -0.796640      1.719469
  H       0.610919     -2.026820      0.517650
  H       2.994220      1.342176      0.834475
  H       1.652684      1.928704     -0.289866
15
Coordinates from ORCA-job scan E -270.889484915476
  C      -1.818732      0.557634     -0.379298
  C      -1.260706     -0.848248     -0.552455
  C       0.462611     -0.997544      0.795392
  C       1.405899     -0.101104      0.376481
  C       2.128558      1.095540      0.229424
  O       2.305403     -0.081955     -0.646197
  H      -2.383802      0.588730      0.545945
  H      -2.458456      0.773381     -1.233337
  H      -1.003995      1.280578     -0.323415
  H      -0.732950     -1.079444     -1.471080
  H      -1.854152     -1.645899     -0.137297
  H      -0.051824     -0.785205      1.720687
  H       0.606560     -2.026630      0.525068
  H       2.995064      1.338538      0.835652
  H       1.660522      1.931628     -0.285570
15
Coordinates from ORCA-job scan E -270.890070551457
  C      -1.817810      0.555627     -0.387161
  C      -1.269936     -0.849103     -0.553067
  C       0.473477     -1.001885      0.794018
  C       1.415683     -0.109418      0.378349
  C       2.126735      1.097607      0.238224
  O       2.315094     -0.075197     -0.643644
  H      -2.362359      0.610286      0.550284
  H      -2.481355      0.772903     -1.223967
  H      -1.001854      1.278716     -0.364641
  H      -0.746601     -1.089889     -1.470770
  H      -1.860425     -1.644630     -0.127949
  H      -0.042460     -0.791897      1.718739
  H       0.608044     -2.030970      0.516129
  H       2.989679      1.344527      0.847551
  H       1.654085      1.933323     -0.272094
15
Coordinates from ORCA-job scan E -270.890776844204
  C      -1.815779      0.552568     -0.394391
  C      -1.278637     -0.849927     -0.551769
  C       0.483616     -1.006179      0.790810
  C       1.425789     -0.118781      0.379071
  C       2.123957      1.099987      0.246450
  O       2.326141     -0.068017     -0.640745
  H      -2.340512      0.633263      0.553433
  H      -2.501987      0.772205     -1.213882
  H      -1.000310      1.276582     -0.405908
  H      -0.762126     -1.100085     -1.470176
  H      -1.867196     -1.643601     -0.118363
  H      -0.031217     -0.798528      1.716471
  H       0.608728     -2.035833      0.507094
  H       2.981547      1.350592      0.861645
  H       1.647985      1.935754     -0.259738
15
Coordinates from ORCA-job scan E -270.891302712110
  C      -1.813013      0.550258     -0.400823
  C      -1.287375     -0.850693     -0.550377
  C       0.493897     -1.011146      0.787599
  C       1.435483     -0.127415      0.380304
  C       2.120224      1.102802      0.253693
  O       2.338005     -0.061265     -0.636033
  H      -2.316744      0.656652      0.556665
  H      -2.520845      0.771660     -1.202906
  H      -0.998356      1.274123     -0.446235
  H      -0.777940     -1.109944     -1.469783
  H      -1.873999     -1.642335     -0.108839
  H      -0.021583     -0.806577      1.713378
  H       0.609946     -2.040926      0.497602
  H       2.971367      1.357385      0.876069
  H       1.640930      1.937421     -0.250312
15
Coordinates from ORCA-job scan E -270.891670685710
  C      -1.809914      0.548755     -0.406656
  C      -1.296041     -0.851446     -0.549144
  C       0.504189     -1.016678      0.784462
  C       1.444940     -0.135351      0.382069
  C       2.115915      1.105823      0.260332
  O       2.350585     -0.055061     -0.629838
  H      -2.291328      0.679955      0.559939
  H      -2.538675      0.771610     -1.190925
  H      -0.996328      1.271200     -0.485762
  H      -0.793719     -1.119467     -1.469612
  H      -1.880692     -1.640840     -0.099514
  H      -0.013789     -0.815484      1.709371
  H       0.611847     -2.046213      0.488047
  H       2.959983      1.365018      0.890315
  H       1.633026      1.938179     -0.243081
15
Coordinates from ORCA-job scan E -270.891912600373
  C      -1.806645      0.548044     -0.412042
  C      -1.304565     -0.852194     -0.548215
  C       0.514349     -1.022643      0.781479
  C       1.454092     -0.142570      0.384411
  C       2.111278      1.108899      0.266558
  O       2.363471     -0.049372     -0.622506
  H      -2.264497      0.702675      0.563148
  H      -2.555720      0.772071     -1.178013
  H      -0.994418      1.267829     -0.524423
  H      -0.809272     -1.128678     -1.469714
  H      -1.887256     -1.639039     -0.090443
  H      -0.007860     -0.824856      1.704524
  H       0.614542     -2.051615      0.478678
  H       2.948035      1.373339      0.904002
  H       1.624464      1.938109     -0.237443
15
Coordinates from ORCA-job scan E -270.892061533492
  C      -1.803270      0.548061     -0.417095
  C      -1.312889     -0.852934     -0.547697
  C       0.524245     -1.028893      0.778726
  C       1.462807     -0.149041      0.387347
  C       2.106500      1.111915      0.272481
  O       2.376213     -0.044136     -0.614376
  H      -2.236498      0.724392      0.566193
  H      -2.572048      0.772953     -1.164288
  H      -0.992749      1.264074     -0.562079
  H      -0.824465     -1.137593     -1.470142
  H      -1.893708     -1.636851     -0.081680
  H      -0.003725     -0.834382      1.698968
  H       0.618115     -2.057037      0.469691
  H       2.936012      1.382130      0.916870
  H       1.615459      1.937343     -0.232917
15
Coordinates from ORCA-job scan E -270.892150284901
  C      -1.799820      0.548667     -0.421917
  C      -1.320934     -0.853664     -0.547594
  C       0.533727     -1.035279      0.776172
  C       1.471008     -0.154796      0.390803
  C       2.101716      1.114772      0.278209
  O       2.388485     -0.039281     -0.605782
  H      -2.207565      0.744892      0.568963
  H      -2.587720      0.774103     -1.149839
  H      -0.991487      1.260027     -0.598744
  H      -0.839284     -1.146229     -1.470928
  H      -1.900089     -1.634223     -0.073255
  H      -0.001149     -0.843790      1.692846
  H       0.622611     -2.062422      0.461255
  H       2.924242      1.391165      0.928851
  H       1.606257      1.936056     -0.229039
15
Coordinates from ORCA-job scan E -270.892206792114
  C      -1.796314      0.549662     -0.426593
  C      -1.328540     -0.854387     -0.547764
  C       0.542567     -1.041641      0.773600
  C       1.478714     -0.159934      0.394621
  C       2.097024      1.117391      0.283893
  O       2.400171     -0.034731     -0.597003
  H      -2.177844      0.764241      0.571340
  H      -2.602887      0.775262     -1.134650
  H      -0.990900      1.255792     -0.634717
  H      -0.853899     -1.154610     -1.472103
  H      -1.906469     -1.631129     -0.065168
  H       0.000247     -0.852846      1.686266
  H       0.628077     -2.067766      0.453519
  H       2.912888      1.400219      0.940100
  H       1.597162      1.934478     -0.225341
15
Coordinates from ORCA-job scan E -270.892250680457
  C      -1.792790      0.550793     -0.431144
  C      -1.335330     -0.855120     -0.547876
  C       0.550278     -1.047747      0.770511
  C       1.485978     -0.164547      0.398565
  C       2.092556      1.119688      0.289717
  O       2.411320     -0.030464     -0.588255
  H      -2.147478      0.782671      0.573206
  H      -2.617795      0.775923     -1.118600
  H      -0.991460      1.251513     -0.670451
  H      -0.868628     -1.162696     -1.473731
  H      -1.912927     -1.627554     -0.057458
  H       0.000852     -0.861291      1.679260
  H       0.634636     -2.073090      0.446698
  H       2.902069      1.409000      0.950947
  H       1.588717      1.932922     -0.221388
15
Coordinates from ORCA-job scan E -270.892297472750
  C      -1.789577      0.551435     -0.435288
  C      -1.339736     -0.855865     -0.546847
  C       0.554976     -1.052729      0.765353
  C       1.492776     -0.168591      0.401965
  C       2.088903      1.121370      0.295922
  O       2.422055     -0.026811     -0.580047
  H      -2.118022      0.800212      0.574322
  H      -2.632740      0.774447     -1.101773
  H      -0.994594      1.247709     -0.705750
  H      -0.883786     -1.169893     -1.475930
  H      -1.919422     -1.623587     -0.050641
  H       0.001138     -0.868140      1.671780
  H       0.642599     -2.078257      0.441656
  H       2.892479      1.416505      0.961882
  H       1.582947      1.932194     -0.216604
15
Coordinates from ORCA-job scan E -270.892273522117
  C      -1.794392      0.547395     -0.431202
  C      -1.334419     -0.855212     -0.546949
  C       0.547875     -1.046304      0.765493
  C       1.490727     -0.167351      0.395046
  C       2.092363      1.118157      0.292461
  O       2.418728     -0.031953     -0.587990
  H      -2.145282      0.785573      0.573237
  H      -2.624269      0.776305     -1.111900
  H      -0.996841      1.250209     -0.677790
  H      -0.870805     -1.162578     -1.475140
  H      -1.913836     -1.627541     -0.058470
  H       0.004095     -0.855726      1.676876
  H       0.634730     -2.074659      0.449593
  H       2.897786      1.410621      0.957417
  H       1.593539      1.933064     -0.220683
15
Coordinates from ORCA-job scan E -270.892212500657
  C      -1.799256      0.542692     -0.427416
  C      -1.329207     -0.854946     -0.547094
  C       0.540183     -1.041489      0.765550
  C       1.489336     -0.165702      0.388300
  C       2.096407      1.115365      0.289629
  O       2.415160     -0.036975     -0.596524
  H      -2.171682      0.770458      0.571481
  H      -2.616409      0.779399     -1.120695
  H      -0.999750      1.252951     -0.649975
  H      -0.857696     -1.156682     -1.474576
  H      -1.909448     -1.630485     -0.066196
  H       0.006226     -0.843622      1.681700
  H       0.627264     -2.072161      0.457634
  H       2.903050      1.406815      0.953901
  H       1.605819      1.934382     -0.225718
15
Coordinates from ORCA-job scan E -270.891990596794
  C      -1.802205      0.536876     -0.423905
  C      -1.322973     -0.854735     -0.547187
  C       0.532411     -1.039262      0.766036
  C       1.488803     -0.164494      0.382446
  C       2.099035      1.112028      0.287295
  O       2.409947     -0.045968     -0.605084
  H      -2.194794      0.756539      0.569042
  H      -2.607844      0.786211     -1.126476
  H      -1.003460      1.258280     -0.622374
  H      -0.844059     -1.151582     -1.474579
  H      -1.905474     -1.633186     -0.073926
  H       0.007012     -0.833818      1.686195
  H       0.621595     -2.071186      0.464967
  H       2.903943      1.410193      0.951345
  H       1.618060      1.934102     -0.233794
15
Coordinates from ORCA-job scan E -270.891585715122
  C      -1.803057      0.530456     -0.419786
  C      -1.313845     -0.853791     -0.548573
  C       0.523287     -1.038679      0.770307
  C       1.482790     -0.160514      0.381772
  C       2.102977      1.108806      0.282731
  O       2.396363     -0.059557     -0.612011
  H      -2.218452      0.739456      0.566620
  H      -2.595934      0.793864     -1.132525
  H      -1.010628      1.270182     -0.588388
  H      -0.824710     -1.143363     -1.475102
  H      -1.899334     -1.636813     -0.086850
  H       0.004219     -0.828082      1.692553
  H       0.617682     -2.069973      0.473817
  H       2.908765      1.416441      0.942089
  H       1.629876      1.931566     -0.246652
15
Coordinates from ORCA-job scan E -270.890829514257
  C      -1.802613      0.523399     -0.416998
  C      -1.305470     -0.851305     -0.544440
  C       0.519068     -1.035732      0.766775
  C       1.488989     -0.160732      0.379224
  C       2.101936      1.103358      0.283223
  O       2.395519     -0.072721     -0.613907
  H      -2.231254      0.738904      0.568825
  H      -2.596307      0.795422     -1.134745
  H      -1.018195      1.278727     -0.577681
  H      -0.816870     -1.135133     -1.479363
  H      -1.899133     -1.639610     -0.092953
  H       0.005492     -0.821543      1.693673
  H       0.618611     -2.073812      0.478324
  H       2.905014      1.425666      0.941135
  H       1.635211      1.925114     -0.251092
15
Coordinates from ORCA-job scan E -270.891387516832
  C      -1.800557      0.528148     -0.415770
  C      -1.312206     -0.855515     -0.549168
  C       0.515916     -1.035186      0.768081
  C       1.475071     -0.154994      0.383909
  C       2.107148      1.106827      0.281585
  O       2.385773     -0.066917     -0.613383
  H      -2.225319      0.728680      0.568083
  H      -2.586120      0.795142     -1.134965
  H      -1.008942      1.274588     -0.573884
  H      -0.817968     -1.140789     -1.474422
  H      -1.899768     -1.638990     -0.094575
  H       0.006343     -0.826418      1.695265
  H       0.615712     -2.064937      0.474992
  H       2.908772      1.421658      0.940166
  H       1.636144      1.928703     -0.255911
15
Coordinates from ORCA-job scan E -270.891049868827
  C      -1.792401      0.534951     -0.415294
  C      -1.314948     -0.861234     -0.549745
  C       0.511385     -1.038702      0.767453
  C       1.462333     -0.147024      0.384928
  C       2.102812      1.105458      0.281910
  O       2.368366     -0.064571     -0.619599
  H      -2.217039      0.726932      0.566242
  H      -2.570283      0.792822     -1.140467
  H      -1.001143      1.280269     -0.571264
  H      -0.815281     -1.149416     -1.469930
  H      -1.900686     -1.638755     -0.090047
  H       0.012518     -0.834136      1.702045
  H       0.612857     -2.063974      0.468806
  H       2.905891      1.422962      0.937331
  H       1.635616      1.934418     -0.252369
15
Coordinates from ORCA-job scan E -270.890327421748
  C      -1.795226      0.525944     -0.408340
  C      -1.308229     -0.858489     -0.552905
  C       0.503714     -1.036985      0.771259
  C       1.461033     -0.142281      0.390407
  C       2.114152      1.108829      0.278219
  O       2.362099     -0.083537     -0.611042
  H      -2.242273      0.712910      0.570299
  H      -2.567085      0.802170     -1.142348
  H      -1.009914      1.291657     -0.538942
  H      -0.800803     -1.136637     -1.479119
  H      -1.893203     -1.646797     -0.105536
  H      -0.002515     -0.832480      1.701796
  H       0.614340     -2.063488      0.477269
  H       2.917726      1.437370      0.926250
  H       1.646180      1.921814     -0.277267
15
Coordinates from ORCA-job scan E -270.890282490848
  C      -1.787201      0.533035     -0.410003
  C      -1.313105     -0.863418     -0.551791
  C       0.504618     -1.042618      0.772298
  C       1.450923     -0.141193      0.390504
  C       2.109443      1.106145      0.275902
  O       2.353269     -0.073344     -0.617976
  H      -2.235295      0.709767      0.567992
  H      -2.551567      0.801779     -1.151781
  H      -1.002473      1.295692     -0.538979
  H      -0.800540     -1.146076     -1.472599
  H      -1.901805     -1.645041     -0.097905
  H       0.005000     -0.841111      1.708466
  H       0.608899     -2.066312      0.471745
  H       2.915925      1.440305      0.923449
  H       1.643906      1.932389     -0.269321
15
Coordinates from ORCA-job scan E -270.890087022901
  C      -1.780936      0.540591     -0.411687
  C      -1.318715     -0.867548     -0.550013
  C       0.506614     -1.046869      0.771321
  C       1.441315     -0.141962      0.390810
  C       2.107245      1.103127      0.275405
  O       2.350267     -0.063926     -0.619721
  H      -2.226967      0.709466      0.567462
  H      -2.541372      0.798683     -1.159341
  H      -0.997510      1.300674     -0.543768
  H      -0.801265     -1.153658     -1.465491
  H      -1.913086     -1.641565     -0.092270
  H       0.012881     -0.851793      1.712049
  H       0.606873     -2.069439      0.466622
  H       2.915002      1.447123      0.920482
  H       1.639653      1.937097     -0.261859
15
Coordinates from ORCA-job scan E -270.889622992811
  C      -1.776816      0.547034     -0.413836
  C      -1.322221     -0.868900     -0.546903
  C       0.509997     -1.050666      0.771330
  C       1.433473     -0.141160      0.392343
  C       2.105684      1.098364      0.275473
  O       2.347673     -0.057322     -0.620585
  H      -2.218024      0.713707      0.567684
  H      -2.537032      0.793186     -1.165019
  H      -0.995845      1.306545     -0.552757
  H      -0.799081     -1.155516     -1.457154
  H      -1.922703     -1.636505     -0.090863
  H       0.019120     -0.865588      1.716711
  H       0.609010     -2.073558      0.462509
  H       2.913618      1.454385      0.916350
  H       1.633146      1.935995     -0.255282
15
Coordinates from ORCA-job scan E -270.889210409472
  C      -1.775546      0.552218     -0.418546
  C      -1.325837     -0.867844     -0.544296
  C       0.515284     -1.054171      0.770191
  C       1.429628     -0.142208      0.392219
  C       2.104611      1.093157      0.277803
  O       2.350793     -0.049867     -0.620135
  H      -2.204767      0.723641      0.567578
  H      -2.542141      0.788223     -1.166177
  H      -0.994112      1.307179     -0.570488
  H      -0.799048     -1.156717     -1.448682
  H      -1.931215     -1.630484     -0.087656
  H       0.026189     -0.879795      1.720325
  H       0.611452     -2.077899      0.458346
  H       2.910576      1.462271      0.915148
  H       1.624131      1.932297     -0.245629
15
Coordinates from ORCA-job scan E -270.888799267673
  C      -1.774817      0.555422     -0.423900
  C      -1.329924     -0.866111     -0.542506
  C       0.520336     -1.057926      0.769029
  C       1.427008     -0.142741      0.391675
  C       2.103381      1.089712      0.281353
  O       2.354644     -0.042999     -0.618658
  H      -2.190082      0.735618      0.567023
  H      -2.550281      0.786480     -1.163862
  H      -0.990344      1.303269     -0.590039
  H      -0.799730     -1.159288     -1.440972
  H      -1.939596     -1.624650     -0.085322
  H       0.033074     -0.894423      1.723566
  H       0.613823     -2.082266      0.454558
  H       2.907358      1.471195      0.914527
  H       1.615149      1.928709     -0.236470
15
Coordinates from ORCA-job scan E -270.888488459061
  C      -1.773161      0.557950     -0.430073
  C      -1.335371     -0.864755     -0.540805
  C       0.526083     -1.062355      0.767549
  C       1.425232     -0.143460      0.390140
  C       2.100639      1.088557      0.286537
  O       2.357935     -0.034331     -0.617465
  H      -2.171324      0.751016      0.565871
  H      -2.559690      0.786254     -1.159144
  H      -0.983775      1.295474     -0.614703
  H      -0.804345     -1.165721     -1.434539
  H      -1.948680     -1.618909     -0.080969
  H       0.041572     -0.909013      1.726082
  H       0.616470     -2.086956      0.449988
  H       2.903033      1.478628      0.916615
  H       1.605380      1.927620     -0.225083
15
Coordinates from ORCA-job scan E -270.888350321069
  C      -1.769875      0.560566     -0.436952
  C      -1.341630     -0.864236     -0.538695
  C       0.532882     -1.067622      0.766428
  C       1.423796     -0.144461      0.387691
  C       2.095698      1.089507      0.292872
  O       2.358260     -0.023223     -0.618304
  H      -2.147705      0.770369      0.563862
  H      -2.569092      0.786491     -1.152887
  H      -0.974973      1.285371     -0.645040
  H      -0.812774     -1.175550     -1.429344
  H      -1.957618     -1.613650     -0.074013
  H       0.051556     -0.923327      1.728112
  H       0.620203     -2.092020      0.444923
  H       2.897305      1.482286      0.922050
  H       1.593967      1.929500     -0.210703
15
Coordinates from ORCA-job scan E -270.888399184320
  C      -1.765573      0.563401     -0.444122
  C      -1.347935     -0.864340     -0.535981
  C       0.540948     -1.073595      0.766266
  C       1.422970     -0.145961      0.384626
  C       2.089163      1.091780      0.299430
  O       2.356047     -0.010713     -0.621208
  H      -2.121375      0.792414      0.560781
  H      -2.578235      0.786616     -1.145679
  H      -0.965789      1.274419     -0.678661
  H      -0.822697     -1.186295     -1.424788
  H      -1.966088     -1.608921     -0.065580
  H       0.061873     -0.936864      1.729680
  H       0.625093     -2.097091      0.439908
  H       2.890548      1.482094      0.929915
  H       1.581045      1.933056     -0.194589
15
Coordinates from ORCA-job scan E -270.888620813191
  C      -1.761003      0.565951     -0.451333
  C      -1.354300     -0.864827     -0.533264
  C       0.550045     -1.079689      0.767172
  C       1.422674     -0.147518      0.381603
  C       2.082003      1.095184      0.305877
  O       2.352030      0.002577     -0.625178
  H      -2.094377      0.814606      0.556773
  H      -2.586755      0.786999     -1.138204
  H      -0.957032      1.262429     -0.712656
  H      -0.833257     -1.197091     -1.420589
  H      -1.974794     -1.604406     -0.056826
  H       0.071298     -0.948846      1.730846
  H       0.631302     -2.101725      0.435019
  H       2.884460      1.478625      0.938415
  H       1.567703      1.937729     -0.177652
15
Coordinates from ORCA-job scan E -270.889083674597
  C      -1.756925      0.568021     -0.458527
  C      -1.360774     -0.865462     -0.530692
  C       0.560377     -1.085254      0.768895
  C       1.423906     -0.149453      0.378309
  C       2.074423      1.099869      0.312246
  O       2.347890      0.016624     -0.629526
  H      -2.067269      0.836777      0.551914
  H      -2.595724      0.787440     -1.129993
  H      -0.949169      1.248555     -0.747137
  H      -0.845063     -1.207627     -1.417131
  H      -1.983446     -1.600156     -0.047856
  H       0.079620     -0.957987      1.731036
  H       0.638748     -2.105617      0.430407
  H       2.879174      1.470907      0.947984
  H       1.554228      1.943363     -0.159926
15
Coordinates from ORCA-job scan E -270.889549989911
  C      -1.763496      0.565920     -0.453455
  C      -1.355471     -0.864298     -0.531010
  C       0.555417     -1.077934      0.765730
  C       1.430989     -0.152031      0.376008
  C       2.078689      1.099001      0.308344
  O       2.359934      0.010300     -0.626395
  H      -2.085078      0.827309      0.555121
  H      -2.597151      0.783787     -1.131363
  H      -0.955175      1.249631     -0.730549
  H      -0.843767     -1.199321     -1.422075
  H      -1.976487     -1.604164     -0.052055
  H       0.072674     -0.942206      1.725154
  H       0.635693     -2.101136      0.435372
  H       2.880803      1.464336      0.949788
  H       1.562425      1.940806     -0.168613
15
Coordinates from ORCA-job scan E -270.889953184252
  C      -1.760233      0.568002     -0.460697
  C      -1.362932     -0.865138     -0.529571
  C       0.567018     -1.083082      0.768224
  C       1.433584     -0.154426      0.373249
  C       2.071710      1.103655      0.314765
  O       2.356572      0.024326     -0.630292
  H      -2.058957      0.847529      0.550070
  H      -2.606329      0.784849     -1.123225
  H      -0.948613      1.235787     -0.764041
  H      -0.855651     -1.209792     -1.419047
  H      -1.985039     -1.599966     -0.042924
  H       0.080329     -0.949334      1.724889
  H       0.642850     -2.104349      0.430590
  H       2.876482      1.455853      0.958975
  H       1.549206      1.946085     -0.150965
15
Coordinates from ORCA-job scan E -270.890820089719
  C      -1.765182      0.566038     -0.460396
  C      -1.361690     -0.864515     -0.527965
  C       0.570477     -1.079439      0.767950
  C       1.443819     -0.157683      0.369549
  C       2.070342      1.109221      0.315409
  O       2.365637      0.027366     -0.629231
  H      -2.058671      0.854768      0.549377
  H      -2.616376      0.780396     -1.117294
  H      -0.951979      1.226124     -0.772711
  H      -0.864352     -1.207669     -1.423580
  H      -1.984139     -1.602281     -0.042533
  H       0.076482     -0.937268      1.718168
  H       0.648458     -2.102033      0.433272
  H       2.877045      1.436729      0.967846
  H       1.550125      1.950249     -0.147861
15
Coordinates from ORCA-job scan E -270.891371779825
  C      -1.765390      0.565366     -0.464868
  C      -1.366387     -0.865208     -0.527180
  C       0.580368     -1.081946      0.772013
  C       1.449700     -0.158671      0.368956
  C       2.065988      1.117141      0.319951
  O       2.364185      0.035984     -0.630145
  H      -2.042561      0.869383      0.545316
  H      -2.626826      0.779231     -1.109032
  H      -0.952409      1.214922     -0.797261
  H      -0.875792     -1.212903     -1.425040
  H      -1.989696     -1.601614     -0.038720
  H       0.077163     -0.936566      1.715738
  H       0.658351     -2.102766      0.431642
  H       2.878492      1.419819      0.975313
  H       1.544812      1.957828     -0.136683
15
Coordinates from ORCA-job scan E -270.891793386915
  C      -1.770496      0.562429     -0.464044
  C      -1.366179     -0.865293     -0.527907
  C       0.583367     -1.078869      0.774260
  C       1.458117     -0.158932      0.370814
  C       2.068055      1.123957      0.320259
  O       2.369500      0.034372     -0.626060
  H      -2.045812      0.869628      0.545794
  H      -2.635597      0.774558     -1.104332
  H      -0.960462      1.211937     -0.801154
  H      -0.883039     -1.209958     -1.431313
  H      -1.988695     -1.604941     -0.041354
  H       0.069628     -0.925247      1.710169
  H       0.665258     -2.099446      0.433725
  H       2.884809      1.402480      0.979196
  H       1.551544      1.963325     -0.138052
15
Coordinates from ORCA-job scan E -270.892009597783
  C      -1.776716      0.559105     -0.461804
  C      -1.365970     -0.865600     -0.530878
  C       0.584016     -1.074058      0.775812
  C       1.466395     -0.158589      0.374974
  C       2.073661      1.128905      0.319559
  O       2.376956      0.028559     -0.619681
  H      -2.053603      0.862423      0.548751
  H      -2.643669      0.770073     -1.100337
  H      -0.971090      1.213151     -0.798722
  H      -0.888511     -1.205711     -1.439311
  H      -1.985408     -1.609204     -0.045290
  H       0.059440     -0.911272      1.703609
  H       0.669260     -2.094509      0.435901
  H       2.892681      1.390190      0.981392
  H       1.562556      1.966538     -0.143973
15
Coordinates from ORCA-job scan E -270.892138538760
  C      -1.783175      0.556168     -0.460540
  C      -1.369186     -0.866483     -0.537076
  C       0.586302     -1.069356      0.777882
  C       1.475171     -0.158306      0.381220
  C       2.081121      1.132401      0.320092
  O       2.386179      0.022580     -0.611655
  H      -2.056705      0.852965      0.552762
  H      -2.654177      0.767705     -1.093667
  H      -0.982751      1.214536     -0.800067
  H      -0.895120     -1.203772     -1.448410
  H      -1.982070     -1.613128     -0.047657
  H       0.048864     -0.897478      1.696251
  H       0.671156     -2.089111      0.436436
  H       2.900662      1.383781      0.984210
  H       1.573726      1.967498     -0.149777
15
Coordinates from ORCA-job scan E -270.892213099382
  C      -1.790832      0.553271     -0.456278
  C      -1.368906     -0.866282     -0.543606
  C       0.582935     -1.062402      0.776903
  C       1.482763     -0.158694      0.386446
  C       2.090629      1.131159      0.317546
  O       2.399891      0.011647     -0.602397
  H      -2.069455      0.836843      0.559270
  H      -2.660996      0.765598     -1.090417
  H      -0.994502      1.220496     -0.787499
  H      -0.895848     -1.197394     -1.457695
  H      -1.973906     -1.617927     -0.052236
  H       0.037503     -0.882126      1.688952
  H       0.666738     -2.083318      0.438926
  H       2.906322      1.386275      0.984880
  H       1.587663      1.962853     -0.162795
15
Coordinates from ORCA-job scan E -270.892217363382
  C      -1.797015      0.550831     -0.449425
  C      -1.364779     -0.865547     -0.545617
  C       0.574461     -1.056073      0.773301
  C       1.487250     -0.159048      0.387040
  C       2.098630      1.125537      0.311949
  O       2.412027     -0.001491     -0.597315
  H      -2.094629      0.819732      0.564571
  H      -2.657279      0.764129     -1.096638
  H      -1.001275      1.230399     -0.758188
  H      -0.888763     -1.186824     -1.461557
  H      -1.967649     -1.623169     -0.059724
  H       0.029056     -0.870284      1.684118
  H       0.661054     -2.079380      0.444519
  H       2.909258      1.395639      0.980376
  H       1.599653      1.955551     -0.177409
15
Coordinates from ORCA-job scan E -270.892039881914
  C      -1.789404      0.551616     -0.452770
  C      -1.369497     -0.868461     -0.545139
  C       0.581832     -1.059391      0.772344
  C       1.483969     -0.161188      0.382739
  C       2.086564      1.135933      0.317836
  O       2.401629      0.007202     -0.598014
  H      -2.075048      0.839435      0.564094
  H      -2.657349      0.775430     -1.084897
  H      -0.983080      1.207644     -0.780375
  H      -0.896670     -1.202959     -1.457493
  H      -1.973128     -1.621721     -0.056490
  H       0.036877     -0.876573      1.681880
  H       0.664154     -2.081391      0.438670
  H       2.895009      1.390520      0.985102
  H       1.594142      1.963904     -0.167486
15
Coordinates from ORCA-job scan E -270.891981177978
  C      -1.780579      0.550673     -0.453487
  C      -1.366274     -0.869455     -0.535710
  C       0.576112     -1.062268      0.768734
  C       1.474188     -0.156601      0.376890
  C       2.081202      1.136580      0.317658
  O       2.389828      0.013630     -0.606203
  H      -2.072156      0.841003      0.561163
  H      -2.641707      0.776079     -1.094158
  H      -0.969272      1.202894     -0.774765
  H      -0.899339     -1.209530     -1.449852
  H      -1.981373     -1.616706     -0.056042
  H       0.041701     -0.888804      1.688799
  H       0.662750     -2.084014      0.435958
  H       2.892119      1.394853      0.981788
  H       1.592799      1.971666     -0.160773
15
Coordinates from ORCA-job scan E -270.891859977423
  C      -1.770161      0.550371     -0.454570
  C      -1.363227     -0.871291     -0.525348
  C       0.571834     -1.065970      0.765312
  C       1.463643     -0.150675      0.372878
  C       2.074958      1.139257      0.318358
  O       2.375980      0.020802     -0.612555
  H      -2.064561      0.844027      0.558220
  H      -2.625824      0.775702     -1.102081
  H      -0.953733      1.196429     -0.774236
  H      -0.906310     -1.219872     -1.441831
  H      -1.992536     -1.610843     -0.053686
  H       0.046374     -0.902060      1.692916
  H       0.662875     -2.086105      0.429556
  H       2.888988      1.397925      0.979514
  H       1.591697      1.982303     -0.152444
15
Coordinates from ORCA-job scan E -270.891702192827
  C      -1.760051      0.550826     -0.455294
  C      -1.359464     -0.873244     -0.514826
  C       0.568059     -1.069680      0.761913
  C       1.453378     -0.144670      0.369642
  C       2.068832      1.141956      0.318920
  O       2.363235      0.026849     -0.617297
  H      -2.056570      0.847638      0.555590
  H      -2.611054      0.773919     -1.109108
  H      -0.939002      1.190747     -0.775358
  H      -0.913701     -1.229977     -1.433837
  H      -2.004009     -1.604598     -0.050993
  H       0.051073     -0.914908      1.695542
  H       0.663775     -2.087742      0.421894
  H       2.885252      1.400552      0.978132
  H       1.590248      1.992331     -0.144920
15
Coordinates from ORCA-job scan E -270.891521234037
  C      -1.750270      0.551559     -0.456285
  C      -1.355431     -0.875190     -0.504070
  C       0.564449     -1.073189      0.757852
  C       1.443827     -0.139076      0.366224
  C       2.062801      1.144441      0.319861
  O       2.352295      0.032833     -0.621401
  H      -2.047915      0.852148      0.552692
  H      -2.597570      0.771262     -1.115511
  H      -0.925175      1.185528     -0.778194
  H      -0.921871     -1.240258     -1.425604
  H      -2.015158     -1.597403     -0.047160
  H       0.056414     -0.927418      1.697369
  H       0.665167     -2.089055      0.413376
  H       2.880719      1.402656      0.978280
  H       1.587717      2.001163     -0.137427
15
Coordinates from ORCA-job scan E -270.891354780552
  C      -1.740255      0.552275     -0.457804
  C      -1.352130     -0.877568     -0.492883
  C       0.560492     -1.076176      0.752120
  C       1.435028     -0.134062      0.361604
  C       2.056543      1.146766      0.321620
  O       2.343327      0.039975     -0.625785
  H      -2.037585      0.858835      0.549022
  H      -2.584729      0.768526     -1.121368
  H      -0.911369      1.179853     -0.783127
  H      -0.931287     -1.251896     -1.416620
  H      -2.025989     -1.589817     -0.040832
  H       0.062834     -0.939703      1.698223
  H       0.666998     -2.089801      0.403831
  H       2.874712      1.403888      0.980982
  H       1.583408      2.008906     -0.128982
15
Coordinates from ORCA-job scan E -270.891269136934
  C      -1.730003      0.553021     -0.459267
  C      -1.348603     -0.880128     -0.481487
  C       0.554927     -1.078667      0.744717
  C       1.426141     -0.129684      0.355859
  C       2.049850      1.148470      0.323352
  O       2.335456      0.047411     -0.630800
  H      -2.027247      0.867485      0.544652
  H      -2.571857      0.765535     -1.127073
  H      -0.897955      1.174961     -0.787918
  H      -0.939370     -1.262804     -1.407305
  H      -2.035812     -1.582466     -0.032309
  H       0.069444     -0.951578      1.698436
  H       0.670346     -2.090593      0.394659
  H       2.867342      1.403825      0.985139
  H       1.577338      2.015214     -0.120653
15
Coordinates from ORCA-job scan E -270.891512155463
  C      -1.722462      0.553867     -0.458936
  C      -1.342482     -0.882407     -0.471742
  C       0.544106     -1.078269      0.734872
  C       1.418443     -0.126698      0.349855
  C       2.046032      1.146958      0.323023
  O       2.333309      0.051668     -0.635187
  H      -2.022635      0.875641      0.540132
  H      -2.561810      0.758711     -1.132610
  H      -0.892431      1.178765     -0.787598
  H      -0.941229     -1.267112     -1.401665
  H      -2.040013     -1.578405     -0.020880
  H       0.072898     -0.958448      1.697732
  H       0.676285     -2.090671      0.388744
  H       2.861199      1.399947      0.991461
  H       1.570789      2.016453     -0.117201
15
Coordinates from ORCA-job scan E -270.891527997002
  C      -1.734218      0.554248     -0.458277
  C      -1.347597     -0.879795     -0.482419
  C       0.552703     -1.075697      0.742704
  C       1.429034     -0.131164      0.356020
  C       2.054892      1.143959      0.320984
  O       2.343519      0.044600     -0.630091
  H      -2.034321      0.867188      0.543017
  H      -2.575650      0.760260     -1.129520
  H      -0.907969      1.186338     -0.783163
  H      -0.934301     -1.257086     -1.410008
  H      -2.032525     -1.586012     -0.027392
  H       0.067571     -0.947394      1.697408
  H       0.672960     -2.089419      0.396017
  H       2.870170      1.400515      0.988874
  H       1.575731      2.009460     -0.124153
15
Coordinates from ORCA-job scan E -270.891786271563
  C      -1.744874      0.554293     -0.455739
  C      -1.347750     -0.877592     -0.491040
  C       0.552209     -1.071042      0.744072
  C       1.438208     -0.136325      0.359070
  C       2.063362      1.138490      0.317398
  O       2.358515      0.035772     -0.625385
  H      -2.048857      0.862020      0.545056
  H      -2.587752      0.756800     -1.127133
  H      -0.927181      1.200793     -0.774656
  H      -0.923787     -1.242742     -1.418690
  H      -2.020333     -1.592534     -0.028114
  H       0.061069     -0.934453      1.694890
  H       0.674920     -2.087727      0.404554
  H       2.874942      1.396704      0.990506
  H       1.577309      1.997543     -0.134788
15
Coordinates from ORCA-job scan E -270.891949675193
  C      -1.754334      0.553337     -0.453639
  C      -1.348763     -0.875427     -0.501184
  C       0.553132     -1.067498      0.747094
  C       1.446929     -0.141347      0.363375
  C       2.069447      1.135638      0.315292
  O       2.370671      0.027760     -0.619762
  H      -2.059478      0.856082      0.548467
  H      -2.600403      0.756972     -1.121237
  H      -0.942891      1.209408     -0.769352
  H      -0.915311     -1.230470     -1.427707
  H      -2.007690     -1.598002     -0.031424
  H       0.053836     -0.921745      1.692212
  H       0.675444     -2.086320      0.413044
  H       2.879110      1.393688      0.990408
  H       1.580300      1.987925     -0.145585
15
Coordinates from ORCA-job scan E -270.892055714870
  C      -1.763093      0.552302     -0.451808
  C      -1.350139     -0.873128     -0.511696
  C       0.554829     -1.064306      0.750918
  C       1.455462     -0.145991      0.368686
  C       2.074984      1.133519      0.313792
  O       2.381451      0.020059     -0.613434
  H      -2.067691      0.848346      0.552600
  H      -2.612857      0.758136     -1.114470
  H      -0.956901      1.216056     -0.765186
  H      -0.908593     -1.219512     -1.437063
  H      -1.995346     -1.602999     -0.035629
  H       0.046080     -0.909378      1.689386
  H       0.674116     -2.084858      0.420821
  H       2.883720      1.392424      0.989278
  H       1.583976      1.979330     -0.156194
15
Coordinates from ORCA-job scan E -270.892151977832
  C      -1.769902      0.551517     -0.448690
  C      -1.348012     -0.870332     -0.519906
  C       0.551801     -1.060774      0.751701
  C       1.462331     -0.150288      0.372818
  C       2.079681      1.130104      0.311058
  O       2.392578      0.010593     -0.606822
  H      -2.076550      0.838834      0.557572
  H      -2.621403      0.757210     -1.109514
  H      -0.969861      1.225172     -0.756922
  H      -0.901725     -1.207189     -1.446178
  H      -1.981746     -1.606562     -0.039206
  H       0.037891     -0.897630      1.686004
  H       0.672286     -2.083702      0.428858
  H       2.885661      1.393664      0.987912
  H       1.586969      1.969385     -0.168683
15
Coordinates from ORCA-job scan E -270.892172610363
  C      -1.777474      0.550604     -0.449449
  C      -1.353595     -0.869053     -0.530557
  C       0.560428     -1.059327      0.759679
  C       1.470144     -0.153053      0.380230
  C       2.084276      1.131152      0.311938
  O       2.397734      0.007224     -0.601292
  H      -2.076718      0.832934      0.560711
  H      -2.635214      0.762006     -1.100524
  H      -0.978721      1.223999     -0.761585
  H      -0.900387     -1.203719     -1.453779
  H      -1.974791     -1.611757     -0.044697
  H       0.031935     -0.888938      1.684145
  H       0.668077     -2.081884      0.432326
  H       2.892626      1.393117      0.986101
  H       1.591676      1.966694     -0.173247
15
Coordinates from ORCA-job scan E -270.892233688116
  C      -1.783428      0.550161     -0.445932
  C      -1.350269     -0.865859     -0.537588
  C       0.556357     -1.055762      0.759699
  C       1.476579     -0.156892      0.384448
  C       2.089025      1.126995      0.308549
  O       2.409141     -0.003347     -0.593922
  H      -2.084754      0.822295      0.566213
  H      -2.642202      0.759995     -1.096384
  H      -0.991100      1.233980     -0.751997
  H      -0.894487     -1.191331     -1.462727
  H      -1.961150     -1.614696     -0.048598
  H       0.023575     -0.878069      1.680413
  H       0.664841     -2.080708      0.439676
  H       2.893414      1.397219      0.984266
  H       1.594456      1.956021     -0.186114
15
Coordinates from ORCA-job scan E -270.892278316390
  C      -1.790156      0.549537     -0.442982
  C      -1.348464     -0.862582     -0.546213
  C       0.555537     -1.052539      0.762305
  C       1.483576     -0.160591      0.390814
  C       2.093885      1.124134      0.305469
  O       2.419485     -0.013730     -0.585454
  H      -2.090684      0.811502      0.572101
  H      -2.651766      0.760188     -1.089535
  H      -1.003072      1.241076     -0.745314
  H      -0.889472     -1.180298     -1.472308
  H      -1.947558     -1.618826     -0.054801
  H       0.014588     -0.867147      1.676669
  H       0.659941     -2.079149      0.446457
  H       2.895370      1.401499      0.981629
  H       1.598788      1.946927     -0.198836
15
Coordinates from ORCA-job scan E -270.892309625220
  C      -1.797222      0.548905     -0.440223
  C      -1.347360     -0.859242     -0.555191
  C       0.556276     -1.049423      0.766169
  C       1.490807     -0.163896      0.398218
  C       2.099111      1.121654      0.302475
  O       2.429490     -0.024129     -0.576239
  H      -2.095525      0.800692      0.578093
  H      -2.662364      0.760666     -1.081757
  H      -1.014984      1.247171     -0.739770
  H      -0.885147     -1.169775     -1.482005
  H      -1.934504     -1.623452     -0.062270
  H       0.005199     -0.856610      1.672831
  H       0.654250     -2.077236      0.452595
  H       2.898067      1.406350      0.978492
  H       1.603905      1.938323     -0.211418
15
Coordinates from ORCA-job scan E -270.892329855321
  C      -1.804312      0.548304     -0.437244
  C      -1.346057     -0.855717     -0.563928
  C       0.557123     -1.046251      0.770321
  C       1.497860     -0.166843      0.406112
  C       2.104638      1.118995      0.299151
  O       2.439726     -0.035094     -0.566233
  H      -2.099988      0.789845      0.584305
  H      -2.673129      0.760577     -1.073662
  H      -1.027098      1.253330     -0.734112
  H      -0.880980     -1.158854     -1.491715
  H      -1.921613     -1.628237     -0.070698
  H      -0.004613     -0.846529      1.668790
  H       0.648244     -2.075056      0.458442
  H       2.900738      1.412071      0.974931
  H       1.609459      1.929460     -0.224459
15
Coordinates from ORCA-job scan E -270.892338718093
  C      -1.810480      0.547789     -0.434446
  C      -1.344847     -0.852552     -0.571239
  C       0.558039     -1.043507      0.774267
  C       1.503685     -0.168930      0.413426
  C       2.109753      1.116597      0.295962
  O       2.448925     -0.045165     -0.556624
  H      -2.103163      0.780783      0.589946
  H      -2.682884      0.759875     -1.065997
  H      -1.037856      1.258568     -0.729564
  H      -0.877562     -1.148978     -1.500107
  H      -1.910931     -1.632643     -0.079191
  H      -0.013617     -0.838453      1.665125
  H       0.643033     -2.072947      0.463181
  H       2.902974      1.417893      0.971533
  H       1.614928      1.921672     -0.236272
15
Coordinates from ORCA-job scan E -270.892341404018
  C      -1.811745      0.547690     -0.433594
  C      -1.344372     -0.851836     -0.572555
  C       0.558032     -1.042923      0.775079
  C       1.504656     -0.169102      0.415150
  C       2.111005      1.115997      0.294998
  O       2.451389     -0.047869     -0.553829
  H      -2.103341      0.779202      0.591454
  H      -2.685275      0.759190     -1.063772
  H      -1.040435      1.259805     -0.728841
  H      -0.876822     -1.146384     -1.501928
  H      -1.909091     -1.633774     -0.081844
  H      -0.015988     -0.837196      1.664226
  H       0.642255     -2.072464      0.464143
  H       2.903110      1.419767      0.970801
  H       1.616622      1.919896     -0.239487
15
Coordinates from ORCA-job scan E -270.892345747905
  C      -1.814426      0.547454     -0.431243
  C      -1.342660     -0.850029     -0.575471
  C       0.557232     -1.041543      0.776418
  C       1.506637     -0.169649      0.419052
  C       2.113552      1.114439      0.292462
  O       2.457690     -0.054727     -0.546620
  H      -2.103188      0.775658      0.595385
  H      -2.691010      0.757180     -1.057760
  H      -1.046694      1.263043     -0.727236
  H      -0.874555     -1.139509     -1.506240
  H      -1.904914     -1.636174     -0.088597
  H      -0.021885     -0.834256      1.661823
  H       0.641194     -2.071530      0.466869
  H       2.902391      1.424417      0.969343
  H       1.620632      1.915227     -0.248184
15
Coordinates from ORCA-job scan E -270.892348049207
  C      -1.815593      0.547328     -0.430223
  C      -1.342083     -0.849242     -0.577104
  C       0.557095     -1.041041      0.777178
  C       1.507526     -0.169990      0.420957
  C       2.114452      1.113917      0.291466
  O       2.460639     -0.057716     -0.543036
  H      -2.101827      0.774280      0.597424
  H      -2.694437      0.756363     -1.053812
  H      -1.049716      1.264192     -0.727802
  H      -0.873292     -1.136324     -1.508271
  H      -1.903628     -1.637162     -0.092273
  H      -0.024761     -0.832808      1.660515
  H       0.641290     -2.071263      0.468466
  H       2.901763      1.426362      0.968996
  H       1.622572      1.913106     -0.252479
15
Coordinates from ORCA-job scan E -270.892352313064
  C      -1.818019      0.547090     -0.428047
  C      -1.340978     -0.847554     -0.581205
  C       0.556744     -1.039977      0.778851
  C       1.509574     -0.170842      0.425105
  C       2.116247      1.112714      0.289536
  O       2.467326     -0.064130     -0.535048
  H      -2.096981      0.771254      0.602277
  H      -2.702800      0.754407     -1.043794
  H      -1.056823      1.266797     -0.730437
  H      -0.870188     -1.129179     -1.513035
  H      -1.901317     -1.639147     -0.100882
  H      -0.031338     -0.829102      1.657328
  H       0.641967     -2.070926      0.472742
  H       2.900074      1.430581      0.968568
  H       1.626509      1.908015     -0.261959
15
Coordinates from ORCA-job scan E -270.892354953897
  C      -1.818758      0.547022     -0.426744
  C      -1.339846     -0.846628     -0.583497
  C       0.555611     -1.039421      0.779107
  C       1.510387     -0.171510      0.426885
  C       2.116745      1.111817      0.288473
  O       2.471023     -0.067596     -0.530890
  H      -2.092931      0.769591      0.605258
  H      -2.707225      0.752984     -1.037635
  H      -1.060760      1.268685     -0.732312
  H      -0.868002     -1.124977     -1.515773
  H      -1.900166     -1.639827     -0.105785
  H      -0.034924     -0.826649      1.655482
  H       0.642683     -2.071181      0.476025
  H       2.898297      1.432921      0.968634
  H       1.627863      1.904768     -0.267226
15
Coordinates from ORCA-job scan E -270.892358056133
  C      -1.819111      0.546962     -0.425076
  C      -1.338132     -0.845471     -0.586760
  C       0.553864     -1.038839      0.779357
  C       1.511082     -0.172542      0.428958
  C       2.116727      1.110749      0.287182
  O       2.475329     -0.071778     -0.525727
  H      -2.085657      0.767682      0.609399
  H      -2.713142      0.751191     -1.028379
  H      -1.065575      1.270935     -0.735873
  H      -0.864837     -1.119654     -1.519521
  H      -1.898963     -1.640601     -0.112831
  H      -0.039456     -0.823135      1.653144
  H       0.643595     -2.071865      0.481128
  H       2.895263      1.435764      0.968922
  H       1.629011      1.900602     -0.273922
15
Coordinates from ORCA-job scan E -270.892359984450
  C      -1.818934      0.546937     -0.424475
  C      -1.337574     -0.845038     -0.588949
  C       0.553504     -1.038744      0.780082
  C       1.511285     -0.173088      0.430020
  C       2.116298      1.110477      0.286842
  O       2.476839     -0.073320     -0.523436
  H      -2.079654      0.767110      0.611657
  H      -2.716823      0.750496     -1.022237
  H      -1.067793      1.271503     -0.739505
  H      -0.863185     -1.117430     -1.521660
  H      -1.898980     -1.641146     -0.117289
  H      -0.041616     -0.821106      1.652171
  H       0.643810     -2.072430      0.484264
  H       2.893669      1.436878      0.969226
  H       1.629153      1.898901     -0.276708
15
Coordinates from ORCA-job scan E -270.892362078142
  C      -1.818248      0.546935     -0.423802
  C      -1.336721     -0.844642     -0.591491
  C       0.552894     -1.038706      0.781052
  C       1.511149     -0.173658      0.430924
  C       2.115477      1.110089      0.286488
  O       2.478075     -0.074864     -0.521238
  H      -2.071571      0.766753      0.614301
  H      -2.720839      0.749496     -1.014755
  H      -1.070073      1.272162     -0.744173
  H      -0.861036     -1.114871     -1.524180
  H      -1.899239     -1.641830     -0.122844
  H      -0.043933     -0.818738      1.651412
  H       0.643793     -2.073224      0.488254
  H       2.891608      1.438097      0.969499
  H       1.628661      1.897001     -0.279446
15
Coordinates from ORCA-job scan E -270.892363501088
  C      -1.817253      0.546950     -0.423198
  C      -1.335569     -0.844400     -0.592855
  C       0.551869     -1.038720      0.781495
  C       1.510521     -0.174026      0.431093
  C       2.114521      1.109685      0.286043
  O       2.478439     -0.075905     -0.520160
  H      -2.065973      0.766715      0.616078
  H      -2.722753      0.748614     -1.009969
  H      -1.071122      1.272783     -0.746858
  H      -0.859162     -1.112900     -1.525695
  H      -1.899339     -1.642231     -0.126721
  H      -0.045289     -0.817314      1.651299
  H       0.643615     -2.073890      0.491155
  H       2.889741      1.438924      0.969495
  H       1.627752      1.895714     -0.281200
15
Coordinates from ORCA-job scan E -270.892364915688
  C      -1.815745      0.546960     -0.422563
  C      -1.334191     -0.844228     -0.594346
  C       0.550855     -1.038891      0.782382
  C       1.509391     -0.174414      0.431106
  C       2.113010      1.109386      0.285529
  O       2.478049     -0.076771     -0.519391
  H      -2.058955      0.767006      0.618025
  H      -2.724661      0.747810     -1.004281
  H      -1.071734      1.273087     -0.750312
  H      -0.856679     -1.110810     -1.527193
  H      -1.899781     -1.642798     -0.131567
  H      -0.046585     -0.815894      1.651606
  H       0.643177     -2.074713      0.494511
  H       2.887496      1.439587      0.969346
  H       1.626353      1.894683     -0.282852
15
Coordinates from ORCA-job scan E -270.892365712338
  C      -1.814987      0.546962     -0.422503
  C      -1.333924     -0.844327     -0.594908
  C       0.550946     -1.039113      0.783272
  C       1.508732     -0.174452      0.430980
  C       2.112215      1.109473      0.285476
  O       2.477137     -0.076630     -0.519649
  H      -2.055799      0.767437      0.618579
  H      -2.725274      0.747762     -1.002080
  H      -1.071476      1.272729     -0.752154
  H      -0.855555     -1.110381     -1.527451
  H      -1.900461     -1.643139     -0.133673
  H      -0.046784     -0.815582      1.652154
  H       0.642803     -2.075021      0.495632
  H       2.886890      1.439490      0.969161
  H       1.625534      1.894791     -0.282836
15
Coordinates from ORCA-job scan E -270.892366296750
  C      -1.814819      0.546980     -0.422580
  C      -1.333962     -0.844423     -0.594719
  C       0.551043     -1.039199      0.783438
  C       1.508512     -0.174379      0.430757
  C       2.112067      1.109517      0.285501
  O       2.476649     -0.076354     -0.520114
  H      -2.055890      0.767628      0.618402
  H      -2.724885      0.747849     -1.002474
  H      -1.071079      1.272582     -0.752088
  H      -0.855361     -1.110559     -1.527121
  H      -1.900728     -1.643142     -0.133595
  H      -0.046496     -0.815811      1.652478
  H       0.642710     -2.075026      0.495468
  H       2.886983      1.439273      0.969041
  H       1.625254      1.895063     -0.282393
