17
Coordinates from ORCA-job freq E -421.394210826222
  C       2.448663     -0.461161      0.057852
  C       1.154755      0.131254      0.590347
  O       1.067052      1.450984      0.072362
  O      -0.028706      2.106749      0.611127
  C      -0.078531     -0.653144      0.134589
  O      -1.133109     -0.793414      1.086595
  C      -1.335990      0.080830      0.045382
  C      -2.468674      0.000743     -0.913873
  H       2.428315     -0.470202     -1.028738
  H       2.573038     -1.473802      0.429662
  H       3.286988      0.147425      0.383150
  H       1.157744      0.167427      1.690718
  H       0.097725     -1.530841     -0.479861
  H      -0.905360      1.361650      0.375804
  H      -2.638643     -1.036576     -1.212406
  H      -2.246896      0.596508     -1.795900
  H      -3.378373      0.375572     -0.448838
17
Coordinates from ORCA-job freq E -421.394999613356
  C       2.445045     -0.461178      0.057478
  C       1.158329      0.130646      0.588149
  O       1.075347      1.456058      0.073243
  O      -0.009564      2.079949      0.662062
  C      -0.075990     -0.628805      0.129597
  O      -1.152139     -0.746428      1.084659
  C      -1.322275      0.117321      0.027040
  C      -2.466908     -0.004385     -0.916810
  H       2.431545     -0.482844     -1.031997
  H       2.564630     -1.478454      0.426956
  H       3.294721      0.134270      0.383241
  H       1.151133      0.180988      1.680643
  H       0.073551     -1.517176     -0.476193
  H      -0.902802      1.340014      0.367573
  H      -2.590637     -1.049714     -1.209121
  H      -2.285726      0.597551     -1.804642
  H      -3.388262      0.332187     -0.443907
17
Coordinates from ORCA-job freq E -421.395122553793
  C       2.442983     -0.464142      0.052927
  C       1.161782      0.127655      0.596327
  O       1.087235      1.460563      0.097701
  O      -0.003214      2.077576      0.683057
  C      -0.077587     -0.623550      0.137083
  O      -1.161166     -0.710965      1.089212
  C      -1.317695      0.130398      0.010875
  C      -2.468042     -0.010240     -0.924185
  H       2.418559     -0.487736     -1.036609
  H       2.567184     -1.481289      0.421930
  H       3.296270      0.131497      0.369327
  H       1.158315      0.167943      1.689081
  H       0.065970     -1.526716     -0.448089
  H      -0.896847      1.359509      0.330288
  H      -2.560384     -1.052698     -1.237781
  H      -2.320432      0.615838     -1.801558
  H      -3.392932      0.286358     -0.431613
17
Coordinates from ORCA-job freq E -421.395124962458
  C       2.440861     -0.461905      0.047935
  C       1.161880      0.127056      0.599559
  O       1.085409      1.461785      0.107145
  O      -0.005849      2.073744      0.694773
  C      -0.078132     -0.622411      0.141095
  O      -1.163174     -0.707641      1.091187
  C      -1.317672      0.131728      0.011022
  C      -2.465160     -0.011625     -0.927536
  H       2.411478     -0.481203     -1.041575
  H       2.567671     -1.480376      0.412312
  H       3.295262      0.133096      0.362573
  H       1.163102      0.161910      1.692391
  H       0.065289     -1.526689     -0.442386
  H      -0.897852      1.359325      0.332582
  H      -2.568659     -1.058420     -1.222594
  H      -2.305459      0.596942     -1.815065
  H      -3.388996      0.304686     -0.445446
17
Coordinates from ORCA-job freq E -421.395119240528
  C       2.440580     -0.462177      0.047923
  C       1.161807      0.127202      0.599650
  O       1.085600      1.461841      0.107305
  O      -0.005589      2.074381      0.694104
  C      -0.078173     -0.622107      0.141075
  O      -1.163202     -0.707846      1.090999
  C      -1.317661      0.131963      0.011076
  C      -2.464985     -0.011573     -0.927502
  H       2.410967     -0.482487     -1.041538
  H       2.567366     -1.480308      0.413281
  H       3.295101      0.132999      0.361923
  H       1.163294      0.161878      1.692476
  H       0.065450     -1.526192     -0.442643
  H      -0.898099      1.359691      0.332762
  H      -2.567028     -1.058197     -1.223671
  H      -2.306199      0.598150     -1.814369
  H      -3.389230      0.302780     -0.444880
17
Coordinates from ORCA-job freq E -421.395119463608
  C       2.440511     -0.462241      0.047903
  C       1.161802      0.127223      0.599690
  O       1.085601      1.461808      0.107201
  O      -0.005497      2.074424      0.694084
  C      -0.078213     -0.622096      0.141211
  O      -1.163273     -0.707703      1.091100
  C      -1.317664      0.132015      0.011088
  C      -2.464925     -0.011584     -0.927558
  H       2.410798     -0.482622     -1.041554
  H       2.567286     -1.480357      0.413306
  H       3.295090      0.132916      0.361782
  H       1.163372      0.161994      1.692511
  H       0.065424     -1.526254     -0.442393
  H      -0.898097      1.359851      0.332713
  H      -2.566487     -1.058119     -1.224210
  H      -2.306433      0.598620     -1.814145
  H      -3.389295      0.302125     -0.444759
