17
Coordinates from ORCA-job freq E -421.395119463608
  C           2.44051087084472     -0.46224054719738      0.04790281550334
  C           1.16180188029831      0.12722339176264      0.59969006389397
  O           1.08560145463606      1.46180839618019      0.10720078767532
  O          -0.00549655894055      2.07442416378698      0.69408449663883
  C          -0.07821256527089     -0.62209638538711      0.14121115070633
  O          -1.16327321489095     -0.70770258369966      1.09109952697085
  C          -1.31766434486806      0.13201470624561      0.01108817908155
  C          -2.46492516082173     -0.01158432755944     -0.92755802682302
  H           2.41079788864749     -0.48262219508618     -1.04155392612637
  H           2.56728579414552     -1.48035719183778      0.41330633871804
  H           3.29509002889237      0.13291625217109      0.36178172876528
  H           1.16337167480820      0.16199429790553      1.69251135793002
  H           0.06542360290666     -1.52625350898462     -0.44239250011016
  H          -0.89809735729681      1.35985064272845      0.33271277919486
  H          -2.56648749425844     -1.05811893244528     -1.22420954431534
  H          -2.30643296802203      0.59861974668528     -1.81414470805624
  H          -3.38929453080988      0.30212507473168     -0.44475851964729
