17
Coordinates from ORCA-job freq E -421.380169800422
  C      -1.665265      0.425156      1.020259
  C      -1.034067     -0.562164      0.055104
  O      -2.068353     -1.099240     -0.753918
  O      -1.517166     -1.531986     -1.942830
  C      -0.041435      0.037391     -0.934745
  O       0.377017      1.331915     -0.961516
  C       1.384126      0.325579     -0.851160
  C       2.156210      0.249926      0.437800
  H      -0.927590      0.789280      1.729584
  H      -2.078359      1.265298      0.468734
  H      -2.468263     -0.070478      1.558930
  H      -0.510982     -1.376383      0.586607
  H      -0.636621     -0.672738     -1.964939
  H       1.974089      0.201026     -1.755640
  H       1.507190      0.449126      1.286623
  H       2.961660      0.981139      0.434818
  H       2.587809     -0.742851      0.543914
17
Coordinates from ORCA-job freq E -421.381609493160
  C      -1.632162      0.420412      1.028473
  C      -1.048595     -0.564882      0.040390
  O      -2.099696     -1.033040     -0.785130
  O      -1.505398     -1.553545     -1.919915
  C      -0.039090      0.013879     -0.954570
  O       0.358446      1.313924     -0.989399
  C       1.381820      0.308796     -0.855107
  C       2.132230      0.268835      0.443226
  H      -0.874203      0.739292      1.740385
  H      -2.014036      1.293146      0.504487
  H      -2.446981     -0.054000      1.571410
  H      -0.556267     -1.411005      0.540139
  H      -0.611692     -0.697314     -1.955220
  H       1.978602      0.189402     -1.753922
  H       1.462638      0.446409      1.282107
  H       2.914233      1.026757      0.454758
  H       2.600151     -0.707067      0.565511
17
Coordinates from ORCA-job freq E -421.381983599076
  C      -1.589890      0.415165      1.035247
  C      -1.060140     -0.574165      0.025670
  O      -2.131290     -0.974213     -0.808041
  O      -1.536225     -1.546345     -1.920130
  C      -0.031093     -0.023482     -0.971077
  O       0.344993      1.282610     -1.025918
  C       1.383348      0.287321     -0.852897
  C       2.109467      0.294495      0.457471
  H      -0.809500      0.698701      1.738798
  H      -1.945804      1.310534      0.530228
  H      -2.411591     -0.034180      1.590296
  H      -0.606426     -1.455629      0.493610
  H      -0.607167     -0.719937     -1.957026
  H       1.994336      0.162995     -1.740506
  H       1.416815      0.427323      1.286305
  H       2.843885      1.099155      0.484795
  H       2.636286     -0.650351      0.590799
17
Coordinates from ORCA-job freq E -421.382018020938
  C      -1.585643      0.411162      1.039887
  C      -1.072526     -0.579463      0.023622
  O      -2.149061     -0.940422     -0.822612
  O      -1.559523     -1.531081     -1.928101
  C      -0.025472     -0.046584     -0.964960
  O       0.343077      1.261487     -1.036391
  C       1.387403      0.272541     -0.848206
  C       2.119150      0.312160      0.458047
  H      -0.811336      0.658840      1.763150
  H      -1.904571      1.325302      0.543720
  H      -2.431157     -0.020806      1.573130
  H      -0.647273     -1.479169      0.481953
  H      -0.596079     -0.738684     -1.949841
  H       1.997576      0.139304     -1.734969
  H       1.429020      0.414687      1.292845
  H       2.817568      1.148741      0.478184
  H       2.688848     -0.608015      0.588167
17
Coordinates from ORCA-job freq E -421.382025255611
  C      -1.574780      0.404895      1.043449
  C      -1.071852     -0.582307      0.018950
  O      -2.152152     -0.929992     -0.827553
  O      -1.568353     -1.524920     -1.934146
  C      -0.024087     -0.050938     -0.969589
  O       0.341486      1.257704     -1.046857
  C       1.387410      0.272816     -0.848618
  C       2.110958      0.320717      0.462228
  H      -0.792034      0.649182      1.758946
  H      -1.897982      1.320850      0.553503
  H      -2.414476     -0.028294      1.584683
  H      -0.651499     -1.487642      0.470487
  H      -0.595824     -0.744284     -1.953215
  H       2.002020      0.135892     -1.731712
  H       1.415276      0.453897      1.288264
  H       2.827364      1.141859      0.473786
  H       2.658527     -0.609434      0.615021
17
Coordinates from ORCA-job freq E -421.382025749922
  C      -1.580377      0.405198      1.042424
  C      -1.072151     -0.582478      0.020964
  O      -2.150489     -0.934896     -0.826497
  O      -1.564217     -1.525038     -1.934052
  C      -0.024531     -0.049157     -0.966543
  O       0.341134      1.259673     -1.040163
  C       1.387366      0.274176     -0.848194
  C       2.115400      0.318454      0.460127
  H      -0.800750      0.652855      1.760044
  H      -1.904593      1.319349      0.549713
  H      -2.420865     -0.029094      1.581567
  H      -0.650030     -1.485670      0.475188
  H      -0.594384     -0.741093     -1.951412
  H       1.999466      0.139945     -1.733456
  H       1.423622      0.456784      1.288431
  H       2.836705      1.135450      0.468227
  H       2.658694     -0.614460      0.611258
17
Coordinates from ORCA-job freq E -421.382029193285
  C      -1.579523      0.405826      1.042272
  C      -1.072001     -0.582257      0.020843
  O      -2.150704     -0.934536     -0.826215
  O      -1.565027     -1.524984     -1.934003
  C      -0.024675     -0.049249     -0.967127
  O       0.341855      1.259333     -1.040905
  C       1.387401      0.273257     -0.848284
  C       2.114604      0.318076      0.460477
  H      -0.799237      0.653554      1.759214
  H      -1.903791      1.319905      0.549471
  H      -2.419711     -0.028071      1.582182
  H      -0.649938     -1.485406      0.475198
  H      -0.594970     -0.741255     -1.951784
  H       1.999881      0.138511     -1.733202
  H       1.421736      0.450719      1.288864
  H       2.831478      1.138933      0.470927
  H       2.662626     -0.612356      0.609698
17
Coordinates from ORCA-job freq E -421.382027659678
  C      -1.579416      0.405763      1.042304
  C      -1.071933     -0.582240      0.020779
  O      -2.150672     -0.934559     -0.826209
  O      -1.565051     -1.524976     -1.934043
  C      -0.024673     -0.049183     -0.967231
  O       0.341859      1.259399     -1.041039
  C       1.387397      0.273338     -0.848307
  C       2.114460      0.318114      0.460548
  H      -0.798986      0.653740      1.758989
  H      -1.904063      1.319731      0.549550
  H      -2.419325     -0.028326      1.582495
  H      -0.649776     -1.485377      0.475069
  H      -0.595010     -0.741230     -1.951862
  H       1.999960      0.138550     -1.733168
  H       1.421507      0.451306      1.288774
  H       2.831812      1.138557      0.470927
  H       2.661912     -0.612609      0.610047
