17
Coordinates from ORCA-job scan E -27.244166120950
  C      -1.860322      0.339012      1.009625
  C      -0.854399     -0.390669      0.230676
  O      -1.555539     -1.379114     -0.555046
  O      -0.608998     -1.605395     -1.516710
  C      -0.221809      0.398978     -0.939871
  O       0.387454      1.570465     -0.866911
  C       1.235247      0.477844     -0.929293
  C       2.001499      0.005677      0.278783
  H      -1.469038      0.828819      1.937652
  H      -2.206865      1.218978      0.381906
  H      -2.790475     -0.233599      1.229854
  H       0.044263     -0.794556      0.741785
  H      -0.573105     -0.330422     -1.768015
  H       1.769697      0.355846     -1.894374
  H       1.713952      0.496248      1.216892
  H       3.105086      0.147640      0.085840
  H       1.883354     -1.105753      0.314831
17
Coordinates from ORCA-job scan E -27.265535615970
  C      -1.908564      0.348252      1.014210
  C      -0.897651     -0.406664      0.221748
  O      -1.629521     -1.368592     -0.550539
  O      -0.785311     -1.627535     -1.582728
  C      -0.198769      0.375259     -0.934648
  O       0.420368      1.563202     -0.857731
  C       1.282219      0.469831     -0.921179
  C       2.092223      0.035442      0.275828
  H      -1.515159      0.789564      1.941892
  H      -2.239725      1.227032      0.418493
  H      -2.822080     -0.220624      1.218996
  H      -0.050375     -0.852752      0.757925
  H      -0.535717     -0.368021     -1.786017
  H       1.803808      0.353313     -1.877892
  H       1.814234      0.538832      1.198696
  H       3.164790      0.204266      0.066567
  H       2.005233     -1.060806      0.354002
17
Coordinates from ORCA-job scan E -27.276877203880
  C      -1.923335      0.366957      1.015555
  C      -0.917853     -0.413754      0.204636
  O      -1.660318     -1.345559     -0.568027
  O      -0.913823     -1.649642     -1.657324
  C      -0.179322      0.348978     -0.921641
  O       0.436778      1.556485     -0.846773
  C       1.309804      0.458753     -0.915205
  C       2.143959      0.058716      0.276011
  H      -1.514122      0.746543      1.946940
  H      -2.243292      1.244753      0.450363
  H      -2.814838     -0.217249      1.208831
  H      -0.118390     -0.900648      0.773189
  H      -0.533759     -0.414157     -1.795627
  H       1.816957      0.345934     -1.868869
  H       1.854922      0.583708      1.177759
  H       3.193892      0.250209      0.067553
  H       2.062743     -1.020030      0.410253
17
Coordinates from ORCA-job scan E -27.284032197700
  C      -1.881983      0.385061      1.014115
  C      -0.939863     -0.448892      0.164545
  O      -1.750088     -1.337511     -0.582125
  O      -1.139705     -1.629003     -1.761798
  C      -0.146104      0.284770     -0.926625
  O       0.425324      1.519812     -0.849194
  C       1.332831      0.439404     -0.905277
  C       2.169865      0.108873      0.303147
  H      -1.413487      0.686012      1.946980
  H      -2.176416      1.282737      0.474073
  H      -2.775794     -0.196960      1.221425
  H      -0.196665     -0.999450      0.762275
  H      -0.512768     -0.492826     -1.839588
  H       1.848933      0.342855     -1.856309
  H       1.817855      0.647884      1.178983
  H       3.208969      0.370595      0.119161
  H       2.129098     -0.963362      0.493838
17
Coordinates from ORCA-job scan E -27.287315666260
  C      -1.875017      0.406581      1.003155
  C      -0.963417     -0.474864      0.154642
  O      -1.794731     -1.329754     -0.606285
  O      -1.219492     -1.622704     -1.808230
  C      -0.115946      0.227623     -0.898314
  O       0.411721      1.481488     -0.813852
  C       1.349575      0.414732     -0.894387
  C       2.214528      0.131651      0.305532
  H      -1.388306      0.669648      1.935760
  H      -2.143078      1.306389      0.461910
  H      -2.773642     -0.165608      1.214468
  H      -0.287515     -1.072691      0.788800
  H      -0.556176     -0.505364     -1.847779
  H       1.853332      0.346884     -1.854005
  H       1.819713      0.646826      1.178726
  H       3.227693      0.475558      0.127423
  H       2.240761     -0.936399      0.510061
17
Coordinates from ORCA-job scan E -27.289394729700
  C      -1.812871      0.415861      0.999656
  C      -0.976095     -0.517589      0.129557
  O      -1.870570     -1.312099     -0.635806
  O      -1.319033     -1.603715     -1.854508
  C      -0.087171      0.158518     -0.898202
  O       0.376132      1.432499     -0.824044
  C       1.355348      0.392566     -0.885450
  C       2.209101      0.171242      0.333949
  H      -1.282206      0.654304      1.916562
  H      -2.050663      1.325740      0.457502
  H      -2.733865     -0.109480      1.244361
  H      -0.353662     -1.174334      0.763700
  H      -0.584624     -0.531140     -1.869509
  H       1.871207      0.339236     -1.840995
  H       1.744408      0.643594      1.198544
  H       3.193884      0.607812      0.188529
  H       2.320682     -0.893015      0.533780
17
Coordinates from ORCA-job scan E -27.290606369040
  C      -1.741204      0.414522      1.005356
  C      -0.984589     -0.554012      0.104302
  O      -1.942690     -1.269107     -0.668629
  O      -1.398199     -1.588261     -1.885390
  C      -0.068333      0.100777     -0.914884
  O       0.348655      1.389259     -0.869108
  C       1.358584      0.373203     -0.881347
  C       2.180258      0.211127      0.368708
  H      -1.161811      0.640224      1.896021
  H      -1.960406      1.332860      0.467176
  H      -2.677686     -0.057714      1.295495
  H      -0.400632     -1.267992      0.711892
  H      -0.604536     -0.558664     -1.890794
  H       1.898937      0.315841     -1.822922
  H       1.647430      0.633705      1.218850
  H       3.132126      0.727349      0.263963
  H       2.374097     -0.843117      0.558936
17
Coordinates from ORCA-job scan E -27.291520090910
  C      -1.669040      0.405917      1.019667
  C      -0.993888     -0.580045      0.079025
  O      -2.010038     -1.199060     -0.703488
  O      -1.469116     -1.572807     -1.905981
  C      -0.056942      0.051984     -0.943842
  O       0.336615      1.350082     -0.940506
  C       1.362732      0.354622     -0.880351
  C       2.138289      0.251813      0.405097
  H      -1.036622      0.619833      1.876786
  H      -1.882885      1.333981      0.493650
  H      -2.608706     -0.020714      1.362522
  H      -0.439722     -1.350013      0.641611
  H      -0.610714     -0.596552     -1.914559
  H       1.936534      0.275129     -1.799523
  H       1.541523      0.624785      1.233834
  H       3.053603      0.837190      0.341739
  H       2.408379     -0.786147      0.591942
17
Coordinates from ORCA-job scan E -27.291977364200
  C      -1.622715      0.398124      1.034856
  C      -1.005069     -0.589702      0.060836
  O      -2.054620     -1.127534     -0.732953
  O      -1.520053     -1.556834     -1.917942
  C      -0.049987      0.017952     -0.968171
  O       0.340151      1.320744     -1.003841
  C       1.368543      0.338835     -0.879611
  C       2.108645      0.282494      0.429657
  H      -0.949223      0.602051      1.862425
  H      -1.845753      1.332347      0.523786
  H      -2.552485     -0.010804      1.420831
  H      -0.473178     -1.401344      0.582377
  H      -0.606470     -0.632063     -1.930745
  H       1.968959      0.228445     -1.777588
  H       1.468257      0.616698      1.240586
  H       2.990348      0.918922      0.392967
  H       2.434653     -0.738332      0.620156
17
Coordinates from ORCA-job scan E -27.292118242000
  C      -1.617574      0.398276      1.040050
  C      -1.013734     -0.587196      0.055828
  O      -2.068050     -1.099549     -0.744731
  O      -1.536189     -1.546294     -1.922766
  C      -0.046350      0.006513     -0.973721
  O       0.346939      1.310476     -1.022870
  C       1.372860      0.331308     -0.877599
  C       2.108233      0.290568      0.434977
  H      -0.928632      0.604477      1.853985
  H      -1.857705      1.329612      0.532871
  H      -2.534632     -0.020115      1.445455
  H      -0.489800     -1.412277      0.564547
  H      -0.601394     -0.642933     -1.932641
  H       1.980104      0.203757     -1.768765
  H       1.455595      0.604612      1.244056
  H       2.971960      0.950884      0.404348
  H       2.458371     -0.722119      0.624601
17
Coordinates from ORCA-job scan E -27.292204378650
  C      -1.626012      0.402522      1.040527
  C      -1.022558     -0.581002      0.054952
  O      -2.073570     -1.087871     -0.751619
  O      -1.540639     -1.537353     -1.927008
  C      -0.044215      0.002140     -0.971923
  O       0.353777      1.306170     -1.024524
  C       1.375668      0.326049     -0.873714
  C       2.118232      0.289455      0.434732
  H      -0.926928      0.622076      1.842215
  H      -1.891121      1.324581      0.530233
  H      -2.526629     -0.034773      1.463239
  H      -0.501132     -1.410235      0.561387
  H      -0.595589     -0.644673     -1.928660
  H       1.983241      0.187537     -1.763743
  H       1.462902      0.582348      1.250250
  H       2.965725      0.970317      0.405357
  H       2.488849     -0.717289      0.615925
17
Coordinates from ORCA-job scan E -27.292239144720
  C      -1.634328      0.407049      1.037829
  C      -1.027067     -0.577022      0.055899
  O      -2.074014     -1.088671     -0.753502
  O      -1.537348     -1.534067     -1.928839
  C      -0.044085      0.002664     -0.967993
  O       0.356695      1.306225     -1.017334
  C       1.375775      0.324213     -0.870278
  C       2.126203      0.283672      0.433324
  H      -0.929467      0.644066      1.829353
  H      -1.919624      1.318974      0.520795
  H      -2.522377     -0.042587      1.474394
  H      -0.505764     -1.404762      0.566188
  H      -0.592464     -0.641220     -1.924744
  H       1.981389      0.184531     -1.762058
  H       1.472171      0.558498      1.256666
  H       2.962778      0.977971      0.405741
  H       2.511528     -0.719535      0.602184
17
Coordinates from ORCA-job scan E -27.292270057080
  C      -1.643038      0.412775      1.033052
  C      -1.030407     -0.573593      0.057407
  O      -2.072746     -1.093194     -0.754233
  O      -1.530746     -1.532619     -1.929937
  C      -0.044898      0.005200     -0.962995
  O       0.358863      1.308013     -1.005816
  C       1.374957      0.323325     -0.866233
  C       2.133701      0.274316      0.432054
  H      -0.930883      0.676717      1.809269
  H      -1.954422      1.310068      0.505646
  H      -2.514945     -0.048393      1.489834
  H      -0.509607     -1.397808      0.574680
  H      -0.590001     -0.635446     -1.921008
  H       1.977873      0.186549     -1.760814
  H       1.481457      0.523999      1.265079
  H       2.957134      0.984480      0.409828
  H       2.537710     -0.724393      0.581812
17
Coordinates from ORCA-job scan E -27.292296248740
  C      -1.649931      0.418431      1.027532
  C      -1.031887     -0.571294      0.058814
  O      -2.070334     -1.098639     -0.754077
  O      -1.523708     -1.532446     -1.930304
  C      -0.046184      0.009020     -0.958686
  O       0.360707      1.310982     -0.993916
  C       1.374133      0.323194     -0.862611
  C       2.138723      0.263695      0.431701
  H      -0.929352      0.714609      1.784021
  H      -1.990631      1.298324      0.488819
  H      -2.503157     -0.051791      1.509479
  H      -0.512249     -1.391255      0.583947
  H      -0.588815     -0.629203     -1.918970
  H       1.974623      0.191487     -1.759834
  H       1.487137      0.485004      1.273211
  H       2.948629      0.989663      0.418779
  H       2.562298     -0.729785      0.559720
17
Coordinates from ORCA-job scan E -27.292314836330
  C      -1.653181      0.422359      1.023238
  C      -1.031406     -0.570294      0.059455
  O      -2.067818     -1.102200     -0.753544
  O      -1.519369     -1.532598     -1.930382
  C      -0.047276      0.012928     -0.956707
  O       0.362519      1.314068     -0.986089
  C       1.374059      0.323318     -0.860541
  C       2.139898      0.255223      0.432610
  H      -0.924632      0.747350      1.760077
  H      -2.020176      1.286461      0.475978
  H      -2.488801     -0.053504      1.529512
  H      -0.512712     -1.386797      0.590211
  H      -0.589161     -0.624527     -1.919382
  H       1.973323      0.195986     -1.759129
  H       1.486830      0.453452      1.278494
  H       2.939647      0.992636      0.430196
  H       2.578258     -0.733862      0.543627
17
Coordinates from ORCA-job scan E -27.292324322120
  C      -1.653305      0.423675      1.021590
  C      -1.030063     -0.569969      0.059233
  O      -2.066175     -1.102791     -0.753151
  O      -1.518585     -1.532359     -1.930479
  C      -0.047674      0.015738     -0.957219
  O       0.364298      1.316162     -0.984245
  C       1.374803      0.323179     -0.860362
  C       2.138272      0.251347      0.434036
  H      -0.919447      0.765179      1.745736
  H      -2.036615      1.278484      0.470816
  H      -2.477288     -0.055318      1.543474
  H      -0.510897     -1.384768      0.591469
  H      -0.590300     -0.622303     -1.921302
  H       1.974113      0.197351     -1.758860
  H       1.482522      0.439882      1.279854
  H       2.934427      0.992663      0.438390
  H       2.581916     -0.736153      0.538645
17
Coordinates from ORCA-job scan E -27.292328750990
  C      -1.652935      0.423661      1.021508
  C      -1.029102     -0.569420      0.058730
  O      -2.065224     -1.102115     -0.753060
  O      -1.518978     -1.531736     -1.930713
  C      -0.047631      0.017722     -0.958412
  O       0.366012      1.317427     -0.984951
  C       1.375722      0.322720     -0.860898
  C       2.136505      0.250132      0.435067
  H      -0.916162      0.772951      1.739085
  H      -2.045471      1.273774      0.470038
  H      -2.469921     -0.058173      1.551642
  H      -0.508250     -1.383497      0.590167
  H      -0.591167     -0.621183     -1.922929
  H       1.975403      0.196568     -1.758882
  H       1.478695      0.438346      1.279278
  H       2.933324      0.990677      0.441948
  H       2.579181     -0.737854      0.540007
17
Coordinates from ORCA-job scan E -27.292331184730
  C      -1.653176      0.423364      1.021824
  C      -1.028756     -0.568496      0.058259
  O      -2.064547     -1.101465     -0.753197
  O      -1.518911     -1.531033     -1.931007
  C      -0.047489      0.019472     -0.959267
  O       0.367596      1.318411     -0.985608
  C       1.376431      0.322159     -0.861350
  C       2.135559      0.249515      0.435586
  H      -0.914724      0.777497      1.735357
  H      -2.052484      1.270229      0.470364
  H      -2.464915     -0.061729      1.557057
  H      -0.505787     -1.382115      0.588412
  H      -0.591485     -0.620083     -1.923765
  H       1.976306      0.195339     -1.758997
  H       1.476856      0.441132      1.278355
  H       2.934653      0.987553      0.442563
  H       2.574877     -0.739750      0.543040
17
Coordinates from ORCA-job scan E -27.292332408240
  C      -1.653772      0.423083      1.022109
  C      -1.028926     -0.567632      0.057885
  O      -2.064193     -1.101135     -0.753570
  O      -1.518207     -1.530552     -1.931311
  C      -0.047408      0.020776     -0.959519
  O       0.368610      1.319118     -0.985602
  C       1.376715      0.321773     -0.861452
  C       2.135411      0.249054      0.435726
  H      -0.914445      0.780431      1.733120
  H      -2.057855      1.267665      0.470723
  H      -2.461896     -0.064784      1.560361
  H      -0.504403     -1.381062      0.587051
  H      -0.591279     -0.619097     -1.923855
  H       1.976581      0.194621     -1.759043
  H       1.476938      0.444876      1.277768
  H       2.936987      0.984382      0.441470
  H       2.571142     -0.741517      0.545762
17
Coordinates from ORCA-job scan E -27.292332921080
  C      -1.654219      0.422867      1.022245
  C      -1.029264     -0.567224      0.057627
  O      -2.064134     -1.101039     -0.754040
  O      -1.517347     -1.530399     -1.931551
  C      -0.047416      0.021426     -0.959376
  O       0.368897      1.319510     -0.985224
  C       1.376665      0.321724     -0.861294
  C       2.135616      0.248788      0.435718
  H      -0.914476      0.782039      1.731854
  H      -2.060902      1.266199      0.470871
  H      -2.460492     -0.066472      1.561980
  H      -0.504243     -1.380738      0.586364
  H      -0.590853     -0.618507     -1.923641
  H       1.976452      0.194645     -1.758977
  H       1.477891      0.447789      1.277640
  H       2.939050      0.982096      0.440041
  H       2.568779     -0.742706      0.547387
17
Coordinates from ORCA-job scan E -27.292166784080
  C      -1.654941      0.422739      1.023003
  C      -1.029603     -0.566860      0.058128
  O      -2.064254     -1.100260     -0.754669
  O      -1.514331     -1.527863     -1.932833
  C      -0.047383      0.021209     -0.959065
  O       0.369085      1.318577     -0.986046
  C       1.376766      0.321172     -0.861437
  C       2.136031      0.249033      0.435436
  H      -0.915468      0.781586      1.733058
  H      -2.061449      1.266329      0.471894
  H      -2.461396     -0.066889      1.562205
  H      -0.504540     -1.380395      0.586791
  H      -0.592051     -0.620341     -1.923787
  H       1.976341      0.193464     -1.759173
  H       1.478537      0.448677      1.277386
  H       2.939546      0.982255      0.439062
  H       2.569113     -0.742433      0.547670
17
Coordinates from ORCA-job scan E -27.292169700640
  C      -1.654701      0.422638      1.022671
  C      -1.029606     -0.567082      0.057853
  O      -2.064307     -1.100504     -0.754799
  O      -1.515386     -1.528374     -1.933149
  C      -0.047342      0.021509     -0.958501
  O       0.369038      1.319236     -0.985420
  C       1.376811      0.321592     -0.861020
  C       2.136329      0.249196      0.435687
  H      -0.915067      0.781748      1.732426
  H      -2.061508      1.266096      0.471537
  H      -2.460981     -0.066971      1.562098
  H      -0.504949     -1.380816      0.586615
  H      -0.592965     -0.620994     -1.924210
  H       1.976271      0.193883     -1.758858
  H       1.479227      0.449552      1.277772
  H       2.940398      0.981823      0.438878
  H       2.568739     -0.742534      0.548046
17
Coordinates from ORCA-job scan E -27.292171227750
  C      -1.654744      0.422505      1.022250
  C      -1.029716     -0.567390      0.057471
  O      -2.064466     -1.100889     -0.754860
  O      -1.516541     -1.528979     -1.933492
  C      -0.047111      0.021923     -0.957652
  O       0.369026      1.320046     -0.984304
  C       1.376963      0.322174     -0.860471
  C       2.136959      0.249342      0.435911
  H      -0.914888      0.782289      1.731408
  H      -2.062242      1.265588      0.471024
  H      -2.460636     -0.067159      1.562242
  H      -0.505652     -1.381387      0.586455
  H      -0.593891     -0.621828     -1.924898
  H       1.976200      0.194814     -1.758518
  H       1.480580      0.451005      1.278249
  H       2.942059      0.980853      0.438315
  H       2.568103     -0.742909      0.548496
17
Coordinates from ORCA-job scan E -27.292171359910
  C      -1.654873      0.422466      1.022203
  C      -1.029793     -0.567440      0.057400
  O      -2.064512     -1.100915     -0.754871
  O      -1.516506     -1.529031     -1.933524
  C      -0.047039      0.021987     -0.957469
  O       0.368958      1.320120     -0.983981
  C       1.376979      0.322289     -0.860388
  C       2.137107      0.249329      0.435912
  H      -0.914912      0.782566      1.731090
  H      -2.062710      1.265346      0.470924
  H      -2.460525     -0.067264      1.562488
  H      -0.505796     -1.381455      0.586445
  H      -0.593816     -0.621920     -1.925086
  H       1.976149      0.195145     -1.758511
  H       1.480950      0.451529      1.278296
  H       2.942618      0.980386      0.438052
  H       2.567722     -0.743139      0.548648
17
Coordinates from ORCA-job scan E -27.292014635870
  C      -1.655593      0.422339      1.022959
  C      -1.030130     -0.567077      0.057900
  O      -2.064629     -1.100137     -0.755498
  O      -1.513488     -1.526497     -1.934801
  C      -0.047006      0.021772     -0.957160
  O       0.369143      1.319188     -0.984801
  C       1.377078      0.321738     -0.860531
  C       2.137520      0.249572      0.435630
  H      -0.915901      0.782116      1.732291
  H      -2.063255      1.265476      0.471943
  H      -2.461426     -0.067680      1.562712
  H      -0.506090     -1.381112      0.586871
  H      -0.595016     -0.623752     -1.925232
  H       1.976036      0.193968     -1.758706
  H       1.481593      0.452412      1.278040
  H       2.943111      0.980543      0.437077
  H       2.568055     -0.742868      0.548930
17
Coordinates from ORCA-job scan E -27.292017565170
  C      -1.655427      0.422301      1.022643
  C      -1.030088     -0.567199      0.057674
  O      -2.064630     -1.100364     -0.755459
  O      -1.514661     -1.526968     -1.935043
  C      -0.046913      0.022114     -0.956658
  O       0.369194      1.319790     -0.984155
  C       1.377206      0.322031     -0.860209
  C       2.137798      0.249704      0.435853
  H      -0.915629      0.782228      1.731810
  H      -2.063307      1.265311      0.471578
  H      -2.461080     -0.067785      1.562559
  H      -0.506184     -1.381312      0.586689
  H      -0.595976     -0.624436     -1.925814
  H       1.976033      0.194255     -1.758488
  H       1.482049      0.452936      1.278312
  H       2.943725      0.980309      0.437110
  H       2.567893     -0.742916      0.549224
17
Coordinates from ORCA-job scan E -27.292019279010
  C      -1.655515      0.422285      1.022222
  C      -1.030125     -0.567359      0.057334
  O      -2.064732     -1.100724     -0.755242
  O      -1.516085     -1.527637     -1.935227
  C      -0.046621      0.022652     -0.955869
  O       0.369350      1.320602     -0.982987
  C       1.377483      0.322434     -0.859791
  C       2.138384      0.249787      0.436060
  H      -0.915591      0.782672      1.731021
  H      -2.063908      1.264961      0.471036
  H      -2.460816     -0.067953      1.562554
  H      -0.506413     -1.381563      0.586480
  H      -0.597069     -0.625434     -1.926810
  H       1.976054      0.195022     -1.758279
  H       1.482992      0.453686      1.278644
  H       2.944906      0.979732      0.436973
  H       2.567705     -0.743165      0.549506
17
Coordinates from ORCA-job scan E -27.292019406510
  C      -1.655632      0.422296      1.022188
  C      -1.030189     -0.567364      0.057276
  O      -2.064772     -1.100729     -0.755186
  O      -1.516044     -1.527747     -1.935170
  C      -0.046559      0.022753     -0.955722
  O       0.369332      1.320674     -0.982697
  C       1.377511      0.322485     -0.859754
  C       2.138495      0.249735      0.436047
  H      -0.915653      0.782896      1.730819
  H      -2.064247      1.264823      0.470951
  H      -2.460772     -0.067997      1.562709
  H      -0.506460     -1.381550      0.586461
  H      -0.597005     -0.625565     -1.927038
  H       1.976012      0.195294     -1.758313
  H       1.483205      0.453847      1.278660
  H       2.945206      0.979469      0.436863
  H       2.567575     -0.743321      0.549531
17
Coordinates from ORCA-job scan E -27.291872854580
  C      -1.656349      0.422170      1.022942
  C      -1.030525     -0.567002      0.057775
  O      -2.064886     -1.099952     -0.755810
  O      -1.513023     -1.525218     -1.936444
  C      -0.046528      0.022539     -0.955414
  O       0.369514      1.319744     -0.983515
  C       1.377609      0.321936     -0.859896
  C       2.138905      0.249975      0.435766
  H      -0.916639      0.782449      1.732017
  H      -2.064790      1.264952      0.471967
  H      -2.461670     -0.068411      1.562932
  H      -0.506753     -1.381207      0.586887
  H      -0.598208     -0.627395     -1.927182
  H       1.975899      0.194121     -1.758508
  H       1.483845      0.454725      1.278404
  H       2.945694      0.979623      0.435892
  H       2.567906     -0.743050      0.549812
17
Coordinates from ORCA-job scan E -27.291875935170
  C      -1.656173      0.422161      1.022627
  C      -1.030476     -0.567101      0.057552
  O      -2.064890     -1.100180     -0.755747
  O      -1.514215     -1.525757     -1.936643
  C      -0.046442      0.022907     -0.954914
  O       0.369597      1.320362     -0.982874
  C       1.377741      0.322208     -0.859582
  C       2.139181      0.250086      0.435986
  H      -0.916391      0.782533      1.731598
  H      -2.064754      1.264858      0.471606
  H      -2.461379     -0.068463      1.562705
  H      -0.506829     -1.381374      0.586708
  H      -0.599210     -0.628124     -1.927804
  H       1.975896      0.194388     -1.758297
  H       1.484251      0.455016      1.278686
  H       2.946165      0.979524      0.436009
  H       2.567932     -0.743046      0.550008
17
Coordinates from ORCA-job scan E -27.291877834030
  C      -1.656266      0.422212      1.022188
  C      -1.030505     -0.567212      0.057214
  O      -2.064999     -1.100560     -0.755453
  O      -1.515710     -1.526582     -1.936729
  C      -0.046155      0.023518     -0.954100
  O       0.369825      1.321224     -0.981665
  C       1.378038      0.322576     -0.859162
  C       2.139797      0.250122      0.436187
  H      -0.916431      0.782935      1.730921
  H      -2.065203      1.264648      0.471042
  H      -2.461252     -0.068522      1.562527
  H      -0.507025     -1.381552      0.586517
  H      -0.600417     -0.629233     -1.928914
  H       1.975914      0.195125     -1.758101
  H       1.485136      0.455260      1.279054
  H       2.947080      0.979229      0.436041
  H       2.568175     -0.743190      0.550058
17
Coordinates from ORCA-job scan E -27.291877978960
  C      -1.656403      0.422254      1.022148
  C      -1.030571     -0.567194      0.057166
  O      -2.065037     -1.100576     -0.755362
  O      -1.515662     -1.526742     -1.936624
  C      -0.046099      0.023640     -0.953943
  O       0.369829      1.321304     -0.981354
  C       1.378069      0.322609     -0.859128
  C       2.139925      0.250044      0.436162
  H      -0.916546      0.783149      1.730767
  H      -2.065498      1.264568      0.470944
  H      -2.461282     -0.068516      1.562612
  H      -0.507058     -1.381498      0.586518
  H      -0.600371     -0.629387     -1.929175
  H       1.975863      0.195381     -1.758146
  H       1.485336      0.455190      1.279084
  H       2.947270      0.979083      0.435994
  H       2.568235     -0.743310      0.549962
17
Coordinates from ORCA-job scan E -27.291742333320
  C      -1.657117      0.422129      1.022899
  C      -1.030905     -0.566832      0.057664
  O      -2.065149     -1.099800     -0.755984
  O      -1.512639     -1.524216     -1.937896
  C      -0.046068      0.023428     -0.953637
  O       0.370008      1.320376     -0.982168
  C       1.378165      0.322062     -0.859269
  C       2.140333      0.250282      0.435882
  H      -0.917527      0.782704      1.731960
  H      -2.066039      1.264697      0.471955
  H      -2.462176     -0.068928      1.562834
  H      -0.507349     -1.381155      0.586944
  H      -0.601576     -0.631216     -1.929316
  H       1.975748      0.194212     -1.758339
  H       1.485973      0.456063      1.278827
  H       2.947755      0.979235      0.435026
  H       2.568564     -0.743041      0.550241
17
Coordinates from ORCA-job scan E -27.291745569150
  C      -1.656952      0.422141      1.022580
  C      -1.030853     -0.566913      0.057447
  O      -2.065152     -1.100038     -0.755900
  O      -1.513855     -1.524799     -1.938073
  C      -0.045981      0.023810     -0.953129
  O       0.370109      1.321000     -0.981510
  C       1.378303      0.322326     -0.858950
  C       2.140625      0.250380      0.436099
  H      -0.917312      0.782784      1.731572
  H      -2.065973      1.264642      0.471586
  H      -2.461930     -0.068948      1.562563
  H      -0.507412     -1.381293      0.586782
  H      -0.602614     -0.631976     -1.929989
  H       1.975744      0.194474     -1.758128
  H       1.486377      0.456204      1.279125
  H       2.948158      0.979215      0.435190
  H       2.568719     -0.743010      0.550361
17
Coordinates from ORCA-job scan E -27.291747705800
  C      -1.657068      0.422243      1.022110
  C      -1.030875     -0.566988      0.057108
  O      -2.065266     -1.100452     -0.755543
  O      -1.515451     -1.525758     -1.938100
  C      -0.045684      0.024479     -0.952267
  O       0.370383      1.321914     -0.980216
  C       1.378621      0.322695     -0.858504
  C       2.141297      0.250385      0.436303
  H      -0.917415      0.783187      1.730931
  H      -2.066363      1.264514      0.470978
  H      -2.461894     -0.068936      1.562274
  H      -0.507591     -1.381413      0.586615
  H      -0.603942     -0.633199     -1.931254
  H       1.975759      0.195227     -1.757923
  H       1.487284      0.456106      1.279546
  H       2.948945      0.979093      0.435335
  H       2.569263     -0.743099      0.550233
17
Coordinates from ORCA-job scan E -27.291747879060
  C      -1.657220      0.422307      1.022063
  C      -1.030943     -0.566952      0.057063
  O      -2.065308     -1.100473     -0.755427
  O      -1.515403     -1.525964     -1.937957
  C      -0.045628      0.024620     -0.952098
  O       0.370398      1.322003     -0.979880
  C       1.378654      0.322722     -0.858466
  C       2.141442      0.250288      0.436272
  H      -0.917562      0.783405      1.730798
  H      -2.066639      1.264469      0.470867
  H      -2.461966     -0.068897      1.562319
  H      -0.507617     -1.381331      0.586629
  H      -0.603912     -0.633383     -1.931562
  H       1.975702      0.195487     -1.757971
  H       1.487485      0.455880      1.279592
  H       2.949070      0.979018      0.435331
  H       2.569449     -0.743199      0.550053
17
Coordinates from ORCA-job scan E -27.291623956150
  C      -1.657931      0.422183      1.022811
  C      -1.031275     -0.566591      0.057560
  O      -2.065418     -1.099699     -0.756046
  O      -1.512379     -1.523443     -1.939228
  C      -0.045599      0.024408     -0.951794
  O       0.370575      1.321076     -0.980692
  C       1.378748      0.322177     -0.858607
  C       2.141847      0.250525      0.435992
  H      -0.918540      0.782962      1.731988
  H      -2.067178      1.264598      0.471875
  H      -2.462856     -0.069307      1.562541
  H      -0.507907     -1.380989      0.587054
  H      -0.605120     -0.635211     -1.931699
  H       1.975587      0.194323     -1.758163
  H       1.488119      0.456749      1.279336
  H       2.949552      0.979169      0.434367
  H       2.569776     -0.742932      0.550330
17
Coordinates from ORCA-job scan E -27.291627342600
  C      -1.657772      0.422211      1.022491
  C      -1.031219     -0.566658      0.057345
  O      -2.065423     -1.099939     -0.755953
  O      -1.513617     -1.524066     -1.939389
  C      -0.045509      0.024802     -0.951281
  O       0.370688      1.321706     -0.980020
  C       1.378891      0.322441     -0.858282
  C       2.142150      0.250614      0.436211
  H      -0.918339      0.783042      1.731616
  H      -2.067094      1.264567      0.471503
  H      -2.462633     -0.069307      1.562247
  H      -0.507964     -1.381107      0.586899
  H      -0.606188     -0.636005     -1.932429
  H       1.975585      0.194590     -1.757948
  H       1.488521      0.456794      1.279647
  H       2.949913      0.979199      0.434565
  H       2.570012     -0.742885      0.550402
17
Coordinates from ORCA-job scan E -27.291629758320
  C      -1.657897      0.422350      1.021993
  C      -1.031236     -0.566704      0.056993
  O      -2.065554     -1.100370     -0.755550
  O      -1.515335     -1.525165     -1.939369
  C      -0.045196      0.025528     -0.950369
  O       0.370998      1.322679     -0.978637
  C       1.379230      0.322827     -0.857801
  C       2.142873      0.250600      0.436430
  H      -0.918474      0.783459      1.730981
  H      -2.067453      1.264492      0.470858
  H      -2.462640     -0.069248      1.561886
  H      -0.508136     -1.381190      0.586734
  H      -0.607644     -0.637360     -1.933883
  H       1.975605      0.195384     -1.757722
  H       1.489463      0.456465      1.280122
  H       2.950633      0.979191      0.434802
  H       2.570767     -0.742938      0.550157
17
Coordinates from ORCA-job scan E -27.291629969330
  C      -1.658061      0.422432      1.021939
  C      -1.031307     -0.566654      0.056945
  O      -2.065602     -1.100390     -0.755414
  O      -1.515293     -1.525420     -1.939193
  C      -0.045139      0.025687     -0.950187
  O       0.371023      1.322780     -0.978272
  C       1.379266      0.322855     -0.857756
  C       2.143034      0.250489      0.436398
  H      -0.918642      0.783687      1.730856
  H      -2.067726      1.264470      0.470739
  H      -2.462736     -0.069189      1.561909
  H      -0.508159     -1.381087      0.586752
  H      -0.607631     -0.637582     -1.934254
  H       1.975544      0.195658     -1.757769
  H       1.489671      0.456132      1.280184
  H       2.950721      0.979161      0.434830
  H       2.571039     -0.743028      0.549918
17
Coordinates from ORCA-job scan E -27.291518670040
  C      -1.658769      0.422309      1.022686
  C      -1.031638     -0.566293      0.057441
  O      -2.065710     -1.099618     -0.756031
  O      -1.512268     -1.522902     -1.940463
  C      -0.045110      0.025477     -0.949884
  O       0.371198      1.321855     -0.979082
  C       1.379358      0.322311     -0.857896
  C       2.143436      0.250724      0.436119
  H      -0.919615      0.783246      1.732041
  H      -2.068262      1.264599      0.471743
  H      -2.463623     -0.069597      1.562131
  H      -0.508448     -1.380746      0.587176
  H      -0.608841     -0.639409     -1.934386
  H       1.975428      0.194498     -1.757961
  H       1.490302      0.456996      1.279928
  H       2.951200      0.979310      0.433869
  H       2.571364     -0.742763      0.550194
17
Coordinates from ORCA-job scan E -27.291522212890
  C      -1.658612      0.422347      1.022367
  C      -1.031579     -0.566348      0.057225
  O      -2.065720     -1.099852     -0.755934
  O      -1.513529     -1.523566     -1.940609
  C      -0.045016      0.025880     -0.949369
  O       0.371320      1.322490     -0.978398
  C       1.379505      0.322578     -0.857565
  C       2.143747      0.250808      0.436342
  H      -0.919423      0.783329      1.731680
  H      -2.068169      1.264585      0.471374
  H      -2.463411     -0.069585      1.561827
  H      -0.508500     -1.380849      0.587021
  H      -0.609936     -0.640238     -1.935178
  H       1.975431      0.194775     -1.757740
  H       1.490705      0.456980      1.280252
  H       2.951537      0.979371      0.434094
  H       2.571651     -0.742706      0.550236
17
Coordinates from ORCA-job scan E -27.291524968900
  C      -1.658740      0.422516      1.021839
  C      -1.031589     -0.566367      0.056850
  O      -2.065874     -1.100291     -0.755492
  O      -1.515393     -1.524824     -1.940545
  C      -0.044681      0.026673     -0.948400
  O       0.371668      1.323533     -0.976913
  C       1.379870      0.322996     -0.857040
  C       2.144523      0.250783      0.436585
  H      -0.919571      0.783768      1.731031
  H      -2.068516      1.264546      0.470697
  H      -2.463434     -0.069496      1.561415
  H      -0.508668     -1.380903      0.586840
  H      -0.611540     -0.641753     -1.936865
  H       1.975460      0.195629     -1.757485
  H       1.491694      0.456488      1.280785
  H       2.952232      0.979438      0.434412
  H       2.572563     -0.742737      0.549911
17
Coordinates from ORCA-job scan E -27.291525227300
  C      -1.658913      0.422613      1.021781
  C      -1.031662     -0.566302      0.056797
  O      -2.065932     -1.100306     -0.755337
  O      -1.515362     -1.525134     -1.940336
  C      -0.044621      0.026853     -0.948205
  O       0.371701      1.323649     -0.976515
  C       1.379910      0.323030     -0.856985
  C       2.144699      0.250660      0.436555
  H      -0.919752      0.784009      1.730907
  H      -2.068793      1.264540      0.470572
  H      -2.463545     -0.069423      1.561425
  H      -0.508688     -1.380784      0.586852
  H      -0.611548     -0.642021     -1.937315
  H       1.975398      0.195926     -1.757529
  H       1.491914      0.456076      1.280862
  H       2.952301      0.979434      0.434466
  H       2.572897     -0.742824      0.549629
17
Coordinates from ORCA-job scan E -27.291427584750
  C      -1.659618      0.422491      1.022525
  C      -1.031992     -0.565942      0.057291
  O      -2.066039     -1.099535     -0.755953
  O      -1.512337     -1.522620     -1.941606
  C      -0.044592      0.026644     -0.947904
  O       0.371873      1.322727     -0.977324
  C       1.380001      0.322488     -0.857124
  C       2.145098      0.250894      0.436277
  H      -0.920722      0.783571      1.732088
  H      -2.069327      1.264669      0.471573
  H      -2.464427     -0.069829      1.561646
  H      -0.508975     -1.380442      0.587275
  H      -0.612760     -0.643847     -1.937441
  H       1.975281      0.194770     -1.757719
  H       1.492542      0.456937      1.280608
  H       2.952776      0.979582      0.433509
  H       2.573220     -0.742560      0.549903
17
Coordinates from ORCA-job scan E -27.291431291670
  C      -1.659462      0.422537      1.022209
  C      -1.031930     -0.565984      0.057073
  O      -2.066055     -1.099759     -0.755854
  O      -1.513618     -1.523326     -1.941737
  C      -0.044493      0.027057     -0.947387
  O       0.372004      1.323366     -0.976628
  C       1.380152      0.322761     -0.856787
  C       2.145415      0.250975      0.436505
  H      -0.920533      0.783656      1.731735
  H      -2.069229      1.264667      0.471210
  H      -2.464221     -0.069810      1.561339
  H      -0.509022     -1.380534      0.587115
  H      -0.613881     -0.644715     -1.938302
  H       1.975289      0.195061     -1.757492
  H       1.492947      0.456881      1.280942
  H       2.953100      0.979662      0.433755
  H       2.573539     -0.742497      0.549928
17
Coordinates from ORCA-job scan E -27.291434466920
  C      -1.659588      0.422734      1.021651
  C      -1.031933     -0.565974      0.056664
  O      -2.066238     -1.100196     -0.755375
  O      -1.515656     -1.524774     -1.941624
  C      -0.044131      0.027928     -0.946356
  O       0.372390      1.324494     -0.975026
  C       1.380547      0.323224     -0.856209
  C       2.146248      0.250944      0.436782
  H      -0.920681      0.784121      1.731059
  H      -2.069574      1.264658      0.470505
  H      -2.464242     -0.069702      1.560888
  H      -0.509187     -1.380563      0.586901
  H      -0.615658     -0.646425     -1.940274
  H       1.975334      0.195998     -1.757199
  H       1.493993      0.456265      1.281539
  H       2.953800      0.979781      0.434153
  H       2.574578     -0.742514      0.549546
17
Coordinates from ORCA-job scan E -27.291434787100
  C      -1.659769      0.422845      1.021589
  C      -1.032011     -0.565893      0.056602
  O      -2.066310     -1.100201     -0.755204
  O      -1.515641     -1.525150     -1.941378
  C      -0.044064      0.028134     -0.946145
  O       0.372431      1.324631     -0.974590
  C       1.380592      0.323269     -0.856142
  C       2.146439      0.250811      0.436757
  H      -0.920872      0.784378      1.730932
  H      -2.069861      1.264665      0.470377
  H      -2.464360     -0.069619      1.560891
  H      -0.509203     -1.380427      0.586900
  H      -0.615691     -0.646751     -1.940823
  H       1.975271      0.196326     -1.757236
  H       1.494230      0.455791      1.281634
  H       2.953861      0.979793      0.434233
  H       2.574959     -0.742602      0.549228
17
Coordinates from ORCA-job scan E -27.291351999880
  C      -1.660471      0.422724      1.022330
  C      -1.032338     -0.565533      0.057095
  O      -2.066416     -1.099431     -0.755817
  O      -1.512616     -1.522641     -1.942650
  C      -0.044037      0.027926     -0.945846
  O       0.372602      1.323711     -0.975396
  C       1.380683      0.322729     -0.856280
  C       2.146836      0.251043      0.436480
  H      -0.921837      0.783941      1.732109
  H      -2.070393      1.264795      0.471374
  H      -2.465239     -0.070022      1.561110
  H      -0.509489     -1.380086      0.587322
  H      -0.616905     -0.648576     -1.940941
  H       1.975154      0.195174     -1.757426
  H       1.494854      0.456647      1.281381
  H       2.954334      0.979939      0.433279
  H       2.575280     -0.742340      0.549502
17
Coordinates from ORCA-job scan E -27.291355878570
  C      -1.660314      0.422776      1.022019
  C      -1.032274     -0.565562      0.056873
  O      -2.066439     -1.099640     -0.755719
  O      -1.513917     -1.523394     -1.942763
  C      -0.043931      0.028350     -0.945329
  O       0.372741      1.324355     -0.974689
  C       1.380838      0.323010     -0.855936
  C       2.147158      0.251122      0.436714
  H      -0.921649      0.784029      1.731762
  H      -2.070292      1.264803      0.471021
  H      -2.465033     -0.070000      1.560805
  H      -0.509531     -1.380166      0.587154
  H      -0.618052     -0.649485     -1.941878
  H       1.975169      0.195482     -1.757192
  H       1.495261      0.456564      1.281725
  H       2.954650      0.980030      0.433544
  H       2.575619     -0.742275      0.549515
17
Coordinates from ORCA-job scan E -27.291359568200
  C      -1.660433      0.423001      1.021429
  C      -1.032270     -0.565518      0.056421
  O      -2.066660     -1.100065     -0.755205
  O      -1.516159     -1.525071     -1.942592
  C      -0.043536      0.029314     -0.944227
  O       0.373170      1.325585     -0.972949
  C       1.381269      0.323531     -0.855295
  C       2.148054      0.251088      0.437034
  H      -0.921787      0.784524      1.731051
  H      -2.070639      1.264822      0.470290
  H      -2.465041     -0.069877      1.560318
  H      -0.509693     -1.380172      0.586890
  H      -0.620032     -0.651433     -1.944196
  H       1.975233      0.196523     -1.756852
  H       1.496378      0.455845      1.282394
  H       2.955378      0.980186      0.434027
  H       2.576770     -0.742283      0.549088
17
Coordinates from ORCA-job scan E -27.291359966520
  C      -1.660621      0.423125      1.021362
  C      -1.032351     -0.565420      0.056346
  O      -2.066749     -1.100055     -0.755016
  O      -1.516164     -1.525526     -1.942303
  C      -0.043463      0.029551     -0.943999
  O       0.373220      1.325745     -0.972470
  C       1.381320      0.323592     -0.855213
  C       2.148261      0.250944      0.437015
  H      -0.921984      0.784796      1.730918
  H      -2.070940      1.264842      0.470162
  H      -2.465161     -0.069787      1.560317
  H      -0.509705     -1.380018      0.586870
  H      -0.620096     -0.651829     -1.944865
  H       1.975172      0.196890     -1.756881
  H       1.496633      0.455316      1.282509
  H       2.955439      0.980206      0.434133
  H       2.577189     -0.742375      0.548741
17
Coordinates from ORCA-job scan E -27.291293417420
  C      -1.661320      0.423005      1.022101
  C      -1.032677     -0.565061      0.056837
  O      -2.066854     -1.099286     -0.755628
  O      -1.513139     -1.523022     -1.943579
  C      -0.043436      0.029344     -0.943702
  O       0.373389      1.324828     -0.973275
  C       1.381409      0.323053     -0.855351
  C       2.148656      0.251175      0.436739
  H      -0.922946      0.784361      1.732091
  H      -2.071469      1.264972      0.471156
  H      -2.466036     -0.070188      1.560536
  H      -0.509990     -1.379678      0.587291
  H      -0.621312     -0.653655     -1.944973
  H       1.975055      0.195743     -1.757070
  H       1.497254      0.456170      1.282256
  H       2.955909      0.980352      0.433182
  H       2.577509     -0.742115      0.549013
17
Coordinates from ORCA-job scan E -27.291297467010
  C      -1.661162      0.423063      1.021797
  C      -1.032610     -0.565076      0.056611
  O      -2.066885     -1.099475     -0.755532
  O      -1.514455     -1.523824     -1.943671
  C      -0.043325      0.029779     -0.943188
  O       0.373535      1.325477     -0.972558
  C       1.381569      0.323343     -0.855001
  C       2.148981      0.251252      0.436979
  H      -0.922757      0.784451      1.731752
  H      -2.071367      1.264990      0.470815
  H      -2.465830     -0.070162      1.560234
  H      -0.510027     -1.379747      0.587111
  H      -0.622482     -0.654608     -1.945990
  H       1.975076      0.196071     -1.756829
  H       1.497662      0.456066      1.282610
  H       2.956220      0.980449      0.433465
  H       2.577859     -0.742049      0.549019
17
Coordinates from ORCA-job scan E -27.291301751530
  C      -1.661270      0.423317      1.021173
  C      -1.032597     -0.564992      0.056107
  O      -2.067150     -1.099877     -0.754983
  O      -1.516922     -1.525772     -1.943428
  C      -0.042891      0.030852     -0.942007
  O       0.374010      1.326825     -0.970661
  C       1.382039      0.323936     -0.854287
  C       2.149944      0.251216      0.437350
  H      -0.922876      0.784977      1.730999
  H      -2.071718      1.265038      0.470062
  H      -2.465814     -0.070028      1.559714
  H      -0.510183     -1.379727      0.586781
  H      -0.624692     -0.656833     -1.948714
  H       1.975164      0.197237     -1.756436
  H       1.498856      0.455253      1.283359
  H       2.956990      0.980632      0.434040
  H       2.579113     -0.742053      0.548553
17
Coordinates from ORCA-job scan E -27.291302237420
  C      -1.661463      0.423455      1.021104
  C      -1.032682     -0.564873      0.056019
  O      -2.067257     -1.099847     -0.754779
  O      -1.516942     -1.526312     -1.943091
  C      -0.042812      0.031120     -0.941765
  O       0.374068      1.327010     -0.970139
  C       1.382095      0.324014     -0.854191
  C       2.150166      0.251063      0.437339
  H      -0.923078      0.785266      1.730860
  H      -2.072032      1.265070      0.469937
  H      -2.465935     -0.069932      1.559712
  H      -0.510191     -1.379556      0.586738
  H      -0.624786     -0.657305     -1.949508
  H       1.975104      0.197647     -1.756456
  H       1.499129      0.454677      1.283493
  H       2.957055      0.980655      0.434171
  H       2.579563     -0.742152      0.548179
17
Coordinates from ORCA-job scan E -27.291253409820
  C      -1.662159      0.423336      1.021840
  C      -1.033008     -0.564515      0.056508
  O      -2.067361     -1.099078     -0.755389
  O      -1.513920     -1.523813     -1.944372
  C      -0.042786      0.030916     -0.941469
  O       0.374237      1.326096     -0.970942
  C       1.382183      0.323477     -0.854329
  C       2.150558      0.251292      0.437064
  H      -0.924035      0.784832      1.732029
  H      -2.072558      1.265201      0.470928
  H      -2.466806     -0.070331      1.559930
  H      -0.510475     -1.379217      0.587157
  H      -0.626004     -0.659131     -1.949604
  H       1.974986      0.196503     -1.756644
  H       1.499747      0.455527      1.283242
  H       2.957522      0.980799      0.433224
  H       2.579880     -0.741894      0.548450
17
Coordinates from ORCA-job scan E -27.291257608370
  C      -1.662001      0.423398      1.021542
  C      -1.032939     -0.564517      0.056278
  O      -2.067400     -1.099246     -0.755297
  O      -1.515245     -1.524665     -1.944439
  C      -0.042669      0.031362     -0.940958
  O       0.374388      1.326750     -0.970214
  C       1.382346      0.323777     -0.853973
  C       2.150885      0.251367      0.437310
  H      -0.923845      0.784924      1.731698
  H      -2.072456      1.265228      0.470601
  H      -2.466599     -0.070304      1.559634
  H      -0.510507     -1.379276      0.586965
  H      -0.627195     -0.660128     -1.950700
  H       1.975014      0.196853     -1.756396
  H       1.500155      0.455407      1.283603
  H       2.957831      0.980898      0.433523
  H       2.580238     -0.741829      0.548449
17
Coordinates from ORCA-job scan E -27.291262455730
  C      -1.662095      0.423682      1.020888
  C      -1.032917     -0.564388      0.055721
  O      -2.067708     -1.099612     -0.754719
  O      -1.517916     -1.526894     -1.944110
  C      -0.042202      0.032544     -0.939706
  O       0.374907      1.328215     -0.968163
  C       1.382851      0.324444     -0.853190
  C       2.151908      0.251327      0.437730
  H      -0.923943      0.785481      1.730906
  H      -2.072812      1.265306      0.469832
  H      -2.466554     -0.070160      1.559087
  H      -0.510656     -1.379229      0.586563
  H      -0.629625     -0.662636     -1.953831
  H       1.975123      0.198151     -1.755950
  H       1.501422      0.454506      1.284431
  H       2.958644      0.981097      0.434190
  H       2.581576     -0.741835      0.547946
17
Coordinates from ORCA-job scan E -27.291263010440
  C      -1.662293      0.423831      1.020821
  C      -1.033005     -0.564252      0.055623
  O      -2.067828     -1.099560     -0.754506
  O      -1.517924     -1.527498     -1.943728
  C      -0.042122      0.032835     -0.939460
  O       0.374967      1.328415     -0.967613
  C       1.382906      0.324536     -0.853085
  C       2.152134      0.251163      0.437722
  H      -0.924146      0.785783      1.730765
  H      -2.073138      1.265349      0.469715
  H      -2.466673     -0.070060      1.559088
  H      -0.510656     -1.379041      0.586500
  H      -0.629727     -0.663159     -1.954714
  H       1.975060      0.198594     -1.755966
  H       1.501702      0.453894      1.284576
  H       2.958708      0.981115      0.434338
  H       2.582036     -0.741945      0.547550
17
Coordinates from ORCA-job scan E -27.291233145760
  C      -1.662985      0.423712      1.021554
  C      -1.033329     -0.563895      0.056110
  O      -2.067932     -1.098792     -0.755114
  O      -1.514904     -1.525006     -1.945015
  C      -0.042097      0.032632     -0.939166
  O       0.375135      1.327505     -0.968415
  C       1.382994      0.324001     -0.853223
  C       2.152525      0.251391      0.437448
  H      -0.925099      0.785350      1.731930
  H      -2.073662      1.265480      0.470702
  H      -2.467541     -0.070457      1.559305
  H      -0.510939     -1.378704      0.586916
  H      -0.630946     -0.664985     -1.954795
  H       1.974943      0.197455     -1.756154
  H       1.502317      0.454742      1.284325
  H       2.959172      0.981258      0.433394
  H       2.582351     -0.741689      0.547820
17
Coordinates from ORCA-job scan E -27.291237434590
  C      -1.662828      0.423780      1.021262
  C      -1.033257     -0.563884      0.055876
  O      -2.067974     -1.098942     -0.755027
  O      -1.516234     -1.525903     -1.945059
  C      -0.041976      0.033089     -0.938657
  O       0.375292      1.328166     -0.967675
  C       1.383158      0.324311     -0.852862
  C       2.152853      0.251462      0.437698
  H      -0.924910      0.785447      1.731603
  H      -2.073562      1.265514      0.470384
  H      -2.467333     -0.070429      1.559013
  H      -0.510967     -1.378753      0.586714
  H      -0.632156     -0.666021     -1.955953
  H       1.974974      0.197827     -1.755901
  H       1.502727      0.454606      1.284693
  H       2.959482      0.981356      0.433706
  H       2.582713     -0.741628      0.547810
17
Coordinates from ORCA-job scan E -27.291242539820
  C      -1.662915      0.424087      1.020592
  C      -1.033226     -0.563717      0.055289
  O      -2.068302     -1.099272     -0.754437
  O      -1.518988     -1.528327     -1.944644
  C      -0.041496      0.034343     -0.937374
  O       0.375831      1.329706     -0.965523
  C       1.383675      0.325033     -0.852040
  C       2.153903      0.251408      0.438143
  H      -0.924995      0.786034      1.730786
  H      -2.073926      1.265613      0.469608
  H      -2.467267     -0.070278      1.558455
  H      -0.511101     -1.378676      0.586264
  H      -0.634707     -0.668710     -1.959338
  H       1.975089      0.199226     -1.755426
  H       1.504028      0.453632      1.285565
  H       2.960314      0.981548      0.434435
  H       2.584086     -0.741650      0.547269
17
Coordinates from ORCA-job scan E -27.291243099930
  C      -1.663115      0.424240      1.020530
  C      -1.033314     -0.563572      0.055195
  O      -2.068417     -1.099211     -0.754226
  O      -1.518934     -1.528936     -1.944235
  C      -0.041429      0.034633     -0.937143
  O       0.375882      1.329903     -0.964979
  C       1.383718      0.325125     -0.851943
  C       2.154115      0.251232      0.438128
  H      -0.925202      0.786346      1.730648
  H      -2.074262      1.265658      0.469497
  H      -2.467384     -0.070179      1.558465
  H      -0.511090     -1.378477      0.586197
  H      -0.634772     -0.669219     -1.960203
  H       1.975017      0.199676     -1.755448
  H       1.504295      0.453006      1.285703
  H       2.960367      0.981549      0.434581
  H       2.584527     -0.741775      0.546858
17
Coordinates from ORCA-job scan E -27.291232792300
  C      -1.663661      0.424125      1.021025
  C      -1.033457     -0.563234      0.055490
  O      -2.067737     -1.098314     -0.755374
  O      -1.516653     -1.526943     -1.945408
  C      -0.041554      0.034343     -0.936541
  O       0.376231      1.329510     -0.965216
  C       1.383777      0.324730     -0.851979
  C       2.154561      0.251501      0.437899
  H      -0.926073      0.785803      1.731700
  H      -2.074465      1.265863      0.470225
  H      -2.468237     -0.070509      1.558301
  H      -0.511471     -1.378258      0.586545
  H      -0.636809     -0.671451     -1.959715
  H       1.974736      0.198755     -1.755634
  H       1.505026      0.453852      1.285555
  H       2.960901      0.981720      0.433675
  H       2.584887     -0.741493      0.547080
17
Coordinates from ORCA-job scan E -27.291237007580
  C      -1.663743      0.424230      1.020830
  C      -1.033518     -0.563165      0.055374
  O      -2.068333     -1.098715     -0.754786
  O      -1.517557     -1.527656     -1.945407
  C      -0.041225      0.034922     -0.936281
  O       0.376445      1.330028     -0.964634
  C       1.384055      0.325095     -0.851740
  C       2.154932      0.251434      0.438070
  H      -0.926096      0.786115      1.731337
  H      -2.074783      1.265818      0.469966
  H      -2.468139     -0.070506      1.558254
  H      -0.511428     -1.378098      0.586570
  H      -0.637529     -0.672379     -1.961232
  H       1.974951      0.199304     -1.755472
  H       1.505417      0.453433      1.285830
  H       2.961224      0.981710      0.434067
  H       2.585329     -0.741573      0.546877
17
Coordinates from ORCA-job scan E -27.291241784430
  C      -1.663768      0.424650      1.020304
  C      -1.033528     -0.562899      0.054899
  O      -2.069213     -1.099176     -0.753681
  O      -1.519547     -1.529990     -1.944967
  C      -0.040707      0.036307     -0.935389
  O       0.376629      1.331202     -0.962753
  C       1.384451      0.325866     -0.850997
  C       2.155718      0.251190      0.438517
  H      -0.925989      0.787001      1.730460
  H      -2.075334      1.265919      0.469342
  H      -2.467802     -0.070303      1.558061
  H      -0.511234     -1.377713      0.586101
  H      -0.639350     -0.674979     -1.965176
  H       1.975111      0.200862     -1.754990
  H       1.506332      0.452079      1.286653
  H       2.961760      0.981757      0.435039
  H       2.586474     -0.741774      0.546202
17
Coordinates from ORCA-job scan E -27.291242240640
  C      -1.663910      0.424790      1.020227
  C      -1.033571     -0.562768      0.054793
  O      -2.069107     -1.099001     -0.753669
  O      -1.519500     -1.530619     -1.944536
  C      -0.040769      0.036570     -0.935097
  O       0.376615      1.331399     -0.962219
  C       1.384428      0.325900     -0.850854
  C       2.155918      0.251053      0.438512
  H      -0.926175      0.787273      1.730355
  H      -2.075575      1.265975      0.469223
  H      -2.467899     -0.070222      1.558008
  H      -0.511229     -1.377612      0.585934
  H      -0.639517     -0.675416     -1.965861
  H       1.974962      0.201204     -1.754964
  H       1.506644      0.451597      1.286819
  H       2.961840      0.981751      0.435094
  H       2.586848     -0.741874      0.545859
17
Coordinates from ORCA-job scan E -27.291251020470
  C      -1.664455      0.424676      1.020718
  C      -1.033714     -0.562432      0.055086
  O      -2.068430     -1.098106     -0.754818
  O      -1.517226     -1.528631     -1.945712
  C      -0.040892      0.036282     -0.934499
  O       0.376967      1.331009     -0.962454
  C       1.384489      0.325508     -0.850889
  C       2.156364      0.251321      0.438284
  H      -0.927045      0.786731      1.731402
  H      -2.075778      1.266179      0.469946
  H      -2.468751     -0.070552      1.557842
  H      -0.511609     -1.377395      0.586279
  H      -0.641557     -0.677645     -1.965353
  H       1.974683      0.200289     -1.755150
  H       1.507375      0.452439      1.286672
  H       2.962373      0.981921      0.434193
  H       2.587209     -0.741594      0.546079
17
Coordinates from ORCA-job scan E -27.291254698250
  C      -1.664531      0.424757      1.020492
  C      -1.033743     -0.562377      0.054950
  O      -2.068848     -1.098447     -0.754390
  O      -1.518268     -1.529390     -1.945705
  C      -0.040615      0.036857     -0.934140
  O       0.377223      1.331607     -0.961822
  C       1.384764      0.325847     -0.850608
  C       2.156781      0.251297      0.438462
  H      -0.927101      0.786994      1.731058
  H      -2.076048      1.266125      0.469650
  H      -2.468685     -0.070575      1.557710
  H      -0.511613     -1.377312      0.586266
  H      -0.642468     -0.678573     -1.966739
  H       1.974858      0.200772     -1.754962
  H       1.507865      0.452140      1.286977
  H       2.962773      0.981919      0.434507
  H       2.587658     -0.741644      0.545919
17
Coordinates from ORCA-job scan E -27.291258737460
  C      -1.664677      0.425123      1.019919
  C      -1.033737     -0.562139      0.054481
  O      -2.069476     -1.098907     -0.753460
  O      -1.520311     -1.531635     -1.945220
  C      -0.040145      0.038228     -0.933096
  O       0.377557      1.332903     -0.959884
  C       1.385183      0.326542     -0.849850
  C       2.157686      0.251084      0.438856
  H      -0.927202      0.787857      1.730197
  H      -2.076691      1.266151      0.468929
  H      -2.468512     -0.070442      1.557409
  H      -0.511516     -1.377014      0.585847
  H      -0.644451     -0.680989     -1.970312
  H       1.974955      0.202202     -1.754508
  H       1.509002      0.450941      1.287797
  H       2.963478      0.981936      0.435278
  H       2.588859     -0.741840      0.545244
17
Coordinates from ORCA-job scan E -27.291259008670
  C      -1.664844      0.425242      1.019883
  C      -1.033792     -0.562028      0.054433
  O      -2.069377     -1.098783     -0.753442
  O      -1.520027     -1.532029     -1.944854
  C      -0.040218      0.038402     -0.932890
  O       0.377525      1.333000     -0.959494
  C       1.385132      0.326530     -0.849788
  C       2.157817      0.250930      0.438802
  H      -0.927407      0.788118      1.730125
  H      -2.076954      1.266177      0.468838
  H      -2.468628     -0.070369      1.557409
  H      -0.511498     -1.376890      0.585779
  H      -0.644387     -0.681180     -1.970700
  H       1.974792      0.202442     -1.754548
  H       1.509219      0.450485      1.287882
  H       2.963496      0.981906      0.435282
  H       2.589154     -0.741955      0.544908
17
Coordinates from ORCA-job scan E -27.291226435120
  C      -1.664107      0.425398      1.019221
  C      -1.033600     -0.562484      0.054039
  O      -2.070291     -1.099994     -0.751882
  O      -1.523105     -1.534721     -1.943255
  C      -0.040053      0.038791     -0.933699
  O       0.377045      1.333526     -0.959178
  C       1.385048      0.327059     -0.849740
  C       2.157211      0.250567      0.439110
  H      -0.926229      0.788853      1.728709
  H      -2.076681      1.265900      0.467863
  H      -2.467473     -0.069923      1.557639
  H      -0.510982     -1.377184      0.585314
  H      -0.641614     -0.678155     -1.971411
  H       1.975167      0.203676     -1.754297
  H       1.508229      0.449347      1.288079
  H       2.962774      0.981675      0.436500
  H       2.588664     -0.742333      0.544612
17
Coordinates from ORCA-job scan E -27.291234185110
  C      -1.664402      0.425420      1.019574
  C      -1.033711     -0.562356      0.054269
  O      -2.069380     -1.099300     -0.752678
  O      -1.520755     -1.534042     -1.942692
  C      -0.040655      0.038180     -0.933934
  O       0.376722      1.332794     -0.959672
  C       1.384556      0.326459     -0.850145
  C       2.156813      0.250334      0.438662
  H      -0.926657      0.788882      1.729192
  H      -2.076880      1.265944      0.468200
  H      -2.467871     -0.069879      1.557889
  H      -0.510991     -1.377035      0.585395
  H      -0.639971     -0.676706     -1.969523
  H       1.974606      0.203084     -1.754727
  H       1.507888      0.449135      1.287664
  H       2.962257      0.981565      0.435874
  H       2.588432     -0.742480      0.544279
17
Coordinates from ORCA-job scan E -27.291239952950
  C      -1.665244      0.425290      1.020266
  C      -1.034092     -0.562135      0.054962
  O      -2.068183     -1.098678     -0.753970
  O      -1.516753     -1.532333     -1.942265
  C      -0.041508      0.037334     -0.934472
  O       0.376678      1.331828     -0.960984
  C       1.384004      0.325539     -0.851006
  C       2.156336      0.249945      0.437804
  H      -0.927727      0.789014      1.729954
  H      -2.077826      1.265673      0.468755
  H      -2.468646     -0.070152      1.558521
  H      -0.511087     -1.376592      0.586257
  H      -0.637104     -0.673737     -1.965859
  H       1.973906      0.201570     -1.755597
  H       1.507478      0.449001      1.286784
  H       2.961715      0.981233      0.434710
  H       2.588057     -0.742803      0.543763
17
Coordinates from ORCA-job scan E -27.291240483930
  C      -1.665400      0.425200      1.020352
  C      -1.034120     -0.562119      0.055179
  O      -2.068093     -1.098947     -0.754099
  O      -1.516360     -1.531752     -1.942632
  C      -0.041549      0.037293     -0.934607
  O       0.376873      1.331798     -0.961395
  C       1.384024      0.325464     -0.851172
  C       2.156272      0.249896      0.437693
  H      -0.927861      0.789177      1.729887
  H      -2.078254      1.265431      0.468790
  H      -2.468595     -0.070380      1.558779
  H      -0.511046     -1.376405      0.586634
  H      -0.636774     -0.673060     -1.965025
  H       1.973902      0.201053     -1.755723
  H       1.507366      0.449096      1.286602
  H       2.961704      0.981126      0.434582
  H       2.587911     -0.742870      0.543780
17
Coordinates from ORCA-job scan E -27.291240483940
  C      -1.665400      0.425200      1.020352
  C      -1.034120     -0.562119      0.055179
  O      -2.068093     -1.098947     -0.754099
  O      -1.516360     -1.531752     -1.942632
  C      -0.041549      0.037293     -0.934607
  O       0.376873      1.331798     -0.961395
  C       1.384024      0.325464     -0.851172
  C       2.156272      0.249896      0.437693
  H      -0.927861      0.789177      1.729887
  H      -2.078254      1.265431      0.468790
  H      -2.468595     -0.070380      1.558779
  H      -0.511046     -1.376405      0.586634
  H      -0.636774     -0.673060     -1.965025
  H       1.973902      0.201053     -1.755723
  H       1.507366      0.449096      1.286602
  H       2.961704      0.981126      0.434582
  H       2.587911     -0.742870      0.543780
17
Coordinates from ORCA-job scan E -27.291240167040
  C      -1.665265      0.425156      1.020259
  C      -1.034067     -0.562164      0.055104
  O      -2.068353     -1.099240     -0.753918
  O      -1.517166     -1.531986     -1.942830
  C      -0.041435      0.037391     -0.934745
  O       0.377017      1.331915     -0.961516
  C       1.384126      0.325579     -0.851160
  C       2.156210      0.249926      0.437800
  H      -0.927590      0.789280      1.729584
  H      -2.078359      1.265298      0.468734
  H      -2.468263     -0.070478      1.558930
  H      -0.510982     -1.376383      0.586607
  H      -0.636621     -0.672738     -1.964939
  H       1.974089      0.201026     -1.755640
  H       1.507190      0.449126      1.286623
  H       2.961660      0.981139      0.434818
  H       2.587809     -0.742851      0.543914
