15
Coordinates from ORCA-job freq E -271.041267436633
  C          -1.01976573236199     -2.23536566422158     -1.25035406419313
  C          -1.45995623280761      2.62175352957392      0.44897463763438
  C          -0.67961699090396      0.21826462492195     -0.88288605049969
  C          -1.67664512842181     -0.85983911708663     -1.20752424628595
  C          -0.96073088956940      1.33889981245817     -0.04469278845825
  O          -0.29006706861481      0.30461535546525      0.53267951030550
  H          -0.56260256373531     -2.46671210320364     -0.28851401781734
  H          -1.74744854131220     -3.01299673815506     -1.47811089482452
  H          -0.23962081439531     -2.27210982415780     -2.01200229006531
  H          -1.95934534666895      3.15275881796281     -0.35899917074955
  H          -0.64965227029699      3.25690235171797      0.82318438312525
  H          -2.17733743459483      2.49459373952208      1.26705092180610
  H           0.18565579432596      0.25240436673049     -1.54513215427500
  H          -2.13280104259393     -0.62572229871758     -2.17271126476429
  H          -2.46898973804872     -0.83143185281034     -0.45835851093814
