15
* (null), Energy   -1000.0000000
C     2.473201   -0.400775    0.585604    0.002583   -0.001328   -0.001838
C     0.020957    0.150531    0.583239    0.085760   -0.016757    0.030248
C    -1.177184    0.595667    0.116875   -0.117650   -0.090941   -0.191562
C     1.278015    0.081016   -0.227406   -0.001135   -0.003523    0.006523
C    -1.421621    1.127712   -1.265768   -0.064127    0.243809    0.029504
O    -2.495539    1.682940   -1.589543    0.057195   -0.042006   -0.004728
H     3.374241   -0.441079   -0.023904    0.003918   -0.006369    0.005254
H     2.662596    0.268152    1.425356   -0.002336    0.001313   -0.004627
H     2.291341   -1.398407    0.986041   -0.002096    0.001133   -0.003701
H     0.066713   -0.183448    1.613141    0.023815    0.029607    0.028352
H    -2.063374    0.596635    0.739422   -0.031214    0.050495   -0.068130
H     1.488437    1.067295   -0.654147   -0.006376    0.001497   -0.008544
H     1.125002   -0.580967   -1.087545   -0.018232    0.007821   -0.016745
H    -0.523831    1.207144   -1.893965   -0.089865   -0.330753   -0.124448
H    -1.568397   -0.124296   -1.103441    0.341451   -0.652075    1.782415
15
* Frequency(6) -1368.3975
C     2.473494   -0.400926    0.585395    0.002583   -0.001328   -0.001838
C     0.030703    0.148627    0.586677    0.085760   -0.016757    0.030248
C    -1.190555    0.585332    0.095104   -0.117650   -0.090941   -0.191562
C     1.277886    0.080616   -0.226664   -0.001135   -0.003523    0.006523
C    -1.428909    1.155419   -1.262415   -0.064127    0.243809    0.029504
O    -2.489039    1.678166   -1.590080    0.057195   -0.042006   -0.004728
H     3.374686   -0.441802   -0.023307    0.003918   -0.006369    0.005254
H     2.662331    0.268301    1.424830   -0.002336    0.001313   -0.004627
H     2.291103   -1.398278    0.985620   -0.002096    0.001133   -0.003701
H     0.069420   -0.180084    1.616363    0.023815    0.029607    0.028352
H    -2.066921    0.602373    0.731679   -0.031214    0.050495   -0.068130
H     1.487713    1.067465   -0.655118   -0.006376    0.001497   -0.008544
H     1.122930   -0.580078   -1.089448   -0.018232    0.007821   -0.016745
H    -0.534044    1.169556   -1.908107   -0.089865   -0.330753   -0.124448
H    -1.529593   -0.198401   -0.900879    0.341451   -0.652075    1.782415
15
* Frequency(6) -1368.3975
C     2.473756   -0.401061    0.585209    0.002583   -0.001328   -0.001838
C     0.039393    0.146929    0.589742    0.085760   -0.016757    0.030248
C    -1.202476    0.576117    0.075694   -0.117650   -0.090941   -0.191562
C     1.277771    0.080259   -0.226004   -0.001135   -0.003523    0.006523
C    -1.435407    1.180124   -1.259426   -0.064127    0.243809    0.029504
O    -2.483244    1.673909   -1.590559    0.057195   -0.042006   -0.004728
H     3.375083   -0.442448   -0.022775    0.003918   -0.006369    0.005254
H     2.662094    0.268434    1.424362   -0.002336    0.001313   -0.004627
H     2.290891   -1.398163    0.985245   -0.002096    0.001133   -0.003701
H     0.071833   -0.177084    1.619236    0.023815    0.029607    0.028352
H    -2.070084    0.607490    0.724775   -0.031214    0.050495   -0.068130
H     1.487067    1.067617   -0.655984   -0.006376    0.001497   -0.008544
H     1.121083   -0.579285   -1.091145   -0.018232    0.007821   -0.016745
H    -0.543150    1.136041   -1.920718   -0.089865   -0.330753   -0.124448
H    -1.494994   -0.264476   -0.720267    0.341451   -0.652075    1.782415
15
* Frequency(6) -1368.3975
C     2.473958   -0.401164    0.585066    0.002583   -0.001328   -0.001838
C     0.046085    0.145621    0.592102    0.085760   -0.016757    0.030248
C    -1.211657    0.569020    0.060745   -0.117650   -0.090941   -0.191562
C     1.277683    0.079984   -0.225494   -0.001135   -0.003523    0.006523
C    -1.440411    1.199150   -1.257123   -0.064127    0.243809    0.029504
O    -2.478780    1.670632   -1.590928    0.057195   -0.042006   -0.004728
H     3.375389   -0.442945   -0.022365    0.003918   -0.006369    0.005254
H     2.661912    0.268537    1.424000   -0.002336    0.001313   -0.004627
H     2.290727   -1.398075    0.984956   -0.002096    0.001133   -0.003701
H     0.073691   -0.174773    1.621449    0.023815    0.029607    0.028352
H    -2.072520    0.611430    0.719459   -0.031214    0.050495   -0.068130
H     1.486569    1.067734   -0.656651   -0.006376    0.001497   -0.008544
H     1.119660   -0.578675   -1.092451   -0.018232    0.007821   -0.016745
H    -0.550162    1.110231   -1.930429   -0.089865   -0.330753   -0.124448
H    -1.468349   -0.315360   -0.581179    0.341451   -0.652075    1.782415
15
* Frequency(6) -1368.3975
C     2.474077   -0.401226    0.584981    0.002583   -0.001328   -0.001838
C     0.050054    0.144846    0.593502    0.085760   -0.016757    0.030248
C    -1.217102    0.564812    0.051879   -0.117650   -0.090941   -0.191562
C     1.277630    0.079821   -0.225193   -0.001135   -0.003523    0.006523
C    -1.443379    1.210434   -1.255758   -0.064127    0.243809    0.029504
O    -2.476133    1.668687   -1.591147    0.057195   -0.042006   -0.004728
H     3.375570   -0.443240   -0.022121    0.003918   -0.006369    0.005254
H     2.661804    0.268598    1.423786   -0.002336    0.001313   -0.004627
H     2.290630   -1.398023    0.984785   -0.002096    0.001133   -0.003701
H     0.074793   -0.173403    1.622761    0.023815    0.029607    0.028352
H    -2.073964    0.613767    0.716306   -0.031214    0.050495   -0.068130
H     1.486274    1.067803   -0.657046   -0.006376    0.001497   -0.008544
H     1.118816   -0.578313   -1.093226   -0.018232    0.007821   -0.016745
H    -0.554321    1.094923   -1.936188   -0.089865   -0.330753   -0.124448
H    -1.452546   -0.345539   -0.498685    0.341451   -0.652075    1.782415
15
* Frequency(6) -1368.3975
C     2.474102   -0.401238    0.584963    0.002583   -0.001328   -0.001838
C     0.050870    0.144686    0.593790    0.085760   -0.016757    0.030248
C    -1.218221    0.563946    0.050057   -0.117650   -0.090941   -0.191562
C     1.277619    0.079787   -0.225131   -0.001135   -0.003523    0.006523
C    -1.443989    1.212753   -1.255477   -0.064127    0.243809    0.029504
O    -2.475589    1.668288   -1.591192    0.057195   -0.042006   -0.004728
H     3.375607   -0.443300   -0.022071    0.003918   -0.006369    0.005254
H     2.661782    0.268610    1.423742   -0.002336    0.001313   -0.004627
H     2.290610   -1.398012    0.984750   -0.002096    0.001133   -0.003701
H     0.075020   -0.173121    1.623031    0.023815    0.029607    0.028352
H    -2.074261    0.614248    0.715658   -0.031214    0.050495   -0.068130
H     1.486213    1.067817   -0.657127   -0.006376    0.001497   -0.008544
H     1.118643   -0.578239   -1.093386   -0.018232    0.007821   -0.016745
H    -0.555176    1.091776   -1.937373   -0.089865   -0.330753   -0.124448
H    -1.449297   -0.351743   -0.481727    0.341451   -0.652075    1.782415
15
* Frequency(6) -1368.3975
C     2.474029   -0.401201    0.585015    0.002583   -0.001328   -0.001838
C     0.048444    0.145160    0.592934    0.085760   -0.016757    0.030248
C    -1.214894    0.566518    0.055475   -0.117650   -0.090941   -0.191562
C     1.277651    0.079887   -0.225315   -0.001135   -0.003523    0.006523
C    -1.442175    1.205858   -1.256312   -0.064127    0.243809    0.029504
O    -2.477207    1.669476   -1.591058    0.057195   -0.042006   -0.004728
H     3.375496   -0.443120   -0.022220    0.003918   -0.006369    0.005254
H     2.661848    0.268573    1.423873   -0.002336    0.001313   -0.004627
H     2.290669   -1.398044    0.984854   -0.002096    0.001133   -0.003701
H     0.074346   -0.173959    1.622229    0.023815    0.029607    0.028352
H    -2.073379    0.612820    0.717585   -0.031214    0.050495   -0.068130
H     1.486394    1.067775   -0.656886   -0.006376    0.001497   -0.008544
H     1.119158   -0.578460   -1.092912   -0.018232    0.007821   -0.016745
H    -0.552635    1.101131   -1.933853   -0.089865   -0.330753   -0.124448
H    -1.458955   -0.333300   -0.532140    0.341451   -0.652075    1.782415
15
* Frequency(6) -1368.3975
C     2.473866   -0.401117    0.585131    0.002583   -0.001328   -0.001838
C     0.043040    0.146216    0.591028    0.085760   -0.016757    0.030248
C    -1.207480    0.572249    0.067547   -0.117650   -0.090941   -0.191562
C     1.277723    0.080109   -0.225726   -0.001135   -0.003523    0.006523
C    -1.438134    1.190493   -1.258171   -0.064127    0.243809    0.029504
O    -2.480811    1.672123   -1.590760    0.057195   -0.042006   -0.004728
H     3.375250   -0.442719   -0.022551    0.003918   -0.006369    0.005254
H     2.661995    0.268490    1.424165   -0.002336    0.001313   -0.004627
H     2.290801   -1.398115    0.985088   -0.002096    0.001133   -0.003701
H     0.072846   -0.175824    1.620442    0.023815    0.029607    0.028352
H    -2.071412    0.609637    0.721878   -0.031214    0.050495   -0.068130
H     1.486795    1.067681   -0.656347   -0.006376    0.001497   -0.008544
H     1.120307   -0.578953   -1.091857   -0.018232    0.007821   -0.016745
H    -0.546971    1.121974   -1.926010   -0.089865   -0.330753   -0.124448
H    -1.480472   -0.292208   -0.644463    0.341451   -0.652075    1.782415
15
* Frequency(6) -1368.3975
C     2.473631   -0.400996    0.585298    0.002583   -0.001328   -0.001838
C     0.035243    0.147740    0.588278    0.085760   -0.016757    0.030248
C    -1.196783    0.580518    0.084964   -0.117650   -0.090941   -0.191562
C     1.277826    0.080429   -0.226319   -0.001135   -0.003523    0.006523
C    -1.432303    1.168326   -1.260853   -0.064127    0.243809    0.029504
O    -2.486011    1.675942   -1.590330    0.057195   -0.042006   -0.004728
H     3.374893   -0.442140   -0.023029    0.003918   -0.006369    0.005254
H     2.662207    0.268371    1.424586   -0.002336    0.001313   -0.004627
H     2.290992   -1.398218    0.985424   -0.002096    0.001133   -0.003701
H     0.070680   -0.178516    1.617864    0.023815    0.029607    0.028352
H    -2.068574    0.605046    0.728072   -0.031214    0.050495   -0.068130
H     1.487375    1.067545   -0.655570   -0.006376    0.001497   -0.008544
H     1.121965   -0.579664   -1.090334   -0.018232    0.007821   -0.016745
H    -0.538801    1.152047   -1.914695   -0.089865   -0.330753   -0.124448
H    -1.511517   -0.232920   -0.806524    0.341451   -0.652075    1.782415
15
* Frequency(6) -1368.3975
C     2.473349   -0.400852    0.585498    0.002583   -0.001328   -0.001838
C     0.025897    0.149566    0.584982    0.085760   -0.016757    0.030248
C    -1.183962    0.590428    0.105839   -0.117650   -0.090941   -0.191562
C     1.277950    0.080813   -0.227030   -0.001135   -0.003523    0.006523
C    -1.425315    1.141757   -1.264069   -0.064127    0.243809    0.029504
O    -2.492244    1.680520   -1.589815    0.057195   -0.042006   -0.004728
H     3.374466   -0.441445   -0.023601    0.003918   -0.006369    0.005254
H     2.662462    0.268228    1.425090   -0.002336    0.001313   -0.004627
H     2.291221   -1.398342    0.985827   -0.002096    0.001133   -0.003701
H     0.068085   -0.181743    1.614775    0.023815    0.029607    0.028352
H    -2.065172    0.599544    0.735497   -0.031214    0.050495   -0.068130
H     1.488070    1.067382   -0.654639   -0.006376    0.001497   -0.008544
H     1.123952   -0.580516   -1.088510   -0.018232    0.007821   -0.016745
H    -0.529008    1.188090   -1.901134   -0.089865   -0.330753   -0.124448
H    -1.548727   -0.161861   -1.000759    0.341451   -0.652075    1.782415
15
* Frequency(6) -1368.3975
C     2.473052   -0.400699    0.585710    0.002583   -0.001328   -0.001838
C     0.016016    0.151496    0.581497    0.085760   -0.016757    0.030248
C    -1.170407    0.600906    0.127910   -0.117650   -0.090941   -0.191562
C     1.278081    0.081219   -0.227782   -0.001135   -0.003523    0.006523
C    -1.417927    1.113666   -1.267468   -0.064127    0.243809    0.029504
O    -2.498834    1.685360   -1.589271    0.057195   -0.042006   -0.004728
H     3.374015   -0.440712   -0.024207    0.003918   -0.006369    0.005254
H     2.662731    0.268076    1.425623   -0.002336    0.001313   -0.004627
H     2.291462   -1.398472    0.986254   -0.002096    0.001133   -0.003701
H     0.065341   -0.185154    1.611508    0.023815    0.029607    0.028352
H    -2.061576    0.593726    0.743347   -0.031214    0.050495   -0.068130
H     1.488805    1.067209   -0.653655   -0.006376    0.001497   -0.008544
H     1.126052   -0.581417   -1.086581   -0.018232    0.007821   -0.016745
H    -0.518654    1.226198   -1.886795   -0.089865   -0.330753   -0.124448
H    -1.588067   -0.086732   -1.206123    0.341451   -0.652075    1.782415
15
* Frequency(6) -1368.3975
C     2.472770   -0.400554    0.585910    0.002583   -0.001328   -0.001838
C     0.006671    0.153322    0.578201    0.085760   -0.016757    0.030248
C    -1.157586    0.610816    0.148785   -0.117650   -0.090941   -0.191562
C     1.278205    0.081603   -0.228492   -0.001135   -0.003523    0.006523
C    -1.410939    1.087097   -1.270683   -0.064127    0.243809    0.029504
O    -2.505067    1.689937   -1.588755    0.057195   -0.042006   -0.004728
H     3.373588   -0.440018   -0.024779    0.003918   -0.006369    0.005254
H     2.662986    0.267933    1.426127   -0.002336    0.001313   -0.004627
H     2.291691   -1.398596    0.986657   -0.002096    0.001133   -0.003701
H     0.062746   -0.188380    1.608418    0.023815    0.029607    0.028352
H    -2.058174    0.588223    0.750771   -0.031214    0.050495   -0.068130
H     1.489500    1.067046   -0.652724   -0.006376    0.001497   -0.008544
H     1.128039   -0.582270   -1.084756   -0.018232    0.007821   -0.016745
H    -0.508861    1.262242   -1.873234   -0.089865   -0.330753   -0.124448
H    -1.625276   -0.015673   -1.400359    0.341451   -0.652075    1.782415
15
* Frequency(6) -1368.3975
C     2.472536   -0.400433    0.586077    0.002583   -0.001328   -0.001838
C    -0.001127    0.154846    0.575451    0.085760   -0.016757    0.030248
C    -1.146889    0.619085    0.166202   -0.117650   -0.090941   -0.191562
C     1.278308    0.081924   -0.229085   -0.001135   -0.003523    0.006523
C    -1.405108    1.064930   -1.273365   -0.064127    0.243809    0.029504
O    -2.510267    1.693757   -1.588326    0.057195   -0.042006   -0.004728
H     3.373232   -0.439438   -0.025257    0.003918   -0.006369    0.005254
H     2.663198    0.267814    1.426548   -0.002336    0.001313   -0.004627
H     2.291881   -1.398699    0.986993   -0.002096    0.001133   -0.003701
H     0.060581   -0.191072    1.605840    0.023815    0.029607    0.028352
H    -2.055336    0.583632    0.756966   -0.031214    0.050495   -0.068130
H     1.490079    1.066910   -0.651947   -0.006376    0.001497   -0.008544
H     1.129697   -0.582981   -1.083233   -0.018232    0.007821   -0.016745
H    -0.500690    1.292314   -1.861919   -0.089865   -0.330753   -0.124448
H    -1.656322    0.043615   -1.562419    0.341451   -0.652075    1.782415
15
* Frequency(6) -1368.3975
C     2.472373   -0.400350    0.586193    0.002583   -0.001328   -0.001838
C    -0.006531    0.155902    0.573544    0.085760   -0.016757    0.030248
C    -1.139475    0.624815    0.178274   -0.117650   -0.090941   -0.191562
C     1.278379    0.082146   -0.229497   -0.001135   -0.003523    0.006523
C    -1.401067    1.049566   -1.275225   -0.064127    0.243809    0.029504
O    -2.513871    1.696404   -1.588028    0.057195   -0.042006   -0.004728
H     3.372985   -0.439037   -0.025588    0.003918   -0.006369    0.005254
H     2.663345    0.267731    1.426839   -0.002336    0.001313   -0.004627
H     2.292013   -1.398770    0.987227   -0.002096    0.001133   -0.003701
H     0.059080   -0.192938    1.604054    0.023815    0.029607    0.028352
H    -2.053369    0.580450    0.761259   -0.031214    0.050495   -0.068130
H     1.490481    1.066816   -0.651409   -0.006376    0.001497   -0.008544
H     1.130846   -0.583474   -1.082178   -0.018232    0.007821   -0.016745
H    -0.495027    1.313157   -1.854077   -0.089865   -0.330753   -0.124448
H    -1.677839    0.084707   -1.674742    0.341451   -0.652075    1.782415
15
* Frequency(6) -1368.3975
C     2.472300   -0.400312    0.586245    0.002583   -0.001328   -0.001838
C    -0.008957    0.156376    0.572689    0.085760   -0.016757    0.030248
C    -1.136147    0.627388    0.183692   -0.117650   -0.090941   -0.191562
C     1.278411    0.082245   -0.229681   -0.001135   -0.003523    0.006523
C    -1.399253    1.042670   -1.276059   -0.064127    0.243809    0.029504
O    -2.515489    1.697592   -1.587894    0.057195   -0.042006   -0.004728
H     3.372874   -0.438857   -0.025736    0.003918   -0.006369    0.005254
H     2.663411    0.267694    1.426970   -0.002336    0.001313   -0.004627
H     2.292073   -1.398802    0.987331   -0.002096    0.001133   -0.003701
H     0.058407   -0.193775    1.603252    0.023815    0.029607    0.028352
H    -2.052487    0.579022    0.763186   -0.031214    0.050495   -0.068130
H     1.490661    1.066773   -0.651167   -0.006376    0.001497   -0.008544
H     1.131361   -0.583695   -1.081705   -0.018232    0.007821   -0.016745
H    -0.492485    1.322512   -1.850557   -0.089865   -0.330753   -0.124448
H    -1.687497    0.103151   -1.725156    0.341451   -0.652075    1.782415
15
* Frequency(6) -1368.3975
C     2.472324   -0.400325    0.586228    0.002583   -0.001328   -0.001838
C    -0.008141    0.156216    0.572977    0.085760   -0.016757    0.030248
C    -1.137267    0.626522    0.181870   -0.117650   -0.090941   -0.191562
C     1.278401    0.082212   -0.229619   -0.001135   -0.003523    0.006523
C    -1.399863    1.044990   -1.275778   -0.064127    0.243809    0.029504
O    -2.514945    1.697192   -1.587939    0.057195   -0.042006   -0.004728
H     3.372911   -0.438918   -0.025687    0.003918   -0.006369    0.005254
H     2.663389    0.267706    1.426926   -0.002336    0.001313   -0.004627
H     2.292053   -1.398791    0.987296   -0.002096    0.001133   -0.003701
H     0.058633   -0.193494    1.603522    0.023815    0.029607    0.028352
H    -2.052784    0.579502    0.762538   -0.031214    0.050495   -0.068130
H     1.490601    1.066788   -0.651248   -0.006376    0.001497   -0.008544
H     1.131188   -0.583620   -1.081864   -0.018232    0.007821   -0.016745
H    -0.493340    1.319366   -1.851741   -0.089865   -0.330753   -0.124448
H    -1.684248    0.096946   -1.708197    0.341451   -0.652075    1.782415
15
* Frequency(6) -1368.3975
C     2.472444   -0.400386    0.586143    0.002583   -0.001328   -0.001838
C    -0.004172    0.155441    0.574377    0.085760   -0.016757    0.030248
C    -1.142712    0.622313    0.173004   -0.117650   -0.090941   -0.191562
C     1.278348    0.082049   -0.229317   -0.001135   -0.003523    0.006523
C    -1.402831    1.056273   -1.274413   -0.064127    0.243809    0.029504
O    -2.512298    1.695248   -1.588158    0.057195   -0.042006   -0.004728
H     3.373093   -0.439212   -0.025443    0.003918   -0.006369    0.005254
H     2.663281    0.267767    1.426712   -0.002336    0.001313   -0.004627
H     2.291956   -1.398739    0.987125   -0.002096    0.001133   -0.003701
H     0.059735   -0.192123    1.604834    0.023815    0.029607    0.028352
H    -2.054228    0.581839    0.759385   -0.031214    0.050495   -0.068130
H     1.490306    1.066857   -0.651644   -0.006376    0.001497   -0.008544
H     1.130344   -0.583258   -1.082639   -0.018232    0.007821   -0.016745
H    -0.497499    1.304058   -1.857500   -0.089865   -0.330753   -0.124448
H    -1.668445    0.066767   -1.625703    0.341451   -0.652075    1.782415
15
* Frequency(6) -1368.3975
C     2.472645   -0.400490    0.585999    0.002583   -0.001328   -0.001838
C     0.002520    0.154133    0.576737    0.085760   -0.016757    0.030248
C    -1.151892    0.615217    0.158056   -0.117650   -0.090941   -0.191562
C     1.278260    0.081774   -0.228808   -0.001135   -0.003523    0.006523
C    -1.407835    1.075299   -1.272111   -0.064127    0.243809    0.029504
O    -2.507834    1.691970   -1.588527    0.057195   -0.042006   -0.004728
H     3.373398   -0.439709   -0.025033    0.003918   -0.006369    0.005254
H     2.663099    0.267870    1.426351   -0.002336    0.001313   -0.004627
H     2.291792   -1.398650    0.986836   -0.002096    0.001133   -0.003701
H     0.061594   -0.189813    1.607046    0.023815    0.029607    0.028352
H    -2.056664    0.585780    0.754068   -0.031214    0.050495   -0.068130
H     1.489808    1.066974   -0.652310   -0.006376    0.001497   -0.008544
H     1.128921   -0.582648   -1.083945   -0.018232    0.007821   -0.016745
H    -0.504512    1.278248   -1.867212   -0.089865   -0.330753   -0.124448
H    -1.641800    0.015883   -1.486615    0.341451   -0.652075    1.782415
15
* Frequency(6) -1368.3975
C     2.472907   -0.400624    0.585813    0.002583   -0.001328   -0.001838
C     0.011210    0.152435    0.579802    0.085760   -0.016757    0.030248
C    -1.163814    0.606002    0.138645   -0.117650   -0.090941   -0.191562
C     1.278144    0.081417   -0.228147   -0.001135   -0.003523    0.006523
C    -1.414333    1.100004   -1.269121   -0.064127    0.243809    0.029504
O    -2.502039    1.687714   -1.589006    0.057195   -0.042006   -0.004728
H     3.373795   -0.440355   -0.024501    0.003918   -0.006369    0.005254
H     2.662862    0.268003    1.425882   -0.002336    0.001313   -0.004627
H     2.291580   -1.398536    0.986461   -0.002096    0.001133   -0.003701
H     0.064007   -0.186813    1.609919    0.023815    0.029607    0.028352
H    -2.059827    0.590896    0.747164   -0.031214    0.050495   -0.068130
H     1.489162    1.067125   -0.653176   -0.006376    0.001497   -0.008544
H     1.127074   -0.581856   -1.085642   -0.018232    0.007821   -0.016745
H    -0.513618    1.244733   -1.879822   -0.089865   -0.330753   -0.124448
H    -1.607201   -0.050191   -1.306003    0.341451   -0.652075    1.782415
15
* Frequency(6) -1368.3975
C     2.473201   -0.400775    0.585604    0.002583   -0.001328   -0.001838
C     0.020957    0.150531    0.583239    0.085760   -0.016757    0.030248
C    -1.177184    0.595667    0.116875   -0.117650   -0.090941   -0.191562
C     1.278015    0.081016   -0.227406   -0.001135   -0.003523    0.006523
C    -1.421621    1.127712   -1.265768   -0.064127    0.243809    0.029504
O    -2.495539    1.682940   -1.589543    0.057195   -0.042006   -0.004728
H     3.374241   -0.441079   -0.023904    0.003918   -0.006369    0.005254
H     2.662596    0.268152    1.425356   -0.002336    0.001313   -0.004627
H     2.291341   -1.398407    0.986041   -0.002096    0.001133   -0.003701
H     0.066713   -0.183448    1.613141    0.023815    0.029607    0.028352
H    -2.063374    0.596635    0.739422   -0.031214    0.050495   -0.068130
H     1.488437    1.067295   -0.654147   -0.006376    0.001497   -0.008544
H     1.125002   -0.580967   -1.087545   -0.018232    0.007821   -0.016745
H    -0.523831    1.207144   -1.893965   -0.089865   -0.330753   -0.124448
H    -1.568397   -0.124296   -1.103441    0.341451   -0.652075    1.782415
