17
Coordinates from ORCA-job freq E -421.390626782248
  C      -1.859639     -0.356530     -0.545464
  C      -1.424164      0.860098      0.224774
  C      -0.008139      0.729627      0.754570
  O       0.419790     -0.523824      1.263828
  C       0.979429     -0.105216      0.057297
  C       0.614168     -0.837126     -1.187099
  O       2.340394      0.198702      0.041446
  O       2.754373      0.973337      1.148303
  H      -2.570459     -0.170087     -1.337732
  H      -2.124160     -1.201625      0.075879
  H      -2.090099      1.035741      1.077802
  H      -1.449350      1.749005     -0.409786
  H       0.353911      1.579699      1.326041
  H       0.973040     -0.337292     -2.076337
  H       0.868215     -1.888442     -1.159070
  H      -0.690127     -0.736243     -1.107848
  H       2.912818      0.325057      1.853397
17
Coordinates from ORCA-job freq E -421.392571669336
  C      -1.838822     -0.359337     -0.529791
  C      -1.403815      0.868722      0.235262
  C       0.017112      0.757790      0.735498
  O       0.431060     -0.527836      1.236779
  C       0.990422     -0.079206      0.033998
  C       0.637671     -0.829794     -1.198115
  O       2.361101      0.174108      0.051238
  O       2.702755      0.971142      1.167896
  H      -2.563790     -0.193728     -1.319661
  H      -2.078918     -1.217152      0.090083
  H      -2.063424      1.048521      1.089744
  H      -1.458106      1.758214     -0.395620
  H       0.395218      1.587359      1.319118
  H       0.942413     -0.345904     -2.119333
  H       0.867975     -1.889402     -1.155802
  H      -0.719456     -0.739931     -1.109790
  H       2.780604      0.311316      1.868495
17
Coordinates from ORCA-job freq E -421.392694296826
  C      -1.838749     -0.364320     -0.518776
  C      -1.400398      0.870259      0.233486
  C       0.024062      0.768153      0.725560
  O       0.438205     -0.518379      1.232127
  C       0.996659     -0.072184      0.026368
  C       0.642210     -0.825075     -1.203837
  O       2.370384      0.168413      0.049000
  O       2.721766      0.950469      1.174882
  H      -2.571343     -0.207765     -1.303619
  H      -2.065561     -1.220951      0.107931
  H      -2.054513      1.055945      1.090955
  H      -1.463209      1.755504     -0.402897
  H       0.401680      1.598760      1.307889
  H       0.925200     -0.333009     -2.127857
  H       0.881666     -1.882791     -1.167378
  H      -0.714000     -0.744614     -1.109878
  H       2.705941      0.296468      1.886045
17
Coordinates from ORCA-job freq E -421.392703052999
  C      -1.835146     -0.366861     -0.512313
  C      -1.396096      0.870789      0.234692
  C       0.030577      0.772313      0.720995
  O       0.448623     -0.512546      1.230153
  C       1.001429     -0.068710      0.020209
  C       0.642728     -0.823742     -1.207090
  O       2.374497      0.176481      0.041477
  O       2.721467      0.938526      1.181887
  H      -2.567299     -0.212968     -1.297951
  H      -2.062799     -1.220562      0.118053
  H      -2.046806      1.058003      1.094374
  H      -1.462595      1.753864     -0.404246
  H       0.409844      1.605472      1.298835
  H       0.915655     -0.329383     -2.133033
  H       0.890920     -1.879538     -1.173220
  H      -0.713122     -0.750316     -1.102646
  H       2.648124      0.284060      1.889823
17
Coordinates from ORCA-job freq E -421.392690282289
  C      -1.835770     -0.366033     -0.514341
  C      -1.397471      0.870597      0.234750
  C       0.028742      0.771164      0.722228
  O       0.445858     -0.514344      1.229989
  C       1.000334     -0.069257      0.021322
  C       0.642751     -0.823871     -1.206676
  O       2.373598      0.174587      0.043061
  O       2.721969      0.942153      1.179627
  H      -2.570976     -0.211637     -1.297086
  H      -2.059637     -1.221794      0.114586
  H      -2.048667      1.056463      1.094398
  H      -1.463586      1.754541     -0.403021
  H       0.407362      1.603573      1.301533
  H       0.924042     -0.333455     -2.132189
  H       0.883676     -1.881219     -1.169097
  H      -0.713581     -0.744379     -1.107860
  H       2.661357      0.287794      1.888776
17
Coordinates from ORCA-job freq E -421.392698676732
  C      -1.836117     -0.365598     -0.515138
  C      -1.397687      0.870206      0.235338
  C       0.028676      0.770828      0.722402
  O       0.446298     -0.514441      1.230209
  C       1.000522     -0.069199      0.021374
  C       0.642862     -0.824410     -1.206238
  O       2.373723      0.175066      0.042611
  O       2.722539      0.943224      1.178769
  H      -2.569504     -0.209765     -1.299287
  H      -2.062822     -1.221242      0.112971
  H      -2.048571      1.054767      1.095492
  H      -1.464209      1.754939     -0.401259
  H       0.407057      1.603454      1.301562
  H       0.924461     -0.334710     -2.132012
  H       0.883793     -1.881740     -1.167938
  H      -0.713651     -0.745360     -1.106871
  H       2.662629      0.288864      1.888016
17
Coordinates from ORCA-job freq E -421.392703102239
  C      -1.836004     -0.365803     -0.514744
  C      -1.397565      0.870383      0.235075
  C       0.028757      0.770929      0.722266
  O       0.446233     -0.514405      1.230019
  C       1.000559     -0.069152      0.021222
  C       0.642864     -0.824145     -1.206516
  O       2.373765      0.175076      0.042700
  O       2.722198      0.942770      1.179287
  H      -2.570165     -0.210562     -1.298291
  H      -2.061715     -1.221333      0.113871
  H      -2.048488      1.055466      1.095083
  H      -1.463928      1.754786     -0.402006
  H       0.407188      1.603501      1.301473
  H       0.924507     -0.334221     -2.132162
  H       0.883877     -1.881473     -1.168488
  H      -0.713707     -0.745147     -1.107096
  H       2.661623      0.288211      1.888309
17
Coordinates from ORCA-job freq E -421.392690239465
  C      -1.835981     -0.365897     -0.514591
  C      -1.397548      0.870448      0.234951
  C       0.028726      0.770962      0.722258
  O       0.446122     -0.514426      1.229954
  C       1.000530     -0.069111      0.021218
  C       0.642842     -0.824005     -1.206578
  O       2.373742      0.175072      0.042761
  O       2.722163      0.942609      1.179449
  H      -2.570265     -0.210872     -1.298064
  H      -2.061475     -1.221364      0.114189
  H      -2.048544      1.055790      1.094847
  H      -1.463783      1.754690     -0.402366
  H       0.407145      1.603494      1.301526
  H       0.924382     -0.333944     -2.132180
  H       0.883975     -1.881302     -1.168683
  H      -0.713737     -0.745189     -1.107058
  H       2.661706      0.287929      1.888368
