17
Coordinates from ORCA-job freq E -421.392690239465
  C          -1.83598133339244     -0.36589658666226     -0.51459132136146
  C          -1.39754847891522      0.87044792761099      0.23495085617239
  C           0.02872631895505      0.77096177323473      0.72225835232829
  O           0.44612208672403     -0.51442603562744      1.22995416912432
  C           1.00052977576478     -0.06911137328630      0.02121788246973
  C           0.64284168092254     -0.82400548912480     -1.20657833010673
  O           2.37374217369874      0.17507203864149      0.04276081443105
  O           2.72216304541601      0.94260909320960      1.17944892447600
  H          -2.57026511111350     -0.21087232708525     -1.29806433330066
  H          -2.06147519200818     -1.22136417379395      0.11418894839643
  H          -2.04854420469390      1.05578978789201      1.09484653416532
  H          -1.46378255204107      1.75468951298044     -0.40236591745155
  H           0.40714501715729      1.60349431718470      1.30152626879425
  H           0.92438228759631     -0.33394423754712     -2.13217955047360
  H           0.88397528760440     -1.88130204034269     -1.16868269980545
  H          -0.71373702852901     -0.74518890680754     -1.10705830149491
  H           2.66170622685421      0.28792871952341      1.88836770363656
