17
Coordinates from ORCA-job scan E -27.244328450430
  C      -1.731868     -0.494632     -0.620081
  C      -1.458722      0.731000      0.231489
  C      -0.023759      0.933887      0.615705
  O       0.470884     -0.187174      1.366836
  C       1.041845     -0.024543      0.114530
  C       0.558546     -0.865395     -1.039266
  O       2.352958      0.367820      0.110593
  O       2.759437      0.661907      1.326819
  H      -2.213667     -0.067066     -1.568113
  H      -2.691249     -0.914142     -0.155752
  H      -2.057352      0.726553      1.190104
  H      -1.781758      1.690272     -0.254646
  H       0.359857      1.927442      0.848235
  H       0.380153     -0.214810     -1.919638
  H       1.241963     -1.683182     -1.270313
  H      -0.477459     -1.215782     -0.714421
  H       3.270193     -0.077274      1.737922
17
Coordinates from ORCA-job scan E -27.254936754230
  C      -1.743792     -0.486087     -0.611725
  C      -1.470085      0.744435      0.234930
  C      -0.029384      0.935599      0.616966
  O       0.454871     -0.185408      1.366553
  C       1.029450     -0.025035      0.116448
  C       0.556990     -0.864883     -1.042636
  O       2.354214      0.360727      0.108302
  O       2.793129      0.667083      1.338478
  H      -2.208068     -0.095352     -1.569111
  H      -2.683484     -0.933210     -0.161076
  H      -2.062483      0.743138      1.187768
  H      -1.783995      1.698071     -0.254687
  H       0.355840      1.923572      0.860217
  H       0.394225     -0.215731     -1.919323
  H       1.238917     -1.684302     -1.269511
  H      -0.492727     -1.208235     -0.737575
  H       3.296383     -0.079499      1.735982
17
Coordinates from ORCA-job scan E -27.263157448510
  C      -1.754696     -0.476240     -0.603373
  C      -1.480076      0.757088      0.238331
  C      -0.032799      0.936933      0.618125
  O       0.443112     -0.182476      1.366338
  C       1.018249     -0.024478      0.118150
  C       0.557959     -0.863752     -1.043971
  O       2.353634      0.353990      0.103338
  O       2.814944      0.670058      1.345835
  H      -2.200504     -0.120920     -1.568528
  H      -2.670890     -0.953295     -0.164617
  H      -2.065493      0.757401      1.185964
  H      -1.785300      1.704712     -0.255467
  H       0.352937      1.920197      0.871758
  H       0.409412     -0.216529     -1.917900
  H       1.238245     -1.684792     -1.266702
  H      -0.506031     -1.197546     -0.755210
  H       3.307298     -0.085470      1.727929
17
Coordinates from ORCA-job scan E -27.269614457190
  C      -1.765957     -0.466182     -0.595394
  C      -1.489241      0.768851      0.241087
  C      -0.035464      0.937604      0.619138
  O       0.433261     -0.180084      1.366421
  C       1.008080     -0.023678      0.120064
  C       0.560847     -0.862690     -1.044393
  O       2.351865      0.347300      0.098048
  O       2.831070      0.672447      1.349308
  H      -2.192636     -0.143110     -1.567963
  H      -2.656694     -0.973360     -0.164955
  H      -2.067626      0.769920      1.184819
  H      -1.785956      1.710673     -0.257896
  H       0.349398      1.916832      0.884287
  H       0.426719     -0.217444     -1.916963
  H       1.238949     -1.685879     -1.262442
  H      -0.518133     -1.183727     -0.770219
  H       3.311519     -0.092590      1.717054
17
Coordinates from ORCA-job scan E -27.274762002710
  C      -1.777704     -0.456005     -0.588690
  C      -1.497302      0.779384      0.243119
  C      -0.037471      0.937444      0.620088
  O       0.425680     -0.178829      1.366859
  C       0.999274     -0.022901      0.121959
  C       0.565165     -0.862153     -1.044129
  O       2.349344      0.340886      0.092552
  O       2.842574      0.675018      1.349248
  H      -2.185486     -0.160369     -1.568413
  H      -2.641875     -0.993003     -0.162697
  H      -2.068803      0.780063      1.184584
  H      -1.785953      1.716000     -0.261554
  H       0.344998      1.913324      0.897787
  H       0.445333     -0.219090     -1.916877
  H       1.240333     -1.688149     -1.256912
  H      -0.529043     -1.167334     -0.781969
  H       3.310937     -0.099403      1.705045
17
Coordinates from ORCA-job scan E -27.278939938810
  C      -1.789818     -0.445792     -0.583593
  C      -1.504046      0.788562      0.244526
  C      -0.038914      0.936378      0.621045
  O       0.420359     -0.179109      1.367533
  C       0.991968     -0.022388      0.123590
  C       0.570382     -0.862484     -1.043631
  O       2.346488      0.334885      0.087005
  O       2.850350      0.678374      1.346198
  H      -2.179666     -0.172093     -1.570190
  H      -2.627086     -1.011677     -0.158377
  H      -2.069005      0.787663      1.185368
  H      -1.785312      1.720803     -0.265845
  H       0.339724      1.909471      0.912161
  H       0.464700     -0.221949     -1.918017
  H       1.241745     -1.692054     -1.250406
  H      -0.538876     -1.149142     -0.790821
  H       3.307007     -0.104565      1.693454
17
Coordinates from ORCA-job scan E -27.282384167650
  C      -1.802074     -0.435551     -0.580159
  C      -1.509382      0.796462      0.245526
  C      -0.039871      0.934396      0.622080
  O       0.417068     -0.181145      1.368210
  C       0.986110     -0.022329      0.124699
  C       0.575921     -0.863872     -1.043345
  O       2.343617      0.329331      0.081477
  O       2.855204      0.682984      1.340724
  H      -2.175405     -0.178440     -1.573113
  H      -2.612497     -1.028943     -0.152701
  H      -2.068253      0.792859      1.187093
  H      -1.784081      1.725278     -0.270014
  H       0.333771      1.905034      0.927290
  H       0.484405     -0.226346     -1.920572
  H       1.242530     -1.697874     -1.243150
  H      -0.547897     -1.129994     -0.797620
  H       3.300835     -0.106968      1.683575
17
Coordinates from ORCA-job scan E -27.285247395780
  C      -1.814239     -0.425272     -0.578236
  C      -1.513312      0.803263      0.246378
  C      -0.040373      0.931501      0.623253
  O       0.415475     -0.185038      1.368577
  C       0.981535     -0.022862      0.125032
  C       0.581268     -0.866339     -1.043637
  O       2.340946      0.324162      0.075951
  O       2.857774      0.689212      1.333324
  H      -2.172721     -0.180064     -1.576739
  H      -2.597987     -1.044516     -0.146306
  H      -2.066629      0.795986      1.189571
  H      -1.782300      1.729659     -0.273318
  H       0.327518      1.899739      0.943060
  H       0.504276     -0.232404     -1.924580
  H       1.242092     -1.705748     -1.235236
  H      -0.556427     -1.110596     -0.803490
  H       3.293104     -0.105801      1.676395
17
Coordinates from ORCA-job scan E -27.287632575600
  C      -1.826089     -0.414966     -0.577614
  C      -1.515884      0.809139      0.247332
  C      -0.040391      0.927686      0.624623
  O       0.415261     -0.190826      1.368321
  C       0.978062     -0.024075      0.124378
  C       0.586020     -0.869774     -1.044725
  O       2.338633      0.319268      0.070334
  O       2.858540      0.697373      1.324397
  H      -2.171609     -0.177777     -1.580610
  H      -2.583379     -1.058254     -0.139753
  H      -2.064277      0.797416      1.192572
  H      -1.779987      1.734156     -0.275097
  H       0.321499      1.893316      0.959351
  H       0.524320     -0.240085     -1.929952
  H       1.239887     -1.715714     -1.226605
  H      -0.564715     -1.091476     -0.809497
  H       3.284108     -0.100524      1.672543
17
Coordinates from ORCA-job scan E -27.289621073640
  C      -1.837375     -0.404683     -0.578079
  C      -1.517167      0.814188      0.248598
  C      -0.039848      0.922934      0.626272
  O       0.416177     -0.198477      1.367213
  C       0.975548     -0.026009      0.122617
  C       0.589901     -0.873966     -1.046665
  O       2.336792      0.314524      0.064522
  O       2.857830      0.707727      1.314245
  H      -2.172095     -0.172369     -1.584362
  H      -2.568607     -1.070117     -0.133563
  H      -2.061402      0.797482      1.195885
  H      -1.777115      1.738907     -0.274842
  H       0.316334      1.885554      0.976001
  H       0.544622     -0.249241     -1.936501
  H       1.235441     -1.727706     -1.217138
  H      -0.572848     -1.073007     -0.816443
  H       3.273813     -0.090858      1.672239
17
Coordinates from ORCA-job scan E -27.291287277300
  C      -1.847819     -0.394525     -0.579419
  C      -1.517243      0.818424      0.250319
  C      -0.038672      0.917257      0.628305
  O       0.418033     -0.207873      1.365183
  C       0.973888     -0.028655      0.119777
  C       0.592778     -0.878653     -1.049384
  O       2.335491      0.309809      0.058463
  O       2.855862      0.720411      1.303094
  H      -2.174189     -0.164545     -1.587732
  H      -2.553789     -1.080135     -0.128211
  H      -2.058247      0.796467      1.199338
  H      -1.773610      1.743938     -0.272281
  H       0.312612      1.876377      0.992775
  H       0.565253     -0.259636     -1.943965
  H       1.228405     -1.741524     -1.206787
  H      -0.580733     -1.055434     -0.824758
  H       3.261981     -0.076822      1.675284
17
Coordinates from ORCA-job scan E -27.292701384350
  C      -1.857156     -0.384633     -0.581393
  C      -1.516224      0.821817      0.252559
  C      -0.036848      0.910720      0.630818
  O       0.420668     -0.218781      1.362338
  C       0.972994     -0.031944      0.116035
  C       0.594665     -0.883550     -1.052739
  O       2.334736      0.305016      0.052199
  O       2.852793      0.735339      1.291131
  H      -2.177820     -0.154959     -1.590533
  H      -2.539192     -1.088410     -0.124050
  H      -2.055033      0.794636      1.202815
  H      -1.769379      1.749155     -0.267454
  H       0.310727      1.865882      1.009373
  H       0.586219     -0.270966     -1.952046
  H       1.218642     -1.756802     -1.195672
  H      -0.588140     -1.038872     -0.834515
  H       3.248349     -0.058768      1.681133
17
Coordinates from ORCA-job scan E -27.293925659720
  C      -1.865200     -0.375142     -0.583767
  C      -1.514269      0.824358      0.255305
  C      -0.034442      0.903439      0.633872
  O       0.423919     -0.230888      1.358915
  C       0.972763     -0.035774      0.111674
  C       0.595683     -0.888413     -1.056559
  O       2.334468      0.300051      0.045853
  O       2.848801      0.752200      1.278506
  H      -2.182804     -0.144176     -1.592659
  H      -2.525125     -1.095116     -0.121273
  H      -2.051923      0.792237      1.206252
  H      -1.764341      1.754397     -0.260683
  H       0.310787      1.854307      1.025514
  H       0.607443     -0.282915     -1.960434
  H       1.206258     -1.773054     -1.184064
  H      -0.594830     -1.023334     -0.845506
  H       3.232812     -0.037293      1.689056
17
Coordinates from ORCA-job scan E -27.295009798580
  C      -1.871895     -0.366154     -0.586335
  C      -1.511565      0.826088      0.258483
  C      -0.031578      0.895556      0.637475
  O       0.427617     -0.243864      1.355183
  C       0.973067     -0.040029      0.107000
  C       0.596015     -0.893063     -1.060692
  O       2.334593      0.294831      0.039580
  O       2.844103      0.770532      1.265335
  H      -2.188889     -0.132665     -1.594063
  H      -2.511845     -1.100477     -0.119884
  H      -2.049003      0.789495      1.209619
  H      -1.758466      1.759491     -0.252455
  H       0.312626      1.841946      1.041002
  H       0.628830     -0.295197     -1.968855
  H       1.191556     -1.789773     -1.172290
  H      -0.600638     -1.008740     -0.857426
  H       3.215472     -0.013096      1.698324
17
Coordinates from ORCA-job scan E -27.295989195640
  C      -1.877297     -0.357706     -0.588967
  C      -1.508299      0.827094      0.262000
  C      -0.028401      0.887199      0.641606
  O       0.431607     -0.257424      1.351383
  C       0.973775     -0.044606      0.102278
  C       0.595851     -0.897408     -1.065003
  O       2.335004      0.289300      0.033516
  O       2.838942      0.789859      1.251682
  H      -2.195837     -0.120731     -1.594759
  H      -2.499490     -1.104734     -0.119797
  H      -2.046302      0.786582      1.212910
  H      -1.751779      1.764307     -0.243265
  H       0.315921      1.829071      1.055763
  H       0.650296     -0.307614     -1.977078
  H       1.174934     -1.806526     -1.160617
  H      -0.605516     -0.994976     -0.869966
  H       3.196591      0.013194      1.708316
17
Coordinates from ORCA-job scan E -27.296886561470
  C      -1.881540     -0.349805     -0.591570
  C      -1.504643      0.827485      0.265763
  C      -0.025039      0.878475      0.646221
  O       0.435755     -0.271357      1.347682
  C       0.974771     -0.049428      0.097703
  C       0.595372     -0.901412     -1.069401
  O       2.335612      0.283421      0.027771
  O       2.833546      0.809749      1.237590
  H      -2.203478     -0.108579     -1.594762
  H      -2.488124     -1.108100     -0.120825
  H      -2.043821      0.783633      1.216123
  H      -1.744339      1.768752     -0.233559
  H       0.320293      1.815896      1.069813
  H       0.671836     -0.320037     -1.984942
  H       1.156813     -1.822992     -1.149232
  H      -0.609501     -0.981881     -0.882941
  H       3.176488      0.041061      1.718565
17
Coordinates from ORCA-job scan E -27.297715143600
  C      -1.884782     -0.342395     -0.594145
  C      -1.500742      0.827372      0.269698
  C      -0.021604      0.869452      0.651288
  O       0.439961     -0.285520      1.344202
  C       0.975946     -0.054445      0.093416
  C       0.594719     -0.905111     -1.073790
  O       2.336337      0.277193      0.022399
  O       2.828131      0.829870      1.223060
  H      -2.211706     -0.096240     -1.594131
  H      -2.477690     -1.110760     -0.122844
  H      -2.041557      0.780712      1.219256
  H      -1.736226      1.772791     -0.223657
  H       0.325369      1.802565      1.083242
  H       0.693437     -0.332438     -1.992311
  H       1.137593     -1.838959     -1.138200
  H      -0.612693     -0.969343     -0.896180
  H       3.155506      0.070138      1.728698
17
Coordinates from ORCA-job scan E -27.298481944770
  C      -1.887223     -0.335476     -0.596625
  C      -1.496704      0.826862      0.273728
  C      -0.018172      0.860188      0.656735
  O       0.444134     -0.299819      1.340981
  C       0.977234     -0.059611      0.089482
  C       0.594041     -0.908512     -1.078152
  O       2.337142      0.270635      0.017460
  O       2.822844      0.849915      1.208151
  H      -2.220495     -0.083853     -1.592854
  H      -2.468154     -1.112864     -0.125535
  H      -2.039503      0.777928      1.222299
  H      -1.727514      1.776389     -0.213877
  H       0.330823      1.789178      1.096148
  H       0.715212     -0.344769     -1.999131
  H       1.117631     -1.854272     -1.127582
  H      -0.615205     -0.957121     -0.909719
  H       3.133911      0.100083      1.738491
17
Coordinates from ORCA-job scan E -27.299190308880
  C      -1.888981     -0.328861     -0.599160
  C      -1.492627      0.826070      0.277822
  C      -0.014823      0.850706      0.662577
  O       0.448237     -0.314201      1.338077
  C       0.978529     -0.064903      0.085961
  C       0.593382     -0.911740     -1.082372
  O       2.337945      0.263829      0.012911
  O       2.817827      0.869737      1.192825
  H      -2.229786     -0.071194     -1.591055
  H      -2.459183     -1.114563     -0.128981
  H      -2.037684      0.775227      1.225231
  H      -1.718291      1.779614     -0.204298
  H       0.336359      1.775782      1.108711
  H       0.737034     -0.357173     -2.005310
  H       1.097244     -1.868886     -1.117265
  H      -0.617196     -0.945289     -0.923324
  H       3.112014      0.130726      1.747651
17
Coordinates from ORCA-job scan E -27.299841614330
  C      -1.890351     -0.322834     -0.601390
  C      -1.488533      0.825057      0.281842
  C      -0.011550      0.841088      0.668595
  O       0.452169     -0.328590      1.335354
  C       0.979892     -0.070244      0.082771
  C       0.592949     -0.914608     -1.086647
  O       2.338833      0.256829      0.008898
  O       2.813067      0.888944      1.177408
  H      -2.239725     -0.058966     -1.588512
  H      -2.450980     -1.115981     -0.132216
  H      -2.036068      0.772956      1.227993
  H      -1.708588      1.782360     -0.195404
  H       0.341794      1.762437      1.120944
  H       0.759331     -0.369377     -2.010968
  H       1.076608     -1.882635     -1.107469
  H      -0.618697     -0.933110     -0.937481
  H       3.089850      0.161556      1.756280
17
Coordinates from ORCA-job scan E -27.300436344780
  C      -1.891031     -0.316439     -0.604246
  C      -1.484553      0.824024      0.285947
  C      -0.008530      0.831288      0.675172
  O       0.456024     -0.343002      1.333082
  C       0.980989     -0.075654      0.080070
  C       0.592411     -0.917700     -1.090436
  O       2.339468      0.249879      0.005035
  O       2.808745      0.907909      1.161423
  H      -2.249944     -0.045556     -1.585850
  H      -2.442044     -1.117294     -0.137002
  H      -2.034821      0.770443      1.230586
  H      -1.698558      1.785062     -0.186441
  H       0.346867      1.749111      1.133283
  H       0.780979     -0.382206     -2.015811
  H       1.056032     -1.895778     -1.097513
  H      -0.620024     -0.922129     -0.950915
  H       3.067990      0.192925      1.763617
17
Coordinates from ORCA-job scan E -27.300973280640
  C      -1.892385     -0.312382     -0.605049
  C      -1.480435      0.822688      0.289360
  C      -0.005357      0.821656      0.680942
  O       0.459423     -0.357165      1.330280
  C       0.982726     -0.080810      0.077260
  C       0.592844     -0.919250     -1.095284
  O       2.340805      0.242799      0.002439
  O       2.804473      0.924874      1.146934
  H      -2.261670     -0.036146     -1.581347
  H      -2.435727     -1.118602     -0.137412
  H      -2.033558      0.769974      1.232704
  H      -1.687995      1.786583     -0.180186
  H       0.351754      1.736045      1.144829
  H       0.805034     -0.393311     -2.020732
  H       1.035063     -1.907351     -1.089324
  H      -0.620525     -0.907291     -0.966928
  H       3.045531      0.222569      1.771513
17
Coordinates from ORCA-job scan E -27.301446227690
  C      -1.890830     -0.303231     -0.610758
  C      -1.476980      0.822203      0.294021
  C      -0.003304      0.811626      0.689326
  O       0.463127     -0.371397      1.329445
  C       0.982461     -0.086249      0.075792
  C       0.591328     -0.923983     -1.097112
  O       2.340083      0.236625     -0.001913
  O       2.801096      0.943907      1.129148
  H      -2.271343     -0.017519     -1.579508
  H      -2.421647     -1.120089     -0.148626
  H      -2.033493      0.765744      1.234998
  H      -1.677833      1.790262     -0.169387
  H       0.355588      1.722843      1.158213
  H       0.822914     -0.408855     -2.023503
  H       1.015490     -1.919822     -1.077769
  H      -0.622214     -0.902338     -0.977072
  H       3.025558      0.255157      1.774703
17
Coordinates from ORCA-job scan E -27.301872060470
  C      -1.893485     -0.303129     -0.608479
  C      -1.472758      0.820394      0.295956
  C      -0.000016      0.802433      0.693695
  O       0.465821     -0.384988      1.325647
  C       0.985299     -0.090734      0.072822
  C       0.593305     -0.922796     -1.103454
  O       2.342614      0.229953     -0.002380
  O       2.797247      0.957055      1.117854
  H      -2.285438     -0.014924     -1.572318
  H      -2.419455     -1.121641     -0.142063
  H      -2.032313      0.768966      1.235967
  H      -1.666563      1.789708     -0.168232
  H       0.359841      1.710407      1.168449
  H       0.849938     -0.417142     -2.028325
  H       0.993957     -1.928250     -1.072563
  H      -0.621322     -0.881295     -0.995551
  H       3.003327      0.280864      1.782976
17
Coordinates from ORCA-job scan E -27.302251327090
  C      -1.892576     -0.296943     -0.611529
  C      -1.469243      0.819990      0.299320
  C       0.001919      0.792960      0.701031
  O       0.468574     -0.398577      1.323983
  C       0.985613     -0.095372      0.071211
  C       0.592940     -0.925265     -1.106601
  O       2.342533      0.224454     -0.004969
  O       2.793897      0.972539      1.103100
  H      -2.297873     -0.002226     -1.567600
  H      -2.406338     -1.124156     -0.147137
  H      -2.032684      0.768337      1.237059
  H      -1.655611      1.792094     -0.161854
  H       0.362973      1.697724      1.181167
  H       0.870257     -0.430507     -2.030983
  H       0.973959     -1.937971     -1.063521
  H      -0.621989     -0.871620     -1.008837
  H       2.983649      0.309419      1.786159
17
Coordinates from ORCA-job scan E -27.302577170570
  C      -1.892583     -0.293096     -0.612914
  C      -1.465778      0.819480      0.301412
  C       0.003735      0.783950      0.707493
  O       0.470855     -0.411588      1.321700
  C       0.986485     -0.099334      0.069480
  C       0.593331     -0.925885     -1.110490
  O       2.343045      0.219727     -0.006426
  O       2.790914      0.985448      1.091064
  H      -2.312710      0.005959     -1.561113
  H      -2.394283     -1.127345     -0.147964
  H      -2.033428      0.770378      1.236910
  H      -1.644295      1.793298     -0.159137
  H       0.365512      1.685593      1.193172
  H       0.891763     -0.441789     -2.033644
  H       0.953811     -1.945657     -1.056161
  H      -0.621847     -0.858414     -1.022970
  H       2.965474      0.334155      1.789586
17
Coordinates from ORCA-job scan E -27.302856184170
  C      -1.892227     -0.290169     -0.613270
  C      -1.462504      0.819598      0.302770
  C       0.005053      0.775537      0.713727
  O       0.472345     -0.424040      1.319095
  C       0.987070     -0.102634      0.067769
  C       0.593798     -0.925593     -1.114799
  O       2.343268      0.215990     -0.007349
  O       2.787807      0.996451      1.081105
  H      -2.328255      0.011390     -1.553377
  H      -2.380525     -1.131399     -0.146364
  H      -2.034896      0.774765      1.235813
  H      -1.632649      1.794357     -0.158891
  H       0.367319      1.673934      1.205257
  H       0.912700     -0.451914     -2.036223
  H       0.934283     -1.951736     -1.050127
  H      -0.621634     -0.845170     -1.037615
  H       2.949045      0.355515      1.792479
17
Coordinates from ORCA-job scan E -27.303093225910
  C      -1.892148     -0.288409     -0.613134
  C      -1.459483      0.820031      0.302929
  C       0.005936      0.767828      0.719463
  O       0.473236     -0.435582      1.316301
  C       0.987614     -0.105201      0.066236
  C       0.594392     -0.924138     -1.119083
  O       2.343488      0.213279     -0.007662
  O       2.785068      1.005243      1.073711
  H      -2.346050      0.014030     -1.544387
  H      -2.365189     -1.136548     -0.142930
  H      -2.036983      0.781264      1.233292
  H      -1.620950      1.794909     -0.161496
  H       0.368406      1.663062      1.216812
  H       0.932516     -0.460301     -2.038376
  H       0.915584     -1.956000     -1.045304
  H      -0.621024     -0.831261     -1.051376
  H       2.935587      0.372677      1.795005
17
Coordinates from ORCA-job scan E -27.303294673790
  C      -1.891568     -0.287798     -0.611574
  C      -1.456686      0.821362      0.302134
  C       0.006174      0.760940      0.724914
  O       0.473044     -0.446477      1.313097
  C       0.987658     -0.107009      0.064729
  C       0.594912     -0.921592     -1.123924
  O       2.343219      0.211629     -0.007434
  O       2.781962      1.011872      1.068991
  H      -2.364033      0.013036     -1.533979
  H      -2.347854     -1.142466     -0.136393
  H      -2.039912      0.791008      1.229494
  H      -1.608803      1.795271     -0.167407
  H       0.368733      1.652770      1.228485
  H       0.950727     -0.466516     -2.040680
  H       0.898446     -1.958340     -1.042555
  H      -0.620602     -0.818233     -1.065209
  H       2.924583      0.385425      1.797313
17
Coordinates from ORCA-job scan E -27.303467012040
  C      -1.891465     -0.288652     -0.609393
  C      -1.454204      0.823064      0.299812
  C       0.005942      0.755064      0.729580
  O       0.472055     -0.456121      1.309703
  C       0.987655     -0.108041      0.063458
  C       0.595535     -0.917695     -1.128695
  O       2.343022      0.210816     -0.006447
  O       2.779359      1.015886      1.067400
  H      -2.384501      0.008608     -1.522086
  H      -2.329067     -1.149460     -0.127650
  H      -2.043393      0.803292      1.223902
  H      -1.596765      1.794930     -0.176840
  H       0.368373      1.643608      1.239194
  H       0.966853     -0.469876     -2.042635
  H       0.883181     -1.958627     -1.041634
  H      -0.619871     -0.804909     -1.077397
  H       2.917292      0.392994      1.799728
17
Coordinates from ORCA-job scan E -27.303617190130
  C      -1.890650     -0.290705     -0.605405
  C      -1.451873      0.825821      0.296550
  C       0.005045      0.750067      0.733992
  O       0.469768     -0.465201      1.305874
  C       0.986970     -0.108438      0.062224
  C       0.595939     -0.912750     -1.134156
  O       2.342195      0.210719     -0.004908
  O       2.776181      1.017778      1.068405
  H      -2.403936      0.000215     -1.508832
  H      -2.308732     -1.156642     -0.115308
  H      -2.047652      0.819263      1.216890
  H      -1.584084      1.794310     -0.189856
  H       0.367373      1.634962      1.250131
  H       0.980381     -0.470134     -2.045025
  H       0.870596     -1.956983     -1.043491
  H      -0.619664     -0.793603     -1.089334
  H       2.912142      0.396204      1.802248
17
Coordinates from ORCA-job scan E -27.303750417290
  C      -1.890551     -0.294218     -0.600951
  C      -1.449840      0.828753      0.291720
  C       0.003835      0.746205      0.737386
  O       0.466738     -0.472808      1.301974
  C       0.986378     -0.108235      0.061282
  C       0.596467     -0.906571     -1.139372
  O       2.341680      0.210862     -0.002501
  O       2.773772      1.017026      1.072313
  H      -2.425810     -0.011314     -1.494088
  H      -2.287665     -1.164500     -0.101114
  H      -2.052139      0.837265      1.208008
  H      -1.571810      1.792763     -0.206115
  H       0.365925      1.627710      1.259560
  H       0.991231     -0.466957     -2.047099
  H       0.860652     -1.953491     -1.047353
  H      -0.619171     -0.782180     -1.098935
  H       2.910309      0.394570      1.805285
17
Coordinates from ORCA-job scan E -27.303871141570
  C      -1.889488     -0.298626     -0.594597
  C      -1.447801      0.832683      0.286259
  C       0.002082      0.743042      0.740721
  O       0.462471     -0.480125      1.297708
  C       0.985018     -0.107668      0.060369
  C       0.596643     -0.899670     -1.145290
  O       2.340465      0.211209      0.000347
  O       2.770629      1.014624      1.078022
  H      -2.445164     -0.026139     -1.478361
  H      -2.265904     -1.171725     -0.083508
  H      -2.057172      0.858585      1.197824
  H      -1.558725      1.790840     -0.225328
  H       0.364090      1.620729      1.269403
  H       0.998927     -0.460466     -2.049806
  H       0.854015     -1.948437     -1.054149
  H      -0.619455     -0.773788     -1.108149
  H       2.909371      0.389812      1.808534
17
Coordinates from ORCA-job scan E -27.303981325340
  C      -1.889263     -0.304190     -0.588078
  C      -1.445990      0.836503      0.279467
  C       0.000254      0.740949      0.742972
  O       0.457702     -0.485953      1.293513
  C       0.983933     -0.106744      0.059741
  C       0.596975     -0.891874     -1.150794
  O       2.339792      0.211196      0.004041
  O       2.768441      1.009926      1.085888
  H      -2.466661     -0.043106     -1.461301
  H      -2.244162     -1.179171     -0.064864
  H      -2.062058      0.880912      1.185997
  H      -1.546317      1.787868     -0.246841
  H       0.362106      1.615226      1.277396
  H       1.003906     -0.450754     -2.052192
  H       0.850173     -1.941990     -1.062670
  H      -0.619443     -0.765332     -1.114771
  H       2.910610      0.381415      1.812498
17
Coordinates from ORCA-job scan E -27.304082003660
  C      -1.888093     -0.310278     -0.579918
  C      -1.444026      0.841048      0.272331
  C      -0.001895      0.739318      0.745286
  O       0.451990     -0.491692      1.289083
  C       0.982196     -0.105696      0.059132
  C       0.596924     -0.883704     -1.156843
  O       2.338537      0.210943      0.008052
  O       2.765598      1.004111      1.094680
  H      -2.484999     -0.062227     -1.443705
  H      -2.222612     -1.185448     -0.043525
  H      -2.067143      0.905670      1.173049
  H      -1.533080      1.784360     -0.270369
  H       0.359984      1.609816      1.285799
  H       1.005580     -0.438030     -2.055181
  H       0.849706     -1.934370     -1.073816
  H      -0.620211     -0.760228     -1.120770
  H       2.911544      0.371288      1.816715
17
Coordinates from ORCA-job scan E -27.304172263470
  C      -1.887621     -0.317065     -0.571716
  C      -1.442135      0.845331      0.264290
  C      -0.003904      0.738468      0.746708
  O       0.446035     -0.496285      1.284780
  C       0.980808     -0.104533      0.058714
  C       0.596997     -0.875051     -1.162499
  O       2.337865      0.209929      0.012739
  O       2.763595      0.996707      1.104633
  H      -2.504580     -0.082392     -1.425107
  H      -2.201607     -1.191523     -0.021811
  H      -2.071779      0.930644      1.158880
  H      -1.520409      1.779850     -0.295167
  H       0.357943      1.605586      1.292585
  H       1.004745     -0.422786     -2.057927
  H       0.851748     -1.925793     -1.086346
  H      -0.620785     -0.755363     -1.124457
  H       2.913085      0.359160      1.821701
17
Coordinates from ORCA-job scan E -27.304250574380
  C      -1.886490     -0.323999     -0.562391
  C      -1.439957      0.849947      0.256138
  C      -0.005947      0.737759      0.748231
  O       0.439601     -0.500981      1.280362
  C       0.979071     -0.103445      0.058272
  C       0.596741     -0.866323     -1.168469
  O       2.336895      0.208350      0.017606
  O       2.761182      0.988841      1.114650
  H      -2.521295     -0.103409     -1.406358
  H      -2.181396     -1.196330      0.001469
  H      -2.076183      0.956898      1.143886
  H      -1.506958      1.774694     -0.320916
  H       0.355939      1.601254      1.299701
  H       1.001002     -0.405403     -2.061080
  H       0.856465     -1.916417     -1.100801
  H      -0.621965     -0.753310     -1.127341
  H       2.913295      0.346756      1.827040
17
Coordinates from ORCA-job scan E -27.304314642320
  C      -1.885868     -0.331159     -0.553132
  C      -1.437689      0.854216      0.247527
  C      -0.007711      0.737376      0.749204
  O       0.433220     -0.505081      1.276047
  C       0.977722     -0.102416      0.057895
  C       0.596540     -0.857453     -1.174127
  O       2.336463      0.205913      0.022869
  O       2.759391      0.980286      1.124860
  H      -2.538502     -0.124469     -1.386981
  H      -2.161872     -1.200739      0.024491
  H      -2.079958      0.982816      1.128123
  H      -1.493748      1.768684     -0.346994
  H       0.354090      1.597546      1.305793
  H       0.995358     -0.386614     -2.064033
  H       0.862789     -1.906474     -1.116101
  H      -0.623052     -0.751530     -1.128530
  H       2.912827      0.333981      1.833090
17
Coordinates from ORCA-job scan E -27.304362074100
  C      -1.884796     -0.338174     -0.543198
  C      -1.435064      0.858539      0.239004
  C      -0.009367      0.736787      0.750414
  O       0.426761     -0.509536      1.271661
  C       0.976247     -0.101552      0.057454
  C       0.596039     -0.848677     -1.179939
  O       2.335903      0.202917      0.028113
  O       2.757337      0.971902      1.134514
  H      -2.553330     -0.145451     -1.367716
  H      -2.143262     -1.204026      0.048130
  H      -2.083299      1.009225      1.111788
  H      -1.479733      1.762018     -0.373210
  H       0.352292      1.593444      1.312367
  H       0.987619     -0.366774     -2.067185
  H       0.870629     -1.896036     -1.132521
  H      -0.624573     -0.751727     -1.129128
  H       2.910597      0.322002      1.839450
17
Coordinates from ORCA-job scan E -27.304390372530
  C      -1.884109     -0.345137     -0.533491
  C      -1.432313      0.862464      0.230291
  C      -0.010757      0.736244      0.751366
  O       0.420551     -0.513710      1.267376
  C       0.975153     -0.100781      0.057042
  C       0.595535     -0.839922     -1.185442
  O       2.335791      0.199244      0.033513
  O       2.755777      0.963379      1.143889
  H      -2.568477     -0.165910     -1.348023
  H      -2.125158     -1.206981      0.071008
  H      -2.086066      1.035018      1.094920
  H      -1.465798      1.754625     -0.399197
  H       0.350597      1.589616      1.318361
  H       0.978680     -0.346452     -2.070065
  H       0.879166     -1.885273     -1.149232
  H      -0.626014     -0.751958     -1.128633
  H       2.907443      0.310416      1.846316
17
Coordinates from ORCA-job scan E -27.304397617050
  C      -1.883213     -0.350813     -0.524919
  C      -1.429676      0.865708      0.223121
  C      -0.011825      0.735456      0.752519
  O       0.415421     -0.517658      1.263745
  C       0.974188     -0.100282      0.056666
  C       0.594838     -0.832661     -1.190126
  O       2.335613      0.195780      0.037925
  O       2.754308      0.956604      1.151098
  H      -2.579426     -0.182786     -1.331741
  H      -2.110792     -1.208660      0.090496
  H      -2.088053      1.056998      1.080295
  H      -1.453293      1.747832     -0.420974
  H       0.349195      1.585895      1.324000
  H       0.969736     -0.328875     -2.072532
  H       0.887115     -1.875871     -1.163922
  H      -0.627506     -0.753458     -1.127893
  H       2.903369      0.301672      1.852245
17
Coordinates from ORCA-job scan E -27.304397899180
  C      -1.883423     -0.350381     -0.525614
  C      -1.429805      0.865380      0.223708
  C      -0.011555      0.735497      0.752446
  O       0.415961     -0.517349      1.264081
  C       0.974467     -0.100401      0.056693
  C       0.594886     -0.833291     -1.189705
  O       2.335874      0.195606      0.037651
  O       2.754695      0.957127      1.150291
  H      -2.578571     -0.181338     -1.333156
  H      -2.112368     -1.208515      0.088884
  H      -2.087793      1.055383      1.081438
  H      -1.454127      1.748247     -0.419348
  H       0.349460      1.586215      1.323514
  H       0.969596     -0.329834     -2.072386
  H       0.887173     -1.876489     -1.163175
  H      -0.627392     -0.753712     -1.127454
  H       2.902924      0.302737      1.852132
17
Coordinates from ORCA-job scan E -27.304322857330
  C      -1.880036     -0.351261     -0.526403
  C      -1.429176      0.865356      0.223336
  C      -0.011522      0.735981      0.753017
  O       0.415671     -0.516939      1.264710
  C       0.973787     -0.100000      0.057128
  C       0.592375     -0.832374     -1.188892
  O       2.335331      0.195335      0.037488
  O       2.755055      0.956481      1.150045
  H      -2.574343     -0.183405     -1.334917
  H      -2.108466     -1.209657      0.087920
  H      -2.088203      1.054971      1.080355
  H      -1.453613      1.748124     -0.419852
  H       0.349645      1.586762      1.323895
  H       0.966530     -0.329138     -2.071933
  H       0.883754     -1.875838     -1.162829
  H      -0.630079     -0.751427     -1.124785
  H       2.903291      0.301910      1.851717
17
Coordinates from ORCA-job scan E -27.304327404440
  C      -1.881245     -0.351501     -0.526827
  C      -1.429014      0.864714      0.223146
  C      -0.010964      0.735340      0.752716
  O       0.416476     -0.517558      1.264272
  C       0.974997     -0.100364      0.056857
  C       0.594083     -0.832693     -1.189215
  O       2.336451      0.195233      0.037618
  O       2.755471      0.957259      1.149857
  H      -2.576456     -0.181902     -1.334294
  H      -2.113188     -1.208247      0.088605
  H      -2.087818      1.054603      1.080240
  H      -1.453380      1.747570     -0.419921
  H       0.349795      1.586043      1.323948
  H       0.967110     -0.328760     -2.072383
  H       0.886264     -1.875961     -1.163630
  H      -0.630658     -0.752256     -1.123496
  H       2.902076      0.303362      1.852508
17
Coordinates from ORCA-job scan E -27.304327970150
  C      -1.881164     -0.350434     -0.527362
  C      -1.429025      0.865061      0.223989
  C      -0.010789      0.735145      0.752736
  O       0.416625     -0.517856      1.264019
  C       0.975246     -0.100695      0.056519
  C       0.595162     -0.833972     -1.189408
  O       2.336607      0.194966      0.037469
  O       2.755228      0.958203      1.149057
  H      -2.576512     -0.179621     -1.334536
  H      -2.114355     -1.207341      0.087536
  H      -2.087554      1.053928      1.081465
  H      -1.453472      1.748607     -0.418165
  H       0.350110      1.585739      1.324012
  H       0.966635     -0.329577     -2.072903
  H       0.888925     -1.876732     -1.163843
  H      -0.631794     -0.755744     -1.123506
  H       2.900127      0.305205      1.852919
17
Coordinates from ORCA-job scan E -27.304324945390
  C      -1.881064     -0.352290     -0.524985
  C      -1.428855      0.864800      0.224029
  C      -0.010625      0.735127      0.752304
  O       0.416446     -0.518030      1.263338
  C       0.975631     -0.100642      0.056042
  C       0.596140     -0.832948     -1.190635
  O       2.337044      0.194433      0.037883
  O       2.755358      0.957763      1.149558
  H      -2.575240     -0.182618     -1.333468
  H      -2.116964     -1.207023      0.092084
  H      -2.087097      1.055158      1.081319
  H      -1.453035      1.747220     -0.419715
  H       0.350031      1.585618      1.323879
  H       0.969423     -0.329002     -2.073523
  H       0.887235     -1.876373     -1.165094
  H      -0.632543     -0.751312     -1.127117
  H       2.898116      0.305000      1.854101
17
Coordinates from ORCA-job scan E -27.304328761550
  C      -1.881378     -0.351116     -0.526891
  C      -1.428981      0.864825      0.223778
  C      -0.010723      0.735142      0.752473
  O       0.416626     -0.517743      1.264016
  C       0.975355     -0.100676      0.056507
  C       0.595342     -0.833433     -1.189488
  O       2.336743      0.194745      0.037675
  O       2.755472      0.957905      1.149287
  H      -2.576868     -0.180773     -1.334063
  H      -2.114130     -1.207918      0.088302
  H      -2.087324      1.053986      1.081283
  H      -1.453468      1.748085     -0.418766
  H       0.350114      1.585930      1.323538
  H       0.967581     -0.329476     -2.072864
  H       0.887170     -1.876683     -1.163787
  H      -0.631421     -0.752812     -1.124248
  H       2.899891      0.304894      1.853246
17
Coordinates from ORCA-job scan E -27.304328824530
  C      -1.881211     -0.350986     -0.526904
  C      -1.428952      0.864875      0.223913
  C      -0.010713      0.735088      0.752549
  O       0.416639     -0.517797      1.264077
  C       0.975299     -0.100736      0.056510
  C       0.595385     -0.833583     -1.189489
  O       2.336674      0.194752      0.037651
  O       2.755417      0.958059      1.149163
  H      -2.576381     -0.180543     -1.334308
  H      -2.114391     -1.207700      0.088233
  H      -2.087327      1.053877      1.081435
  H      -1.453432      1.748194     -0.418537
  H       0.350180      1.585899      1.323558
  H       0.967228     -0.329475     -2.072948
  H       0.887376     -1.876778     -1.163870
  H      -0.631495     -0.753410     -1.124274
  H       2.899703      0.305147      1.853242
17
Coordinates from ORCA-job scan E -27.304254986300
  C      -1.877823     -0.351866     -0.527690
  C      -1.428323      0.864851      0.223540
  C      -0.010681      0.735572      0.753118
  O       0.416348     -0.517387      1.264704
  C       0.974618     -0.100335      0.056944
  C       0.592874     -0.832666     -1.188677
  O       2.336131      0.194481      0.037486
  O       2.755778      0.957411      1.148917
  H      -2.572153     -0.182611     -1.336067
  H      -2.110491     -1.208848      0.087268
  H      -2.087737      1.053465      1.080351
  H      -1.452920      1.748070     -0.419042
  H       0.350364      1.586445      1.323939
  H       0.964163     -0.328775     -2.072493
  H       0.883956     -1.876127     -1.163525
  H      -0.634176     -0.751117     -1.121602
  H       2.900072      0.304321      1.852829
17
Coordinates from ORCA-job scan E -27.304259085260
  C      -1.879084     -0.352440     -0.527932
  C      -1.428336      0.864178      0.223167
  C      -0.010313      0.735117      0.752717
  O       0.416996     -0.517762      1.264307
  C       0.975694     -0.100545      0.056748
  C       0.594623     -0.832686     -1.189022
  O       2.337148      0.194623      0.037750
  O       2.756153      0.957880      1.149234
  H      -2.574675     -0.181844     -1.335041
  H      -2.114551     -1.207811      0.088308
  H      -2.087545      1.053166      1.080015
  H      -1.452962      1.747307     -0.419515
  H       0.350255      1.585950      1.323886
  H       0.965841     -0.328612     -2.072792
  H       0.885277     -1.876284     -1.163978
  H      -0.634697     -0.750319     -1.121214
  H       2.900176      0.304964      1.853361
17
Coordinates from ORCA-job scan E -27.304251306430
  C      -1.879742     -0.349122     -0.531406
  C      -1.428681      0.864688      0.224376
  C      -0.010141      0.734626      0.752888
  O       0.417651     -0.518161      1.264413
  C       0.976169     -0.101273      0.056606
  C       0.596740     -0.835885     -1.188268
  O       2.337372      0.194993      0.037321
  O       2.755666      0.960183      1.147808
  H      -2.577814     -0.174693     -1.335700
  H      -2.115543     -1.206293      0.082357
  H      -2.087558      1.050383      1.082129
  H      -1.453824      1.750103     -0.415139
  H       0.350686      1.585432      1.323898
  H       0.964087     -0.330944     -2.073116
  H       0.891239     -1.878337     -1.162895
  H      -0.636233     -0.759199     -1.118188
  H       2.899927      0.308380      1.852915
17
Coordinates from ORCA-job scan E -27.304260321440
  C      -1.878884     -0.351751     -0.527986
  C      -1.428510      0.864562      0.224054
  C      -0.010375      0.734999      0.752706
  O       0.416903     -0.518018      1.263969
  C       0.975758     -0.100840      0.056413
  C       0.596161     -0.833788     -1.189485
  O       2.337114      0.194721      0.037736
  O       2.755592      0.958795      1.148921
  H      -2.574546     -0.180261     -1.334937
  H      -2.116021     -1.206820      0.088246
  H      -2.087503      1.052680      1.081189
  H      -1.453175      1.748139     -0.418037
  H       0.350328      1.585657      1.324012
  H       0.966920     -0.329716     -2.073335
  H       0.886979     -1.877229     -1.164065
  H      -0.636224     -0.752580     -1.122899
  H       2.899483      0.306333      1.853496
17
Coordinates from ORCA-job scan E -27.304260628920
  C      -1.879254     -0.351748     -0.528591
  C      -1.428475      0.864321      0.223702
  C      -0.010334      0.734943      0.752620
  O       0.417031     -0.517858      1.264311
  C       0.975726     -0.100872      0.056669
  C       0.595755     -0.833511     -1.188935
  O       2.337098      0.194664      0.037776
  O       2.755888      0.958647      1.148892
  H      -2.575588     -0.180302     -1.334966
  H      -2.114485     -1.207773      0.086931
  H      -2.087416      1.052197      1.080913
  H      -1.453251      1.748071     -0.418139
  H       0.350428      1.585889      1.323508
  H       0.966541     -0.329723     -2.072930
  H       0.885449     -1.877251     -1.163414
  H      -0.635195     -0.750928     -1.121687
  H       2.900083      0.306117      1.853340
17
Coordinates from ORCA-job scan E -27.304186844330
  C      -1.875862     -0.352627     -0.529375
  C      -1.427847      0.864297      0.223330
  C      -0.010303      0.735426      0.753190
  O       0.416739     -0.517448      1.264938
  C       0.975043     -0.100472      0.057103
  C       0.593242     -0.832594     -1.188124
  O       2.336553      0.194392      0.037610
  O       2.756247      0.957999      1.148644
  H      -2.571358     -0.182371     -1.336726
  H      -2.110583     -1.208922      0.085964
  H      -2.087826      1.051784      1.079828
  H      -1.452741      1.747947     -0.418643
  H       0.350612      1.586435      1.323889
  H       0.963475     -0.329023     -2.072475
  H       0.882028     -1.876598     -1.163069
  H      -0.637873     -0.748633     -1.119010
  H       2.900452      0.305290      1.852925
17
Coordinates from ORCA-job scan E -27.304192567000
  C      -1.876630     -0.352584     -0.529732
  C      -1.427905      0.863967      0.223402
  C      -0.010059      0.734973      0.753051
  O       0.417251     -0.517942      1.264551
  C       0.975849     -0.100753      0.056869
  C       0.595004     -0.833177     -1.188536
  O       2.337265      0.194685      0.037724
  O       2.756263      0.958837      1.148693
  H      -2.572823     -0.180752     -1.336209
  H      -2.114741     -1.207310      0.086600
  H      -2.087815      1.051414      1.079947
  H      -1.452775      1.747756     -0.418352
  H       0.350561      1.585812      1.324168
  H       0.964522     -0.329137     -2.072950
  H       0.884521     -1.876994     -1.163608
  H      -0.638948     -0.750320     -1.118847
  H       2.900460      0.306408      1.853229
17
Coordinates from ORCA-job scan E -27.304194342720
  C      -1.876926     -0.352362     -0.529833
  C      -1.428064      0.864027      0.223859
  C      -0.010051      0.734817      0.752866
  O       0.417294     -0.518130      1.264237
  C       0.976115     -0.100996      0.056626
  C       0.596499     -0.833787     -1.188880
  O       2.337467      0.194765      0.037838
  O       2.755992      0.959491      1.148640
  H      -2.573775     -0.179762     -1.335696
  H      -2.116056     -1.206824      0.086658
  H      -2.087715      1.050956      1.080640
  H      -1.452998      1.748101     -0.417528
  H       0.350582      1.585575      1.324069
  H       0.966180     -0.330035     -2.073282
  H       0.885140     -1.877754     -1.163502
  H      -0.639957     -0.750550     -1.120138
  H       2.900275      0.307352      1.853424
17
Coordinates from ORCA-job scan E -27.304194077720
  C      -1.877134     -0.351493     -0.530902
  C      -1.428150      0.864094      0.224149
  C      -0.010057      0.734621      0.752909
  O       0.417438     -0.518209      1.264444
  C       0.976096     -0.101268      0.056716
  C       0.597017     -0.834524     -1.188483
  O       2.337378      0.194889      0.037770
  O       2.755865      0.960155      1.148239
  H      -2.574748     -0.177985     -1.335933
  H      -2.115542     -1.206872      0.084582
  H      -2.087703      1.049946      1.081199
  H      -1.453229      1.748848     -0.416290
  H       0.350772      1.585525      1.323794
  H       0.965844     -0.330817     -2.073219
  H       0.885512     -1.878470     -1.162841
  H      -0.639960     -0.751845     -1.119314
  H       2.900603      0.308286      1.853178
17
Coordinates from ORCA-job scan E -27.304123983850
  C      -1.873741     -0.352373     -0.531681
  C      -1.427523      0.864068      0.223778
  C      -0.010026      0.735104      0.753477
  O       0.417145     -0.517800      1.265069
  C       0.975413     -0.100867      0.057148
  C       0.594506     -0.833606     -1.187675
  O       2.336833      0.194617      0.037604
  O       2.756224      0.959506      1.147992
  H      -2.570522     -0.180058     -1.337692
  H      -2.111642     -1.208026      0.083618
  H      -2.088112      1.049532      1.080115
  H      -1.452723      1.748722     -0.416795
  H       0.350955      1.586069      1.324174
  H       0.962781     -0.330113     -2.072763
  H       0.882092     -1.877815     -1.162498
  H      -0.642632     -0.749537     -1.116635
  H       2.900973      0.307458      1.852763
17
Coordinates from ORCA-job scan E -27.304104581000
  C      -1.874716     -0.357565     -0.527032
  C      -1.427208      0.862498      0.222287
  C      -0.009707      0.734813      0.752581
  O       0.417254     -0.518267      1.263836
  C       0.976682     -0.100514      0.056668
  C       0.596196     -0.830127     -1.189936
  O       2.338254      0.194547      0.038688
  O       2.756948      0.958047      1.150338
  H      -2.569965     -0.187457     -1.334862
  H      -2.119423     -1.207053      0.094281
  H      -2.087804      1.052604      1.077574
  H      -1.451678      1.744059     -0.422530
  H       0.350204      1.585513      1.324345
  H       0.969407     -0.327488     -2.073450
  H       0.877681     -1.876023     -1.165119
  H      -0.643124     -0.737833     -1.122108
  H       2.901000      0.305128      1.854439
17
Coordinates from ORCA-job scan E -27.304129530870
  C      -1.875270     -0.353069     -0.531851
  C      -1.427567      0.863241      0.223492
  C      -0.009628      0.734384      0.753058
  O       0.417937     -0.518475      1.264498
  C       0.976725     -0.101247      0.056873
  C       0.597163     -0.833777     -1.188297
  O       2.338043      0.194990      0.037976
  O       2.756486      0.960430      1.148410
  H      -2.573346     -0.178866     -1.336446
  H      -2.117627     -1.206262      0.085272
  H      -2.087973      1.049149      1.079826
  H      -1.452698      1.747769     -0.417219
  H       0.350833      1.585233      1.324248
  H       0.965346     -0.330041     -2.073301
  H       0.883908     -1.878218     -1.163173
  H      -0.643720     -0.748979     -1.116727
  H       2.901386      0.308621      1.853360
17
Coordinates from ORCA-job scan E -27.304130091560
  C      -1.874518     -0.352641     -0.531498
  C      -1.427676      0.863765      0.224153
  C      -0.009890      0.734585      0.753209
  O       0.417482     -0.518387      1.264479
  C       0.976170     -0.101278      0.056783
  C       0.597176     -0.834170     -1.188461
  O       2.337487      0.194963      0.037906
  O       2.755973      0.960603      1.148203
  H      -2.571951     -0.178900     -1.336762
  H      -2.116198     -1.206466      0.085098
  H      -2.088047      1.049145      1.080599
  H      -1.452804      1.748460     -0.416361
  H       0.350904      1.585361      1.324284
  H       0.965681     -0.330791     -2.073428
  H       0.883389     -1.878672     -1.162920
  H      -0.644295     -0.749577     -1.118469
  H       2.901116      0.308881      1.853184
17
Coordinates from ORCA-job scan E -27.304059885970
  C      -1.871125     -0.353518     -0.532278
  C      -1.427051      0.863737      0.223781
  C      -0.009859      0.735066      0.753777
  O       0.417191     -0.517979      1.265103
  C       0.975488     -0.100878      0.057215
  C       0.594667     -0.833254     -1.187653
  O       2.336942      0.194692      0.037739
  O       2.756332      0.959956      1.147955
  H      -2.567724     -0.180967     -1.338521
  H      -2.112303     -1.207622      0.084128
  H      -2.088456      1.048729      1.079513
  H      -1.452297      1.748333     -0.416866
  H       0.351086      1.585905      1.324664
  H       0.962617     -0.330088     -2.072973
  H       0.879971     -1.878016     -1.162574
  H      -0.646963     -0.747270     -1.115779
  H       2.901486      0.308055      1.852769
17
Coordinates from ORCA-job scan E -27.304065277490
  C      -1.873096     -0.354450     -0.532733
  C      -1.427050      0.862676      0.223049
  C      -0.009382      0.734386      0.753150
  O       0.418067     -0.518463      1.264672
  C       0.976908     -0.101191      0.057071
  C       0.596952     -0.833013     -1.187937
  O       2.338288      0.194905      0.038181
  O       2.756920      0.960503      1.148501
  H      -2.571780     -0.180232     -1.336939
  H      -2.116983     -1.206754      0.085182
  H      -2.088147      1.048228      1.078830
  H      -1.452326      1.747129     -0.417761
  H       0.350967      1.585295      1.324320
  H       0.965171     -0.329876     -2.073182
  H       0.880631     -1.878219     -1.162867
  H      -0.647235     -0.744779     -1.114967
  H       2.902093      0.308736      1.853428
17
Coordinates from ORCA-job scan E -27.304052920050
  C      -1.874173     -0.350228     -0.537383
  C      -1.427478      0.863183      0.224393
  C      -0.009205      0.733611      0.753381
  O       0.418931     -0.519065      1.264913
  C       0.977465     -0.102189      0.057032
  C       0.599685     -0.836897     -1.186818
  O       2.338520      0.195530      0.037707
  O       2.756307      0.963510      1.146783
  H      -2.576287     -0.171123     -1.337683
  H      -2.117917     -1.205031      0.077250
  H      -2.088220      1.044581      1.081251
  H      -1.453354      1.750549     -0.412349
  H       0.351563      1.584561      1.324211
  H       0.963171     -0.332831     -2.073433
  H       0.887448     -1.880894     -1.161203
  H      -0.648958     -0.755433     -1.110744
  H       2.902502      0.313046      1.852692
17
Coordinates from ORCA-job scan E -27.304068075800
  C      -1.872698     -0.353286     -0.532884
  C      -1.427312      0.863274      0.224362
  C      -0.009584      0.734112      0.753327
  O       0.417878     -0.518968      1.264284
  C       0.976787     -0.101669      0.056703
  C       0.599084     -0.834613     -1.188536
  O       2.338022      0.195270      0.038144
  O       2.755952      0.961997      1.148042
  H      -2.571223     -0.177794     -1.337028
  H      -2.118956     -1.205201      0.084859
  H      -2.088282      1.047562      1.080444
  H      -1.452546      1.748391     -0.415553
  H       0.351128      1.584738      1.324658
  H       0.966616     -0.331468     -2.073911
  H       0.882895     -1.879636     -1.162862
  H      -0.649519     -0.748606     -1.117385
  H       2.901758      0.310780      1.853337
17
Coordinates from ORCA-job scan E -27.304068875290
  C      -1.873015     -0.353321     -0.533480
  C      -1.427287      0.863058      0.223999
  C      -0.009579      0.734143      0.753216
  O       0.417934     -0.518687      1.264676
  C       0.976667     -0.101659      0.056987
  C       0.598496     -0.834246     -1.187924
  O       2.337945      0.195142      0.038204
  O       2.756268      0.961733      1.148025
  H      -2.572290     -0.178113     -1.337046
  H      -2.116636     -1.206565      0.083376
  H      -2.088175      1.047051      1.080185
  H      -1.452671      1.748359     -0.415660
  H       0.351215      1.585092      1.324058
  H       0.966324     -0.331603     -2.073425
  H       0.880664     -1.879689     -1.162030
  H      -0.648270     -0.746234     -1.116322
  H       2.902411      0.310422      1.853163
17
Coordinates from ORCA-job scan E -27.304069189400
  C      -1.872920     -0.353090     -0.533610
  C      -1.427317      0.863098      0.224228
  C      -0.009613      0.734006      0.753327
  O       0.417972     -0.518843      1.264685
  C       0.976635     -0.101791      0.056979
  C       0.598887     -0.834551     -1.187980
  O       2.337885      0.195306      0.038195
  O       2.756090      0.962136      1.147913
  H      -2.571992     -0.177506     -1.337258
  H      -2.117385     -1.206109      0.083230
  H      -2.088272      1.046813      1.080424
  H      -1.452673      1.748540     -0.415221
  H       0.351264      1.584924      1.324171
  H       0.966385     -0.331829     -2.073558
  H       0.881020     -1.879986     -1.162025
  H      -0.648592     -0.747154     -1.116550
  H       2.902626      0.310918      1.853051
17
Coordinates from ORCA-job scan E -27.304003926970
  C      -1.869662     -0.353992     -0.534699
  C      -1.426452      0.862846      0.223805
  C      -0.009494      0.734406      0.753911
  O       0.417809     -0.518460      1.265374
  C       0.975944     -0.101335      0.057487
  C       0.596314     -0.833578     -1.186953
  O       2.337306      0.195206      0.038031
  O       2.756410      0.961700      1.147643
  H      -2.568192     -0.178964     -1.338938
  H      -2.113832     -1.207261      0.081913
  H      -2.088305      1.046102      1.079406
  H      -1.451741      1.748244     -0.415710
  H       0.351491      1.585434      1.324521
  H       0.963186     -0.331044     -2.072897
  H       0.877764     -1.879206     -1.161360
  H      -0.651594     -0.745533     -1.114141
  H       2.903050      0.310317      1.852607
17
Coordinates from ORCA-job scan E -27.304008851230
  C      -1.870556     -0.353745     -0.534781
  C      -1.426857      0.862808      0.224009
  C      -0.009364      0.734225      0.753696
  O       0.418118     -0.518685      1.265032
  C       0.976623     -0.101584      0.057235
  C       0.597918     -0.834116     -1.187345
  O       2.337984      0.195216      0.038142
  O       2.756538      0.962178      1.147674
  H      -2.569528     -0.178096     -1.338588
  H      -2.115753     -1.206615      0.082097
  H      -2.088595      1.045893      1.079706
  H      -1.452389      1.748356     -0.415272
  H       0.351449      1.585100      1.324633
  H       0.964829     -0.331657     -2.073342
  H       0.878968     -1.879874     -1.161530
  H      -0.652576     -0.745562     -1.114222
  H       2.903190      0.311038      1.852854
17
Coordinates from ORCA-job scan E -27.304010964770
  C      -1.871200     -0.353492     -0.534988
  C      -1.427028      0.862735      0.224304
  C      -0.009325      0.733795      0.753489
  O       0.418289     -0.519136      1.264678
  C       0.977083     -0.102012      0.057005
  C       0.599778     -0.834765     -1.187736
  O       2.338324      0.195425      0.038293
  O       2.756241      0.963043      1.147669
  H      -2.570748     -0.176962     -1.338148
  H      -2.117912     -1.205787      0.082179
  H      -2.088565      1.045459      1.080152
  H      -1.452615      1.748580     -0.414567
  H       0.351465      1.584574      1.324548
  H       0.966442     -0.332403     -2.073765
  H       0.879780     -1.880684     -1.161674
  H      -0.653355     -0.745685     -1.114459
  H       2.903344      0.312197      1.853020
17
Coordinates from ORCA-job scan E -27.304011232320
  C      -1.871155     -0.353453     -0.535179
  C      -1.426994      0.862685      0.224399
  C      -0.009377      0.733617      0.753520
  O       0.418301     -0.519272      1.264713
  C       0.977023     -0.102151      0.057041
  C       0.600177     -0.834916     -1.187733
  O       2.338225      0.195591      0.038371
  O       2.756095      0.963390      1.147663
  H      -2.570843     -0.176602     -1.338164
  H      -2.118428     -1.205586      0.082000
  H      -2.088541      1.045165      1.080282
  H      -1.452534      1.748676     -0.414275
  H       0.351517      1.584464      1.324440
  H       0.966632     -0.332591     -2.073816
  H       0.879517     -1.880967     -1.161583
  H      -0.653332     -0.745756     -1.114620
  H       2.903716      0.312587      1.852941
17
Coordinates from ORCA-job scan E -27.303950431050
  C      -1.867894     -0.354355     -0.536264
  C      -1.426130      0.862433      0.223977
  C      -0.009260      0.734017      0.754103
  O       0.418138     -0.518889      1.265401
  C       0.976331     -0.101695      0.057548
  C       0.597605     -0.833944     -1.186709
  O       2.337645      0.195492      0.038207
  O       2.756414      0.962954      1.147392
  H      -2.567042     -0.178060     -1.339842
  H      -2.114874     -1.206739      0.080684
  H      -2.088575      1.044453      1.079264
  H      -1.451604      1.748379     -0.414763
  H       0.351743      1.584973      1.324791
  H       0.963433     -0.331805     -2.073157
  H       0.876263     -1.880186     -1.160918
  H      -0.656331     -0.744133     -1.112209
  H       2.904139      0.311986      1.852496
17
Coordinates from ORCA-job scan E -27.303955177560
  C      -1.868736     -0.354145     -0.536372
  C      -1.426505      0.862387      0.224165
  C      -0.009138      0.733827      0.753882
  O       0.418431     -0.519112      1.265067
  C       0.976973     -0.101931      0.057308
  C       0.599196     -0.834460     -1.187078
  O       2.338282      0.195514      0.038335
  O       2.756531      0.963425      1.147443
  H      -2.568429     -0.177190     -1.339430
  H      -2.116799     -1.206090      0.080869
  H      -2.088826      1.044220      1.079554
  H      -1.452201      1.748487     -0.414338
  H       0.351721      1.584659      1.324847
  H       0.965034     -0.332381     -2.073578
  H       0.877454     -1.880827     -1.161068
  H      -0.657275     -0.744188     -1.112352
  H       2.904287      0.312686      1.852746
17
Coordinates from ORCA-job scan E -27.303957451430
  C      -1.869373     -0.353920     -0.536620
  C      -1.426664      0.862299      0.224448
  C      -0.009096      0.733370      0.753656
  O       0.418605     -0.519579      1.264708
  C       0.977441     -0.102373      0.057080
  C       0.601173     -0.835124     -1.187471
  O       2.338630      0.195735      0.038522
  O       2.756226      0.964327      1.147464
  H      -2.569841     -0.175973     -1.338845
  H      -2.119098     -1.205206      0.080965
  H      -2.088779      1.043740      1.079995
  H      -1.452403      1.748707     -0.413626
  H       0.351761      1.584123      1.324715
  H       0.966721     -0.333125     -2.074010
  H       0.878330     -1.881662     -1.161210
  H      -0.658089     -0.744348     -1.112710
  H       2.904457      0.313891      1.852940
17
Coordinates from ORCA-job scan E -27.303957734000
  C      -1.869312     -0.353892     -0.536817
  C      -1.426621      0.862249      0.224532
  C      -0.009148      0.733192      0.753689
  O       0.418611     -0.519714      1.264751
  C       0.977375     -0.102512      0.057124
  C       0.601576     -0.835267     -1.187464
  O       2.338530      0.195896      0.038610
  O       2.756079      0.964672      1.147465
  H      -2.569983     -0.175611     -1.338810
  H      -2.119587     -1.205009      0.080792
  H      -2.088757      1.043447      1.080105
  H      -1.452305      1.748795     -0.413356
  H       0.351818      1.584014      1.324607
  H       0.966908     -0.333296     -2.074055
  H       0.878052     -1.881940     -1.161122
  H      -0.658067     -0.744424     -1.112920
  H       2.904830      0.314282      1.852869
17
Coordinates from ORCA-job scan E -27.303902086790
  C      -1.866048     -0.354793     -0.537900
  C      -1.425758      0.861997      0.224110
  C      -0.009031      0.733591      0.754272
  O       0.418447     -0.519331      1.265438
  C       0.976682     -0.102056      0.057630
  C       0.599004     -0.834295     -1.186443
  O       2.337950      0.195797      0.038445
  O       2.756397      0.964236      1.147195
  H      -2.566181     -0.177070     -1.340487
  H      -2.116033     -1.206164      0.079477
  H      -2.088791      1.042736      1.079085
  H      -1.451378      1.748498     -0.413844
  H       0.352044      1.584522      1.324958
  H       0.963709     -0.332509     -2.073396
  H       0.874798     -1.881157     -1.160457
  H      -0.661063     -0.742799     -1.110507
  H       2.905252      0.313680      1.852424
17
Coordinates from ORCA-job scan E -27.303906970910
  C      -1.866914     -0.354584     -0.537991
  C      -1.426132      0.861953      0.224288
  C      -0.008906      0.733400      0.754039
  O       0.418737     -0.519560      1.265091
  C       0.977335     -0.102294      0.057384
  C       0.600624     -0.834808     -1.186824
  O       2.338599      0.195817      0.038585
  O       2.756509      0.964703      1.147265
  H      -2.567627     -0.176207     -1.340025
  H      -2.117938     -1.205518      0.079688
  H      -2.089037      1.042530      1.079364
  H      -1.451968      1.748597     -0.413446
  H       0.352022      1.584199      1.325015
  H       0.965345     -0.333076     -2.073823
  H       0.876016     -1.881794     -1.160622
  H      -0.662053     -0.742851     -1.110681
  H       2.905388      0.314375      1.852693
17
Coordinates from ORCA-job scan E -27.303909384730
  C      -1.867593     -0.354359     -0.538211
  C      -1.426287      0.861875      0.224560
  C      -0.008862      0.732930      0.753796
  O       0.418902     -0.520050      1.264703
  C       0.977819     -0.102746      0.057144
  C       0.602683     -0.835476     -1.187245
  O       2.338963      0.196039      0.038794
  O       2.756182      0.965613      1.147317
  H      -2.569161     -0.174992     -1.339339
  H      -2.120215     -1.204629      0.079835
  H      -2.088978      1.042101      1.079790
  H      -1.452151      1.748807     -0.412772
  H       0.352066      1.583636      1.324884
  H       0.967118     -0.333812     -2.074273
  H       0.876939     -1.882635     -1.160796
  H      -0.662955     -0.743011     -1.111108
  H       2.905530      0.315592      1.852922
17
Coordinates from ORCA-job scan E -27.303909688740
  C      -1.867533     -0.354334     -0.538396
  C      -1.426239      0.861831      0.224638
  C      -0.008917      0.732747      0.753830
  O       0.418900     -0.520194      1.264740
  C       0.977748     -0.102889      0.057186
  C       0.603106     -0.835613     -1.187246
  O       2.338859      0.196203      0.038891
  O       2.756025      0.965958      1.147331
  H      -2.569338     -0.174643     -1.339263
  H      -2.120663     -1.204438      0.079682
  H      -2.088955      1.041835      1.079886
  H      -1.452037      1.748891     -0.412523
  H       0.352126      1.583519      1.324779
  H       0.967324     -0.333974     -2.074322
  H       0.876652     -1.882912     -1.160718
  H      -0.662956     -0.743085     -1.111357
  H       2.905897      0.315980      1.852860
17
Coordinates from ORCA-job scan E -27.303860164540
  C      -1.864267     -0.355234     -0.539476
  C      -1.425377      0.861579      0.224216
  C      -0.008802      0.733146      0.754413
  O       0.418734     -0.519812      1.265426
  C       0.977055     -0.102433      0.057692
  C       0.600535     -0.834642     -1.186228
  O       2.338278      0.196104      0.038725
  O       2.756343      0.965522      1.147061
  H      -2.565535     -0.176102     -1.340939
  H      -2.117108     -1.205594      0.078368
  H      -2.088990      1.041123      1.078866
  H      -1.451111      1.748593     -0.413010
  H       0.352351      1.584027      1.325130
  H       0.964126     -0.333186     -2.073665
  H       0.873400     -1.882128     -1.160054
  H      -0.665950     -0.741458     -1.108940
  H       2.906320      0.315377      1.852414
17
Coordinates from ORCA-job scan E -27.303865237560
  C      -1.865160     -0.355026     -0.539550
  C      -1.425750      0.861539      0.224386
  C      -0.008675      0.732948      0.754169
  O       0.419020     -0.520051      1.265061
  C       0.977715     -0.102672      0.057438
  C       0.602195     -0.835153     -1.186623
  O       2.338935      0.196130      0.038878
  O       2.756447      0.965988      1.147153
  H      -2.567040     -0.175248     -1.340430
  H      -2.119003     -1.204946      0.078610
  H      -2.089228      1.040947      1.079138
  H      -1.451694      1.748685     -0.412635
  H       0.352331      1.583692      1.325183
  H       0.965805     -0.333747     -2.074102
  H       0.874645     -1.882763     -1.160232
  H      -0.666989     -0.741510     -1.109144
  H       2.906446      0.316068      1.852702
17
Coordinates from ORCA-job scan E -27.303867850330
  C      -1.865890     -0.354796     -0.539743
  C      -1.425905      0.861471      0.224652
  C      -0.008631      0.732455      0.753908
  O       0.419177     -0.520573      1.264637
  C       0.978217     -0.103139      0.057179
  C       0.604365     -0.835831     -1.187080
  O       2.339313      0.196365      0.039111
  O       2.756092      0.966920      1.147241
  H      -2.568700     -0.174026     -1.339645
  H      -2.121289     -1.204037      0.078814
  H      -2.089155      1.040568      1.079558
  H      -1.451857      1.748891     -0.411987
  H       0.352381      1.583094      1.325051
  H       0.967689     -0.334487     -2.074579
  H       0.875620     -1.883622     -1.160436
  H      -0.667994     -0.741676     -1.109646
  H       2.906566      0.317307      1.852965
17
Coordinates from ORCA-job scan E -27.303868183640
  C      -1.865830     -0.354772     -0.539917
  C      -1.425853      0.861432      0.224726
  C      -0.008691      0.732265      0.753944
  O       0.419168     -0.520728      1.264668
  C       0.978141     -0.103285      0.057221
  C       0.604813     -0.835964     -1.187089
  O       2.339203      0.196535      0.039217
  O       2.755923      0.967269      1.147268
  H      -2.568908     -0.173688     -1.339533
  H      -2.121702     -1.203850      0.078681
  H      -2.089132      1.040326      1.079643
  H      -1.451726      1.748972     -0.411754
  H       0.352444      1.582966      1.324949
  H       0.967917     -0.334642     -2.074633
  H       0.875319     -1.883901     -1.160367
  H      -0.668020     -0.741750     -1.109935
  H       2.906933      0.317697      1.852911
17
Coordinates from ORCA-job scan E -27.303825798750
  C      -1.862563     -0.355671     -0.540995
  C      -1.424991      0.861180      0.224305
  C      -0.008576      0.732664      0.754526
  O       0.419002     -0.520347      1.265354
  C       0.977447     -0.102830      0.057725
  C       0.602243     -0.834994     -1.186074
  O       2.338622      0.196436      0.039051
  O       2.756240      0.966833      1.146998
  H      -2.565106     -0.175147     -1.341209
  H      -2.118148     -1.205006      0.077368
  H      -2.089168      1.039614      1.078622
  H      -1.450802      1.748674     -0.412241
  H       0.352668      1.583473      1.325300
  H       0.964720     -0.333854     -2.073978
  H       0.872069     -1.883115     -1.159702
  H      -0.671011     -0.740123     -1.107515
  H       2.907355      0.317094      1.852464
17
Coordinates from ORCA-job scan E -27.303831059850
  C      -1.863483     -0.355463     -0.541053
  C      -1.425364      0.861144      0.224468
  C      -0.008448      0.732460      0.754271
  O       0.419284     -0.520596      1.264972
  C       0.978114     -0.103070      0.057464
  C       0.603943     -0.835503     -1.186483
  O       2.339287      0.196468      0.039215
  O       2.756336      0.967301      1.147112
  H      -2.566665     -0.174299     -1.340658
  H      -2.120035     -1.204357      0.077638
  H      -2.089398      1.039465      1.078888
  H      -1.451377      1.748760     -0.411887
  H       0.352650      1.583127      1.325350
  H       0.966441     -0.334409     -2.074424
  H       0.873338     -1.883750     -1.159893
  H      -0.672100     -0.740175     -1.107750
  H       2.907475      0.317781      1.852768
17
Coordinates from ORCA-job scan E -27.303833899580
  C      -1.864270     -0.355228     -0.541218
  C      -1.425519      0.861083      0.224730
  C      -0.008403      0.731940      0.753991
  O       0.419436     -0.521154      1.264510
  C       0.978638     -0.103553      0.057187
  C       0.606237     -0.836194     -1.186977
  O       2.339683      0.196720      0.039475
  O       2.755950      0.968260      1.147236
  H      -2.568459     -0.173063     -1.339772
  H      -2.122343     -1.203425      0.077900
  H      -2.089310      1.039134      1.079306
  H      -1.451522      1.748961     -0.411261
  H       0.352707      1.582489      1.325216
  H       0.968449     -0.335157     -2.074930
  H       0.874367     -1.884632     -1.160126
  H      -0.673219     -0.740351     -1.108333
  H       2.907579      0.319051      1.853066
17
Coordinates from ORCA-job scan E -27.303834268180
  C      -1.864213     -0.355204     -0.541382
  C      -1.425462      0.861050      0.224801
  C      -0.008467      0.731741      0.754030
  O       0.419420     -0.521321      1.264535
  C       0.978556     -0.103704      0.057227
  C       0.606714     -0.836323     -1.186994
  O       2.339567      0.196898      0.039590
  O       2.755769      0.968616      1.147276
  H      -2.568699     -0.172733     -1.339624
  H      -2.122725     -1.203240      0.077785
  H      -2.089285      1.038915      1.079382
  H      -1.451373      1.749040     -0.411043
  H       0.352773      1.582350      1.325117
  H       0.968703     -0.335308     -2.074990
  H       0.874051     -1.884914     -1.160064
  H      -0.673276     -0.740428     -1.108666
  H       2.907948      0.319446      1.853019
17
Coordinates from ORCA-job scan E -27.303799954860
  C      -1.860945     -0.356102     -0.542458
  C      -1.424602      0.860798      0.224380
  C      -0.008354      0.732139      0.754612
  O       0.419253     -0.520941      1.265220
  C       0.977861     -0.103249      0.057731
  C       0.604146     -0.835354     -1.185983
  O       2.338985      0.196800      0.039423
  O       2.756085      0.968181      1.147007
  H      -2.564897     -0.174193     -1.341299
  H      -2.119172     -1.204397      0.076472
  H      -2.089322      1.038204      1.078360
  H      -1.450451      1.748742     -0.411530
  H       0.352996      1.582856      1.325469
  H       0.965507     -0.334518     -2.074336
  H       0.870802     -1.884127     -1.159400
  H      -0.676263     -0.738799     -1.106240
  H       2.908370      0.318843      1.852572
17
Coordinates from ORCA-job scan E -27.303805406480
  C      -1.861892     -0.355894     -0.542499
  C      -1.424973      0.860765      0.224536
  C      -0.008224      0.731928      0.754346
  O       0.419533     -0.521200      1.264822
  C       0.978537     -0.103490      0.057462
  C       0.605885     -0.835862     -1.186405
  O       2.339658      0.196839      0.039600
  O       2.756172      0.968650      1.147143
  H      -2.566511     -0.173350     -1.340708
  H      -2.121051     -1.203747      0.076769
  H      -2.089543      1.038081      1.078620
  H      -1.451017      1.748821     -0.411195
  H       0.352981      1.582497      1.325516
  H       0.967271     -0.335069     -2.074791
  H       0.872094     -1.884762     -1.159601
  H      -0.677403     -0.738854     -1.106508
  H       2.908485      0.319528      1.852893
17
Coordinates from ORCA-job scan E -27.303808507160
  C      -1.862747     -0.355651     -0.542636
  C      -1.425129      0.860713      0.224795
  C      -0.008177      0.731380      0.754045
  O       0.419681     -0.521797      1.264318
  C       0.979086     -0.103992      0.057165
  C       0.608318     -0.836569     -1.186940
  O       2.340075      0.197110      0.039888
  O       2.755753      0.969643      1.147307
  H      -2.568451     -0.172093     -1.339714
  H      -2.123392     -1.202789      0.077092
  H      -2.089438      1.037800      1.079038
  H      -1.451143      1.749019     -0.410590
  H       0.353045      1.581816      1.325379
  H       0.969416     -0.335827     -2.075330
  H       0.873185     -1.885670     -1.159866
  H      -0.678653     -0.739044     -1.107180
  H       2.908572      0.320835      1.853230
17
Coordinates from ORCA-job scan E -27.303808917950
  C      -1.862695     -0.355626     -0.542789
  C      -1.425066      0.860685      0.224862
  C      -0.008246      0.731170      0.754085
  O       0.419657     -0.521979      1.264335
  C       0.978998     -0.104148      0.057204
  C       0.608830     -0.836696     -1.186966
  O       2.339953      0.197297      0.040013
  O       2.755557      0.970009      1.147361
  H      -2.568727     -0.171769     -1.339527
  H      -2.123745     -1.202605      0.076998
  H      -2.089410      1.037605      1.079105
  H      -1.450974      1.749095     -0.410387
  H       0.353116      1.581663      1.325283
  H       0.969701     -0.335974     -2.075397
  H       0.872853     -1.885958     -1.159811
  H      -0.678744     -0.739126     -1.107560
  H       2.908944      0.321238      1.853190
17
Coordinates from ORCA-job scan E -27.303783520460
  C      -1.859426     -0.356523     -0.543864
  C      -1.424207      0.860433      0.224442
  C      -0.008133      0.731567      0.754667
  O       0.419490     -0.521599      1.265019
  C       0.978303     -0.103693      0.057706
  C       0.606263     -0.835728     -1.185958
  O       2.339372      0.197200      0.039847
  O       2.755872      0.969574      1.147093
  H      -2.564926     -0.173230     -1.341203
  H      -2.120194     -1.203763      0.075685
  H      -2.089448      1.036893      1.078083
  H      -1.450053      1.748797     -0.410873
  H       0.353337      1.582168      1.325634
  H       0.966506     -0.335184     -2.074744
  H       0.869606     -1.885170     -1.159147
  H      -0.681729     -0.737495     -1.105129
  H       2.909366      0.320634      1.852743
17
Coordinates from ORCA-job scan E -27.303789166640
  C      -1.860402     -0.356316     -0.543889
  C      -1.424577      0.860403      0.224591
  C      -0.008002      0.731349      0.754391
  O       0.419768     -0.521869      1.264605
  C       0.978987     -0.103935      0.057431
  C       0.608043     -0.836233     -1.186393
  O       2.340051      0.197246      0.040036
  O       2.755951      0.970046      1.147250
  H      -2.566595     -0.172393     -1.340571
  H      -2.122065     -1.203113      0.076009
  H      -2.089659      1.036798      1.078338
  H      -1.450610      1.748870     -0.410560
  H       0.353326      1.581798      1.325678
  H       0.968312     -0.335729     -2.075207
  H       0.870919     -1.885804     -1.159360
  H      -0.682923     -0.737554     -1.105430
  H       2.909477      0.321317      1.853081
17
Coordinates from ORCA-job scan E -27.303792572310
  C      -1.861335     -0.356062     -0.543995
  C      -1.424734      0.860359      0.224847
  C      -0.007952      0.730766      0.754065
  O       0.419914     -0.522510      1.264054
  C       0.979566     -0.104458      0.057110
  C       0.610634     -0.836960     -1.186972
  O       2.340494      0.197539      0.040356
  O       2.755495      0.971078      1.147458
  H      -2.568701     -0.171108     -1.339459
  H      -2.124450     -1.202125      0.076399
  H      -2.089534      1.036570      1.078758
  H      -1.450715      1.749063     -0.409975
  H       0.353398      1.581067      1.325538
  H       0.970613     -0.336501     -2.075783
  H       0.872082     -1.886744     -1.159659
  H      -0.684323     -0.737761     -1.106201
  H       2.909547      0.322669      1.853461
17
Coordinates from ORCA-job scan E -27.303793034130
  C      -1.861292     -0.356037     -0.544136
  C      -1.424665      0.860336      0.224910
  C      -0.008025      0.730543      0.754106
  O       0.419883     -0.522709      1.264063
  C       0.979474     -0.104621      0.057147
  C       0.611188     -0.837084     -1.187009
  O       2.340367      0.197738      0.040494
  O       2.755282      0.971456      1.147529
  H      -2.569019     -0.170788     -1.339229
  H      -2.124776     -1.201941      0.076326
  H      -2.089502      1.036400      1.078816
  H      -1.450525      1.749137     -0.409787
  H       0.353473      1.580897      1.325444
  H       0.970935     -0.336643     -2.075857
  H       0.871735     -1.887038     -1.159613
  H      -0.684455     -0.737850     -1.106634
  H       2.909922      0.323083      1.853431
17
Coordinates from ORCA-job scan E -27.303777339470
  C      -1.858021     -0.356933     -0.545209
  C      -1.423807      0.860084      0.224490
  C      -0.007913      0.730940      0.754687
  O       0.419716     -0.522330      1.264746
  C       0.978779     -0.104166      0.057649
  C       0.608622     -0.836117     -1.186004
  O       2.339786      0.197641      0.040327
  O       2.755598      0.971022      1.147261
  H      -2.565220     -0.172249     -1.340905
  H      -2.121227     -1.203100      0.075013
  H      -2.089540      1.035689      1.077793
  H      -1.449605      1.748839     -0.410274
  H       0.353694      1.581402      1.325795
  H       0.967741     -0.335853     -2.075207
  H       0.868491     -1.886248     -1.158950
  H      -0.687436     -0.736217     -1.104197
  H       2.910344      0.322479      1.852984
17
Coordinates from ORCA-job scan E -27.303783184670
  C      -1.859027     -0.356726     -0.545219
  C      -1.424175      0.860057      0.224631
  C      -0.007780      0.730714      0.754402
  O       0.419991     -0.522610      1.264316
  C       0.979470     -0.104409      0.057367
  C       0.610443     -0.836620     -1.186452
  O       2.340473      0.197696      0.040530
  O       2.755667      0.971497      1.147441
  H      -2.566944     -0.171418     -1.340232
  H      -2.123089     -1.202452      0.075365
  H      -2.089741      1.035622      1.078043
  H      -1.450150      1.748905     -0.409981
  H       0.353686      1.581019      1.325836
  H       0.969589     -0.336392     -2.075677
  H       0.869824     -1.886881     -1.159174
  H      -0.688686     -0.736281     -1.104533
  H       2.910451      0.323160      1.853339
17
Coordinates from ORCA-job scan E -27.303786953430
  C      -1.860053     -0.356460     -0.545290
  C      -1.424332      0.860021      0.224884
  C      -0.007726      0.730093      0.754047
  O       0.420137     -0.523302      1.263710
  C       0.980086     -0.104957      0.057019
  C       0.613219     -0.837370     -1.187083
  O       2.340947      0.198015      0.040887
  O       2.755170      0.972575      1.147701
  H      -2.569244     -0.170099     -1.338985
  H      -2.125532     -1.201429      0.075831
  H      -2.089593      1.035453      1.078466
  H      -1.450232      1.749092     -0.409421
  H       0.353768      1.580230      1.325691
  H       0.972073     -0.337179     -2.076296
  H       0.871072     -1.887858     -1.159513
  H      -0.690262     -0.736510     -1.105418
  H       2.910502      0.324566      1.853769
17
Coordinates from ORCA-job scan E -27.303787477980
  C      -1.860022     -0.356433     -0.545417
  C      -1.424256      0.860004      0.224944
  C      -0.007804      0.729854      0.754088
  O       0.420098     -0.523521      1.263708
  C       0.979991     -0.105127      0.057053
  C       0.613822     -0.837492     -1.187132
  O       2.340815      0.198226      0.041040
  O       2.754938      0.972969      1.147791
  H      -2.569612     -0.169781     -1.338705
  H      -2.125831     -1.201243      0.075784
  H      -2.089554      1.035312      1.078515
  H      -1.450017      1.749163     -0.409250
  H       0.353848      1.580042      1.325599
  H       0.972438     -0.337317     -2.076380
  H       0.870711     -1.888160     -1.159478
  H      -0.690446     -0.736608     -1.105910
  H       2.910881      0.324994      1.853751
17
Coordinates from ORCA-job scan E -27.303782272370
  C      -1.856751     -0.357329     -0.546490
  C      -1.423399      0.859752      0.224524
  C      -0.007693      0.730249      0.754669
  O       0.419930     -0.523143      1.264390
  C       0.979295     -0.104673      0.057554
  C       0.611259     -0.836527     -1.186131
  O       2.340234      0.198130      0.040873
  O       2.755253      0.972536      1.147524
  H      -2.565815     -0.171242     -1.340381
  H      -2.122285     -1.202403      0.074470
  H      -2.089593      1.034600      1.077491
  H      -1.449099      1.748866     -0.409736
  H       0.354068      1.580546      1.325950
  H       0.969245     -0.336527     -2.075731
  H       0.867470     -1.887370     -1.158816
  H      -0.693422     -0.734974     -1.103466
  H       2.911303      0.324390      1.853304
17
Coordinates from ORCA-job scan E -27.303788321330
  C      -1.857788     -0.357122     -0.546482
  C      -1.423764      0.859728      0.224657
  C      -0.007558      0.730016      0.754374
  O       0.420204     -0.523434      1.263944
  C       0.979994     -0.104917      0.057266
  C       0.613120     -0.837026     -1.186591
  O       2.340929      0.198194      0.041090
  O       2.755312      0.973014      1.147728
  H      -2.567597     -0.170417     -1.339667
  H      -2.124135     -1.201758      0.074852
  H      -2.089782      1.034563      1.077734
  H      -1.449630      1.748924     -0.409467
  H       0.354064      1.580150      1.325988
  H       0.971136     -0.337058     -2.076209
  H       0.868822     -1.888001     -1.159051
  H      -0.694732     -0.735044     -1.103841
  H       2.911406      0.325070      1.853677
17
Coordinates from ORCA-job scan E -27.303792531480
  C      -1.858926     -0.356842     -0.546514
  C      -1.423922      0.859700      0.224905
  C      -0.007497      0.729348      0.753984
  O       0.420351     -0.524186      1.263274
  C       0.980657     -0.105493      0.056887
  C       0.616117     -0.837803     -1.187283
  O       2.341441      0.198544      0.041492
  O       2.754767      0.974148      1.148047
  H      -2.570127     -0.169055     -1.338261
  H      -2.126653     -1.200693      0.075405
  H      -2.089605      1.034462      1.078162
  H      -1.449685      1.749104     -0.408932
  H       0.354158      1.579294      1.325837
  H       0.973834     -0.337865     -2.076878
  H       0.870171     -1.889021     -1.159437
  H      -0.696517     -0.735300     -1.104857
  H       2.911437      0.326540      1.854167
17
Coordinates from ORCA-job scan E -27.303793134630
  C      -1.858911     -0.356813     -0.546625
  C      -1.423838      0.859689      0.224961
  C      -0.007580      0.729089      0.754024
  O       0.420304     -0.524429      1.263258
  C       0.980558     -0.105673      0.056917
  C       0.616782     -0.837925     -1.187347
  O       2.341305      0.198771      0.041662
  O       2.754512      0.974561      1.148160
  H      -2.570557     -0.168737     -1.337921
  H      -2.126927     -1.200505      0.075389
  H      -2.089558      1.034355      1.078202
  H      -1.449440      1.749172     -0.408781
  H       0.354243      1.579082      1.325746
  H       0.974254     -0.337998     -2.076974
  H       0.869799     -1.889333     -1.159416
  H      -0.696765     -0.735410     -1.105420
  H       2.911818      0.326986      1.854165
17
Coordinates from ORCA-job scan E -27.303780160260
  C      -1.861620     -0.356072     -0.545738
  C      -1.424547      0.859899      0.225309
  C      -0.007671      0.728763      0.753543
  O       0.420444     -0.524740      1.262694
  C       0.981134     -0.106049      0.056503
  C       0.618903     -0.838723     -1.188174
  O       2.341786      0.198851      0.041801
  O       2.754252      0.974919      1.148380
  H      -2.573700     -0.167527     -1.336531
  H      -2.129861     -1.199545      0.076478
  H      -2.089525      1.034944      1.079051
  H      -1.450200      1.749418     -0.408379
  H       0.354062      1.578666      1.325455
  H       0.976897     -0.338652     -2.077509
  H       0.872482     -1.889989     -1.159965
  H      -0.694303     -0.736765     -1.107452
  H       2.911468      0.327485      1.854535
17
Coordinates from ORCA-job scan E -27.303785605590
  C      -1.860365     -0.356271     -0.545918
  C      -1.424128      0.859902      0.225201
  C      -0.007897      0.728870      0.753998
  O       0.420133     -0.524535      1.263286
  C       0.980237     -0.105897      0.056921
  C       0.617226     -0.838213     -1.187619
  O       2.340925      0.198942      0.041704
  O       2.754063      0.974701      1.148217
  H      -2.571960     -0.168205     -1.337178
  H      -2.127816     -1.200212      0.075879
  H      -2.089463      1.034811      1.078732
  H      -1.449506      1.749391     -0.408546
  H       0.354144      1.578990      1.325428
  H       0.975055     -0.338176     -2.076986
  H       0.870291     -1.889571     -1.159538
  H      -0.692942     -0.736700     -1.107592
  H       2.912003      0.327055      1.854012
17
Coordinates from ORCA-job scan E -27.303787783320
  C      -1.859255     -0.356451     -0.546156
  C      -1.423997      0.859888      0.225050
  C      -0.008053      0.729257      0.754519
  O       0.419998     -0.524038      1.263981
  C       0.979514     -0.105569      0.057378
  C       0.615234     -0.837605     -1.186960
  O       2.340394      0.198885      0.041570
  O       2.754300      0.974186      1.148054
  H      -2.570225     -0.169020     -1.338116
  H      -2.125556     -1.201093      0.075114
  H      -2.089882      1.034625      1.078268
  H      -1.449355      1.749290     -0.408803
  H       0.354164      1.579543      1.325637
  H       0.973270     -0.337727     -2.076405
  H       0.867995     -1.889134     -1.158884
  H      -0.691590     -0.736408     -1.107645
  H       2.913044      0.326253      1.853398
17
Coordinates from ORCA-job scan E -27.303787979920
  C      -1.859269     -0.356436     -0.546150
  C      -1.424069      0.859878      0.225030
  C      -0.008018      0.729402      0.754538
  O       0.420018     -0.523911      1.263999
  C       0.979557     -0.105492      0.057385
  C       0.614917     -0.837533     -1.186904
  O       2.340489      0.198784      0.041512
  O       2.754384      0.974037      1.148009
  H      -2.570133     -0.169141     -1.338232
  H      -2.125224     -1.201265      0.075015
  H      -2.089998      1.034629      1.078213
  H      -1.449519      1.749257     -0.408847
  H       0.354125      1.579621      1.325762
  H       0.973282     -0.337772     -2.076318
  H       0.867860     -1.889051     -1.158751
  H      -0.691528     -0.736215     -1.107601
  H       2.913126      0.326090      1.853339
17
Coordinates from ORCA-job scan E -27.303787979880
  C      -1.859269     -0.356436     -0.546150
  C      -1.424069      0.859878      0.225030
  C      -0.008018      0.729402      0.754538
  O       0.420018     -0.523911      1.263999
  C       0.979557     -0.105492      0.057385
  C       0.614917     -0.837533     -1.186904
  O       2.340489      0.198784      0.041512
  O       2.754384      0.974037      1.148009
  H      -2.570133     -0.169141     -1.338232
  H      -2.125224     -1.201265      0.075015
  H      -2.089998      1.034629      1.078213
  H      -1.449519      1.749257     -0.408847
  H       0.354125      1.579621      1.325762
  H       0.973282     -0.337772     -2.076318
  H       0.867860     -1.889051     -1.158751
  H      -0.691528     -0.736215     -1.107601
  H       2.913126      0.326090      1.853339
17
Coordinates from ORCA-job scan E -27.303786426520
  C      -1.860544     -0.356167     -0.545556
  C      -1.424380      0.860026      0.225166
  C      -0.008003      0.729329      0.754124
  O       0.419939     -0.524107      1.263413
  C       0.979843     -0.105516      0.057008
  C       0.615803     -0.837804     -1.187396
  O       2.340753      0.198823      0.041601
  O       2.754153      0.974074      1.148278
  H      -2.571603     -0.168800     -1.337439
  H      -2.126301     -1.200927      0.075791
  H      -2.089830      1.035191      1.078635
  H      -1.449887      1.749316     -0.408838
  H       0.354089      1.579343      1.325663
  H       0.974552     -0.338066     -2.076685
  H       0.869232     -1.889210     -1.159013
  H      -0.690446     -0.736756     -1.108424
  H       2.912631      0.326131      1.853672
17
Coordinates from ORCA-job scan E -27.303782042310
  C      -1.862770     -0.355660     -0.544380
  C      -1.424880      0.860346      0.225410
  C      -0.008111      0.729151      0.753509
  O       0.419710     -0.524440      1.262557
  C       0.980054     -0.105553      0.056444
  C       0.617120     -0.838216     -1.188211
  O       2.340906      0.198999      0.041760
  O       2.753631      0.974098      1.148776
  H      -2.574012     -0.168272     -1.336047
  H      -2.128041     -1.200348      0.077210
  H      -2.089485      1.036282      1.079388
  H      -1.450363      1.749450     -0.408871
  H       0.354036      1.578931      1.325368
  H       0.976342     -0.338419     -2.077276
  H       0.871358     -1.889414     -1.159490
  H      -0.687371     -0.738100     -1.110273
  H       2.911876      0.326048      1.854127
17
Coordinates from ORCA-job scan E -27.303779298730
  C      -1.865965     -0.354882     -0.542573
  C      -1.425608      0.860850      0.225749
  C      -0.008373      0.728955      0.752770
  O       0.419331     -0.524797      1.261554
  C       0.980104     -0.105555      0.055762
  C       0.618512     -0.838695     -1.189270
  O       2.340897      0.199255      0.041934
  O       2.752893      0.973968      1.149437
  H      -2.577186     -0.167662     -1.334203
  H      -2.130213     -1.199648      0.079204
  H      -2.089048      1.037927      1.080438
  H      -1.450998      1.749646     -0.408987
  H       0.353936      1.578492      1.324918
  H       0.978411     -0.338759     -2.077984
  H       0.874083     -1.889568     -1.160116
  H      -0.681735     -0.740310     -1.113236
  H       2.910958      0.325667      1.854603
17
Coordinates from ORCA-job scan E -27.303787831900
  C      -1.859850     -0.356565     -0.545173
  C      -1.424166      0.860219      0.224729
  C      -0.008302      0.729584      0.754520
  O       0.419633     -0.523901      1.263683
  C       0.979249     -0.105133      0.057216
  C       0.614352     -0.837065     -1.187227
  O       2.340197      0.198898      0.041531
  O       2.754192      0.973244      1.148588
  H      -2.570712     -0.170250     -1.337400
  H      -2.124222     -1.201581      0.076308
  H      -2.089971      1.036137      1.077782
  H      -1.449150      1.748998     -0.410039
  H       0.353814      1.579664      1.325964
  H       0.972970     -0.337130     -2.076447
  H       0.868390     -1.888322     -1.159227
  H      -0.689378     -0.736660     -1.108219
  H       2.912953      0.324745      1.853412
17
Coordinates from ORCA-job scan E -27.303787934900
  C      -1.859639     -0.356530     -0.545464
  C      -1.424164      0.860098      0.224774
  C      -0.008139      0.729627      0.754570
  O       0.419790     -0.523824      1.263828
  C       0.979429     -0.105216      0.057297
  C       0.614168     -0.837126     -1.187099
  O       2.340394      0.198702      0.041446
  O       2.754373      0.973337      1.148303
  H      -2.570459     -0.170087     -1.337732
  H      -2.124160     -1.201625      0.075879
  H      -2.090099      1.035741      1.077802
  H      -1.449350      1.749005     -0.409786
  H       0.353911      1.579699      1.326041
  H       0.973040     -0.337292     -2.076337
  H       0.868215     -1.888442     -1.159070
  H      -0.690127     -0.736243     -1.107848
  H       2.912818      0.325057      1.853397
