17
Coordinates from ORCA-job freq E -421.383288408737
  C          -2.03861927617380      0.44062687242530      1.20271026765085
  C           0.08753808939025     -0.68400547676954      0.32230859459308
  C           2.25380274112795      0.34277416817633     -0.67940705230580
  C           1.01552726140611     -0.48544230258555     -0.84518971510838
  C          -1.23934632834168      0.01274483315501     -0.00325718568617
  O          -0.06343630317556      0.71998719438338     -1.72568326689916
  O           2.58762043164566     -0.85179494621296     -0.12143520273022
  O          -0.83542994492481      1.17763413261742     -0.71694223629781
  H           1.02922949858634     -1.20339803003881     -1.64840786651645
  H          -2.95076398727194      0.95236062199806      0.90164252091644
  H          -2.31074437618981     -0.43452416240829      1.79160636504700
  H          -1.44729786989609      1.10917978625438      1.82774110423354
  H          -0.06662626462663     -1.74218751810982      0.52485986338737
  H           0.53708808535683     -0.23127785168510      1.20626336579486
  H           2.12405969693912      1.18729994447543      0.00209531275034
  H           2.75546864985375      0.61054438176913     -1.60935446773485
  H          -1.83358110370570     -0.60395764744433     -0.68249240109467
