17
* (null), Energy   -1000.0000000
C    -2.038619    0.440627    1.202710    0.014587   -0.003851   -0.010174
C     0.087538   -0.684005    0.322309    0.022900   -0.004889    0.023513
C     2.253803    0.342774   -0.679407   -0.057368    0.264602   -0.116568
C     1.015527   -0.485442   -0.845190    1.178129   -0.855447    0.758496
C    -1.239346    0.012745   -0.003257    0.050957   -0.067751    0.015406
O    -0.063436    0.719987   -1.725683   -0.504841    0.498875   -0.159435
O     2.587620   -0.851795   -0.121435   -0.499120   -0.056917   -0.156612
O    -0.835430    1.177634   -0.716942    0.069742    0.012273   -0.178198
H     1.029229   -1.203398   -1.648408    0.019912    0.191385   -0.165857
H    -2.950764    0.952361    0.901643    0.007280   -0.010620    0.000037
H    -2.310744   -0.434524    1.791606    0.033268   -0.006328   -0.006833
H    -1.447298    1.109180    1.827741    0.015869   -0.014261   -0.001623
H    -0.066626   -1.742188    0.524860   -0.137640    0.029601    0.139786
H     0.537088   -0.231278    1.206263   -0.059154   -0.016402    0.086111
H     2.124060    1.187300    0.002095    0.229534    0.189347   -0.013116
H     2.755469    0.610544   -1.609354    0.160006    0.185209    0.015272
H    -1.833581   -0.603958   -0.682492    0.150368    0.194244   -0.200636
17
* Frequency(6) -1098.4525
C    -2.036962    0.440189    1.201554    0.014587   -0.003851   -0.010174
C     0.090141   -0.684561    0.324981    0.022900   -0.004889    0.023513
C     2.247283    0.372845   -0.692654   -0.057368    0.264602   -0.116568
C     1.149416   -0.582659   -0.758991    1.178129   -0.855447    0.758496
C    -1.233555    0.005045   -0.001506    0.050957   -0.067751    0.015406
O    -0.120809    0.776682   -1.743802   -0.504841    0.498875   -0.159435
O     2.530898   -0.858263   -0.139233   -0.499120   -0.056917   -0.156612
O    -0.827504    1.179029   -0.737194    0.069742    0.012273   -0.178198
H     1.031492   -1.181648   -1.667257    0.019912    0.191385   -0.165857
H    -2.949937    0.951154    0.901647    0.007280   -0.010620    0.000037
H    -2.306964   -0.435243    1.790830    0.033268   -0.006328   -0.006833
H    -1.445494    1.107559    1.827557    0.015869   -0.014261   -0.001623
H    -0.082268   -1.738824    0.540746   -0.137640    0.029601    0.139786
H     0.530366   -0.233142    1.216049   -0.059154   -0.016402    0.086111
H     2.150145    1.208818    0.000605    0.229534    0.189347   -0.013116
H     2.773653    0.631592   -1.607619    0.160006    0.185209    0.015272
H    -1.816493   -0.581883   -0.705294    0.150368    0.194244   -0.200636
17
* Frequency(6) -1098.4525
C    -2.035483    0.439799    1.200523    0.014587   -0.003851   -0.010174
C     0.092461   -0.685056    0.327363    0.022900   -0.004889    0.023513
C     2.241470    0.399657   -0.704466   -0.057368    0.264602   -0.116568
C     1.268795   -0.669342   -0.682132    1.178129   -0.855447    0.758496
C    -1.228392   -0.001820    0.000055    0.050957   -0.067751    0.015406
O    -0.171964    0.827233   -1.759958   -0.504841    0.498875   -0.159435
O     2.480322   -0.864031   -0.155103   -0.499120   -0.056917   -0.156612
O    -0.820437    1.180273   -0.755250    0.069742    0.012273   -0.178198
H     1.033510   -1.162255   -1.684063    0.019912    0.191385   -0.165857
H    -2.949199    0.950077    0.901650    0.007280   -0.010620    0.000037
H    -2.303593   -0.435884    1.790137    0.033268   -0.006328   -0.006833
H    -1.443886    1.106114    1.827392    0.015869   -0.014261   -0.001623
H    -0.096215   -1.735824    0.554910   -0.137640    0.029601    0.139786
H     0.524371   -0.234804    1.224775   -0.059154   -0.016402    0.086111
H     2.173404    1.228005   -0.000724    0.229534    0.189347   -0.013116
H     2.789866    0.650360   -1.606071    0.160006    0.185209    0.015272
H    -1.801256   -0.562200   -0.725624    0.150368    0.194244   -0.200636
17
* Frequency(6) -1098.4525
C    -2.034345    0.439498    1.199729    0.014587   -0.003851   -0.010174
C     0.094248   -0.685438    0.329198    0.022900   -0.004889    0.023513
C     2.236993    0.420305   -0.713562   -0.057368    0.264602   -0.116568
C     1.360729   -0.736095   -0.622944    1.178129   -0.855447    0.758496
C    -1.224415   -0.007107    0.001257    0.050957   -0.067751    0.015406
O    -0.211359    0.866162   -1.772399   -0.504841    0.498875   -0.159435
O     2.441374   -0.868472   -0.167324   -0.499120   -0.056917   -0.156612
O    -0.814995    1.181230   -0.769156    0.069742    0.012273   -0.178198
H     1.035064   -1.147321   -1.697005    0.019912    0.191385   -0.165857
H    -2.948631    0.949249    0.901653    0.007280   -0.010620    0.000037
H    -2.300997   -0.436378    1.789604    0.033268   -0.006328   -0.006833
H    -1.442648    1.105001    1.827265    0.015869   -0.014261   -0.001623
H    -0.106956   -1.733514    0.565818   -0.137640    0.029601    0.139786
H     0.519755   -0.236084    1.231494   -0.059154   -0.016402    0.086111
H     2.191315    1.242780   -0.001748    0.229534    0.189347   -0.013116
H     2.802352    0.664812   -1.604880    0.160006    0.185209    0.015272
H    -1.789522   -0.547043   -0.741281    0.150368    0.194244   -0.200636
17
* Frequency(6) -1098.4525
C    -2.033670    0.439320    1.199258    0.014587   -0.003851   -0.010174
C     0.095308   -0.685664    0.330286    0.022900   -0.004889    0.023513
C     2.234338    0.432551   -0.718957   -0.057368    0.264602   -0.116568
C     1.415255   -0.775687   -0.587839    1.178129   -0.855447    0.758496
C    -1.222057   -0.010242    0.001970    0.050957   -0.067751    0.015406
O    -0.234724    0.889251   -1.779778   -0.504841    0.498875   -0.159435
O     2.418274   -0.871106   -0.174572   -0.499120   -0.056917   -0.156612
O    -0.811767    1.181798   -0.777403    0.069742    0.012273   -0.178198
H     1.035986   -1.138463   -1.704681    0.019912    0.191385   -0.165857
H    -2.948294    0.948757    0.901655    0.007280   -0.010620    0.000037
H    -2.299457   -0.436671    1.789288    0.033268   -0.006328   -0.006833
H    -1.441914    1.104341    1.827190    0.015869   -0.014261   -0.001623
H    -0.113326   -1.732144    0.572288   -0.137640    0.029601    0.139786
H     0.517018   -0.236843    1.235480   -0.059154   -0.016402    0.086111
H     2.201938    1.251544   -0.002355    0.229534    0.189347   -0.013116
H     2.809757    0.673384   -1.604173    0.160006    0.185209    0.015272
H    -1.782563   -0.538053   -0.750566    0.150368    0.194244   -0.200636
17
* Frequency(6) -1098.4525
C    -2.033531    0.439284    1.199161    0.014587   -0.003851   -0.010174
C     0.095526   -0.685711    0.330510    0.022900   -0.004889    0.023513
C     2.233792    0.435069   -0.720067   -0.057368    0.264602   -0.116568
C     1.426464   -0.783826   -0.580623    1.178129   -0.855447    0.758496
C    -1.221572   -0.010887    0.002116    0.050957   -0.067751    0.015406
O    -0.239527    0.893997   -1.781295   -0.504841    0.498875   -0.159435
O     2.413525   -0.871648   -0.176062   -0.499120   -0.056917   -0.156612
O    -0.811104    1.181915   -0.779099    0.069742    0.012273   -0.178198
H     1.036175   -1.136642   -1.706259    0.019912    0.191385   -0.165857
H    -2.948225    0.948656    0.901655    0.007280   -0.010620    0.000037
H    -2.299140   -0.436731    1.789223    0.033268   -0.006328   -0.006833
H    -1.441763    1.104206    1.827175    0.015869   -0.014261   -0.001623
H    -0.114636   -1.731863    0.573618   -0.137640    0.029601    0.139786
H     0.516455   -0.236999    1.236299   -0.059154   -0.016402    0.086111
H     2.204122    1.253345   -0.002479    0.229534    0.189347   -0.013116
H     2.811280    0.675146   -1.604027    0.160006    0.185209    0.015272
H    -1.781132   -0.536204   -0.752475    0.150368    0.194244   -0.200636
17
* Frequency(6) -1098.4525
C    -2.033944    0.439393    1.199449    0.014587   -0.003851   -0.010174
C     0.094878   -0.685572    0.329845    0.022900   -0.004889    0.023513
C     2.235415    0.427585   -0.716770   -0.057368    0.264602   -0.116568
C     1.393142   -0.759631   -0.602076    1.178129   -0.855447    0.758496
C    -1.223013   -0.008971    0.001681    0.050957   -0.067751    0.015406
O    -0.225248    0.879887   -1.776785   -0.504841    0.498875   -0.159435
O     2.427642   -0.870038   -0.171632   -0.499120   -0.056917   -0.156612
O    -0.813076    1.181568   -0.774058    0.069742    0.012273   -0.178198
H     1.035612   -1.142055   -1.701568    0.019912    0.191385   -0.165857
H    -2.948431    0.948957    0.901654    0.007280   -0.010620    0.000037
H    -2.300081   -0.436552    1.789416    0.033268   -0.006328   -0.006833
H    -1.442211    1.104609    1.827221    0.015869   -0.014261   -0.001623
H    -0.110743   -1.732700    0.569664   -0.137640    0.029601    0.139786
H     0.518128   -0.236535    1.233864   -0.059154   -0.016402    0.086111
H     2.197630    1.247990   -0.002108    0.229534    0.189347   -0.013116
H     2.806754    0.669908   -1.604459    0.160006    0.185209    0.015272
H    -1.785385   -0.541698   -0.746801    0.150368    0.194244   -0.200636
17
* Frequency(6) -1098.4525
C    -2.034863    0.439635    1.200090    0.014587   -0.003851   -0.010174
C     0.093435   -0.685264    0.328363    0.022900   -0.004889    0.023513
C     2.239030    0.410910   -0.709424   -0.057368    0.264602   -0.116568
C     1.318900   -0.705723   -0.649874    1.178129   -0.855447    0.758496
C    -1.226225   -0.004701    0.000710    0.050957   -0.067751    0.015406
O    -0.193434    0.848449   -1.766738   -0.504841    0.498875   -0.159435
O     2.459095   -0.866451   -0.161763   -0.499120   -0.056917   -0.156612
O    -0.817471    1.180795   -0.762829    0.069742    0.012273   -0.178198
H     1.034357   -1.154116   -1.691117    0.019912    0.191385   -0.165857
H    -2.948889    0.949626    0.901652    0.007280   -0.010620    0.000037
H    -2.302178   -0.436154    1.789847    0.033268   -0.006328   -0.006833
H    -1.443211    1.105508    1.827323    0.015869   -0.014261   -0.001623
H    -0.102069   -1.734565    0.560855   -0.137640    0.029601    0.139786
H     0.521856   -0.235501    1.228437   -0.059154   -0.016402    0.086111
H     2.183165    1.236057   -0.001282    0.229534    0.189347   -0.013116
H     2.796671    0.658236   -1.605422    0.160006    0.185209    0.015272
H    -1.794861   -0.553939   -0.734157    0.150368    0.194244   -0.200636
17
* Frequency(6) -1098.4525
C    -2.036189    0.439985    1.201015    0.014587   -0.003851   -0.010174
C     0.091353   -0.684820    0.326225    0.022900   -0.004889    0.023513
C     2.244246    0.386852   -0.698825   -0.057368    0.264602   -0.116568
C     1.211782   -0.627944   -0.718838    1.178129   -0.855447    0.758496
C    -1.230858    0.001459   -0.000691    0.050957   -0.067751    0.015406
O    -0.147533    0.803091   -1.752242   -0.504841    0.498875   -0.159435
O     2.504476   -0.861276   -0.147524   -0.499120   -0.056917   -0.156612
O    -0.823812    1.179679   -0.746627    0.069742    0.012273   -0.178198
H     1.032547   -1.171517   -1.676037    0.019912    0.191385   -0.165857
H    -2.949551    0.950591    0.901649    0.007280   -0.010620    0.000037
H    -2.305203   -0.435578    1.790468    0.033268   -0.006328   -0.006833
H    -1.444654    1.106804    1.827471    0.015869   -0.014261   -0.001623
H    -0.089555   -1.737257    0.548146   -0.137640    0.029601    0.139786
H     0.527234   -0.234010    1.220608   -0.059154   -0.016402    0.086111
H     2.162296    1.218842   -0.000090    0.229534    0.189347   -0.013116
H     2.782123    0.641397   -1.606810    0.160006    0.185209    0.015272
H    -1.808533   -0.571600   -0.715915    0.150368    0.194244   -0.200636
17
* Frequency(6) -1098.4525
C    -2.037779    0.440405    1.202124    0.014587   -0.003851   -0.010174
C     0.088857   -0.684287    0.323663    0.022900   -0.004889    0.023513
C     2.250498    0.358017   -0.686122   -0.057368    0.264602   -0.116568
C     1.083397   -0.534723   -0.801494    1.178129   -0.855447    0.758496
C    -1.236411    0.008842   -0.002370    0.050957   -0.067751    0.015406
O    -0.092519    0.748726   -1.734868   -0.504841    0.498875   -0.159435
O     2.558867   -0.855074   -0.130457   -0.499120   -0.056917   -0.156612
O    -0.831412    1.178341   -0.727208    0.069742    0.012273   -0.178198
H     1.030377   -1.192373   -1.657963    0.019912    0.191385   -0.165857
H    -2.950345    0.951749    0.901645    0.007280   -0.010620    0.000037
H    -2.308828   -0.434889    1.791213    0.033268   -0.006328   -0.006833
H    -1.446384    1.108358    1.827648    0.015869   -0.014261   -0.001623
H    -0.074555   -1.740482    0.532913   -0.137640    0.029601    0.139786
H     0.533680   -0.232223    1.211224   -0.059154   -0.016402    0.086111
H     2.137283    1.198208    0.001340    0.229534    0.189347   -0.013116
H     2.764686    0.621214   -1.608475    0.160006    0.185209    0.015272
H    -1.824919   -0.592768   -0.694051    0.150368    0.194244   -0.200636
17
* Frequency(6) -1098.4525
C    -2.039460    0.440849    1.203296    0.014587   -0.003851   -0.010174
C     0.086219   -0.683724    0.320954    0.022900   -0.004889    0.023513
C     2.257108    0.327531   -0.672692   -0.057368    0.264602   -0.116568
C     0.947657   -0.436162   -0.888885    1.178129   -0.855447    0.758496
C    -1.242282    0.016648   -0.004145    0.050957   -0.067751    0.015406
O    -0.034353    0.691248   -1.716499   -0.504841    0.498875   -0.159435
O     2.616374   -0.848516   -0.112413   -0.499120   -0.056917   -0.156612
O    -0.839448    1.176927   -0.706677    0.069742    0.012273   -0.178198
H     1.028082   -1.214423   -1.638853    0.019912    0.191385   -0.165857
H    -2.951183    0.952972    0.901640    0.007280   -0.010620    0.000037
H    -2.312661   -0.434160    1.792000    0.033268   -0.006328   -0.006833
H    -1.448212    1.110001    1.827835    0.015869   -0.014261   -0.001623
H    -0.058697   -1.743893    0.516807   -0.137640    0.029601    0.139786
H     0.540496   -0.230333    1.201303   -0.059154   -0.016402    0.086111
H     2.110837    1.176392    0.002851    0.229534    0.189347   -0.013116
H     2.746251    0.599875   -1.610234    0.160006    0.185209    0.015272
H    -1.842244   -0.615148   -0.670934    0.150368    0.194244   -0.200636
17
* Frequency(6) -1098.4525
C    -2.041049    0.441268    1.204405    0.014587   -0.003851   -0.010174
C     0.083723   -0.683191    0.318392    0.022900   -0.004889    0.023513
C     2.263359    0.298696   -0.659989   -0.057368    0.264602   -0.116568
C     0.819273   -0.342941   -0.971541    1.178129   -0.855447    0.758496
C    -1.247835    0.024031   -0.005824    0.050957   -0.067751    0.015406
O     0.020661    0.636884   -1.699124   -0.504841    0.498875   -0.159435
O     2.670765   -0.842314   -0.095347   -0.499120   -0.056917   -0.156612
O    -0.847048    1.175590   -0.687258    0.069742    0.012273   -0.178198
H     1.025912   -1.235279   -1.620779    0.019912    0.191385   -0.165857
H    -2.951977    0.954130    0.901636    0.007280   -0.010620    0.000037
H    -2.316286   -0.433470    1.792745    0.033268   -0.006328   -0.006833
H    -1.449941    1.111555    1.828011    0.015869   -0.014261   -0.001623
H    -0.043698   -1.747118    0.501574   -0.137640    0.029601    0.139786
H     0.546942   -0.228546    1.191919   -0.059154   -0.016402    0.086111
H     2.085824    1.155758    0.004280    0.229534    0.189347   -0.013116
H     2.728815    0.579692   -1.611899    0.160006    0.185209    0.015272
H    -1.858630   -0.636315   -0.649070    0.150368    0.194244   -0.200636
17
* Frequency(6) -1098.4525
C    -2.042375    0.441619    1.205330    0.014587   -0.003851   -0.010174
C     0.081641   -0.682747    0.316254    0.022900   -0.004889    0.023513
C     2.268575    0.274638   -0.649390   -0.057368    0.264602   -0.116568
C     0.712155   -0.265162   -1.040505    1.178129   -0.855447    0.758496
C    -1.252468    0.030191   -0.007224    0.050957   -0.067751    0.015406
O     0.066562    0.591525   -1.684628   -0.504841    0.498875   -0.159435
O     2.716145   -0.837139   -0.081107   -0.499120   -0.056917   -0.156612
O    -0.853389    1.174474   -0.671056    0.069742    0.012273   -0.178198
H     1.024102   -1.252680   -1.605699    0.019912    0.191385   -0.165857
H    -2.952638    0.955095    0.901633    0.007280   -0.010620    0.000037
H    -2.319311   -0.432895    1.793366    0.033268   -0.006328   -0.006833
H    -1.451384    1.112852    1.828159    0.015869   -0.014261   -0.001623
H    -0.031184   -1.749810    0.488865   -0.137640    0.029601    0.139786
H     0.552320   -0.227054    1.184090   -0.059154   -0.016402    0.086111
H     2.064954    1.138542    0.005473    0.229534    0.189347   -0.013116
H     2.714266    0.562852   -1.613287    0.160006    0.185209    0.015272
H    -1.872301   -0.653976   -0.630828    0.150368    0.194244   -0.200636
17
* Frequency(6) -1098.4525
C    -2.043295    0.441861    1.205971    0.014587   -0.003851   -0.010174
C     0.080198   -0.682438    0.314772    0.022900   -0.004889    0.023513
C     2.272191    0.257964   -0.642045   -0.057368    0.264602   -0.116568
C     0.637912   -0.211254   -1.088303    1.178129   -0.855447    0.758496
C    -1.255679    0.034460   -0.008195    0.050957   -0.067751    0.015406
O     0.098376    0.560087   -1.674581   -0.504841    0.498875   -0.159435
O     2.747599   -0.833552   -0.071238   -0.499120   -0.056917   -0.156612
O    -0.857784    1.173700   -0.659826    0.069742    0.012273   -0.178198
H     1.022847   -1.264741   -1.595247    0.019912    0.191385   -0.165857
H    -2.953097    0.955765    0.901631    0.007280   -0.010620    0.000037
H    -2.321407   -0.432496    1.793796    0.033268   -0.006328   -0.006833
H    -1.452384    1.113751    1.828261    0.015869   -0.014261   -0.001623
H    -0.022510   -1.751675    0.480056   -0.137640    0.029601    0.139786
H     0.556048   -0.226021    1.178663   -0.059154   -0.016402    0.086111
H     2.050489    1.126610    0.006299    0.229534    0.189347   -0.013116
H     2.704183    0.551181   -1.614249    0.160006    0.185209    0.015272
H    -1.881777   -0.666217   -0.618184    0.150368    0.194244   -0.200636
17
* Frequency(6) -1098.4525
C    -2.043707    0.441970    1.206259    0.014587   -0.003851   -0.010174
C     0.079550   -0.682300    0.314107    0.022900   -0.004889    0.023513
C     2.273813    0.250480   -0.638748   -0.057368    0.264602   -0.116568
C     0.604590   -0.187059   -1.109757    1.178129   -0.855447    0.758496
C    -1.257121    0.036377   -0.008631    0.050957   -0.067751    0.015406
O     0.112654    0.545977   -1.670072   -0.504841    0.498875   -0.159435
O     2.761716   -0.831942   -0.066808   -0.499120   -0.056917   -0.156612
O    -0.859756    1.173353   -0.654786    0.069742    0.012273   -0.178198
H     1.022284   -1.270154   -1.590556    0.019912    0.191385   -0.165857
H    -2.953303    0.956065    0.901630    0.007280   -0.010620    0.000037
H    -2.322348   -0.432317    1.793990    0.033268   -0.006328   -0.006833
H    -1.452833    1.114154    1.828307    0.015869   -0.014261   -0.001623
H    -0.018617   -1.752512    0.476102   -0.137640    0.029601    0.139786
H     0.557721   -0.225557    1.176228   -0.059154   -0.016402    0.086111
H     2.043997    1.121255    0.006670    0.229534    0.189347   -0.013116
H     2.699658    0.545942   -1.614681    0.160006    0.185209    0.015272
H    -1.886030   -0.671711   -0.612510    0.150368    0.194244   -0.200636
17
* Frequency(6) -1098.4525
C    -2.043568    0.441934    1.206162    0.014587   -0.003851   -0.010174
C     0.079768   -0.682347    0.314331    0.022900   -0.004889    0.023513
C     2.273267    0.252997   -0.639857   -0.057368    0.264602   -0.116568
C     0.615800   -0.195198   -1.102540    1.178129   -0.855447    0.758496
C    -1.256636    0.035732   -0.008484    0.050957   -0.067751    0.015406
O     0.107851    0.550724   -1.671589   -0.504841    0.498875   -0.159435
O     2.756967   -0.832483   -0.068298   -0.499120   -0.056917   -0.156612
O    -0.859093    1.173470   -0.656481    0.069742    0.012273   -0.178198
H     1.022473   -1.268333   -1.592134    0.019912    0.191385   -0.165857
H    -2.953234    0.955964    0.901630    0.007280   -0.010620    0.000037
H    -2.322032   -0.432377    1.793925    0.033268   -0.006328   -0.006833
H    -1.452682    1.114018    1.828292    0.015869   -0.014261   -0.001623
H    -0.019926   -1.752231    0.477432   -0.137640    0.029601    0.139786
H     0.557158   -0.225713    1.177047   -0.059154   -0.016402    0.086111
H     2.046181    1.123056    0.006545    0.229534    0.189347   -0.013116
H     2.701180    0.547705   -1.614536    0.160006    0.185209    0.015272
H    -1.884599   -0.669863   -0.614418    0.150368    0.194244   -0.200636
17
* Frequency(6) -1098.4525
C    -2.042893    0.441755    1.205691    0.014587   -0.003851   -0.010174
C     0.080828   -0.682573    0.315419    0.022900   -0.004889    0.023513
C     2.270612    0.265243   -0.645252   -0.057368    0.264602   -0.116568
C     0.670326   -0.234789   -1.067435    1.178129   -0.855447    0.758496
C    -1.254277    0.032596   -0.007771    0.050957   -0.067751    0.015406
O     0.084486    0.573813   -1.678967   -0.504841    0.498875   -0.159435
O     2.733867   -0.835118   -0.075547   -0.499120   -0.056917   -0.156612
O    -0.855865    1.174038   -0.664729    0.069742    0.012273   -0.178198
H     1.023395   -1.259476   -1.599810    0.019912    0.191385   -0.165857
H    -2.952897    0.955473    0.901632    0.007280   -0.010620    0.000037
H    -2.320492   -0.432670    1.793608    0.033268   -0.006328   -0.006833
H    -1.451948    1.113358    1.828217    0.015869   -0.014261   -0.001623
H    -0.026297   -1.750861    0.483902   -0.137640    0.029601    0.139786
H     0.554421   -0.226472    1.181032   -0.059154   -0.016402    0.086111
H     2.056804    1.131820    0.005938    0.229534    0.189347   -0.013116
H     2.708585    0.556276   -1.613829    0.160006    0.185209    0.015272
H    -1.877640   -0.660873   -0.623704    0.150368    0.194244   -0.200636
17
* Frequency(6) -1098.4525
C    -2.041755    0.441455    1.204897    0.014587   -0.003851   -0.010174
C     0.082615   -0.682954    0.317254    0.022900   -0.004889    0.023513
C     2.266135    0.285891   -0.654348   -0.057368    0.264602   -0.116568
C     0.762260   -0.301543   -1.008247    1.178129   -0.855447    0.758496
C    -1.250301    0.027310   -0.006569    0.050957   -0.067751    0.015406
O     0.045092    0.612742   -1.691409   -0.504841    0.498875   -0.159435
O     2.694918   -0.839559   -0.087768   -0.499120   -0.056917   -0.156612
O    -0.850423    1.174996   -0.678634    0.069742    0.012273   -0.178198
H     1.024949   -1.244541   -1.612753    0.019912    0.191385   -0.165857
H    -2.952329    0.954644    0.901635    0.007280   -0.010620    0.000037
H    -2.317896   -0.433164    1.793075    0.033268   -0.006328   -0.006833
H    -1.450709    1.112245    1.828090    0.015869   -0.014261   -0.001623
H    -0.037037   -1.748551    0.494810   -0.137640    0.029601    0.139786
H     0.549805   -0.227752    1.187752   -0.059154   -0.016402    0.086111
H     2.074716    1.146595    0.004915    0.229534    0.189347   -0.013116
H     2.721071    0.570729   -1.612638    0.160006    0.185209    0.015272
H    -1.865906   -0.645715   -0.639361    0.150368    0.194244   -0.200636
17
* Frequency(6) -1098.4525
C    -2.040277    0.441065    1.203867    0.014587   -0.003851   -0.010174
C     0.084936   -0.683450    0.319636    0.022900   -0.004889    0.023513
C     2.260322    0.312703   -0.666160   -0.057368    0.264602   -0.116568
C     0.881639   -0.388225   -0.931389    1.178129   -0.855447    0.758496
C    -1.245137    0.020444   -0.005008    0.050957   -0.067751    0.015406
O    -0.006064    0.663293   -1.707564   -0.504841    0.498875   -0.159435
O     2.644343   -0.845327   -0.103637   -0.499120   -0.056917   -0.156612
O    -0.843356    1.176239   -0.696691    0.069742    0.012273   -0.178198
H     1.026967   -1.225148   -1.629559    0.019912    0.191385   -0.165857
H    -2.951591    0.953568    0.901638    0.007280   -0.010620    0.000037
H    -2.314525   -0.433805    1.792383    0.033268   -0.006328   -0.006833
H    -1.449101    1.110800    1.827926    0.015869   -0.014261   -0.001623
H    -0.050984   -1.745552    0.508974   -0.137640    0.029601    0.139786
H     0.543811   -0.229414    1.196477   -0.059154   -0.016402    0.086111
H     2.097974    1.165782    0.003586    0.229534    0.189347   -0.013116
H     2.737285    0.589496   -1.611090    0.160006    0.185209    0.015272
H    -1.850670   -0.626032   -0.659691    0.150368    0.194244   -0.200636
17
* Frequency(6) -1098.4525
C    -2.038619    0.440627    1.202710    0.014587   -0.003851   -0.010174
C     0.087538   -0.684005    0.322309    0.022900   -0.004889    0.023513
C     2.253803    0.342774   -0.679407   -0.057368    0.264602   -0.116568
C     1.015527   -0.485442   -0.845190    1.178129   -0.855447    0.758496
C    -1.239346    0.012745   -0.003257    0.050957   -0.067751    0.015406
O    -0.063436    0.719987   -1.725683   -0.504841    0.498875   -0.159435
O     2.587620   -0.851795   -0.121435   -0.499120   -0.056917   -0.156612
O    -0.835430    1.177634   -0.716942    0.069742    0.012273   -0.178198
H     1.029229   -1.203398   -1.648408    0.019912    0.191385   -0.165857
H    -2.950764    0.952361    0.901643    0.007280   -0.010620    0.000037
H    -2.310744   -0.434524    1.791606    0.033268   -0.006328   -0.006833
H    -1.447298    1.109180    1.827741    0.015869   -0.014261   -0.001623
H    -0.066626   -1.742188    0.524860   -0.137640    0.029601    0.139786
H     0.537088   -0.231278    1.206263   -0.059154   -0.016402    0.086111
H     2.124060    1.187300    0.002095    0.229534    0.189347   -0.013116
H     2.755469    0.610544   -1.609354    0.160006    0.185209    0.015272
H    -1.833581   -0.603958   -0.682492    0.150368    0.194244   -0.200636
