17
Coordinates from ORCA-job freq E -421.391150371598
  C          -0.10484861219724      0.48350929944316      0.28513640771685
  C           0.57107712961625     -0.80347500931320     -0.10214903659107
  C           2.08184553935051     -0.59233153044227     -0.28379445403368
  C          -2.41496169237589     -0.28473290364222     -0.59727693288243
  C          -1.44367757586537      0.78054973061133     -0.28134793748415
  O           1.89400716284262      1.62933303107416     -0.58524229537640
  O          -1.68851781220470      0.37228983010285     -1.61379803790740
  O           2.27585598030641      0.45837281972002     -1.20434183712424
  H           0.78016540946123      1.34953214075327     -0.23304499314936
  H          -0.02031063604015      0.75289651677655      1.33706998885823
  H           0.16100652939921     -1.16160328924873     -1.04691694480124
  H           0.42378398841861     -1.57544392926842      0.65918430876682
  H           2.55499549362736     -1.46810007906313     -0.72505449022291
  H           2.56625741839750     -0.34113098995225      0.66266588542213
  H          -2.13489749109461     -1.31794976825221     -0.42323526476974
  H          -3.47547465252229     -0.06466633909323     -0.56459813376825
  H          -1.84886117911943      1.75760646979435     -0.03917723265315
