15
* (null), Energy   -1000.0000000
C     1.067407   -0.036327    1.213313    0.118958    0.023419   -0.031175
C    -1.466187   -0.387728    0.861301    0.110586   -0.008075    0.060607
C     1.049024    0.533679   -0.184343   -0.016967   -0.003107    0.012022
C     0.157253   -0.291249   -1.117922   -0.004094   -0.002551   -0.000606
C    -1.244976   -0.436993   -0.577023   -0.019275    0.012102    0.000133
O    -1.788915    0.716440    0.077287    0.001972    0.006415   -0.019354
H    -0.240140   -0.239178    1.415058   -1.936632   -0.250076   -0.241331
H     1.494069   -1.034345    1.296020   -0.182373   -0.080950    0.051902
H     1.410616    0.631901    1.997313   -0.176565    0.008470    0.088141
H    -2.257538   -0.888313    1.410720    0.003183   -0.027016   -0.111601
H     2.057398    0.580232   -0.605453    0.004277   -0.016534    0.010601
H     0.672746    1.556762   -0.154252    0.003741    0.002836    0.002677
H     0.572564   -1.294822   -1.249027    0.003422    0.001013    0.001283
H     0.120007    0.169607   -2.106795    0.007537    0.004124    0.002149
H    -1.961040   -0.954406   -1.207269   -0.012421   -0.003296    0.015051
15
* Frequency(6) -1661.0444
C     1.080926   -0.033665    1.209770    0.118958    0.023419   -0.031175
C    -1.453619   -0.388646    0.868189    0.110586   -0.008075    0.060607
C     1.047096    0.533326   -0.182977   -0.016967   -0.003107    0.012022
C     0.156787   -0.291538   -1.117991   -0.004094   -0.002551   -0.000606
C    -1.247167   -0.435618   -0.577008   -0.019275    0.012102    0.000133
O    -1.788691    0.717169    0.075087    0.001972    0.006415   -0.019354
H    -0.460228   -0.267598    1.387632   -1.936632   -0.250076   -0.241331
H     1.473343   -1.043545    1.301918   -0.182373   -0.080950    0.051902
H     1.390551    0.632863    2.007329   -0.176565    0.008470    0.088141
H    -2.257176   -0.891384    1.398037    0.003183   -0.027016   -0.111601
H     2.057884    0.578353   -0.604248    0.004277   -0.016534    0.010601
H     0.673171    1.557084   -0.153948    0.003741    0.002836    0.002677
H     0.572953   -1.294707   -1.248882    0.003422    0.001013    0.001283
H     0.120863    0.170076   -2.106551    0.007537    0.004124    0.002149
H    -1.962452   -0.954781   -1.205558   -0.012421   -0.003296    0.015051
15
* Frequency(6) -1661.0444
C     1.092980   -0.031292    1.206611    0.118958    0.023419   -0.031175
C    -1.442413   -0.389464    0.874330    0.110586   -0.008075    0.060607
C     1.045376    0.533011   -0.181759   -0.016967   -0.003107    0.012022
C     0.156373   -0.291797   -1.118053   -0.004094   -0.002551   -0.000606
C    -1.249120   -0.434392   -0.576994   -0.019275    0.012102    0.000133
O    -1.788492    0.717819    0.073126    0.001972    0.006415   -0.019354
H    -0.656466   -0.292938    1.363178   -1.936632   -0.250076   -0.241331
H     1.454863   -1.051747    1.307178   -0.182373   -0.080950    0.051902
H     1.372660    0.633722    2.016261   -0.176565    0.008470    0.088141
H    -2.256854   -0.894121    1.386729    0.003183   -0.027016   -0.111601
H     2.058318    0.576678   -0.603174    0.004277   -0.016534    0.010601
H     0.673550    1.557372   -0.153677    0.003741    0.002836    0.002677
H     0.573299   -1.294605   -1.248751    0.003422    0.001013    0.001283
H     0.121627    0.170494   -2.106333    0.007537    0.004124    0.002149
H    -1.963710   -0.955115   -1.204033   -0.012421   -0.003296    0.015051
15
* Frequency(6) -1661.0444
C     1.102262   -0.029465    1.204179    0.118958    0.023419   -0.031175
C    -1.433784   -0.390094    0.879059    0.110586   -0.008075    0.060607
C     1.044052    0.532769   -0.180821   -0.016967   -0.003107    0.012022
C     0.156053   -0.291996   -1.118100   -0.004094   -0.002551   -0.000606
C    -1.250624   -0.433447   -0.576984   -0.019275    0.012102    0.000133
O    -1.788338    0.718320    0.071616    0.001972    0.006415   -0.019354
H    -0.807589   -0.312452    1.344346   -1.936632   -0.250076   -0.241331
H     1.440632   -1.058064    1.311228   -0.182373   -0.080950    0.051902
H     1.358882    0.634383    2.023139   -0.176565    0.008470    0.088141
H    -2.256605   -0.896229    1.378020    0.003183   -0.027016   -0.111601
H     2.058651    0.575388   -0.602346    0.004277   -0.016534    0.010601
H     0.673842    1.557593   -0.153468    0.003741    0.002836    0.002677
H     0.573567   -1.294526   -1.248651    0.003422    0.001013    0.001283
H     0.122215    0.170816   -2.106165    0.007537    0.004124    0.002149
H    -1.964679   -0.955372   -1.202859   -0.012421   -0.003296    0.015051
15
* Frequency(6) -1661.0444
C     1.107768   -0.028381    1.202736    0.118958    0.023419   -0.031175
C    -1.428666   -0.390468    0.881864    0.110586   -0.008075    0.060607
C     1.043267    0.532625   -0.180264   -0.016967   -0.003107    0.012022
C     0.155864   -0.292114   -1.118128   -0.004094   -0.002551   -0.000606
C    -1.251516   -0.432887   -0.576978   -0.019275    0.012102    0.000133
O    -1.788246    0.718617    0.070720    0.001972    0.006415   -0.019354
H    -0.897220   -0.324026    1.333177   -1.936632   -0.250076   -0.241331
H     1.432191   -1.061811    1.313630   -0.182373   -0.080950    0.051902
H     1.350710    0.634775    2.027218   -0.176565    0.008470    0.088141
H    -2.256458   -0.897480    1.372855    0.003183   -0.027016   -0.111601
H     2.058849    0.574623   -0.601856    0.004277   -0.016534    0.010601
H     0.674015    1.557724   -0.153344    0.003741    0.002836    0.002677
H     0.573725   -1.294479   -1.248592    0.003422    0.001013    0.001283
H     0.122564    0.171006   -2.106066    0.007537    0.004124    0.002149
H    -1.965254   -0.955525   -1.202162   -0.012421   -0.003296    0.015051
15
* Frequency(6) -1661.0444
C     1.108900   -0.028158    1.202439    0.118958    0.023419   -0.031175
C    -1.427614   -0.390545    0.882441    0.110586   -0.008075    0.060607
C     1.043106    0.532595   -0.180150   -0.016967   -0.003107    0.012022
C     0.155825   -0.292138   -1.118134   -0.004094   -0.002551   -0.000606
C    -1.251699   -0.432772   -0.576976   -0.019275    0.012102    0.000133
O    -1.788228    0.718678    0.070536    0.001972    0.006415   -0.019354
H    -0.915646   -0.326406    1.330881   -1.936632   -0.250076   -0.241331
H     1.430456   -1.062581    1.314124   -0.182373   -0.080950    0.051902
H     1.349030    0.634855    2.028057   -0.176565    0.008470    0.088141
H    -2.256428   -0.897737    1.371793    0.003183   -0.027016   -0.111601
H     2.058890    0.574465   -0.601755    0.004277   -0.016534    0.010601
H     0.674050    1.557751   -0.153319    0.003741    0.002836    0.002677
H     0.573758   -1.294469   -1.248580    0.003422    0.001013    0.001283
H     0.122636    0.171046   -2.106045    0.007537    0.004124    0.002149
H    -1.965372   -0.955556   -1.202019   -0.012421   -0.003296    0.015051
15
* Frequency(6) -1661.0444
C     1.105535   -0.028820    1.203321    0.118958    0.023419   -0.031175
C    -1.430742   -0.390316    0.880727    0.110586   -0.008075    0.060607
C     1.043586    0.532683   -0.180490   -0.016967   -0.003107    0.012022
C     0.155940   -0.292066   -1.118116   -0.004094   -0.002551   -0.000606
C    -1.251154   -0.433114   -0.576980   -0.019275    0.012102    0.000133
O    -1.788283    0.718496    0.071083    0.001972    0.006415   -0.019354
H    -0.860871   -0.319333    1.337706   -1.936632   -0.250076   -0.241331
H     1.435614   -1.060291    1.312656   -0.182373   -0.080950    0.051902
H     1.354024    0.634616    2.025564   -0.176565    0.008470    0.088141
H    -2.256518   -0.896973    1.374950    0.003183   -0.027016   -0.111601
H     2.058769    0.574933   -0.602055    0.004277   -0.016534    0.010601
H     0.673945    1.557671   -0.153394    0.003741    0.002836    0.002677
H     0.573661   -1.294498   -1.248616    0.003422    0.001013    0.001283
H     0.122423    0.170929   -2.106106    0.007537    0.004124    0.002149
H    -1.965021   -0.955463   -1.202445   -0.012421   -0.003296    0.015051
15
* Frequency(6) -1661.0444
C     1.098039   -0.030296    1.205285    0.118958    0.023419   -0.031175
C    -1.437710   -0.389807    0.876907    0.110586   -0.008075    0.060607
C     1.044655    0.532879   -0.181248   -0.016967   -0.003107    0.012022
C     0.156198   -0.291905   -1.118078   -0.004094   -0.002551   -0.000606
C    -1.249939   -0.433877   -0.576989   -0.019275    0.012102    0.000133
O    -1.788408    0.718092    0.072303    0.001972    0.006415   -0.019354
H    -0.738829   -0.303573    1.352915   -1.936632   -0.250076   -0.241331
H     1.447107   -1.055190    1.309385   -0.182373   -0.080950    0.051902
H     1.365150    0.634082    2.020009   -0.176565    0.008470    0.088141
H    -2.256718   -0.895270    1.381983    0.003183   -0.027016   -0.111601
H     2.058500    0.575975   -0.602723    0.004277   -0.016534    0.010601
H     0.673709    1.557492   -0.153563    0.003741    0.002836    0.002677
H     0.573445   -1.294562   -1.248697    0.003422    0.001013    0.001283
H     0.121948    0.170669   -2.106241    0.007537    0.004124    0.002149
H    -1.964238   -0.955255   -1.203393   -0.012421   -0.003296    0.015051
15
* Frequency(6) -1661.0444
C     1.087223   -0.032425    1.208120    0.118958    0.023419   -0.031175
C    -1.447765   -0.389073    0.871397    0.110586   -0.008075    0.060607
C     1.046197    0.533162   -0.182341   -0.016967   -0.003107    0.012022
C     0.156571   -0.291674   -1.118023   -0.004094   -0.002551   -0.000606
C    -1.248187   -0.434977   -0.577001   -0.019275    0.012102    0.000133
O    -1.788587    0.717509    0.074062    0.001972    0.006415   -0.019354
H    -0.562747   -0.280836    1.374857   -1.936632   -0.250076   -0.241331
H     1.463688   -1.047830    1.304666   -0.182373   -0.080950    0.051902
H     1.381204    0.633312    2.011995   -0.176565    0.008470    0.088141
H    -2.257008   -0.892814    1.392130    0.003183   -0.027016   -0.111601
H     2.058111    0.577478   -0.603687    0.004277   -0.016534    0.010601
H     0.673369    1.557234   -0.153806    0.003741    0.002836    0.002677
H     0.573134   -1.294654   -1.248814    0.003422    0.001013    0.001283
H     0.121262    0.170294   -2.106437    0.007537    0.004124    0.002149
H    -1.963109   -0.954955   -1.204762   -0.012421   -0.003296    0.015051
15
* Frequency(6) -1661.0444
C     1.074260   -0.034977    1.211517    0.118958    0.023419   -0.031175
C    -1.459816   -0.388193    0.864792    0.110586   -0.008075    0.060607
C     1.048046    0.533500   -0.183651   -0.016967   -0.003107    0.012022
C     0.157017   -0.291396   -1.117957   -0.004094   -0.002551   -0.000606
C    -1.246086   -0.436296   -0.577015   -0.019275    0.012102    0.000133
O    -1.788802    0.716810    0.076172    0.001972    0.006415   -0.019354
H    -0.351706   -0.253584    1.401155   -1.936632   -0.250076   -0.241331
H     1.483562   -1.039009    1.299010   -0.182373   -0.080950    0.051902
H     1.400445    0.632389    2.002390   -0.176565    0.008470    0.088141
H    -2.257355   -0.889870    1.404291    0.003183   -0.027016   -0.111601
H     2.057644    0.579280   -0.604842    0.004277   -0.016534    0.010601
H     0.672961    1.556925   -0.154098    0.003741    0.002836    0.002677
H     0.572761   -1.294764   -1.248953    0.003422    0.001013    0.001283
H     0.120441    0.169845   -2.106671    0.007537    0.004124    0.002149
H    -1.961756   -0.954596   -1.206402   -0.012421   -0.003296    0.015051
15
* Frequency(6) -1661.0444
C     1.060554   -0.037676    1.215109    0.118958    0.023419   -0.031175
C    -1.472557   -0.387263    0.857809    0.110586   -0.008075    0.060607
C     1.050001    0.533858   -0.185036   -0.016967   -0.003107    0.012022
C     0.157489   -0.291102   -1.117887   -0.004094   -0.002551   -0.000606
C    -1.243866   -0.437690   -0.577031   -0.019275    0.012102    0.000133
O    -1.789029    0.716071    0.078401    0.001972    0.006415   -0.019354
H    -0.128574   -0.224772    1.428961   -1.936632   -0.250076   -0.241331
H     1.504575   -1.029682    1.293030   -0.182373   -0.080950    0.051902
H     1.420788    0.631413    1.992235   -0.176565    0.008470    0.088141
H    -2.257722   -0.886757    1.417149    0.003183   -0.027016   -0.111601
H     2.057152    0.581185   -0.606063    0.004277   -0.016534    0.010601
H     0.672530    1.556598   -0.154407    0.003741    0.002836    0.002677
H     0.572367   -1.294881   -1.249101    0.003422    0.001013    0.001283
H     0.119572    0.169370   -2.106919    0.007537    0.004124    0.002149
H    -1.960325   -0.954216   -1.208136   -0.012421   -0.003296    0.015051
15
* Frequency(6) -1661.0444
C     1.047591   -0.040228    1.218506    0.118958    0.023419   -0.031175
C    -1.484608   -0.386383    0.851205    0.110586   -0.008075    0.060607
C     1.051850    0.534197   -0.186346   -0.016967   -0.003107    0.012022
C     0.157935   -0.290824   -1.117821   -0.004094   -0.002551   -0.000606
C    -1.241765   -0.439009   -0.577045   -0.019275    0.012102    0.000133
O    -1.789244    0.715372    0.080511    0.001972    0.006415   -0.019354
H     0.082467   -0.197520    1.455259   -1.936632   -0.250076   -0.241331
H     1.524449   -1.020861    1.287374   -0.182373   -0.080950    0.051902
H     1.440029    0.630490    1.982630   -0.176565    0.008470    0.088141
H    -2.258068   -0.883813    1.429311    0.003183   -0.027016   -0.111601
H     2.056686    0.582986   -0.607219    0.004277   -0.016534    0.010601
H     0.672122    1.556289   -0.154698    0.003741    0.002836    0.002677
H     0.571994   -1.294991   -1.249241    0.003422    0.001013    0.001283
H     0.118751    0.168921   -2.107153    0.007537    0.004124    0.002149
H    -1.958971   -0.953857   -1.209776   -0.012421   -0.003296    0.015051
15
* Frequency(6) -1661.0444
C     1.036775   -0.042357    1.221341    0.118958    0.023419   -0.031175
C    -1.494663   -0.385649    0.845694    0.110586   -0.008075    0.060607
C     1.053393    0.534479   -0.187439   -0.016967   -0.003107    0.012022
C     0.158307   -0.290592   -1.117766   -0.004094   -0.002551   -0.000606
C    -1.240013   -0.440110   -0.577057   -0.019275    0.012102    0.000133
O    -1.789423    0.714789    0.082270    0.001972    0.006415   -0.019354
H     0.258549   -0.174783    1.477202   -1.936632   -0.250076   -0.241331
H     1.541030   -1.013501    1.282655   -0.182373   -0.080950    0.051902
H     1.456083    0.629720    1.974616   -0.176565    0.008470    0.088141
H    -2.258358   -0.881357    1.439458    0.003183   -0.027016   -0.111601
H     2.056297    0.584490   -0.608183    0.004277   -0.016534    0.010601
H     0.671782    1.556032   -0.154942    0.003741    0.002836    0.002677
H     0.571682   -1.295083   -1.249358    0.003422    0.001013    0.001283
H     0.118066    0.168546   -2.107348    0.007537    0.004124    0.002149
H    -1.957842   -0.953557   -1.211144   -0.012421   -0.003296    0.015051
15
* Frequency(6) -1661.0444
C     1.029278   -0.043833    1.223305    0.118958    0.023419   -0.031175
C    -1.501632   -0.385140    0.841875    0.110586   -0.008075    0.060607
C     1.054462    0.534675   -0.188196   -0.016967   -0.003107    0.012022
C     0.158565   -0.290431   -1.117728   -0.004094   -0.002551   -0.000606
C    -1.238798   -0.440872   -0.577066   -0.019275    0.012102    0.000133
O    -1.789547    0.714384    0.083490    0.001972    0.006415   -0.019354
H     0.380591   -0.159024    1.492410   -1.936632   -0.250076   -0.241331
H     1.552523   -1.008399    1.279385   -0.182373   -0.080950    0.051902
H     1.467209    0.629186    1.969062   -0.176565    0.008470    0.088141
H    -2.258558   -0.879654    1.446491    0.003183   -0.027016   -0.111601
H     2.056027    0.585532   -0.608851    0.004277   -0.016534    0.010601
H     0.671546    1.555853   -0.155110    0.003741    0.002836    0.002677
H     0.571467   -1.295147   -1.249439    0.003422    0.001013    0.001283
H     0.117591    0.168286   -2.107484    0.007537    0.004124    0.002149
H    -1.957059   -0.953350   -1.212093   -0.012421   -0.003296    0.015051
15
* Frequency(6) -1661.0444
C     1.025914   -0.044495    1.224187    0.118958    0.023419   -0.031175
C    -1.504759   -0.384911    0.840161    0.110586   -0.008075    0.060607
C     1.054942    0.534763   -0.188536   -0.016967   -0.003107    0.012022
C     0.158681   -0.290359   -1.117711   -0.004094   -0.002551   -0.000606
C    -1.238253   -0.441215   -0.577069   -0.019275    0.012102    0.000133
O    -1.789603    0.714203    0.084037    0.001972    0.006415   -0.019354
H     0.435366   -0.151951    1.499236   -1.936632   -0.250076   -0.241331
H     1.557681   -1.006110    1.277917   -0.182373   -0.080950    0.051902
H     1.472203    0.628947    1.966569   -0.176565    0.008470    0.088141
H    -2.258649   -0.878890    1.449647    0.003183   -0.027016   -0.111601
H     2.055906    0.585999   -0.609151    0.004277   -0.016534    0.010601
H     0.671441    1.555773   -0.155186    0.003741    0.002836    0.002677
H     0.571370   -1.295176   -1.249475    0.003422    0.001013    0.001283
H     0.117378    0.168169   -2.107545    0.007537    0.004124    0.002149
H    -1.956708   -0.953257   -1.212519   -0.012421   -0.003296    0.015051
15
* Frequency(6) -1661.0444
C     1.027046   -0.044272    1.223890    0.118958    0.023419   -0.031175
C    -1.503707   -0.384988    0.840738    0.110586   -0.008075    0.060607
C     1.054780    0.534733   -0.188422   -0.016967   -0.003107    0.012022
C     0.158642   -0.290383   -1.117717   -0.004094   -0.002551   -0.000606
C    -1.238436   -0.441099   -0.577068   -0.019275    0.012102    0.000133
O    -1.789584    0.714264    0.083853    0.001972    0.006415   -0.019354
H     0.416940   -0.154330    1.496939   -1.936632   -0.250076   -0.241331
H     1.555946   -1.006880    1.278410   -0.182373   -0.080950    0.051902
H     1.470523    0.629027    1.967408   -0.176565    0.008470    0.088141
H    -2.258618   -0.879147    1.448585    0.003183   -0.027016   -0.111601
H     2.055947    0.585842   -0.609050    0.004277   -0.016534    0.010601
H     0.671476    1.555800   -0.155161    0.003741    0.002836    0.002677
H     0.571403   -1.295166   -1.249463    0.003422    0.001013    0.001283
H     0.117449    0.168208   -2.107524    0.007537    0.004124    0.002149
H    -1.956826   -0.953288   -1.212375   -0.012421   -0.003296    0.015051
15
* Frequency(6) -1661.0444
C     1.032551   -0.043188    1.222447    0.118958    0.023419   -0.031175
C    -1.498589   -0.385362    0.843543    0.110586   -0.008075    0.060607
C     1.053995    0.534589   -0.187866   -0.016967   -0.003107    0.012022
C     0.158452   -0.290501   -1.117745   -0.004094   -0.002551   -0.000606
C    -1.239328   -0.440539   -0.577062   -0.019275    0.012102    0.000133
O    -1.789493    0.714561    0.082957    0.001972    0.006415   -0.019354
H     0.327309   -0.165904    1.485770   -1.936632   -0.250076   -0.241331
H     1.547505   -1.010626    1.280813   -0.182373   -0.080950    0.051902
H     1.462351    0.629419    1.971487   -0.176565    0.008470    0.088141
H    -2.258471   -0.880397    1.443420    0.003183   -0.027016   -0.111601
H     2.056145    0.585077   -0.608559    0.004277   -0.016534    0.010601
H     0.671649    1.555931   -0.155037    0.003741    0.002836    0.002677
H     0.571561   -1.295119   -1.249403    0.003422    0.001013    0.001283
H     0.117798    0.168399   -2.107425    0.007537    0.004124    0.002149
H    -1.957401   -0.953440   -1.211679   -0.012421   -0.003296    0.015051
15
* Frequency(6) -1661.0444
C     1.041834   -0.041361    1.220015    0.118958    0.023419   -0.031175
C    -1.489960   -0.385992    0.848272    0.110586   -0.008075    0.060607
C     1.052671    0.534347   -0.186928   -0.016967   -0.003107    0.012022
C     0.158133   -0.290700   -1.117792   -0.004094   -0.002551   -0.000606
C    -1.240832   -0.439595   -0.577051   -0.019275    0.012102    0.000133
O    -1.789339    0.715061    0.081447    0.001972    0.006415   -0.019354
H     0.176187   -0.185418    1.466938   -1.936632   -0.250076   -0.241331
H     1.533274   -1.016943    1.284863   -0.182373   -0.080950    0.051902
H     1.448573    0.630080    1.978365   -0.176565    0.008470    0.088141
H    -2.258222   -0.882506    1.434712    0.003183   -0.027016   -0.111601
H     2.056479    0.583787   -0.607732    0.004277   -0.016534    0.010601
H     0.671941    1.556152   -0.154828    0.003741    0.002836    0.002677
H     0.571828   -1.295040   -1.249303    0.003422    0.001013    0.001283
H     0.118386    0.168721   -2.107257    0.007537    0.004124    0.002149
H    -1.958370   -0.953698   -1.210504   -0.012421   -0.003296    0.015051
15
* Frequency(6) -1661.0444
C     1.053888   -0.038988    1.216856    0.118958    0.023419   -0.031175
C    -1.478754   -0.386810    0.854413    0.110586   -0.008075    0.060607
C     1.050952    0.534032   -0.185709   -0.016967   -0.003107    0.012022
C     0.157718   -0.290959   -1.117854   -0.004094   -0.002551   -0.000606
C    -1.242786   -0.438369   -0.577038   -0.019275    0.012102    0.000133
O    -1.789139    0.715711    0.079486    0.001972    0.006415   -0.019354
H    -0.020052   -0.210758    1.442484   -1.936632   -0.250076   -0.241331
H     1.514794   -1.025146    1.290122   -0.182373   -0.080950    0.051902
H     1.430682    0.630938    1.987296   -0.176565    0.008470    0.088141
H    -2.257900   -0.885243    1.423403    0.003183   -0.027016   -0.111601
H     2.056912    0.582111   -0.606658    0.004277   -0.016534    0.010601
H     0.672320    1.556440   -0.154557    0.003741    0.002836    0.002677
H     0.572175   -1.294938   -1.249173    0.003422    0.001013    0.001283
H     0.119150    0.169139   -2.107039    0.007537    0.004124    0.002149
H    -1.959629   -0.954032   -1.208979   -0.012421   -0.003296    0.015051
15
* Frequency(6) -1661.0444
C     1.067407   -0.036327    1.213313    0.118958    0.023419   -0.031175
C    -1.466187   -0.387728    0.861301    0.110586   -0.008075    0.060607
C     1.049024    0.533679   -0.184343   -0.016967   -0.003107    0.012022
C     0.157253   -0.291249   -1.117922   -0.004094   -0.002551   -0.000606
C    -1.244976   -0.436993   -0.577023   -0.019275    0.012102    0.000133
O    -1.788915    0.716440    0.077287    0.001972    0.006415   -0.019354
H    -0.240140   -0.239178    1.415058   -1.936632   -0.250076   -0.241331
H     1.494069   -1.034345    1.296020   -0.182373   -0.080950    0.051902
H     1.410616    0.631901    1.997313   -0.176565    0.008470    0.088141
H    -2.257538   -0.888313    1.410720    0.003183   -0.027016   -0.111601
H     2.057398    0.580232   -0.605453    0.004277   -0.016534    0.010601
H     0.672746    1.556762   -0.154252    0.003741    0.002836    0.002677
H     0.572564   -1.294822   -1.249027    0.003422    0.001013    0.001283
H     0.120007    0.169607   -2.106795    0.007537    0.004124    0.002149
H    -1.961040   -0.954406   -1.207269   -0.012421   -0.003296    0.015051
