17
Coordinates from ORCA-job freq E -421.265787323768
  C          -2.13385360238822      1.03191547896780      0.69865147635884
  C           0.48580625419072     -1.34857019540315     -0.20935265450710
  C          -0.70706035269736     -0.78979107460820     -1.00983517691430
  C           1.30499505333665     -0.24659852863173      0.43535802875765
  C          -1.47904454874965      0.31885352809494     -0.38247157154377
  O           1.93109702514868      1.91165509887412     -0.01167277789602
  O          -1.02250274755513      1.60387172865568     -0.04304080626675
  O           1.66963765161638      0.65044167161247     -0.59396677419934
  H          -2.17930476505899      1.14781584634409      1.78055626863107
  H          -1.46354594314311     -0.06329701620689      0.91547192606875
  H           1.10969135924435     -1.94189215691548     -0.87997785698900
  H           0.12980429775599     -2.01690485380481      0.57773165812569
  H          -1.40341595087256     -1.59174039953525     -1.25446047706848
  H          -0.34897647038466     -0.37406152993184     -1.95204005671466
  H           2.19363654526535     -0.63857946416314      0.93693828086937
  H           0.70517791231538      0.29079659077336      1.17599600116070
  H           1.03459028197614      2.28162227587804      0.01806451212734
