15
Coordinates from ORCA-job freq E -271.011953811856
  C      -1.738397      0.254773      0.974903
  C       2.446157      0.106959      1.024565
  C       1.254367     -0.083852      0.285214
  C      -0.818064     -0.824881      1.528038
  C       0.303037     -1.206460      0.546705
  O       1.771538      1.089303      1.551108
  H      -2.164342     -0.051654      0.021212
  H      -1.194053      1.184559      0.833401
  H      -2.553492      0.443356      1.669542
  H       3.506710     -0.024337      0.963038
  H       0.911593      0.700035     -0.380470
  H      -1.398389     -1.722238      1.752988
  H      -0.363163     -0.472422      2.455085
  H      -0.147856     -1.490893     -0.408504
  H       0.852108     -2.059232      0.951396
15
Coordinates from ORCA-job freq E -271.012893540670
  C      -1.706147      0.270037      1.003696
  C       2.384724      0.142423      1.059034
  C       1.245456     -0.102990      0.255343
  C      -0.798149     -0.836169      1.522473
  C       0.296903     -1.226282      0.514857
  O       1.664166      1.128430      1.496053
  H      -2.171335     -0.018011      0.060647
  H      -1.141603      1.187248      0.845575
  H      -2.497795      0.482756      1.719851
  H       3.451172      0.009721      1.105287
  H       0.964987      0.635127     -0.486855
  H      -1.386123     -1.726979      1.750567
  H      -0.316287     -0.511403      2.446056
  H      -0.175547     -1.510278     -0.429795
  H       0.853333     -2.080611      0.905430
15
Coordinates from ORCA-job freq E -271.013272496117
  C      -1.671878      0.285024      1.032950
  C       2.320422      0.178302      1.097192
  C       1.245051     -0.127476      0.228283
  C      -0.780049     -0.848772      1.519081
  C       0.289955     -1.244606      0.486254
  O       1.563967      1.176970      1.422181
  H      -2.164113      0.019968      0.095982
  H      -1.087460      1.190032      0.871918
  H      -2.444873      0.510395      1.766125
  H       3.382496      0.052628      1.234003
  H       1.027244      0.559305     -0.581850
  H      -1.380282     -1.732029      1.743382
  H      -0.275457     -0.552065      2.440049
  H      -0.203815     -1.518735     -0.449654
  H       0.846545     -2.105924      0.862323
15
Coordinates from ORCA-job freq E -271.013359997947
  C      -1.684909      0.275366      1.060221
  C       2.275473      0.187509      1.154902
  C       1.276877     -0.140841      0.206655
  C      -0.750391     -0.837062      1.514973
  C       0.278975     -1.226692      0.439067
  O       1.526942      1.225181      1.341482
  H      -2.253861     -0.032732      0.181232
  H      -1.125259      1.175769      0.809645
  H      -2.396401      0.529229      1.845356
  H       3.310386      0.025734      1.417079
  H       1.173986      0.491974     -0.667764
  H      -1.326226     -1.727485      1.771239
  H      -0.209887     -0.530462      2.412404
  H      -0.244626     -1.454729     -0.492024
  H       0.816675     -2.117744      0.773750
15
Coordinates from ORCA-job freq E -271.013401041466
  C      -1.657443      0.289948      1.068989
  C       2.259953      0.214171      1.138556
  C       1.261167     -0.149643      0.203960
  C      -0.760917     -0.856402      1.516486
  C       0.279064     -1.245740      0.451909
  O       1.499896      1.244371      1.312922
  H      -2.185929      0.035560      0.148277
  H      -1.069630      1.189911      0.890042
  H      -2.402721      0.521536      1.829067
  H       3.299289      0.073457      1.397187
  H       1.148295      0.465169     -0.682092
  H      -1.360056     -1.739588      1.743045
  H      -0.232712     -0.580974      2.430943
  H      -0.237951     -1.492454     -0.478328
  H       0.827448     -2.126306      0.797255
15
Coordinates from ORCA-job freq E -271.013401742859
  C      -1.676588      0.284532      1.053906
  C       2.296333      0.192703      1.121580
  C       1.258935     -0.136806      0.215631
  C      -0.768823     -0.846489      1.517991
  C       0.283685     -1.237926      0.466793
  O       1.547267      1.217679      1.361105
  H      -2.184699      0.018523      0.124992
  H      -1.104760      1.195893      0.883285
  H      -2.439824      0.501068      1.800628
  H       3.347053      0.044745      1.325027
  H       1.110046      0.508690     -0.642893
  H      -1.362318     -1.732370      1.748859
  H      -0.249562     -0.558023      2.433813
  H      -0.223325     -1.497271     -0.466026
  H       0.834333     -2.111931      0.823527
15
Coordinates from ORCA-job freq E -271.013417141886
  C      -1.669644      0.284863      1.059575
  C       2.277887      0.199891      1.135664
  C       1.261599     -0.142423      0.210750
  C      -0.763115     -0.849818      1.516408
  C       0.280917     -1.240070      0.456191
  O       1.523889      1.227721      1.344501
  H      -2.201001      0.014569      0.145100
  H      -1.090660      1.187469      0.866278
  H      -2.413096      0.519418      1.820593
  H       3.323698      0.055739      1.365571
  H       1.132647      0.491769     -0.659334
  H      -1.356004     -1.735285      1.750334
  H      -0.236415     -0.562685      2.428284
  H      -0.231916     -1.488702     -0.476075
  H       0.828967     -2.119440      0.804378
15
Coordinates from ORCA-job freq E -271.013417459743
  C      -1.668778      0.285252      1.061583
  C       2.274467      0.201775      1.137806
  C       1.262737     -0.143889      0.209228
  C      -0.762157     -0.850266      1.516200
  C       0.280340     -1.240183      0.454382
  O       1.520440      1.231327      1.337994
  H      -2.201891      0.015836      0.147877
  H      -1.089503      1.187557      0.867859
  H      -2.410715      0.519884      1.824065
  H       3.318768      0.057426      1.374333
  H       1.139167      0.486362     -0.664485
  H      -1.355129     -1.735682      1.750080
  H      -0.234259     -0.564310      2.427768
  H      -0.233510     -1.487490     -0.477623
  H       0.827776     -2.120584      0.801151
15
Coordinates from ORCA-job freq E -271.013399926314
  C      -1.668791      0.285267      1.061338
  C       2.274951      0.201656      1.137345
  C       1.262508     -0.143731      0.209446
  C      -0.762380     -0.850298      1.516246
  C       0.280428     -1.240256      0.454755
  O       1.520918      1.230972      1.338736
  H      -2.201312      0.016093      0.147213
  H      -1.089435      1.187642      0.868231
  H      -2.411229      0.519643      1.823407
  H       3.319487      0.057381      1.372881
  H       1.138042      0.486985     -0.663804
  H      -1.355469     -1.735682      1.749961
  H      -0.234763     -0.564323      2.427967
  H      -0.233209     -1.487877     -0.477292
  H       0.828008     -2.120456      0.801787
