15
Coordinates from ORCA-job freq E -271.013399926314
  C          -1.66879056382469      0.28526745518130      1.06133763061691
  C           2.27495083605017      0.20165571584986      1.13734541155815
  C           1.26250792598443     -0.14373050104392      0.20944627282674
  C          -0.76237988627991     -0.85029792547259      1.51624562022512
  C           0.28042776939212     -1.24025616713599      0.45475538253864
  O           1.52091791885862      1.23097169102931      1.33873648715646
  H          -2.20131239176336      0.01609317620354      0.14721251545118
  H          -1.08943490100323      1.18764246652764      0.86823107547370
  H          -2.41122877139599      0.51964300083450      1.82340696809614
  H           3.31948748500098      0.05738070216896      1.37288117645170
  H           1.13804183099680      0.48698450557489     -0.66380447480410
  H          -1.35546918552715     -1.73568208648480      1.74996121372633
  H          -0.23476286036558     -0.56432333472854      2.42796723876688
  H          -0.23320883425864     -1.48787661769732     -0.47729167399388
  H           0.82800762813543     -2.12045608080679      0.80178715590998
