17
Coordinates from ORCA-job freq E -421.432195136705
  C          -2.84150863006142     -0.33601611854802     -0.48896652262926
  C           1.87982635352354      0.02017322999829      1.44148047906079
  C          -1.37801393105425     -0.51061394335183     -0.66933565998308
  C          -0.41528937032559      0.17635444994685      0.16987554900675
  C           1.01395543417287     -0.18467132176021      0.23626624637693
  O           2.61914879501697     -0.96838029719386     -1.15304426351948
  O           0.64004687519561      0.95095083978583     -0.48464424344823
  O           1.35911316129030     -1.26588970314197     -0.56591785167469
  H          -3.08026957285391      0.04471433557869      0.50431035671750
  H          -3.25368574602583      0.37288695220957     -1.21679055602324
  H          -3.37621045126750     -1.27593230098134     -0.63333843705646
  H           1.87435418268005     -0.87643311634672      2.05833905047024
  H           1.51185174819292      0.86418568153670      2.02039716306257
  H           2.90123454212787      0.22301436826465      1.12435330642289
  H          -0.99948197411570     -1.07804413037799     -1.50651279798100
  H          -0.81494848935666      0.68454871938676      1.04245027999196
  H           2.35987607286073     -0.38466564500537     -1.87892209879418
