15
Coordinates from ORCA-job freq E -270.965296073588
  C          -0.91206987167162      1.33893374856113     -2.80012646683296
  C          -1.00339950259510      2.15370669223648     -0.42812951830464
  C          -0.11143803634591      1.83531186099140     -1.59170095874694
  C          -2.63015358647532      0.26115063757061      0.72679944581966
  C          -1.46347234155899      1.07437500659453      0.43731689945288
  O          -1.41813390009700     -0.27933150135442      0.16483249321199
  H          -0.54585572446228      1.91747733070190      0.81549745346613
  H          -1.62330796128284      2.09649448318486     -3.13101994514675
  H          -0.25329590861713      1.10367464643195     -3.63676446825957
  H          -1.46803849690266      0.43912844371836     -2.53764500840820
  H          -1.59197216233244      3.06305339356928     -0.40831193069789
  H           0.47185556133004      2.71531500256047     -1.86436043308366
  H           0.59869489817914      1.06018367091681     -1.29437166537080
  H          -2.83862682233141     -0.04250174570047      1.74436045403397
  H          -3.47020914483631      0.26833633001696      0.03976464886693
