17
* (null), Energy   -1000.0000000
C     2.983907    1.063528   -0.599124    0.365152    1.025811   -0.369851
C     1.109562   -0.930949    0.057999    0.019292   -0.017947    0.096496
C     2.168141   -0.211122    0.500169   -0.731062   -0.456214    0.773609
C    -0.098102   -0.336063   -0.587640   -0.008176    0.000990    0.010615
C    -1.337882   -0.560068    0.267070    0.003193   -0.000130   -0.002251
O    -3.604185   -0.311246    0.285741    0.000107   -0.000259   -0.000392
O     2.167458    1.183589    0.508264    0.225009   -0.429234   -0.327425
O    -2.432806   -0.050613   -0.469695    0.000826   -0.000713   -0.000138
H     2.513850    1.161403   -1.567441    0.239183    0.091544   -0.356193
H     4.042040    1.236374   -0.457353    0.350647    0.618064   -0.195034
H     1.168115   -2.007337    0.157107   -0.049461   -0.044919   -0.033218
H     2.992739   -0.667495    1.033522    0.003068   -0.385752   -0.296684
H    -0.272506   -0.794827   -1.564578    0.068383   -0.028685    0.027382
H     0.042920    0.733986   -0.738518   -0.000482   -0.006002   -0.005091
H    -1.494613   -1.623778    0.463865   -0.006873    0.001577    0.004908
H    -1.247919   -0.034945    1.222300   -0.002008   -0.000712   -0.001320
H    -3.827908    0.568011    0.611482    0.000954   -0.000410    0.000050
17
* Frequency(6) -732.9576
C     3.025405    1.180106   -0.641156    0.365152    1.025811   -0.369851
C     1.111754   -0.932989    0.068965    0.019292   -0.017947    0.096496
C     2.085059   -0.262968    0.588085   -0.731062   -0.456214    0.773609
C    -0.099031   -0.335950   -0.586434   -0.008176    0.000990    0.010615
C    -1.337519   -0.560083    0.266815    0.003193   -0.000130   -0.002251
O    -3.604172   -0.311275    0.285696    0.000107   -0.000259   -0.000392
O     2.193029    1.134809    0.471054    0.225009   -0.429234   -0.327425
O    -2.432712   -0.050694   -0.469711    0.000826   -0.000713   -0.000138
H     2.541032    1.171806   -1.607920    0.239183    0.091544   -0.356193
H     4.081889    1.306614   -0.479518    0.350647    0.618064   -0.195034
H     1.162495   -2.012442    0.153332   -0.049461   -0.044919   -0.033218
H     2.993088   -0.711334    0.999806    0.003068   -0.385752   -0.296684
H    -0.264735   -0.798087   -1.561466    0.068383   -0.028685    0.027382
H     0.042865    0.733304   -0.739097   -0.000482   -0.006002   -0.005091
H    -1.495394   -1.623598    0.464423   -0.006873    0.001577    0.004908
H    -1.248147   -0.035026    1.222150   -0.002008   -0.000712   -0.001320
H    -3.827800    0.567964    0.611488    0.000954   -0.000410    0.000050
17
* Frequency(6) -732.9576
C     3.062405    1.284051   -0.678633    0.365152    1.025811   -0.369851
C     1.113709   -0.934807    0.078743    0.019292   -0.017947    0.096496
C     2.010981   -0.309196    0.666475   -0.731062   -0.456214    0.773609
C    -0.099859   -0.335850   -0.585358   -0.008176    0.000990    0.010615
C    -1.337195   -0.560096    0.266586    0.003193   -0.000130   -0.002251
O    -3.604161   -0.311302    0.285656    0.000107   -0.000259   -0.000392
O     2.215829    1.091315    0.437876    0.225009   -0.429234   -0.327425
O    -2.432628   -0.050767   -0.469725    0.000826   -0.000713   -0.000138
H     2.565268    1.181082   -1.644013    0.239183    0.091544   -0.356193
H     4.117420    1.369242   -0.499281    0.350647    0.618064   -0.195034
H     1.157483   -2.016993    0.149966   -0.049461   -0.044919   -0.033218
H     2.993398   -0.750422    0.969743    0.003068   -0.385752   -0.296684
H    -0.257806   -0.800993   -1.558691    0.068383   -0.028685    0.027382
H     0.042816    0.732696   -0.739613   -0.000482   -0.006002   -0.005091
H    -1.496090   -1.623439    0.464920   -0.006873    0.001577    0.004908
H    -1.248350   -0.035098    1.222016   -0.002008   -0.000712   -0.001320
H    -3.827703    0.567923    0.611493    0.000954   -0.000410    0.000050
17
* Frequency(6) -732.9576
C     3.090900    1.364099   -0.707494    0.365152    1.025811   -0.369851
C     1.115214   -0.936208    0.086273    0.019292   -0.017947    0.096496
C     1.953933   -0.344796    0.726842   -0.731062   -0.456214    0.773609
C    -0.100497   -0.335773   -0.584530   -0.008176    0.000990    0.010615
C    -1.336946   -0.560106    0.266411    0.003193   -0.000130   -0.002251
O    -3.604153   -0.311322    0.285626    0.000107   -0.000259   -0.000392
O     2.233387    1.057820    0.412326    0.225009   -0.429234   -0.327425
O    -2.432564   -0.050822   -0.469735    0.000826   -0.000713   -0.000138
H     2.583933    1.188226   -1.671808    0.239183    0.091544   -0.356193
H     4.144782    1.417472   -0.514500    0.350647    0.618064   -0.195034
H     1.153623   -2.020498    0.147373   -0.049461   -0.044919   -0.033218
H     2.993638   -0.780524    0.946591    0.003068   -0.385752   -0.296684
H    -0.252469   -0.803232   -1.556555    0.068383   -0.028685    0.027382
H     0.042779    0.732228   -0.740010   -0.000482   -0.006002   -0.005091
H    -1.496626   -1.623315    0.465303   -0.006873    0.001577    0.004908
H    -1.248507   -0.035154    1.221913   -0.002008   -0.000712   -0.001320
H    -3.827629    0.567891    0.611497    0.000954   -0.000410    0.000050
17
* Frequency(6) -732.9576
C     3.107800    1.411575   -0.724611    0.365152    1.025811   -0.369851
C     1.116107   -0.937038    0.090739    0.019292   -0.017947    0.096496
C     1.920099   -0.365911    0.762646   -0.731062   -0.456214    0.773609
C    -0.100876   -0.335727   -0.584039   -0.008176    0.000990    0.010615
C    -1.336798   -0.560112    0.266307    0.003193   -0.000130   -0.002251
O    -3.604148   -0.311334    0.285608    0.000107   -0.000259   -0.000392
O     2.243801    1.037954    0.397172    0.225009   -0.429234   -0.327425
O    -2.432525   -0.050855   -0.469742    0.000826   -0.000713   -0.000138
H     2.595002    1.192463   -1.688294    0.239183    0.091544   -0.356193
H     4.161010    1.446077   -0.523526    0.350647    0.618064   -0.195034
H     1.151334   -2.022577    0.145836   -0.049461   -0.044919   -0.033218
H     2.993780   -0.798377    0.932860    0.003068   -0.385752   -0.296684
H    -0.249304   -0.804559   -1.555287    0.068383   -0.028685    0.027382
H     0.042756    0.731950   -0.740246   -0.000482   -0.006002   -0.005091
H    -1.496945   -1.623242    0.465530   -0.006873    0.001577    0.004908
H    -1.248600   -0.035187    1.221852   -0.002008   -0.000712   -0.001320
H    -3.827585    0.567872    0.611499    0.000954   -0.000410    0.000050
17
* Frequency(6) -732.9576
C     3.111274    1.421335   -0.728130    0.365152    1.025811   -0.369851
C     1.116291   -0.937209    0.091657    0.019292   -0.017947    0.096496
C     1.913143   -0.370252    0.770007   -0.731062   -0.456214    0.773609
C    -0.100954   -0.335718   -0.583938   -0.008176    0.000990    0.010615
C    -1.336768   -0.560114    0.266285    0.003193   -0.000130   -0.002251
O    -3.604147   -0.311336    0.285604    0.000107   -0.000259   -0.000392
O     2.245942    1.033870    0.394056    0.225009   -0.429234   -0.327425
O    -2.432518   -0.050862   -0.469743    0.000826   -0.000713   -0.000138
H     2.597278    1.193334   -1.691682    0.239183    0.091544   -0.356193
H     4.164347    1.451957   -0.525382    0.350647    0.618064   -0.195034
H     1.150863   -2.023005    0.145520   -0.049461   -0.044919   -0.033218
H     2.993809   -0.802047    0.930038    0.003068   -0.385752   -0.296684
H    -0.248654   -0.804832   -1.555027    0.068383   -0.028685    0.027382
H     0.042752    0.731893   -0.740294   -0.000482   -0.006002   -0.005091
H    -1.497010   -1.623227    0.465577   -0.006873    0.001577    0.004908
H    -1.248619   -0.035193    1.221839   -0.002008   -0.000712   -0.001320
H    -3.827576    0.567868    0.611500    0.000954   -0.000410    0.000050
17
* Frequency(6) -732.9576
C     3.100946    1.392322   -0.717669    0.365152    1.025811   -0.369851
C     1.115745   -0.936701    0.088928    0.019292   -0.017947    0.096496
C     1.933820   -0.357348    0.748126   -0.731062   -0.456214    0.773609
C    -0.100722   -0.335746   -0.584238   -0.008176    0.000990    0.010615
C    -1.336858   -0.560110    0.266349    0.003193   -0.000130   -0.002251
O    -3.604150   -0.311329    0.285615    0.000107   -0.000259   -0.000392
O     2.239578    1.046011    0.403317    0.225009   -0.429234   -0.327425
O    -2.432541   -0.050842   -0.469739    0.000826   -0.000713   -0.000138
H     2.590513    1.190744   -1.681608    0.239183    0.091544   -0.356193
H     4.154429    1.434476   -0.519866    0.350647    0.618064   -0.195034
H     1.152262   -2.021734    0.146460   -0.049461   -0.044919   -0.033218
H     2.993722   -0.791137    0.938429    0.003068   -0.385752   -0.296684
H    -0.250588   -0.804021   -1.555801    0.068383   -0.028685    0.027382
H     0.042765    0.732063   -0.740150   -0.000482   -0.006002   -0.005091
H    -1.496816   -1.623272    0.465438   -0.006873    0.001577    0.004908
H    -1.248562   -0.035173    1.221877   -0.002008   -0.000712   -0.001320
H    -3.827603    0.567879    0.611498    0.000954   -0.000410    0.000050
17
* Frequency(6) -732.9576
C     3.077935    1.327678   -0.694362    0.365152    1.025811   -0.369851
C     1.114530   -0.935570    0.082847    0.019292   -0.017947    0.096496
C     1.979890   -0.328599    0.699376   -0.731062   -0.456214    0.773609
C    -0.100207   -0.335808   -0.584907   -0.008176    0.000990    0.010615
C    -1.337060   -0.560102    0.266491    0.003193   -0.000130   -0.002251
O    -3.604157   -0.311313    0.285640    0.000107   -0.000259   -0.000392
O     2.225399    1.073060    0.423951    0.225009   -0.429234   -0.327425
O    -2.432593   -0.050797   -0.469731    0.000826   -0.000713   -0.000138
H     2.575440    1.184975   -1.659162    0.239183    0.091544   -0.356193
H     4.132332    1.395527   -0.507575    0.350647    0.618064   -0.195034
H     1.155379   -2.018903    0.148553   -0.049461   -0.044919   -0.033218
H     2.993529   -0.766828    0.957125    0.003068   -0.385752   -0.296684
H    -0.254897   -0.802213   -1.557527    0.068383   -0.028685    0.027382
H     0.042796    0.732441   -0.739829   -0.000482   -0.006002   -0.005091
H    -1.496382   -1.623371    0.465129   -0.006873    0.001577    0.004908
H    -1.248436   -0.035128    1.221960   -0.002008   -0.000712   -0.001320
H    -3.827663    0.567905    0.611495    0.000954   -0.000410    0.000050
17
* Frequency(6) -732.9576
C     3.044735    1.234409   -0.660735    0.365152    1.025811   -0.369851
C     1.112775   -0.933939    0.074073    0.019292   -0.017947    0.096496
C     2.046359   -0.287119    0.629038   -0.731062   -0.456214    0.773609
C    -0.099464   -0.335898   -0.585872   -0.008176    0.000990    0.010615
C    -1.337350   -0.560090    0.266695    0.003193   -0.000130   -0.002251
O    -3.604167   -0.311289    0.285675    0.000107   -0.000259   -0.000392
O     2.204940    1.112087    0.453721    0.225009   -0.429234   -0.327425
O    -2.432668   -0.050732   -0.469718    0.000826   -0.000713   -0.000138
H     2.553694    1.176652   -1.626776    0.239183    0.091544   -0.356193
H     4.100451    1.339332   -0.489842    0.350647    0.618064   -0.195034
H     1.159876   -2.014819    0.151573   -0.049461   -0.044919   -0.033218
H     2.993250   -0.731755    0.984100    0.003068   -0.385752   -0.296684
H    -0.261115   -0.799605   -1.560016    0.068383   -0.028685    0.027382
H     0.042840    0.732987   -0.739366   -0.000482   -0.006002   -0.005091
H    -1.495758   -1.623515    0.464683   -0.006873    0.001577    0.004908
H    -1.248253   -0.035064    1.222080   -0.002008   -0.000712   -0.001320
H    -3.827749    0.567942    0.611491    0.000954   -0.000410    0.000050
17
* Frequency(6) -732.9576
C     3.004943    1.122623   -0.620431    0.365152    1.025811   -0.369851
C     1.110673   -0.931983    0.063558    0.019292   -0.017947    0.096496
C     2.126026   -0.237404    0.544735   -0.731062   -0.456214    0.773609
C    -0.098573   -0.336006   -0.587029   -0.008176    0.000990    0.010615
C    -1.337698   -0.560076    0.266941    0.003193   -0.000130   -0.002251
O    -3.604178   -0.311261    0.285718    0.000107   -0.000259   -0.000392
O     2.180420    1.158862    0.489401    0.225009   -0.429234   -0.327425
O    -2.432758   -0.050654   -0.469703    0.000826   -0.000713   -0.000138
H     2.527629    1.166676   -1.587960    0.239183    0.091544   -0.356193
H     4.062240    1.271979   -0.468589    0.350647    0.618064   -0.195034
H     1.165266   -2.009924    0.155193   -0.049461   -0.044919   -0.033218
H     2.992916   -0.689718    1.016431    0.003068   -0.385752   -0.296684
H    -0.268567   -0.796479   -1.563000    0.068383   -0.028685    0.027382
H     0.042892    0.733641   -0.738812   -0.000482   -0.006002   -0.005091
H    -1.495009   -1.623687    0.464148   -0.006873    0.001577    0.004908
H    -1.248034   -0.034986    1.222224   -0.002008   -0.000712   -0.001320
H    -3.827853    0.567987    0.611485    0.000954   -0.000410    0.000050
17
* Frequency(6) -732.9576
C     2.962871    1.004433   -0.577818    0.365152    1.025811   -0.369851
C     1.108450   -0.929915    0.052440    0.019292   -0.017947    0.096496
C     2.210256   -0.184841    0.455603   -0.731062   -0.456214    0.773609
C    -0.097631   -0.336120   -0.588252   -0.008176    0.000990    0.010615
C    -1.338066   -0.560061    0.267200    0.003193   -0.000130   -0.002251
O    -3.604191   -0.311231    0.285763    0.000107   -0.000259   -0.000392
O     2.154496    1.208316    0.527126    0.225009   -0.429234   -0.327425
O    -2.432853   -0.050572   -0.469687    0.000826   -0.000713   -0.000138
H     2.500071    1.156129   -1.546921    0.239183    0.091544   -0.356193
H     4.021839    1.200768   -0.446118    0.350647    0.618064   -0.195034
H     1.170965   -2.004749    0.159020   -0.049461   -0.044919   -0.033218
H     2.992562   -0.645273    1.050614    0.003068   -0.385752   -0.296684
H    -0.276446   -0.793174   -1.566155    0.068383   -0.028685    0.027382
H     0.042948    0.734332   -0.738225   -0.000482   -0.006002   -0.005091
H    -1.494217   -1.623868    0.463582   -0.006873    0.001577    0.004908
H    -1.247803   -0.034904    1.222376   -0.002008   -0.000712   -0.001320
H    -3.827963    0.568034    0.611480    0.000954   -0.000410    0.000050
17
* Frequency(6) -732.9576
C     2.923080    0.892647   -0.537514    0.365152    1.025811   -0.369851
C     1.106348   -0.927959    0.041924    0.019292   -0.017947    0.096496
C     2.289922   -0.135125    0.371300   -0.731062   -0.456214    0.773609
C    -0.096740   -0.336228   -0.589409   -0.008176    0.000990    0.010615
C    -1.338414   -0.560047    0.267446    0.003193   -0.000130   -0.002251
O    -3.604202   -0.311203    0.285806    0.000107   -0.000259   -0.000392
O     2.129976    1.255091    0.562807    0.225009   -0.429234   -0.327425
O    -2.432943   -0.050495   -0.469672    0.000826   -0.000713   -0.000138
H     2.474007    1.146153   -1.508106    0.239183    0.091544   -0.356193
H     3.983628    1.133416   -0.424864    0.350647    0.618064   -0.195034
H     1.176355   -1.999854    0.162640   -0.049461   -0.044919   -0.033218
H     2.992228   -0.603236    1.082944    0.003068   -0.385752   -0.296684
H    -0.283897   -0.790048   -1.569139    0.068383   -0.028685    0.027382
H     0.043000    0.734986   -0.737670   -0.000482   -0.006002   -0.005091
H    -1.493468   -1.624040    0.463047   -0.006873    0.001577    0.004908
H    -1.247584   -0.034827    1.222520   -0.002008   -0.000712   -0.001320
H    -3.828067    0.568079    0.611474    0.000954   -0.000410    0.000050
17
* Frequency(6) -732.9576
C     2.889879    0.799378   -0.503886    0.365152    1.025811   -0.369851
C     1.104594   -0.926328    0.033151    0.019292   -0.017947    0.096496
C     2.356392   -0.093646    0.300962   -0.731062   -0.456214    0.773609
C    -0.095996   -0.336318   -0.590374   -0.008176    0.000990    0.010615
C    -1.338704   -0.560035    0.267650    0.003193   -0.000130   -0.002251
O    -3.604212   -0.311179    0.285841    0.000107   -0.000259   -0.000392
O     2.109517    1.294118    0.592577    0.225009   -0.429234   -0.327425
O    -2.433018   -0.050430   -0.469659    0.000826   -0.000713   -0.000138
H     2.452260    1.137830   -1.475720    0.239183    0.091544   -0.356193
H     3.951747    1.077220   -0.407131    0.350647    0.618064   -0.195034
H     1.180852   -1.995770    0.165660   -0.049461   -0.044919   -0.033218
H     2.991949   -0.568163    1.109919    0.003068   -0.385752   -0.296684
H    -0.290115   -0.787440   -1.571629    0.068383   -0.028685    0.027382
H     0.043044    0.735532   -0.737208   -0.000482   -0.006002   -0.005091
H    -1.492843   -1.624184    0.462601   -0.006873    0.001577    0.004908
H    -1.247402   -0.034762    1.222640   -0.002008   -0.000712   -0.001320
H    -3.828154    0.568116    0.611470    0.000954   -0.000410    0.000050
17
* Frequency(6) -732.9576
C     2.866868    0.734734   -0.480579    0.365152    1.025811   -0.369851
C     1.103378   -0.925197    0.027070    0.019292   -0.017947    0.096496
C     2.402461   -0.064896    0.252211   -0.731062   -0.456214    0.773609
C    -0.095481   -0.336380   -0.591043   -0.008176    0.000990    0.010615
C    -1.338905   -0.560027    0.267792    0.003193   -0.000130   -0.002251
O    -3.604219   -0.311163    0.285866    0.000107   -0.000259   -0.000392
O     2.095338    1.321167    0.613210    0.225009   -0.429234   -0.327425
O    -2.433070   -0.050385   -0.469651    0.000826   -0.000713   -0.000138
H     2.437187    1.132061   -1.453274    0.239183    0.091544   -0.356193
H     3.929650    1.038272   -0.394841    0.350647    0.618064   -0.195034
H     1.183969   -1.992939    0.167754   -0.049461   -0.044919   -0.033218
H     2.991756   -0.543854    1.128616    0.003068   -0.385752   -0.296684
H    -0.294424   -0.785632   -1.573354    0.068383   -0.028685    0.027382
H     0.043074    0.735910   -0.736887   -0.000482   -0.006002   -0.005091
H    -1.492410   -1.624283    0.462292   -0.006873    0.001577    0.004908
H    -1.247275   -0.034717    1.222723   -0.002008   -0.000712   -0.001320
H    -3.828214    0.568142    0.611466    0.000954   -0.000410    0.000050
17
* Frequency(6) -732.9576
C     2.856541    0.705720   -0.470118    0.365152    1.025811   -0.369851
C     1.102832   -0.924689    0.024340    0.019292   -0.017947    0.096496
C     2.423139   -0.051993    0.230330   -0.731062   -0.456214    0.773609
C    -0.095250   -0.336408   -0.591343   -0.008176    0.000990    0.010615
C    -1.338995   -0.560023    0.267856    0.003193   -0.000130   -0.002251
O    -3.604222   -0.311155    0.285877    0.000107   -0.000259   -0.000392
O     2.088974    1.333308    0.622471    0.225009   -0.429234   -0.327425
O    -2.433094   -0.050365   -0.469647    0.000826   -0.000713   -0.000138
H     2.430422    1.129472   -1.443199    0.239183    0.091544   -0.356193
H     3.919732    1.020790   -0.389325    0.350647    0.618064   -0.195034
H     1.185368   -1.991669    0.168693   -0.049461   -0.044919   -0.033218
H     2.991669   -0.532944    1.137007    0.003068   -0.385752   -0.296684
H    -0.296358   -0.784821   -1.574129    0.068383   -0.028685    0.027382
H     0.043088    0.736080   -0.736743   -0.000482   -0.006002   -0.005091
H    -1.492215   -1.624328    0.462153   -0.006873    0.001577    0.004908
H    -1.247218   -0.034697    1.222760   -0.002008   -0.000712   -0.001320
H    -3.828241    0.568154    0.611465    0.000954   -0.000410    0.000050
17
* Frequency(6) -732.9576
C     2.860015    0.715480   -0.473637    0.365152    1.025811   -0.369851
C     1.103016   -0.924860    0.025259    0.019292   -0.017947    0.096496
C     2.416183   -0.056333    0.237691   -0.731062   -0.456214    0.773609
C    -0.095328   -0.336399   -0.591242   -0.008176    0.000990    0.010615
C    -1.338965   -0.560024    0.267834    0.003193   -0.000130   -0.002251
O    -3.604221   -0.311158    0.285873    0.000107   -0.000259   -0.000392
O     2.091115    1.329224    0.619356    0.225009   -0.429234   -0.327425
O    -2.433086   -0.050371   -0.469648    0.000826   -0.000713   -0.000138
H     2.432698    1.130343   -1.446588    0.239183    0.091544   -0.356193
H     3.923069    1.026671   -0.391180    0.350647    0.618064   -0.195034
H     1.184897   -1.992096    0.168377   -0.049461   -0.044919   -0.033218
H     2.991698   -0.536614    1.134184    0.003068   -0.385752   -0.296684
H    -0.295708   -0.785094   -1.573868    0.068383   -0.028685    0.027382
H     0.043083    0.736023   -0.736791   -0.000482   -0.006002   -0.005091
H    -1.492281   -1.624313    0.462200   -0.006873    0.001577    0.004908
H    -1.247237   -0.034704    1.222748   -0.002008   -0.000712   -0.001320
H    -3.828232    0.568150    0.611466    0.000954   -0.000410    0.000050
17
* Frequency(6) -732.9576
C     2.876915    0.762957   -0.490755    0.365152    1.025811   -0.369851
C     1.103909   -0.925690    0.029725    0.019292   -0.017947    0.096496
C     2.382348   -0.077448    0.273495   -0.731062   -0.456214    0.773609
C    -0.095706   -0.336353   -0.590751   -0.008176    0.000990    0.010615
C    -1.338817   -0.560030    0.267730    0.003193   -0.000130   -0.002251
O    -3.604216   -0.311170    0.285855    0.000107   -0.000259   -0.000392
O     2.101528    1.309358    0.604202    0.225009   -0.429234   -0.327425
O    -2.433048   -0.050404   -0.469654    0.000826   -0.000713   -0.000138
H     2.443768    1.134579   -1.463073    0.239183    0.091544   -0.356193
H     3.939297    1.055276   -0.400207    0.350647    0.618064   -0.195034
H     1.182608   -1.994175    0.166840   -0.049461   -0.044919   -0.033218
H     2.991840   -0.554467    1.120453    0.003068   -0.385752   -0.296684
H    -0.292543   -0.786422   -1.572601    0.068383   -0.028685    0.027382
H     0.043061    0.735745   -0.737027   -0.000482   -0.006002   -0.005091
H    -1.492599   -1.624240    0.462427   -0.006873    0.001577    0.004908
H    -1.247330   -0.034737    1.222687   -0.002008   -0.000712   -0.001320
H    -3.828188    0.568131    0.611468    0.000954   -0.000410    0.000050
17
* Frequency(6) -732.9576
C     2.905409    0.843005   -0.519616    0.365152    1.025811   -0.369851
C     1.105414   -0.927091    0.037255    0.019292   -0.017947    0.096496
C     2.325300   -0.113048    0.333863   -0.731062   -0.456214    0.773609
C    -0.096344   -0.336276   -0.589922   -0.008176    0.000990    0.010615
C    -1.338568   -0.560041    0.267554    0.003193   -0.000130   -0.002251
O    -3.604208   -0.311190    0.285825    0.000107   -0.000259   -0.000392
O     2.119087    1.275863    0.578652    0.225009   -0.429234   -0.327425
O    -2.432983   -0.050460   -0.469665    0.000826   -0.000713   -0.000138
H     2.462432    1.141723   -1.490869    0.239183    0.091544   -0.356193
H     3.966659    1.103506   -0.415426    0.350647    0.618064   -0.195034
H     1.178748   -1.997680    0.164248   -0.049461   -0.044919   -0.033218
H     2.992079   -0.584569    1.097302    0.003068   -0.385752   -0.296684
H    -0.287207   -0.788660   -1.570464    0.068383   -0.028685    0.027382
H     0.043023    0.735277   -0.737424   -0.000482   -0.006002   -0.005091
H    -1.493135   -1.624117    0.462810   -0.006873    0.001577    0.004908
H    -1.247487   -0.034792    1.222584   -0.002008   -0.000712   -0.001320
H    -3.828113    0.568099    0.611472    0.000954   -0.000410    0.000050
17
* Frequency(6) -732.9576
C     2.942410    0.946950   -0.557092    0.365152    1.025811   -0.369851
C     1.107369   -0.928909    0.047033    0.019292   -0.017947    0.096496
C     2.251222   -0.159276    0.412252   -0.731062   -0.456214    0.773609
C    -0.097173   -0.336175   -0.588847   -0.008176    0.000990    0.010615
C    -1.338245   -0.560054    0.267326    0.003193   -0.000130   -0.002251
O    -3.604197   -0.311216    0.285785    0.000107   -0.000259   -0.000392
O     2.141887    1.232369    0.545474    0.225009   -0.429234   -0.327425
O    -2.432900   -0.050532   -0.469679    0.000826   -0.000713   -0.000138
H     2.486668    1.150999   -1.526961    0.239183    0.091544   -0.356193
H     4.002190    1.166134   -0.435189    0.350647    0.618064   -0.195034
H     1.173736   -2.002232    0.160882   -0.049461   -0.044919   -0.033218
H     2.992390   -0.623657    1.067239    0.003068   -0.385752   -0.296684
H    -0.280278   -0.791567   -1.567690    0.068383   -0.028685    0.027382
H     0.042975    0.734669   -0.737940   -0.000482   -0.006002   -0.005091
H    -1.493832   -1.623957    0.463307   -0.006873    0.001577    0.004908
H    -1.247691   -0.034864    1.222450   -0.002008   -0.000712   -0.001320
H    -3.828017    0.568057    0.611477    0.000954   -0.000410    0.000050
17
* Frequency(6) -732.9576
C     2.983907    1.063528   -0.599124    0.365152    1.025811   -0.369851
C     1.109562   -0.930949    0.057999    0.019292   -0.017947    0.096496
C     2.168141   -0.211122    0.500169   -0.731062   -0.456214    0.773609
C    -0.098102   -0.336063   -0.587640   -0.008176    0.000990    0.010615
C    -1.337882   -0.560068    0.267070    0.003193   -0.000130   -0.002251
O    -3.604185   -0.311246    0.285741    0.000107   -0.000259   -0.000392
O     2.167458    1.183589    0.508264    0.225009   -0.429234   -0.327425
O    -2.432806   -0.050613   -0.469695    0.000826   -0.000713   -0.000138
H     2.513850    1.161403   -1.567441    0.239183    0.091544   -0.356193
H     4.042040    1.236374   -0.457353    0.350647    0.618064   -0.195034
H     1.168115   -2.007337    0.157107   -0.049461   -0.044919   -0.033218
H     2.992739   -0.667495    1.033522    0.003068   -0.385752   -0.296684
H    -0.272506   -0.794827   -1.564578    0.068383   -0.028685    0.027382
H     0.042920    0.733986   -0.738518   -0.000482   -0.006002   -0.005091
H    -1.494613   -1.623778    0.463865   -0.006873    0.001577    0.004908
H    -1.247919   -0.034945    1.222300   -0.002008   -0.000712   -0.001320
H    -3.827908    0.568011    0.611482    0.000954   -0.000410    0.000050
