17
Coordinates from ORCA-job freq E -421.384628267174
  C           1.54176999631312      0.16542557281036      0.84459430451009
  C          -1.66710803507272      0.57645577587301      1.02871752098199
  C           1.12515975349243     -0.66628392103447     -0.32710323195945
  C          -1.49971259609282     -0.02509574274857     -0.33288062586340
  C          -0.28461225684272     -0.64170549803081     -0.87166841191042
  O           0.95059797331434      0.06243752968331     -2.55139564993200
  O          -1.28126314440082     -1.45299850832513     -0.38331587294001
  O          -0.14696359278503     -0.75337477316087     -2.27073232912416
  H           1.53186223325219     -0.15528037912868     -1.46913941414163
  H           1.13570789471011      1.17396644724276      0.78477034468158
  H           1.20684562661978     -0.28288699410217      1.78415165129710
  H           2.62854000166656      0.22751378398569      0.89472699661437
  H          -2.68896479015657      0.42061219685060      1.37441739020619
  H          -0.99188832658486      0.11855780836521      1.74650020907274
  H          -1.48016706163511      1.64990874414859      0.99774445513626
  H           1.53612545995961     -1.67510233530107     -0.35621562484526
  H          -2.20004113575752      0.30881829287222     -1.09233371178401
