15
* (null), Energy   -1000.0000000
C     2.392663    0.539754   -0.055434    0.030010    0.124023    0.034626
C    -2.047947    0.455040   -0.764019    0.023415   -0.006144    0.001028
C     1.044211    0.645944    0.005431    0.714295    0.868793    0.406463
C    -0.049364   -0.850815    0.085697   -0.612964   -0.697427    0.288505
C    -1.477484   -0.894811   -0.336072   -0.264611   -0.149783    0.083892
O     0.311936    0.075690    1.049279    0.116344   -0.071254   -0.556489
H     2.929021   -0.077630    0.650157   -0.006804    0.044748    0.011071
H     2.940011    1.046510   -0.834634    0.094930    0.023148    0.005404
H    -3.120417    0.380370   -0.936023    0.026242    0.081453   -0.055000
H    -1.882677    1.203738    0.010683    0.043976   -0.019143    0.004606
H    -1.581581    0.801876   -1.685947    0.097475   -0.057310    0.017818
H     0.487781    1.338172   -0.613955    0.309693   -0.202021   -0.433578
H     0.565583   -1.742974    0.063818   -0.109178   -0.282925   -0.312955
H    -2.064530   -1.274058    0.511961   -0.721137   -0.021858   -0.144546
H    -1.580815   -1.627547   -1.137235   -0.272813   -0.096940    0.034303
15
* Frequency(6) -682.8360
C     2.396073    0.553849   -0.051499    0.030010    0.124023    0.034626
C    -2.045286    0.454342   -0.763902    0.023415   -0.006144    0.001028
C     1.125387    0.744678    0.051623    0.714295    0.868793    0.406463
C    -0.119025   -0.930074    0.118484   -0.612964   -0.697427    0.288505
C    -1.507556   -0.911833   -0.326538   -0.264611   -0.149783    0.083892
O     0.325158    0.067592    0.986037    0.116344   -0.071254   -0.556489
H     2.928248   -0.072544    0.651415   -0.006804    0.044748    0.011071
H     2.950800    1.049140   -0.834020    0.094930    0.023148    0.005404
H    -3.117434    0.389627   -0.942273    0.026242    0.081453   -0.055000
H    -1.877679    1.201563    0.011207    0.043976   -0.019143    0.004606
H    -1.570504    0.795363   -1.683922    0.097475   -0.057310    0.017818
H     0.522976    1.315213   -0.663229    0.309693   -0.202021   -0.433578
H     0.553176   -1.775127    0.028252   -0.109178   -0.282925   -0.312955
H    -2.146484   -1.276542    0.495535   -0.721137   -0.021858   -0.144546
H    -1.611819   -1.638564   -1.133336   -0.272813   -0.096940    0.034303
15
* Frequency(6) -682.8360
C     2.399114    0.566416   -0.047990    0.030010    0.124023    0.034626
C    -2.042913    0.453720   -0.763798    0.023415   -0.006144    0.001028
C     1.197766    0.832712    0.092810    0.714295    0.868793    0.406463
C    -0.181136   -1.000744    0.147718   -0.612964   -0.697427    0.288505
C    -1.534369   -0.927011   -0.318037   -0.264611   -0.149783    0.083892
O     0.336947    0.060372    0.929648    0.116344   -0.071254   -0.556489
H     2.927558   -0.068010    0.652537   -0.006804    0.044748    0.011071
H     2.960419    1.051486   -0.833472    0.094930    0.023148    0.005404
H    -3.114775    0.397880   -0.947846    0.026242    0.081453   -0.055000
H    -1.873223    1.199623    0.011674    0.043976   -0.019143    0.004606
H    -1.560627    0.789556   -1.682117    0.097475   -0.057310    0.017818
H     0.554357    1.294743   -0.707163    0.309693   -0.202021   -0.433578
H     0.542113   -1.803795   -0.003459   -0.109178   -0.282925   -0.312955
H    -2.219556   -1.278757    0.480888   -0.721137   -0.021858   -0.144546
H    -1.639463   -1.648386   -1.129861   -0.272813   -0.096940    0.034303
15
* Frequency(6) -682.8360
C     2.401456    0.576094   -0.045288    0.030010    0.124023    0.034626
C    -2.041086    0.453240   -0.763718    0.023415   -0.006144    0.001028
C     1.253505    0.900507    0.124528    0.714295    0.868793    0.406463
C    -0.228968   -1.055167    0.170231   -0.612964   -0.697427    0.288505
C    -1.555018   -0.938699   -0.311491   -0.264611   -0.149783    0.083892
O     0.346026    0.054812    0.886223    0.116344   -0.071254   -0.556489
H     2.927027   -0.064518    0.653401   -0.006804    0.044748    0.011071
H     2.967827    1.053292   -0.833050    0.094930    0.023148    0.005404
H    -3.112728    0.404236   -0.952138    0.026242    0.081453   -0.055000
H    -1.869791    1.198129    0.012033    0.043976   -0.019143    0.004606
H    -1.553021    0.785083   -1.680726    0.097475   -0.057310    0.017818
H     0.578524    1.278978   -0.740997    0.309693   -0.202021   -0.433578
H     0.533593   -1.825873   -0.027880   -0.109178   -0.282925   -0.312955
H    -2.275829   -1.280463    0.469608   -0.721137   -0.021858   -0.144546
H    -1.660752   -1.655951   -1.127184   -0.272813   -0.096940    0.034303
15
* Frequency(6) -682.8360
C     2.402845    0.581834   -0.043686    0.030010    0.124023    0.034626
C    -2.040003    0.452956   -0.763670    0.023415   -0.006144    0.001028
C     1.286564    0.940717    0.143340    0.714295    0.868793    0.406463
C    -0.257337   -1.087445    0.183584   -0.612964   -0.697427    0.288505
C    -1.567264   -0.945631   -0.307608   -0.264611   -0.149783    0.083892
O     0.351411    0.051514    0.860468    0.116344   -0.071254   -0.556489
H     2.926712   -0.062447    0.653913   -0.006804    0.044748    0.011071
H     2.972220    1.054363   -0.832800    0.094930    0.023148    0.005404
H    -3.111513    0.408006   -0.954683    0.026242    0.081453   -0.055000
H    -1.867756    1.197244    0.012246    0.043976   -0.019143    0.004606
H    -1.548509    0.782431   -1.679901    0.097475   -0.057310    0.017818
H     0.592857    1.269628   -0.761064    0.309693   -0.202021   -0.433578
H     0.528540   -1.838967   -0.042364   -0.109178   -0.282925   -0.312955
H    -2.309205   -1.281474    0.462918   -0.721137   -0.021858   -0.144546
H    -1.673378   -1.660438   -1.125596   -0.272813   -0.096940    0.034303
15
* Frequency(6) -682.8360
C     2.403130    0.583014   -0.043356    0.030010    0.124023    0.034626
C    -2.039780    0.452897   -0.763661    0.023415   -0.006144    0.001028
C     1.293360    0.948983    0.147207    0.714295    0.868793    0.406463
C    -0.263169   -1.094081    0.186329   -0.612964   -0.697427    0.288505
C    -1.569782   -0.947056   -0.306810   -0.264611   -0.149783    0.083892
O     0.352518    0.050836    0.855173    0.116344   -0.071254   -0.556489
H     2.926648   -0.062021    0.654019   -0.006804    0.044748    0.011071
H     2.973123    1.054584   -0.832749    0.094930    0.023148    0.005404
H    -3.111263    0.408781   -0.955207    0.026242    0.081453   -0.055000
H    -1.867337    1.197061    0.012290    0.043976   -0.019143    0.004606
H    -1.547582    0.781886   -1.679732    0.097475   -0.057310    0.017818
H     0.595803    1.267706   -0.765189    0.309693   -0.202021   -0.433578
H     0.527502   -1.841659   -0.045342   -0.109178   -0.282925   -0.312955
H    -2.316066   -1.281682    0.461543   -0.721137   -0.021858   -0.144546
H    -1.675974   -1.661360   -1.125270   -0.272813   -0.096940    0.034303
15
* Frequency(6) -682.8360
C     2.402281    0.579506   -0.044336    0.030010    0.124023    0.034626
C    -2.040442    0.453071   -0.763690    0.023415   -0.006144    0.001028
C     1.273157    0.924410    0.135711    0.714295    0.868793    0.406463
C    -0.245832   -1.074355    0.178169   -0.612964   -0.697427    0.288505
C    -1.562298   -0.942820   -0.309183   -0.264611   -0.149783    0.083892
O     0.349227    0.052852    0.870913    0.116344   -0.071254   -0.556489
H     2.926840   -0.063287    0.653706   -0.006804    0.044748    0.011071
H     2.970438    1.053929   -0.832902    0.094930    0.023148    0.005404
H    -3.112006    0.406477   -0.953651    0.026242    0.081453   -0.055000
H    -1.868581    1.197603    0.012160    0.043976   -0.019143    0.004606
H    -1.550339    0.783507   -1.680236    0.097475   -0.057310    0.017818
H     0.587044    1.273420   -0.752926    0.309693   -0.202021   -0.433578
H     0.530590   -1.833657   -0.036490   -0.109178   -0.282925   -0.312955
H    -2.295670   -1.281064    0.465631   -0.721137   -0.021858   -0.144546
H    -1.668258   -1.658618   -1.126240   -0.272813   -0.096940    0.034303
15
* Frequency(6) -682.8360
C     2.400390    0.571691   -0.046518    0.030010    0.124023    0.034626
C    -2.041918    0.453458   -0.763754    0.023415   -0.006144    0.001028
C     1.228144    0.869661    0.110096    0.714295    0.868793    0.406463
C    -0.207205   -1.030405    0.159988   -0.612964   -0.697427    0.288505
C    -1.545623   -0.933381   -0.314469   -0.264611   -0.149783    0.083892
O     0.341895    0.057342    0.905981    0.116344   -0.071254   -0.556489
H     2.927269   -0.066107    0.653008   -0.006804    0.044748    0.011071
H     2.964456    1.052470   -0.833242    0.094930    0.023148    0.005404
H    -3.113659    0.401344   -0.950185    0.026242    0.081453   -0.055000
H    -1.871353    1.198809    0.011869    0.043976   -0.019143    0.004606
H    -1.556481    0.787118   -1.681359    0.097475   -0.057310    0.017818
H     0.567528    1.286151   -0.725603    0.309693   -0.202021   -0.433578
H     0.537470   -1.815828   -0.016769   -0.109178   -0.282925   -0.312955
H    -2.250226   -1.279687    0.474740   -0.721137   -0.021858   -0.144546
H    -1.651066   -1.652509   -1.128402   -0.272813   -0.096940    0.034303
15
* Frequency(6) -682.8360
C     2.397662    0.560414   -0.049666    0.030010    0.124023    0.034626
C    -2.044046    0.454017   -0.763848    0.023415   -0.006144    0.001028
C     1.163199    0.790669    0.073140    0.714295    0.868793    0.406463
C    -0.151473   -0.966994    0.133757   -0.612964   -0.697427    0.288505
C    -1.521564   -0.919762   -0.322097   -0.264611   -0.149783    0.083892
O     0.331317    0.063820    0.956578    0.116344   -0.071254   -0.556489
H     2.927887   -0.070175    0.652001   -0.006804    0.044748    0.011071
H     2.955825    1.050366   -0.833734    0.094930    0.023148    0.005404
H    -3.116045    0.393939   -0.945184    0.026242    0.081453   -0.055000
H    -1.875351    1.200550    0.011451    0.043976   -0.019143    0.004606
H    -1.565344    0.792329   -1.682979    0.097475   -0.057310    0.017818
H     0.539370    1.304519   -0.686181    0.309693   -0.202021   -0.433578
H     0.547396   -1.790104    0.011686   -0.109178   -0.282925   -0.312955
H    -2.184658   -1.277699    0.487883   -0.721137   -0.021858   -0.144546
H    -1.626261   -1.643695   -1.131521   -0.272813   -0.096940    0.034303
15
* Frequency(6) -682.8360
C     2.394391    0.546899   -0.053439    0.030010    0.124023    0.034626
C    -2.046598    0.454687   -0.763960    0.023415   -0.006144    0.001028
C     1.085360    0.695993    0.028846    0.714295    0.868793    0.406463
C    -0.084676   -0.890993    0.102317   -0.612964   -0.697427    0.288505
C    -1.492728   -0.903440   -0.331239   -0.264611   -0.149783    0.083892
O     0.318639    0.071585    1.017221    0.116344   -0.071254   -0.556489
H     2.928629   -0.075052    0.650795   -0.006804    0.044748    0.011071
H     2.945480    1.047843   -0.834323    0.094930    0.023148    0.005404
H    -3.118905    0.385062   -0.939191    0.026242    0.081453   -0.055000
H    -1.880143    1.202636    0.010949    0.043976   -0.019143    0.004606
H    -1.575966    0.798574   -1.684921    0.097475   -0.057310    0.017818
H     0.505622    1.326534   -0.638933    0.309693   -0.202021   -0.433578
H     0.559294   -1.759272    0.045789   -0.109178   -0.282925   -0.312955
H    -2.106074   -1.275317    0.503634   -0.721137   -0.021858   -0.144546
H    -1.596531   -1.633131   -1.135259   -0.272813   -0.096940    0.034303
15
* Frequency(6) -682.8360
C     2.390934    0.532610   -0.057429    0.030010    0.124023    0.034626
C    -2.049296    0.455394   -0.764078    0.023415   -0.006144    0.001028
C     1.003062    0.595894   -0.017985    0.714295    0.868793    0.406463
C    -0.014053   -0.810638    0.069077   -0.612964   -0.697427    0.288505
C    -1.462241   -0.886183   -0.340905   -0.264611   -0.149783    0.083892
O     0.305234    0.079795    1.081337    0.116344   -0.071254   -0.556489
H     2.929413   -0.080208    0.649519   -0.006804    0.044748    0.011071
H     2.934543    1.045176   -0.834945    0.094930    0.023148    0.005404
H    -3.121929    0.375678   -0.932854    0.026242    0.081453   -0.055000
H    -1.885210    1.204841    0.010418    0.043976   -0.019143    0.004606
H    -1.587197    0.805177   -1.686973    0.097475   -0.057310    0.017818
H     0.469940    1.349810   -0.588978    0.309693   -0.202021   -0.433578
H     0.571873   -1.726675    0.081847   -0.109178   -0.282925   -0.312955
H    -2.022987   -1.272799    0.520288   -0.721137   -0.021858   -0.144546
H    -1.565099   -1.621962   -1.139211   -0.272813   -0.096940    0.034303
15
* Frequency(6) -682.8360
C     2.387663    0.519094   -0.061202    0.030010    0.124023    0.034626
C    -2.051847    0.456064   -0.764190    0.023415   -0.006144    0.001028
C     0.925223    0.501219   -0.062278    0.714295    0.868793    0.406463
C     0.052744   -0.734637    0.037638   -0.612964   -0.697427    0.288505
C    -1.433405   -0.869860   -0.350047   -0.264611   -0.149783    0.083892
O     0.292556    0.087560    1.141980    0.116344   -0.071254   -0.556489
H     2.930154   -0.085084    0.648313   -0.006804    0.044748    0.011071
H     2.924198    1.042654   -0.835534    0.094930    0.023148    0.005404
H    -3.124788    0.366801   -0.926861    0.026242    0.081453   -0.055000
H    -1.890002    1.206927    0.009916    0.043976   -0.019143    0.004606
H    -1.597819    0.811423   -1.688915    0.097475   -0.057310    0.017818
H     0.436192    1.371825   -0.541729    0.309693   -0.202021   -0.433578
H     0.583770   -1.695844    0.115951   -0.109178   -0.282925   -0.312955
H    -1.944402   -1.270417    0.536040   -0.721137   -0.021858   -0.144546
H    -1.535369   -1.611398   -1.142949   -0.272813   -0.096940    0.034303
15
* Frequency(6) -682.8360
C     2.384935    0.507818   -0.064350    0.030010    0.124023    0.034626
C    -2.053976    0.456622   -0.764284    0.023415   -0.006144    0.001028
C     0.860278    0.422227   -0.099235    0.714295    0.868793    0.406463
C     0.108476   -0.671226    0.011406   -0.612964   -0.697427    0.288505
C    -1.409346   -0.856242   -0.357674   -0.264611   -0.149783    0.083892
O     0.281977    0.094038    1.192577    0.116344   -0.071254   -0.556489
H     2.930773   -0.089153    0.647306   -0.006804    0.044748    0.011071
H     2.915567    1.040549   -0.836025    0.094930    0.023148    0.005404
H    -3.127174    0.359395   -0.921860    0.026242    0.081453   -0.055000
H    -1.894001    1.208668    0.009497    0.043976   -0.019143    0.004606
H    -1.606682    0.816633   -1.690535    0.097475   -0.057310    0.017818
H     0.408034    1.390193   -0.502307    0.309693   -0.202021   -0.433578
H     0.593697   -1.670120    0.144405   -0.109178   -0.282925   -0.312955
H    -1.878835   -1.268429    0.549182   -0.721137   -0.021858   -0.144546
H    -1.510565   -1.602584   -1.146068   -0.272813   -0.096940    0.034303
15
* Frequency(6) -682.8360
C     2.383044    0.500003   -0.066532    0.030010    0.124023    0.034626
C    -2.055452    0.457010   -0.764349    0.023415   -0.006144    0.001028
C     0.815265    0.367478   -0.124849    0.714295    0.868793    0.406463
C     0.147103   -0.627276   -0.006775   -0.612964   -0.697427    0.288505
C    -1.392671   -0.846803   -0.362961   -0.264611   -0.149783    0.083892
O     0.274646    0.098528    1.227645    0.116344   -0.071254   -0.556489
H     2.931201   -0.091973    0.646608   -0.006804    0.044748    0.011071
H     2.909584    1.039090   -0.836366    0.094930    0.023148    0.005404
H    -3.128828    0.354262   -0.918394    0.026242    0.081453   -0.055000
H    -1.896772    1.209874    0.009207    0.043976   -0.019143    0.004606
H    -1.612824    0.820245   -1.691658    0.097475   -0.057310    0.017818
H     0.388518    1.402924   -0.474984    0.309693   -0.202021   -0.433578
H     0.600577   -1.652290    0.164127   -0.109178   -0.282925   -0.312955
H    -1.833391   -1.267052    0.558291   -0.721137   -0.021858   -0.144546
H    -1.493373   -1.596476   -1.148230   -0.272813   -0.096940    0.034303
15
* Frequency(6) -682.8360
C     2.382195    0.496495   -0.067512    0.030010    0.124023    0.034626
C    -2.056114    0.457183   -0.764378    0.023415   -0.006144    0.001028
C     0.795062    0.342905   -0.136345    0.714295    0.868793    0.406463
C     0.164440   -0.607550   -0.014935   -0.612964   -0.697427    0.288505
C    -1.385187   -0.842566   -0.365334   -0.264611   -0.149783    0.083892
O     0.271355    0.100544    1.243385    0.116344   -0.071254   -0.556489
H     2.931394   -0.093238    0.646295   -0.006804    0.044748    0.011071
H     2.906900    1.038435   -0.836519    0.094930    0.023148    0.005404
H    -3.129570    0.351959   -0.916838    0.026242    0.081453   -0.055000
H    -1.898016    1.210416    0.009077    0.043976   -0.019143    0.004606
H    -1.615581    0.821866   -1.692162    0.097475   -0.057310    0.017818
H     0.379759    1.408638   -0.462721    0.309693   -0.202021   -0.433578
H     0.603665   -1.644288    0.172978   -0.109178   -0.282925   -0.312955
H    -1.812994   -1.266434    0.562380   -0.721137   -0.021858   -0.144546
H    -1.485657   -1.593734   -1.149200   -0.272813   -0.096940    0.034303
15
* Frequency(6) -682.8360
C     2.382480    0.497675   -0.067182    0.030010    0.124023    0.034626
C    -2.055891    0.457125   -0.764368    0.023415   -0.006144    0.001028
C     0.801858    0.351171   -0.132478    0.714295    0.868793    0.406463
C     0.158608   -0.614185   -0.012190   -0.612964   -0.697427    0.288505
C    -1.387705   -0.843991   -0.364536   -0.264611   -0.149783    0.083892
O     0.272462    0.099866    1.238090    0.116344   -0.071254   -0.556489
H     2.931329   -0.092812    0.646401   -0.006804    0.044748    0.011071
H     2.907803    1.038656   -0.836467    0.094930    0.023148    0.005404
H    -3.129320    0.352734   -0.917362    0.026242    0.081453   -0.055000
H    -1.897597    1.210233    0.009120    0.043976   -0.019143    0.004606
H    -1.614654    0.821321   -1.691992    0.097475   -0.057310    0.017818
H     0.382705    1.406716   -0.466846    0.309693   -0.202021   -0.433578
H     0.602626   -1.646980    0.170001   -0.109178   -0.282925   -0.312955
H    -1.819856   -1.266642    0.561004   -0.721137   -0.021858   -0.144546
H    -1.488252   -1.594656   -1.148873   -0.272813   -0.096940    0.034303
15
* Frequency(6) -682.8360
C     2.383869    0.503415   -0.065580    0.030010    0.124023    0.034626
C    -2.054808    0.456841   -0.764320    0.023415   -0.006144    0.001028
C     0.834917    0.391380   -0.113666    0.714295    0.868793    0.406463
C     0.130239   -0.646463    0.001163   -0.612964   -0.697427    0.288505
C    -1.399951   -0.850924   -0.360653   -0.264611   -0.149783    0.083892
O     0.277847    0.096568    1.212335    0.116344   -0.071254   -0.556489
H     2.931014   -0.090741    0.646913   -0.006804    0.044748    0.011071
H     2.912196    1.039727   -0.836217    0.094930    0.023148    0.005404
H    -3.128106    0.356503   -0.919907    0.026242    0.081453   -0.055000
H    -1.895562    1.209348    0.009334    0.043976   -0.019143    0.004606
H    -1.610142    0.818668   -1.691168    0.097475   -0.057310    0.017818
H     0.397038    1.397366   -0.486913    0.309693   -0.202021   -0.433578
H     0.597573   -1.660074    0.155516   -0.109178   -0.282925   -0.312955
H    -1.853231   -1.267653    0.554315   -0.721137   -0.021858   -0.144546
H    -1.500879   -1.599143   -1.147286   -0.272813   -0.096940    0.034303
15
* Frequency(6) -682.8360
C     2.386211    0.513093   -0.062878    0.030010    0.124023    0.034626
C    -2.052980    0.456361   -0.764240    0.023415   -0.006144    0.001028
C     0.890656    0.459175   -0.081948    0.714295    0.868793    0.406463
C     0.082407   -0.700886    0.023676   -0.612964   -0.697427    0.288505
C    -1.420600   -0.862612   -0.354106   -0.264611   -0.149783    0.083892
O     0.286925    0.091008    1.168910    0.116344   -0.071254   -0.556489
H     2.930483   -0.087249    0.647777   -0.006804    0.044748    0.011071
H     2.919604    1.041533   -0.835795    0.094930    0.023148    0.005404
H    -3.126058    0.362860   -0.924199    0.026242    0.081453   -0.055000
H    -1.892130    1.207854    0.009693    0.043976   -0.019143    0.004606
H    -1.602536    0.814196   -1.689777    0.097475   -0.057310    0.017818
H     0.421205    1.381601   -0.520747    0.309693   -0.202021   -0.433578
H     0.589054   -1.682152    0.131095   -0.109178   -0.282925   -0.312955
H    -1.909504   -1.269359    0.543035   -0.721137   -0.021858   -0.144546
H    -1.522167   -1.606707   -1.144609   -0.272813   -0.096940    0.034303
15
* Frequency(6) -682.8360
C     2.389252    0.525660   -0.059369    0.030010    0.124023    0.034626
C    -2.050608    0.455739   -0.764136    0.023415   -0.006144    0.001028
C     0.963035    0.547210   -0.040762    0.714295    0.868793    0.406463
C     0.020296   -0.771556    0.052910   -0.612964   -0.697427    0.288505
C    -1.447413   -0.877789   -0.345606   -0.264611   -0.149783    0.083892
O     0.298714    0.083788    1.112521    0.116344   -0.071254   -0.556489
H     2.929794   -0.082715    0.648899   -0.006804    0.044748    0.011071
H     2.929223    1.043879   -0.835248    0.094930    0.023148    0.005404
H    -3.123399    0.371113   -0.929772    0.026242    0.081453   -0.055000
H    -1.887674    1.205914    0.010160    0.043976   -0.019143    0.004606
H    -1.592659    0.808389   -1.687972    0.097475   -0.057310    0.017818
H     0.452586    1.361131   -0.564681    0.309693   -0.202021   -0.433578
H     0.577991   -1.710821    0.099384   -0.109178   -0.282925   -0.312955
H    -1.982577   -1.271574    0.528388   -0.721137   -0.021858   -0.144546
H    -1.549811   -1.616530   -1.141133   -0.272813   -0.096940    0.034303
15
* Frequency(6) -682.8360
C     2.392663    0.539754   -0.055434    0.030010    0.124023    0.034626
C    -2.047947    0.455040   -0.764019    0.023415   -0.006144    0.001028
C     1.044211    0.645944    0.005431    0.714295    0.868793    0.406463
C    -0.049364   -0.850815    0.085697   -0.612964   -0.697427    0.288505
C    -1.477484   -0.894811   -0.336072   -0.264611   -0.149783    0.083892
O     0.311936    0.075690    1.049279    0.116344   -0.071254   -0.556489
H     2.929021   -0.077630    0.650157   -0.006804    0.044748    0.011071
H     2.940011    1.046510   -0.834634    0.094930    0.023148    0.005404
H    -3.120417    0.380370   -0.936023    0.026242    0.081453   -0.055000
H    -1.882677    1.203738    0.010683    0.043976   -0.019143    0.004606
H    -1.581581    0.801876   -1.685947    0.097475   -0.057310    0.017818
H     0.487781    1.338172   -0.613955    0.309693   -0.202021   -0.433578
H     0.565583   -1.742974    0.063818   -0.109178   -0.282925   -0.312955
H    -2.064530   -1.274058    0.511961   -0.721137   -0.021858   -0.144546
H    -1.580815   -1.627547   -1.137235   -0.272813   -0.096940    0.034303
