15
Coordinates from ORCA-job freq E -271.032419083684
  C       2.704044      0.323695      0.698441
  C      -2.084371      0.339733      0.286965
  C       1.395199      0.543660      0.504099
  C       0.032217     -0.743457      1.088021
  C      -1.236879     -0.927027      0.335514
  O       0.452186      0.489075      1.521852
  H       3.087883      0.074583      1.670977
  H       3.397029      0.379084     -0.119418
  H      -3.021810      0.146238     -0.228502
  H      -2.300198      0.683273      1.295165
  H      -1.560096      1.135756     -0.235851
  H       1.001911      0.827862     -0.466906
  H       0.616236     -1.600632      1.393266
  H      -1.801242     -1.737597      0.811880
  H      -1.022131     -1.268580     -0.687489
15
Coordinates from ORCA-job freq E -271.030888772326
  C       2.682307      0.326831      0.694974
  C      -2.056132      0.344355      0.271454
  C       1.365734      0.537644      0.521513
  C       0.063958     -0.757969      1.053937
  C      -1.228121     -0.934310      0.334092
  O       0.442042      0.465292      1.561626
  H       3.078999      0.045842      1.655694
  H       3.360197      0.412407     -0.135339
  H      -3.005203      0.155409     -0.225190
  H      -2.251981      0.719829      1.272735
  H      -1.530663      1.122179     -0.279150
  H       0.956437      0.876261     -0.424487
  H       0.617150     -1.616073      1.410571
  H      -1.798144     -1.725315      0.835876
  H      -1.036603     -1.306716     -0.680292
15
Coordinates from ORCA-job freq E -271.030568068523
  C       2.660004      0.341002      0.689639
  C      -2.019149      0.352802      0.247469
  C       1.332759      0.529978      0.543457
  C       0.090907     -0.786180      1.024926
  C      -1.227470     -0.945846      0.342825
  O       0.438266      0.415459      1.609576
  H       3.073181      0.020326      1.632828
  H       3.321794      0.479946     -0.148725
  H      -2.978725      0.175823     -0.234272
  H      -2.195814      0.769756      1.236210
  H      -1.480983      1.100362     -0.333927
  H       0.900842      0.930113     -0.367237
  H       0.623628     -1.651605      1.397947
  H      -1.812632     -1.699836      0.883001
  H      -1.066631     -1.366432     -0.655705
15
Coordinates from ORCA-job freq E -271.030762246424
  C       2.657371      0.350482      0.698157
  C      -2.008776      0.354982      0.231162
  C       1.327808      0.537651      0.559821
  C       0.094510     -0.801459      1.008006
  C      -1.240288     -0.954431      0.355808
  O       0.440056      0.384594      1.625292
  H       3.072183     -0.005026      1.628537
  H       3.317799      0.526703     -0.134773
  H      -2.981283      0.180532     -0.225112
  H      -2.157433      0.810657      1.207221
  H      -1.469940      1.071408     -0.388276
  H       0.892328      0.972268     -0.332995
  H       0.651533     -1.671353      1.333426
  H      -1.832218     -1.678209      0.930373
  H      -1.103671     -1.413132     -0.628635
15
Coordinates from ORCA-job freq E -271.030902446990
  C       2.649704      0.360101      0.697579
  C      -1.993065      0.358472      0.215729
  C       1.317270      0.541280      0.576729
  C       0.097817     -0.817098      1.002260
  C      -1.244855     -0.960054      0.364571
  O       0.442717      0.354119      1.648209
  H       3.075934     -0.018313      1.613932
  H       3.300337      0.564475     -0.136914
  H      -2.971876      0.189676     -0.229198
  H      -2.127462      0.838049      1.182399
  H      -1.448830      1.052449     -0.424395
  H       0.870451      0.999825     -0.297963
  H       0.660057     -1.692798      1.303055
  H      -1.845321     -1.659504      0.960740
  H      -1.122901     -1.445013     -0.608720
15
Coordinates from ORCA-job freq E -271.030966187583
  C       2.652877      0.363112      0.705163
  C      -1.994054      0.358197      0.208108
  C       1.319977      0.544391      0.584471
  C       0.102543     -0.819762      0.984477
  C      -1.250141     -0.961324      0.368411
  O       0.445077      0.340057      1.652386
  H       3.076501     -0.030049      1.616665
  H       3.305665      0.581451     -0.124269
  H      -2.982095      0.185743     -0.214630
  H      -2.108308      0.856952      1.167662
  H      -1.459851      1.036658     -0.456590
  H       0.874657      1.020153     -0.281385
  H       0.667821     -1.698926      1.269709
  H      -1.846796     -1.646705      0.984993
  H      -1.143896     -1.464282     -0.597158
15
Coordinates from ORCA-job freq E -271.031074140528
  C       2.649007      0.368022      0.707483
  C      -1.986369      0.359532      0.197083
  C       1.314648      0.547707      0.597103
  C       0.105717     -0.827810      0.976635
  C      -1.253279     -0.963927      0.373906
  O       0.446919      0.320046      1.666243
  H       3.078114     -0.043438      1.608421
  H       3.296935      0.605664     -0.120602
  H      -2.981762      0.188700     -0.208785
  H      -2.083112      0.878405      1.147901
  H      -1.455239      1.018801     -0.489138
  H       0.864001      1.041831     -0.255325
  H       0.675306     -1.710464      1.242486
  H      -1.851699     -1.632437      1.007542
  H      -1.159208     -1.484967     -0.582938
15
Coordinates from ORCA-job freq E -271.031178896358
  C       2.645091      0.372943      0.709429
  C      -1.978667      0.360790      0.185724
  C       1.309327      0.550702      0.610250
  C       0.108520     -0.835755      0.969730
  C      -1.256304     -0.966248      0.379650
  O       0.449372      0.299463      1.680591
  H       3.080383     -0.056235      1.599176
  H       3.287538      0.629547     -0.117387
  H      -2.980840      0.191969     -0.204043
  H      -2.058734      0.899072      1.127331
  H      -1.450577      1.000736     -0.520862
  H       0.852805      1.062677     -0.228143
  H       0.682664     -1.721592      1.214917
  H      -1.856721     -1.617428      1.029735
  H      -1.173881     -1.504974     -0.568083
15
Coordinates from ORCA-job freq E -271.031291567271
  C       2.641051      0.377840      0.711313
  C      -1.970873      0.361932      0.174055
  C       1.303944      0.553476      0.623959
  C       0.111083     -0.843644      0.963195
  C      -1.259185     -0.968338      0.385271
  O       0.452054      0.278339      1.695093
  H       3.083021     -0.068977      1.589120
  H       3.277579      0.653768     -0.113982
  H      -2.980077      0.195619     -0.198282
  H      -2.032953      0.919826      1.105655
  H      -1.446713      0.981335     -0.553480
  H       0.841173      1.083100     -0.199696
  H       0.689427     -1.732370      1.187647
  H      -1.861276     -1.602074      1.051293
  H      -1.188277     -1.524164     -0.553147
15
Coordinates from ORCA-job freq E -271.031413841372
  C       2.636491      0.383078      0.713021
  C      -1.962366      0.363097      0.162196
  C       1.298059      0.555737      0.637976
  C       0.113371     -0.851996      0.957125
  C      -1.261958     -0.970453      0.390726
  O       0.454770      0.256353      1.709658
  H       3.085591     -0.080635      1.578450
  H       3.266632      0.678742     -0.110445
  H      -2.978875      0.200619     -0.191517
  H      -2.004795      0.940645      1.083003
  H      -1.442671      0.960643     -0.586553
  H       0.828356      1.102299     -0.170367
  H       0.695618     -1.743261      1.160942
  H      -1.865645     -1.586515      1.072090
  H      -1.202599     -1.542685     -0.538291
15
Coordinates from ORCA-job freq E -271.031545241797
  C       2.631755      0.388589      0.714850
  C      -1.953588      0.364196      0.150229
  C       1.292050      0.557454      0.652159
  C       0.115461     -0.860564      0.951162
  C      -1.264670     -0.972446      0.395910
  O       0.457620      0.233743      1.723955
  H       3.088263     -0.091145      1.567664
  H       3.255226      0.704172     -0.106373
  H      -2.977667      0.206605     -0.183302
  H      -1.974623      0.961368      1.059346
  H      -1.439422      0.938805     -0.620020
  H       0.815056      1.120062     -0.140618
  H       0.701216     -1.754065      1.134468
  H      -1.869623     -1.570680      1.092184
  H      -1.217075     -1.560428     -0.523601
15
Coordinates from ORCA-job freq E -271.031684692262
  C       2.626592      0.394412      0.716961
  C      -1.944376      0.365177      0.138300
  C       1.285664      0.558928      0.666341
  C       0.117531     -0.869186      0.944980
  C      -1.267191     -0.974422      0.400805
  O       0.460126      0.210968      1.737601
  H       3.090451     -0.100790      1.556936
  H       3.243374      0.729398     -0.101697
  H      -2.976120      0.213706     -0.173761
  H      -1.942556      0.981468      1.035009
  H      -1.436774      0.916140     -0.653314
  H       0.801289      1.136440     -0.110995
  H       0.706609     -1.764476      1.108249
  H      -1.872859     -1.554625      1.111744
  H      -1.231783     -1.577470     -0.509146
15
Coordinates from ORCA-job freq E -271.031830771398
  C       2.621057      0.400641      0.718775
  C      -1.934529      0.366250      0.126118
  C       1.278933      0.559747      0.680880
  C       0.119389     -0.878324      0.939377
  C      -1.269648     -0.976245      0.405700
  O       0.463051      0.187167      1.751500
  H       3.093049     -0.109184      1.545423
  H       3.230440      0.755345     -0.097171
  H      -2.973577      0.222062     -0.164453
  H      -1.909444      1.001120      1.009629
  H      -1.433905      0.892910     -0.686229
  H       0.786385      1.151431     -0.080425
  H       0.711401     -1.775192      1.082438
  H      -1.876082     -1.538033      1.130860
  H      -1.246542     -1.594027     -0.494409
15
Coordinates from ORCA-job freq E -271.031980566395
  C       2.614951      0.407271      0.720359
  C      -1.923964      0.367307      0.113793
  C       1.271718      0.560286      0.695734
  C       0.121136     -0.887746      0.934124
  C      -1.272008     -0.978037      0.410751
  O       0.466086      0.162731      1.765367
  H       3.095628     -0.116796      1.533023
  H       3.216355      0.781468     -0.092848
  H      -2.969775      0.231679     -0.155927
  H      -1.875856      1.019815      0.983642
  H      -1.430131      0.869252     -0.718123
  H       0.770449      1.165251     -0.049218
  H       0.715973     -1.785766      1.056902
  H      -1.879203     -1.520913      1.149726
  H      -1.261383     -1.610135     -0.479292
15
Coordinates from ORCA-job freq E -271.032123374332
  C       2.608493      0.414156      0.722020
  C      -1.913049      0.368276      0.101450
  C       1.264249      0.560470      0.710644
  C       0.122856     -0.897270      0.928845
  C      -1.274266     -0.979733      0.415828
  O       0.469128      0.137919      1.778784
  H       3.098077     -0.123547      1.520376
  H       3.201654      0.807373     -0.088295
  H      -2.965197      0.242131     -0.147466
  H      -1.841725      1.037597      0.957126
  H      -1.426410      0.845202     -0.749200
  H       0.754079      1.177909     -0.017847
  H       0.720474     -1.795967      1.031404
  H      -1.881942     -1.503253      1.168373
  H      -1.276443     -1.625597     -0.464029
15
Coordinates from ORCA-job freq E -271.032266385381
  C       2.602180      0.420984      0.723758
  C      -1.902426      0.368812      0.089133
  C       1.257036      0.560439      0.725340
  C       0.124649     -0.906290      0.922771
  C      -1.276703     -0.981429      0.421091
  O       0.472441      0.113019      1.791308
  H       3.100498     -0.130158      1.507456
  H       3.187172      0.833094     -0.083134
  H      -2.960113      0.252771     -0.140527
  H      -1.808850      1.053783      0.930470
  H      -1.422364      0.821354     -0.778404
  H       0.738202      1.190189      0.013674
  H       0.724989     -1.805178      1.005575
  H      -1.884154     -1.484645      1.187572
  H      -1.292579     -1.641076     -0.448069
15
Coordinates from ORCA-job freq E -271.032406639026
  C       2.597119      0.427206      0.726312
  C      -1.893553      0.368636      0.077282
  C       1.251179      0.560319      0.738936
  C       0.126791     -0.913972      0.914458
  C      -1.279399     -0.982944      0.426268
  O       0.476053      0.089038      1.801441
  H       3.102744     -0.136988      1.495959
  H       3.175150      0.857677     -0.076039
  H      -2.955973      0.262130     -0.134474
  H      -1.779411      1.067967      0.904412
  H      -1.419922      0.798233     -0.805345
  H       0.724892      1.202286      0.043811
  H       0.729764     -1.812584      0.978772
  H      -1.884858     -1.464828      1.207752
  H      -1.310598     -1.656509     -0.431532
15
Coordinates from ORCA-job freq E -271.032510642696
  C       2.592256      0.433135      0.728541
  C      -1.885041      0.368273      0.065386
  C       1.245646      0.559885      0.752572
  C       0.128897     -0.921348      0.906344
  C      -1.282032     -0.984103      0.431783
  O       0.480247      0.065011      1.811329
  H       3.105417     -0.143672      1.483763
  H       3.163003      0.881575     -0.069204
  H      -2.951261      0.270814     -0.131208
  H      -1.753165      1.080708      0.878859
  H      -1.416696      0.776198     -0.830247
  H       0.711961      1.213751      0.074350
  H       0.734473     -1.819292      0.951784
  H      -1.885126     -1.443907      1.228142
  H      -1.328600     -1.671361     -0.414183
15
Coordinates from ORCA-job freq E -271.032631530190
  C       2.585716      0.441009      0.731734
  C      -1.873714      0.367240      0.048030
  C       1.238251      0.558587      0.772102
  C       0.132249     -0.930984      0.893647
  C      -1.285832     -0.985081      0.440533
  O       0.487181      0.029990      1.824708
  H       3.109430     -0.153811      1.465531
  H       3.146039      0.915487     -0.058380
  H      -2.944117      0.281804     -0.130904
  H      -1.720576      1.097143      0.842443
  H      -1.410900      0.745382     -0.863370
  H       0.694234      1.229461      0.119114
  H       0.741728     -1.827163      0.910568
  H      -1.883579     -1.411071      1.259129
  H      -1.356131     -1.692328     -0.386871
15
Coordinates from ORCA-job freq E -271.032696611454
  C       2.579050      0.450049      0.736251
  C      -1.861561      0.364405      0.024049
  C       1.230651      0.555810      0.798208
  C       0.137207     -0.941414      0.873562
  C      -1.291565     -0.984841      0.454790
  O       0.498894     -0.018344      1.840384
  H       3.115912     -0.169603      1.439460
  H       3.125894      0.959949     -0.041238
  H      -2.935022      0.290952     -0.142225
  H      -1.691602      1.115936      0.795040
  H      -1.399364      0.706372     -0.901780
  H       0.673793      1.250112      0.181537
  H       0.752469     -1.833246      0.848003
  H      -1.877293     -1.360336      1.305555
  H      -1.397485     -1.720135     -0.343581
15
Coordinates from ORCA-job freq E -271.032698403058
  C       2.579161      0.449241      0.734849
  C      -1.862102      0.364729      0.026491
  C       1.230708      0.555773      0.795395
  C       0.136909     -0.940698      0.875905
  C      -1.291242     -0.985019      0.454217
  O       0.498090     -0.013959      1.839286
  H       3.115241     -0.168052      1.440731
  H       3.126775      0.955562     -0.044442
  H      -2.934349      0.289443     -0.146650
  H      -1.698134      1.113038      0.801831
  H      -1.395082      0.712531     -0.894735
  H       0.674633      1.247947      0.175650
  H       0.751968     -1.832789      0.854161
  H      -1.878117     -1.364362      1.302316
  H      -1.394483     -1.717716     -0.346992
15
Coordinates from ORCA-job freq E -271.032698955327
  C       2.578902      0.449515      0.734853
  C      -1.861708      0.364801      0.026268
  C       1.230450      0.555704      0.795718
  C       0.136875     -0.941055      0.875984
  C      -1.291245     -0.985051      0.454215
  O       0.498176     -0.014549      1.839566
  H       3.115260     -0.167869      1.440444
  H       3.126251      0.956270     -0.044347
  H      -2.934178      0.290130     -0.145736
  H      -1.696437      1.113499      0.800970
  H      -1.395342      0.711636     -0.895660
  H       0.674020      1.247932      0.176332
  H       0.751822     -1.833213      0.854105
  H      -1.878291     -1.364298      1.302248
  H      -1.394576     -1.717786     -0.346948
