17
Coordinates from ORCA-job freq E -421.403253190066
  C           2.23021943412333     -0.26070469111483     -0.92271040996355
  C           1.00346156812256     -0.79352773625862     -0.27279518071564
  C          -2.64679091946397      0.27684077782318     -0.27763625848771
  C          -1.43400846715998     -0.41016078555742      0.16007250065409
  C          -0.08329091691521      0.24928372652530      0.04637019864321
  O           1.29387323732455      1.62455209692461      1.27397110968797
  O          -2.03968445629429     -0.72921847601762     -1.07475539006480
  O           0.08840432822104      0.87737288288908      1.30658950624920
  H           2.87472520037152      0.43642101009107     -0.41272818116996
  H           1.84101426131860      1.13848096791912      1.90138246688465
  H           2.47195805141693     -0.52763630773895     -1.93951057075358
  H           1.23547595838650     -1.29839902904735      0.67382315998893
  H           0.54504736008545     -1.53984567260149     -0.92369420479155
  H          -2.56386576349706      1.28493065762075     -0.66653165195375
  H          -3.60129464456863      0.00612786910995      0.15605863732827
  H          -1.51206956259380     -1.18177212210052      0.92102853264972
  H          -0.12049966887752      1.01024983153372     -0.73937526418545
