15
Coordinates from ORCA-job freq E -271.021196598678
  C      -1.066950     -2.189123     -1.212126
  C      -1.484989      2.523766      0.456803
  C      -0.731874      0.280835     -0.902938
  C      -1.658317     -0.790972     -1.386538
  C      -1.021633      1.155719      0.177828
  O      -0.142303      0.397308      0.784538
  H      -0.861253     -2.374064     -0.160823
  H      -1.761986     -2.943804     -1.572001
  H      -0.135195     -2.280798     -1.765562
  H      -2.425344      2.713402     -0.058044
  H      -0.753210      3.264927      0.116620
  H      -1.620361      2.650975      1.528636
  H       0.271706      0.254214     -1.315428
  H      -1.832393     -0.603431     -2.452262
  H      -2.614822     -0.722939     -0.866098
15
Coordinates from ORCA-job freq E -271.022029022628
  C      -1.075603     -2.179087     -1.162986
  C      -1.477608      2.501881      0.489510
  C      -0.748282      0.293724     -0.958234
  C      -1.659828     -0.791352     -1.432998
  C      -1.015010      1.145276      0.146461
  O      -0.108803      0.402412      0.713047
  H      -0.917306     -2.313685     -0.094899
  H      -1.749034     -2.956166     -1.519186
  H      -0.116224     -2.295203     -1.664582
  H      -2.419111      2.719809     -0.011926
  H      -0.745427      3.258557      0.185726
  H      -1.615007      2.580445      1.566654
  H       0.236485      0.323413     -1.414998
  H      -1.792850     -0.659618     -2.512734
  H      -2.635316     -0.694389     -0.956252
15
Coordinates from ORCA-job freq E -271.022391633516
  C      -1.089742     -2.162311     -1.112871
  C      -1.476028      2.470942      0.519031
  C      -0.756013      0.313450     -1.011442
  C      -1.654781     -0.785992     -1.474042
  C      -1.001844      1.131579      0.123158
  O      -0.055852      0.401711      0.634372
  H      -0.980351     -2.248932     -0.033600
  H      -1.749759     -2.953062     -1.465210
  H      -0.108405     -2.303503     -1.563660
  H      -2.420831      2.699050      0.028614
  H      -0.750765      3.244285      0.241340
  H      -1.612106      2.510559      1.598736
  H       0.207474      0.388916     -1.507716
  H      -1.742375     -0.708392     -2.563112
  H      -2.647546     -0.662284     -1.040992
15
Coordinates from ORCA-job freq E -271.022819508819
  C      -1.116509     -2.126985     -1.035411
  C      -1.474120      2.414216      0.561308
  C      -0.761565      0.344270     -1.093241
  C      -1.641160     -0.776872     -1.537580
  C      -0.977884      1.108581      0.084133
  O       0.026116      0.404076      0.508939
  H      -1.088759     -2.135861      0.052525
  H      -1.756037     -2.938040     -1.380272
  H      -0.104452     -2.303393     -1.397698
  H      -2.431257      2.648369      0.098741
  H      -0.768196      3.215568      0.314782
  H      -1.594390      2.394850      1.643772
  H       0.165136      0.487960     -1.641769
  H      -1.659005     -0.785332     -2.631468
  H      -2.656841     -0.615390     -1.174156
15
Coordinates from ORCA-job freq E -271.023035723833
  C      -1.138669     -2.095413     -0.982607
  C      -1.474434      2.368351      0.587885
  C      -0.758806      0.365541     -1.148777
  C      -1.626076     -0.770058     -1.581080
  C      -0.957110      1.092413      0.055031
  O       0.082131      0.408069      0.423449
  H      -1.156600     -2.043173      0.104461
  H      -1.773919     -2.917427     -1.309144
  H      -0.114308     -2.301299     -1.290400
  H      -2.443226      2.597894      0.147965
  H      -0.789111      3.193042      0.361239
  H      -1.578624      2.307594      1.670610
  H       0.141603      0.553677     -1.726466
  H      -1.596963     -0.839953     -2.671532
  H      -2.654812     -0.583241     -1.268029
15
Coordinates from ORCA-job freq E -271.023162569525
  C      -1.155931     -2.073447     -0.948109
  C      -1.474442      2.335386      0.604392
  C      -0.755207      0.379178     -1.183850
  C      -1.613206     -0.766662     -1.608387
  C      -0.940620      1.081543      0.036339
  O       0.122772      0.416518      0.367223
  H      -1.207065     -1.982135      0.135432
  H      -1.788815     -2.901094     -1.264879
  H      -0.124326     -2.298162     -1.215631
  H      -2.453351      2.555887      0.182706
  H      -0.807558      3.177363      0.386607
  H      -1.562653      2.249889      1.686908
  H       0.124553      0.599818     -1.781064
  H      -1.553404     -0.874561     -2.693887
  H      -2.649672     -0.563506     -1.331194
15
Coordinates from ORCA-job freq E -271.023231474214
  C      -1.167869     -2.059207     -0.926031
  C      -1.474615      2.312954      0.614525
  C      -0.752187      0.387659     -1.206021
  C      -1.603262     -0.765551     -1.625111
  C      -0.928270      1.074741      0.024344
  O       0.151029      0.426014      0.331600
  H      -1.237861     -1.941983      0.154105
  H      -1.801630     -2.889370     -1.234348
  H      -0.133405     -2.297941     -1.169140
  H      -2.458730      2.527362      0.202038
  H      -0.819280      3.166107      0.405391
  H      -1.555184      2.210972      1.696270
  H       0.111547      0.631984     -1.816868
  H      -1.525155     -0.896253     -2.706607
  H      -2.644053     -0.551472     -1.371542
15
Coordinates from ORCA-job freq E -271.023267379696
  C      -1.176390     -2.048662     -0.910141
  C      -1.474545      2.296539      0.621764
  C      -0.750577      0.393671     -1.221829
  C      -1.596218     -0.765249     -1.636589
  C      -0.918966      1.070244      0.015426
  O       0.171954      0.434236      0.305101
  H      -1.258805     -1.912603      0.167012
  H      -1.811089     -2.880603     -1.211643
  H      -0.140406     -2.297116     -1.136431
  H      -2.460805      2.508184      0.213096
  H      -0.825834      3.157004      0.422165
  H      -1.552954      2.181479      1.702415
  H       0.100673      0.655154     -1.842884
  H      -1.505051     -0.912300     -2.714692
  H      -2.639911     -0.543961     -1.400164
15
Coordinates from ORCA-job freq E -271.023295030485
  C      -1.189049     -2.033205     -0.887218
  C      -1.474074      2.272356      0.632098
  C      -0.748597      0.402179     -1.244405
  C      -1.585744     -0.765521     -1.652418
  C      -0.904496      1.064448      0.002149
  O       0.203327      0.448663      0.266031
  H      -1.289592     -1.870093      0.184794
  H      -1.825097     -2.867546     -1.179065
  H      -0.151266     -2.295079     -1.088618
  H      -2.462550      2.480718      0.227278
  H      -0.834324      3.143088      0.448721
  H      -1.551302      2.137280      1.710612
  H       0.082837      0.689084     -1.880774
  H      -1.475633     -0.935927     -2.724949
  H      -2.633366     -0.534429     -1.441631
15
Coordinates from ORCA-job freq E -271.023293667916
  C      -1.194053     -2.027541     -0.878168
  C      -1.473418      2.263059      0.636269
  C      -0.748653      0.405485     -1.253174
  C      -1.581850     -0.766241     -1.658029
  C      -0.898069      1.062864     -0.003261
  O       0.216872      0.456246      0.249622
  H      -1.303292     -1.854808      0.191549
  H      -1.829336     -2.863314     -1.167556
  H      -0.155173     -2.293346     -1.068422
  H      -2.461542      2.471719      0.230843
  H      -0.835750      3.137185      0.461970
  H      -1.552857      2.119009      1.713520
  H       0.073574      0.703011     -1.896577
  H      -1.464314     -0.945436     -2.728197
  H      -2.631063     -0.531876     -1.457783
15
Coordinates from ORCA-job freq E -271.023292865055
  C      -1.193976     -2.027872     -0.878474
  C      -1.473422      2.263432      0.636147
  C      -0.748598      0.405338     -1.252819
  C      -1.581908     -0.766292     -1.657765
  C      -0.898104      1.063081     -0.003108
  O       0.216699      0.456342      0.250101
  H      -1.303139     -1.855621      0.191325
  H      -1.829202     -2.863590     -1.168154
  H      -0.155093     -2.293557     -1.068912
  H      -2.461598      2.471976      0.230780
  H      -0.835800      3.137540      0.461616
  H      -1.552786      2.119622      1.713436
  H       0.073713      0.702642     -1.896221
  H      -1.464636     -0.945088     -2.728038
  H      -2.631075     -0.531934     -1.457310
