17
Coordinates from ORCA-job freq E -421.408479268727
  C          -1.58265245547952     -1.40587574259296      0.38184732750443
  C           0.46068488471879     -0.42589943901423     -0.73696891310418
  C           2.80155590527587      0.88861362903222     -0.92606297177102
  C           1.36613220509646      0.74959843972932     -0.80809874664693
  C          -0.76565071635488     -0.15539871648867      0.12472057488472
  O          -2.56986681302849      1.26351925508337      0.21597530960826
  O           2.06040390089335      1.19199591307638      0.27993782132949
  O          -1.51494589546640      0.80475805525506     -0.61247508555271
  H          -1.84625572068939     -1.88142032161454     -0.56358939345283
  H          -2.49753552154825     -1.15207626477999      0.91262435805119
  H          -1.01417783062791     -2.11349784424955      0.98534438341817
  H           1.00471366419650     -1.27618558059700     -0.30641000469968
  H           0.14007010665112     -0.70967618137859     -1.74046851796456
  H           3.22149577297833      1.74929909684221     -1.43060313521350
  H           3.45013296896262      0.02335105412345     -0.83331548781833
  H          -0.45265109322095      0.30085105137770      1.06953748897283
  H          -2.26145236235726      2.14804159619582      0.44418799245470
