17
Coordinates from ORCA-job freq E -421.437812310183
  C           2.36821928815137     -0.09805016784389     -0.90129368973415
  C          -0.69415325067934      0.60612369830808     -0.48861386851977
  C          -2.11291845296106      0.08253055039402     -0.63639097218228
  C           1.53382119591412     -0.56267096086126      0.25606307905701
  C           0.11801244445243     -0.22939010277758      0.46158043677628
  O          -2.72972341671870     -0.68787879408474      1.41102941730242
  O          -2.86032248555542      0.29754791869121      0.57750918383656
  O           0.50931638564028     -1.50918041273264     -0.01338953211298
  H           2.89532752677695      0.82103069255757     -0.64368656274301
  H           3.11220344483037     -0.85597776379250     -1.14664571040526
  H           1.76596402236224      0.07756692768675     -1.78911812665274
  H          -0.72822464561689      1.64119684495939     -0.14203731527162
  H          -0.23931157829257      0.59975114642123     -1.47871151242427
  H          -2.12794629095497     -0.98501958444427     -0.84951251684426
  H          -2.66122109164836      0.63390293988731     -1.39830176708417
  H           2.09908803465323     -0.79420655464469      1.15493718597099
  H          -0.24628413035365     -0.24047137772397      1.48463927103126
