17
Coordinates from ORCA-job freq E -421.395861157585
  C      -2.490612     -0.025452      0.457765
  C       2.436888      0.286444     -0.403268
  C       1.307442     -0.580676      0.148457
  C      -1.127545     -0.036229      1.004969
  C      -0.011079      0.141855      0.016540
  O      -1.359527     -0.555876     -1.688293
  O      -0.342904      1.130841      0.932284
  O      -0.443002      0.404705     -1.273548
  H      -2.175090     -0.418453     -0.834989
  H      -3.166690     -0.761342      0.862462
  H      -2.912575      0.950463      0.261911
  H       2.499576      1.216120      0.156487
  H       2.248463      0.522453     -1.447215
  H       3.383664     -0.241182     -0.323772
  H       1.481895     -0.808165      1.201021
  H       1.238406     -1.514593     -0.413613
  H      -0.917658     -0.684853      1.851487
17
Coordinates from ORCA-job freq E -421.397382894864
  C      -2.491753     -0.005349      0.433086
  C       2.428926      0.307762     -0.406007
  C       1.318012     -0.589042      0.133158
  C      -1.129096     -0.066369      1.001451
  C      -0.014932      0.087607      0.044203
  O      -1.342483     -0.607039     -1.647427
  O      -0.315275      1.107387      0.941499
  O      -0.458555      0.381803     -1.250931
  H      -2.189216     -0.436004     -0.804680
  H      -3.216548     -0.691910      0.853062
  H      -2.863664      0.991447      0.220390
  H       2.484374      1.232226      0.167868
  H       2.244034      0.562310     -1.448327
  H       3.392232     -0.194350     -0.340542
  H       1.499578     -0.841418      1.178363
  H       1.258046     -1.518653     -0.434970
  H      -0.954029     -0.694347      1.868486
17
Coordinates from ORCA-job freq E -421.397420692041
  C      -2.490835      0.007904      0.440165
  C       2.428945      0.324243     -0.383455
  C       1.319422     -0.601800      0.106169
  C      -1.126188     -0.058568      1.001558
  C      -0.016886      0.070232      0.031362
  O      -1.356414     -0.656710     -1.633066
  O      -0.298365      1.109397      0.911137
  O      -0.476668      0.344608     -1.264995
  H      -2.200198     -0.475432     -0.783846
  H      -3.230618     -0.637232      0.899092
  H      -2.837876      1.002682      0.179966
  H       2.468332      1.226443      0.226298
  H       2.257784      0.616857     -1.418440
  H       3.396379     -0.171221     -0.323391
  H       1.493635     -0.899899      1.140490
  H       1.268981     -1.506999     -0.500918
  H      -0.949779     -0.668445      1.880555
17
Coordinates from ORCA-job freq E -421.397444737822
  C      -2.491843      0.004155      0.437852
  C       2.429314      0.319402     -0.391374
  C       1.319760     -0.597476      0.115013
  C      -1.127395     -0.062976      1.001147
  C      -0.016507      0.074265      0.037006
  O      -1.352577     -0.638990     -1.637511
  O      -0.303701      1.107763      0.923209
  O      -0.470145      0.356839     -1.259430
  H      -2.197442     -0.461165     -0.790088
  H      -3.227647     -0.655393      0.882242
  H      -2.845816      1.000894      0.194951
  H       2.470822      1.232339      0.201885
  H       2.256433      0.593591     -1.431074
  H       3.396218     -0.176214     -0.324838
  H       1.496464     -0.882129      1.152789
  H       1.266754     -1.510427     -0.479986
  H      -0.953039     -0.678418      1.876890
17
Coordinates from ORCA-job freq E -421.397439614129
  C      -2.491850      0.003668      0.437596
  C       2.429414      0.319028     -0.391725
  C       1.319522     -0.597093      0.115281
  C      -1.127728     -0.062644      1.001537
  C      -0.016413      0.075200      0.037293
  O      -1.351372     -0.639038     -1.637455
  O      -0.304136      1.108226      0.923633
  O      -0.470293      0.357844     -1.259035
  H      -2.196917     -0.461217     -0.790551
  H      -3.227314     -0.656265      0.881995
  H      -2.846489      1.000138      0.194531
  H       2.472417      1.231506      0.202151
  H       2.255744      0.594083     -1.431063
  H       3.395947     -0.177488     -0.326420
  H       1.496397     -0.881341      1.153135
  H       1.265811     -1.510286     -0.479292
  H      -0.953087     -0.678260      1.877074
17
Coordinates from ORCA-job freq E -421.397420692895
  C      -2.491832      0.003956      0.437712
  C       2.429286      0.319280     -0.391500
  C       1.319680     -0.597402      0.115142
  C      -1.127566     -0.062844      1.001344
  C      -0.016423      0.074580      0.037154
  O      -1.352112     -0.639013     -1.637561
  O      -0.303823      1.107954      0.923265
  O      -0.470062      0.357068     -1.259316
  H      -2.197230     -0.461209     -0.790283
  H      -3.227549     -0.655614      0.882221
  H      -2.846009      1.000587      0.194643
  H       2.471515      1.231881      0.202245
  H       2.255864      0.594083     -1.430947
  H       3.396068     -0.176679     -0.325751
  H       1.496516     -0.881847      1.152945
  H       1.266407     -1.510450     -0.479684
  H      -0.953080     -0.678271      1.877056
17
Coordinates from ORCA-job freq E -421.397436639556
  C      -2.491859      0.003766      0.437660
  C       2.429357      0.319135     -0.391679
  C       1.319600     -0.597206      0.115255
  C      -1.127660     -0.062848      1.001438
  C      -0.016437      0.074917      0.037292
  O      -1.351767     -0.638768     -1.637576
  O      -0.304022      1.108041      0.923609
  O      -0.470139      0.357595     -1.259107
  H      -2.197084     -0.461173     -0.790405
  H      -3.227491     -0.655965      0.882085
  H      -2.846196      1.000339      0.194609
  H       2.471843      1.231877      0.201833
  H       2.255972      0.593709     -1.431191
  H       3.396029     -0.177033     -0.325840
  H       1.496487     -0.881502      1.153103
  H       1.266100     -1.510365     -0.479397
  H      -0.953081     -0.678458      1.876993
