15
Coordinates from ORCA-job freq E -271.052554315707
  C           2.61490521773675      0.25793401150734      0.40183092312532
  C          -2.42756222992898      0.24396348125985     -0.02222550834439
  C           1.42697556339114     -0.60480773630045      0.16601583299716
  C          -1.12035313097667     -0.20339729104436      0.56072969164664
  C           0.16980929401468      0.21009497173420      0.00481544143518
  O          -0.33718636285205      0.79952250719541      1.19370658258662
  H           2.52316562573498      1.12374472572091      1.04085634229691
  H           3.60155811398131     -0.05663987726180      0.09959681294133
  H          -2.81502341173763     -0.50499888454768     -0.71329044802448
  H          -3.16548079153129      0.39404702524288      0.76595098911503
  H          -2.29920758188171      1.18419810418014     -0.55662459817602
  H           1.27355823096610     -1.29112853032582      1.01043515435567
  H           1.57184230852468     -1.22801356361890     -0.71963818222732
  H          -1.13897950496340     -1.14334824870520      1.10677912378787
  H           0.15428065952208      0.87998430496350     -0.85185715751553
