17
Coordinates from ORCA-job freq E -421.381833505361
  C          -2.56418414879629     -0.15894433831832     -0.60970610031225
  C          -1.11868953984877     -0.50425558212878     -0.27819425704842
  C          -0.26343436033274      0.75501373140225     -0.10981213131699
  C           1.14358371775361      0.44145827157040      0.25696298987975
  C           2.05861064503643     -0.68993348475912      0.11347789109403
  O           3.42788245974650      1.04095931397234      0.29634779998197
  O           1.44419130651229     -0.35970778207587      1.34745940997498
  O           3.35612829901533     -0.29256158071179     -0.08051072536235
  H           2.15777091199058      1.26370750414449      0.20243236632967
  H          -3.01218993118899      0.43890216680804      0.18477991300699
  H          -2.62676123953186      0.41502244792920     -1.53506927880649
  H          -3.16514114081999     -1.05901142426993     -0.73190629281623
  H          -0.69311476370113     -1.12236164670012     -1.07215009559230
  H          -1.07023967374768     -1.08884616060824      0.64170275620930
  H          -0.26180184494228      1.33936174106598     -1.03117985036580
  H          -0.68889201214517      1.38805456219924      0.67348025956954
  H           1.87352931500014     -1.68310473951979     -0.26971365442536
