17
Coordinates from ORCA-job freq E -421.381834842912
  C          -2.58303981032029     -0.02886491925819     -0.59083194544972
  C          -1.11935572726265     -0.42469577707778     -0.45069130604389
  C          -0.24836843993190      0.77144829107346     -0.05505371943511
  C           1.19204007174252      0.41553572799326      0.04964786534778
  C           1.97926174079436     -0.79300424729710      0.28971681996198
  O           3.33976134121651      0.82808174552604      0.94214439211396
  O           1.86075754745278     -0.20426673695978     -0.99436802121702
  O           3.12097515196145     -0.54073527805449      1.00512589947140
  H           2.12528416649056      1.13183236091137      0.61833753324574
  H          -2.97059164093152      0.37331130389718      0.34604409665418
  H          -2.70628700948102      0.73563949890041     -1.35869748909171
  H          -3.19687449095837     -0.88483265928116     -0.86779176398407
  H          -0.74675318303817     -0.83678867688675     -1.38963860067466
  H          -1.01689184446848     -1.20726046429339      0.30466227847501
  H          -0.35234640856622      1.56566136595712     -0.79912470858124
  H          -0.57693913594427      1.18052618640536      0.90152671626898
  H           1.65666067124468     -1.81994472155559      0.38375995293842
