15
Coordinates from ORCA-job freq E -271.039910568620
  C       2.271414      0.081268     -0.122259
  C      -0.764137      2.080847      0.120905
  C       1.130847     -0.815710      0.218868
  C      -0.913954      1.095712      1.213420
  C       0.208391     -0.557128      1.157486
  O       0.170346      0.612817      1.910548
  H       2.285943      0.943482      0.539443
  H       2.203034      0.418563     -1.158104
  H       3.213816     -0.456738     -0.017234
  H      -0.954601      3.096362      0.485622
  H      -1.479234      1.883177     -0.678340
  H       0.245644      2.054746     -0.279606
  H       1.060835     -1.749939     -0.317894
  H      -1.892664      0.816840      1.578752
  H      -0.557630     -1.283756      1.410741
15
Coordinates from ORCA-job freq E -271.041997756435
  C       2.284420      0.073108     -0.112641
  C      -0.782999      2.096063      0.108950
  C       1.149968     -0.832915      0.234920
  C      -0.935875      1.111394      1.202527
  C       0.218034     -0.571997      1.158743
  O       0.157288      0.616395      1.888610
  H       2.361773      0.881505      0.610363
  H       2.155694      0.493250     -1.112169
  H       3.222266     -0.483673     -0.114312
  H      -0.960216      3.115185      0.471020
  H      -1.503646      1.904101     -0.686735
  H       0.224375      2.058722     -0.299549
  H       1.092095     -1.778279     -0.285702
  H      -1.912201      0.838713      1.580527
  H      -0.542924     -1.301030      1.417795
15
Coordinates from ORCA-job freq E -271.040625015333
  C       2.289467      0.068351     -0.118204
  C      -0.785265      2.094135      0.120229
  C       1.136980     -0.821383      0.214411
  C      -0.925054      1.103041      1.211060
  C       0.212797     -0.561981      1.149769
  O       0.172361      0.616878      1.900465
  H       2.310941      0.929671      0.545105
  H       2.230998      0.409357     -1.153709
  H       3.229141     -0.476757     -0.009954
  H      -0.976785      3.109118      0.487035
  H      -1.504260      1.895128     -0.674963
  H       0.222006      2.072991     -0.290252
  H       1.057889     -1.753421     -0.327977
  H      -1.900043      0.828988      1.593846
  H      -0.543124     -1.293573      1.415487
15
Coordinates from ORCA-job freq E -271.040030842606
  C       2.292055      0.065255     -0.122340
  C      -0.787481      2.095480      0.128590
  C       1.130037     -0.815967      0.201154
  C      -0.922082      1.097073      1.213744
  C       0.211946     -0.560900      1.143446
  O       0.179859      0.614738      1.904671
  H       2.277929      0.961163      0.493654
  H       2.282785      0.349494     -1.176290
  H       3.229599     -0.464808      0.059714
  H      -0.987077      3.107399      0.499211
  H      -1.503788      1.893714     -0.668386
  H       0.220006      2.083563     -0.283009
  H       1.039396     -1.741278     -0.351584
  H      -1.894302      0.829885      1.608501
  H      -0.540831     -1.294268      1.411271
15
Coordinates from ORCA-job freq E -271.039916640803
  C       2.296451      0.062005     -0.123974
  C      -0.792646      2.098108      0.133910
  C       1.128024     -0.813726      0.191938
  C      -0.923999      1.092866      1.212982
  C       0.212800     -0.563149      1.137301
  O       0.182831      0.612304      1.902244
  H       2.261394      0.979205      0.458940
  H       2.321340      0.309133     -1.186679
  H       3.230450     -0.456498      0.105727
  H      -0.992835      3.108219      0.508609
  H      -1.509769      1.897883     -0.662970
  H       0.213049      2.088952     -0.282268
  H       1.030865     -1.735607     -0.365813
  H      -1.891871      0.838657      1.626501
  H      -0.538034     -1.297809      1.405898
15
Coordinates from ORCA-job freq E -271.040106324932
  C       2.302231      0.059457     -0.123078
  C      -0.799908      2.100189      0.136268
  C       1.129936     -0.813398      0.185652
  C      -0.929695      1.088826      1.209321
  C       0.214519     -0.567400      1.131019
  O       0.182094      0.609500      1.895704
  H       2.255694      0.988686      0.439655
  H       2.349536      0.285341     -1.189478
  H       3.233174     -0.451696      0.135085
  H      -0.990204      3.110007      0.516348
  H      -1.523875      1.907708     -0.656623
  H       0.201346      2.085287     -0.290389
  H       1.030454     -1.734213     -0.373790
  H      -1.891656      0.855147      1.648165
  H      -0.535596     -1.302899      1.398489
15
Coordinates from ORCA-job freq E -271.040197757576
  C       2.293905      0.061950     -0.126521
  C      -0.791003      2.102241      0.136038
  C       1.128805     -0.818665      0.191971
  C      -0.924443      1.095006      1.213317
  C       0.213263     -0.568668      1.136242
  O       0.180592      0.608504      1.900424
  H       2.249389      0.983622      0.448819
  H       2.322412      0.300284     -1.191194
  H       3.229891     -0.448378      0.112642
  H      -0.997968      3.111473      0.509620
  H      -1.501819      1.898834     -0.665667
  H       0.217121      2.096898     -0.274476
  H       1.035612     -1.742114     -0.363901
  H      -1.891888      0.844305      1.629242
  H      -0.535819     -1.304748      1.405791
15
Coordinates from ORCA-job freq E -271.040232353949
  C       2.301391      0.059845     -0.124440
  C      -0.798864      2.100100      0.137148
  C       1.131218     -0.814734      0.186846
  C      -0.931587      1.088219      1.209093
  C       0.214808     -0.568134      1.131198
  O       0.180859      0.608977      1.894950
  H       2.252865      0.990933      0.435326
  H       2.348710      0.283515     -1.191701
  H       3.233349     -0.448266      0.135239
  H      -0.988753      3.110028      0.517881
  H      -1.521548      1.909462     -0.657060
  H       0.203901      2.084842     -0.286677
  H       1.032328     -1.736940     -0.370553
  H      -1.893815      0.855183      1.647324
  H      -0.536811     -1.302486      1.397776
15
Coordinates from ORCA-job freq E -271.039717930729
  C       2.313102      0.052837     -0.122146
  C      -0.811330      2.095688      0.140062
  C       1.134085     -0.803512      0.180749
  C      -0.943623      1.079689      1.204305
  C       0.214532     -0.558142      1.124154
  O       0.185590      0.617656      1.889480
  H       2.283512      0.992727      0.424540
  H       2.380710      0.271781     -1.189584
  H       3.238951     -0.463180      0.147353
  H      -0.996499      3.106451      0.522342
  H      -1.536109      1.910048     -0.653092
  H       0.190399      2.078890     -0.287060
  H       1.013157     -1.724125     -0.376231
  H      -1.897068      0.850244      1.663962
  H      -0.541358     -1.286507      1.393512
15
Coordinates from ORCA-job freq E -271.038769234558
  C       2.318088      0.046957     -0.126487
  C      -0.817836      2.088688      0.144520
  C       1.139625     -0.795008      0.181653
  C      -0.959568      1.071691      1.199530
  C       0.210656     -0.545024      1.122720
  O       0.181072      0.625505      1.894566
  H       2.314687      0.990539      0.417171
  H       2.393005      0.276460     -1.194067
  H       3.248899     -0.468749      0.131031
  H      -0.997991      3.103747      0.520992
  H      -1.536406      1.914529     -0.656974
  H       0.190971      2.063228     -0.266231
  H       1.004087     -1.722289     -0.362911
  H      -1.906009      0.833216      1.664952
  H      -0.555229     -1.262947      1.391880
15
Coordinates from ORCA-job freq E -271.038962521907
  C       2.320582      0.050969     -0.121703
  C      -0.817838      2.091228      0.141820
  C       1.137008     -0.793604      0.176464
  C      -0.953678      1.073169      1.199975
  C       0.214986     -0.555825      1.122863
  O       0.188625      0.621721      1.890270
  H       2.313450      0.993938      0.420452
  H       2.394550      0.270216     -1.189767
  H       3.239380     -0.480204      0.146636
  H      -1.015301      3.099673      0.523983
  H      -1.532834      1.895911     -0.658757
  H       0.186520      2.087708     -0.279479
  H       1.000191     -1.716107     -0.376174
  H      -1.900130      0.860661      1.679809
  H      -0.547460     -1.278910      1.385954
15
Coordinates from ORCA-job freq E -271.038233966972
  C       2.318412      0.057611     -0.122465
  C      -0.810924      2.088159      0.141709
  C       1.133054     -0.786140      0.173377
  C      -0.952016      1.065920      1.196530
  C       0.215718     -0.563048      1.126657
  O       0.192538      0.616843      1.892701
  H       2.314387      1.005851      0.408617
  H       2.393296      0.262188     -1.192955
  H       3.226740     -0.485457      0.157509
  H      -1.035767      3.088297      0.528236
  H      -1.507946      1.872774     -0.670514
  H       0.195991      2.113723     -0.271476
  H       0.988114     -1.707356     -0.380326
  H      -1.897004      0.878329      1.689875
  H      -0.546544     -1.287149      1.384871
15
Coordinates from ORCA-job freq E -271.037299583645
  C       2.309002      0.065685     -0.128853
  C      -0.796421      2.084178      0.143311
  C       1.126861     -0.780834      0.173531
  C      -0.950790      1.052664      1.188702
  C       0.213104     -0.568332      1.133007
  O       0.190356      0.609929      1.898355
  H       2.301645      1.022166      0.386231
  H       2.384078      0.252001     -1.202517
  H       3.213544     -0.476525      0.164456
  H      -1.054264      3.074458      0.533393
  H      -1.464601      1.856126     -0.690011
  H       0.218529      2.139469     -0.245136
  H       0.976559     -1.702513     -0.378700
  H      -1.895844      0.888024      1.690240
  H      -0.543706     -1.295952      1.396336
15
Coordinates from ORCA-job freq E -271.036533217430
  C       2.297478      0.071675     -0.137546
  C      -0.781488      2.082040      0.146535
  C       1.119635     -0.778659      0.173727
  C      -0.948506      1.039911      1.181184
  C       0.209762     -0.571406      1.138859
  O       0.186367      0.603746      1.905062
  H       2.280418      1.037637      0.358982
  H       2.376120      0.237075     -1.214214
  H       3.202156     -0.460737      0.172394
  H      -1.073273      3.062330      0.537160
  H      -1.417673      1.845870     -0.709500
  H       0.242530      2.164087     -0.210844
  H       0.968024     -1.701557     -0.376353
  H      -1.895129      0.893361      1.685943
  H      -0.538372     -1.304830      1.410959
15
Coordinates from ORCA-job freq E -271.035905384977
  C       2.286141      0.075300     -0.146880
  C      -0.768205      2.081832      0.150869
  C       1.112225     -0.778643      0.173079
  C      -0.945012      1.029100      1.175039
  C       0.206345     -0.572986      1.143168
  O       0.182978      0.599201      1.911256
  H       2.255954      1.050944      0.329615
  H       2.371901      0.218213     -1.226016
  H       3.192132     -0.442728      0.182564
  H      -1.093906      3.051840      0.539596
  H      -1.371994      1.839431     -0.726760
  H       0.263965      2.188984     -0.173881
  H       0.961529     -1.702957     -0.374742
  H      -1.893931      0.895581      1.679834
  H      -0.532072     -1.312570      1.425607
15
Coordinates from ORCA-job freq E -271.035349208573
  C       2.276372      0.076750     -0.155747
  C      -0.757559      2.082687      0.155770
  C       1.104785     -0.779226      0.171186
  C      -0.940204      1.020428      1.171026
  C       0.202779     -0.572745      1.145627
  O       0.181903      0.596363      1.916310
  H       2.232326      1.061782      0.299936
  H       2.372856      0.196648     -1.236550
  H       3.183037     -0.425378      0.195418
  H      -1.116175      3.042356      0.540437
  H      -1.330209      1.834364     -0.740983
  H       0.280918      2.213793     -0.137616
  H       0.955143     -1.704503     -0.374965
  H      -1.891431      0.894938      1.674327
  H      -0.526489     -1.317714      1.438170
15
Coordinates from ORCA-job freq E -271.034855985700
  C       2.269032      0.076026     -0.163713
  C      -0.750162      2.084264      0.161002
  C       1.097534     -0.779696      0.167948
  C      -0.934316      1.013952      1.169396
  C       0.198954     -0.570343      1.146059
  O       0.183604      0.595387      1.919999
  H       2.212107      1.069886      0.270951
  H       2.379410      0.173121     -1.245232
  H       3.174953     -0.410310      0.210632
  H      -1.140118      3.033690      0.539871
  H      -1.293813      1.829668     -0.751988
  H       0.292608      2.238362     -0.103656
  H       0.948243     -1.705357     -0.377205
  H      -1.887408      0.891349      1.670560
  H      -0.522578     -1.319455      1.447723
15
Coordinates from ORCA-job freq E -271.034465746037
  C       2.263278      0.073936     -0.170940
  C      -0.744895      2.086213      0.166463
  C       1.090571     -0.780303      0.163920
  C      -0.927407      1.009402      1.169934
  C       0.194694     -0.566267      1.144849
  O       0.187476      0.595625      1.922778
  H       2.193771      1.076195      0.242276
  H       2.389677      0.148374     -1.252248
  H       3.167537     -0.395962      0.227551
  H      -1.163773      3.025799      0.538306
  H      -1.262010      1.825424     -0.760143
  H       0.300616      2.261677     -0.072185
  H       0.941517     -1.706134     -0.380486
  H      -1.882142      0.884796      1.668029
  H      -0.520861     -1.318232      1.454243
15
Coordinates from ORCA-job freq E -271.034197269505
  C       2.257997      0.071408     -0.177592
  C      -0.740388      2.088103      0.172027
  C       1.083883     -0.781335      0.159638
  C      -0.919521      1.006370      1.172274
  C       0.189764     -0.561116      1.142426
  O       0.192789      0.596341      1.925186
  H       2.175203      1.081611      0.213614
  H       2.401528      0.123418     -1.257820
  H       3.160319     -0.380446      0.245380
  H      -1.185156      3.018644      0.535933
  H      -1.233444      1.821596     -0.766004
  H       0.306848      2.282539     -0.043004
  H       0.935611     -1.707404     -0.383961
  H      -1.875870      0.875618      1.666111
  H      -0.521514     -1.314804      1.458140
15
Coordinates from ORCA-job freq E -271.034036718899
  C       2.252620      0.069134     -0.183628
  C      -0.735799      2.089310      0.177455
  C       1.077297     -0.782599      0.155353
  C      -0.910772      1.004421      1.176218
  C       0.183824     -0.555059      1.139061
  O       0.199007      0.597100      1.927818
  H       2.155841      1.086599      0.185485
  H       2.413588      0.099626     -1.261976
  H       3.153066     -0.363093      0.263174
  H      -1.203049      3.012033      0.532527
  H      -1.207254      1.817543     -0.770095
  H       0.312546      2.299756     -0.016205
  H       0.930371     -1.708924     -0.387473
  H      -1.868684      0.864321      1.664737
  H      -0.524555     -1.309625      1.459895
15
Coordinates from ORCA-job freq E -271.033973223927
  C       2.246731      0.067662     -0.188802
  C      -0.730567      2.089190      0.182368
  C       1.070562     -0.783818      0.151153
  C      -0.901020      1.003223      1.181715
  C       0.176472     -0.547956      1.134835
  O       0.205928      0.597670      1.931122
  H       2.135507      1.091256      0.159385
  H       2.424569      0.078790     -1.264626
  H       3.145669     -0.343972      0.279937
  H      -1.216489      3.005811      0.527658
  H      -1.183158      1.812398     -0.772825
  H       0.318602      2.312127      0.007644
  H       0.925610     -1.710279     -0.391172
  H      -1.860387      0.851260      1.664022
  H      -0.529980     -1.302819      1.459933
15
Coordinates from ORCA-job freq E -271.034020229535
  C       2.240029      0.067436     -0.192823
  C      -0.724356      2.087448      0.186388
  C       1.063749     -0.785301      0.147337
  C      -0.890137      1.003034      1.189025
  C       0.167021     -0.539680      1.129430
  O       0.213078      0.597677      1.935284
  H       2.113517      1.095444      0.137468
  H       2.433058      0.063071     -1.265861
  H       3.138530     -0.322898      0.294490
  H      -1.223277      3.000822      0.521319
  H      -1.162649      1.806067     -0.773997
  H       0.325809      2.317528      0.026791
  H       0.922690     -1.712122     -0.394438
  H      -1.850925      0.836613      1.663831
  H      -0.538088     -1.294597      1.458102
15
Coordinates from ORCA-job freq E -271.034201020870
  C       2.233337      0.068972     -0.193977
  C      -0.718334      2.084635      0.188117
  C       1.059025     -0.788877      0.145419
  C      -0.879193      1.005987      1.198485
  C       0.155164     -0.531544      1.121675
  O       0.218976      0.596126      1.938816
  H       2.090747      1.097486      0.128761
  H       2.435106      0.059525     -1.265229
  H       3.134601     -0.302328      0.302603
  H      -1.216259      3.001480      0.514928
  H      -1.155712      1.800698     -0.771670
  H       0.333676      2.309448      0.032140
  H       0.927479     -1.717401     -0.394648
  H      -1.841281      0.822861      1.664518
  H      -0.549283     -1.286525      1.452409
15
Coordinates from ORCA-job freq E -271.034314038250
  C       2.235863      0.069076     -0.190418
  C      -0.721882      2.086547      0.185910
  C       1.063955     -0.793040      0.148455
  C      -0.880791      1.011188      1.199918
  C       0.154002     -0.533741      1.117744
  O       0.217506      0.594369      1.934779
  H       2.093647      1.093484      0.144828
  H       2.429260      0.071127     -1.263380
  H       3.140848     -0.307041      0.295387
  H      -1.203666      3.010297      0.517808
  H      -1.176628      1.805606     -0.766535
  H       0.330358      2.298279      0.014195
  H       0.939796     -1.724096     -0.388963
  H      -1.842417      0.826852      1.666395
  H      -0.551802     -1.288364      1.446224
15
Coordinates from ORCA-job freq E -271.034452472622
  C       2.238876      0.067504     -0.186369
  C      -0.725640      2.079915      0.183907
  C       1.061962     -0.788810      0.145733
  C      -0.873743      1.013386      1.208129
  C       0.142584     -0.519825      1.107746
  O       0.226433      0.598349      1.938495
  H       2.105421      1.088633      0.162232
  H       2.430390      0.083975     -1.259697
  H       3.146215     -0.315711      0.289973
  H      -1.204330      3.008006      0.508282
  H      -1.185949      1.792045     -0.763634
  H       0.326354      2.287641      0.006482
  H       0.937533     -1.720123     -0.390785
  H      -1.831736      0.817953      1.677668
  H      -0.566320     -1.272396      1.434186
15
Coordinates from ORCA-job freq E -271.034599457096
  C       2.239836      0.071070     -0.180142
  C      -0.726330      2.074666      0.177966
  C       1.064517     -0.787674      0.149629
  C      -0.873185      1.015915      1.209915
  C       0.138812     -0.517437      1.105225
  O       0.225578      0.598156      1.939626
  H       2.117432      1.082937      0.198655
  H       2.412315      0.115804     -1.256164
  H       3.153577     -0.329737      0.268669
  H      -1.187942      3.011350      0.502666
  H      -1.204012      1.785860     -0.760488
  H       0.325845      2.267278     -0.016338
  H       0.944231     -1.719899     -0.386455
  H      -1.830437      0.821723      1.681521
  H      -0.572187     -1.269468      1.428061
15
Coordinates from ORCA-job freq E -271.034762389525
  C       2.240578      0.074646     -0.174449
  C      -0.726425      2.069357      0.171744
  C       1.066815     -0.786141      0.154051
  C      -0.873772      1.017234      1.210017
  C       0.136252     -0.515347      1.104902
  O       0.223394      0.599043      1.941165
  H       2.131645      1.075399      0.236553
  H       2.391932      0.150161     -1.252250
  H       3.160598     -0.344831      0.243316
  H      -1.172268      3.013717      0.496536
  H      -1.219150      1.780706     -0.758835
  H       0.325640      2.247676     -0.036747
  H       0.949448     -1.718843     -0.381985
  H      -1.831014      0.825068      1.682533
  H      -0.575622     -1.267303      1.425797
15
Coordinates from ORCA-job freq E -271.035045832737
  C       2.240045      0.081770     -0.166445
  C      -0.724442      2.060476      0.162142
  C       1.069670     -0.783314      0.160633
  C      -0.875768      1.017917      1.208995
  C       0.133685     -0.513926      1.106600
  O       0.218259      0.599834      1.944258
  H       2.150093      1.064066      0.291096
  H       2.360633      0.203283     -1.244474
  H       3.168143     -0.362402      0.204995
  H      -1.140927      3.017772      0.488585
  H      -1.243038      1.776051     -0.755446
  H       0.327119      2.211966     -0.069601
  H       0.957530     -1.717025     -0.374996
  H      -1.834195      0.830399      1.681082
  H      -0.578756     -1.266325      1.424924
15
Coordinates from ORCA-job freq E -271.035483301835
  C       2.239009      0.093379     -0.154598
  C      -0.720947      2.046986      0.147771
  C       1.073950     -0.778722      0.170204
  C      -0.880616      1.017585      1.205755
  C       0.131589     -0.513433      1.110994
  O       0.208948      0.601293      1.948572
  H       2.177116      1.045701      0.366703
  H       2.316760      0.280857     -1.227833
  H       3.175851     -0.382105      0.149056
  H      -1.084824      3.024141      0.479184
  H      -1.283211      1.776158     -0.747713
  H       0.327305      2.151380     -0.122358
  H       0.968960     -1.713278     -0.365677
  H      -1.841691      0.837988      1.675544
  H      -0.580149     -1.267388      1.426744
15
Coordinates from ORCA-job freq E -271.035746201167
  C       2.238259      0.100684     -0.147269
  C      -0.718709      2.039090      0.138523
  C       1.077050     -0.776466      0.176974
  C      -0.884845      1.016632      1.201880
  C       0.131497     -0.513956      1.115265
  O       0.201938      0.603161      1.950606
  H       2.195941      1.031818      0.413085
  H       2.287781      0.330442     -1.214319
  H       3.179390     -0.392444      0.110803
  H      -1.046922      3.027584      0.474165
  H      -1.308663      1.780976     -0.742626
  H       0.325833      2.112258     -0.155537
  H       0.976595     -1.711821     -0.358502
  H      -1.848107      0.841829      1.668950
  H      -0.578989     -1.269244      1.430348
15
Coordinates from ORCA-job freq E -271.035925885137
  C       2.236957      0.105622     -0.142874
  C      -0.716381      2.034389      0.132672
  C       1.079405     -0.775897      0.182396
  C      -0.888067      1.015323      1.198160
  C       0.131906     -0.514973      1.119104
  O       0.196442      0.604530      1.951974
  H       2.207166      1.022954      0.440833
  H       2.267046      0.361870     -1.204817
  H       3.181004     -0.396649      0.084521
  H      -1.021044      3.029365      0.471757
  H      -1.323165      1.786777     -0.739890
  H       0.325449      2.087181     -0.175377
  H       0.981987     -1.711914     -0.352500
  H      -1.853265      0.843295      1.662212
  H      -0.577389     -1.271329      1.434177
15
Coordinates from ORCA-job freq E -271.036098708045
  C       2.235359      0.110399     -0.138802
  C      -0.713797      2.030288      0.127114
  C       1.082037     -0.775945      0.188354
  C      -0.891543      1.013547      1.193600
  C       0.132625     -0.516366      1.123424
  O       0.190541      0.606019      1.953149
  H       2.217638      1.014463      0.465918
  H       2.245998      0.391410     -1.195068
  H       3.182109     -0.399144      0.058385
  H      -0.994901      3.030842      0.470522
  H      -1.336545      1.794761     -0.737369
  H       0.324965      2.063217     -0.194032
  H       0.987738     -1.712882     -0.345475
  H      -1.858909      0.843836      1.653930
  H      -0.575265     -1.273902      1.438696
15
Coordinates from ORCA-job freq E -271.036337068349
  C       2.233029      0.117146     -0.132858
  C      -0.710134      2.024981      0.119052
  C       1.086376     -0.776634      0.197713
  C      -0.896872      1.010474      1.185839
  C       0.134003     -0.518746      1.130094
  O       0.181569      0.608405      1.954329
  H       2.233188      1.001829      0.500340
  H       2.214938      0.432966     -1.179495
  H       3.182919     -0.401108      0.019981
  H      -0.955507      3.032438      0.470191
  H      -1.356191      1.809629     -0.733288
  H       0.322987      2.028942     -0.221637
  H       0.996844     -1.715226     -0.333990
  H      -1.867542      0.843628      1.640163
  H      -0.571558     -1.278180      1.445912
15
Coordinates from ORCA-job freq E -271.036633988881
  C       2.229667      0.126487     -0.124380
  C      -0.705105      2.018272      0.107564
  C       1.093390     -0.778420      0.212177
  C      -0.904812      1.005146      1.172855
  C       0.136182     -0.522277      1.139896
  O       0.168076      0.612247      1.955139
  H       2.256369      0.983128      0.546006
  H       2.170033      0.490184     -1.154316
  H       3.182210     -0.400745     -0.035609
  H      -0.895921      3.033089      0.472020
  H      -1.384768      1.836736     -0.725942
  H       0.317231      1.980311     -0.262658
  H       1.011499     -1.720243     -0.314931
  H      -1.880349      0.841238      1.617644
  H      -0.565652     -1.284611      1.456881
15
Coordinates from ORCA-job freq E -271.036911324893
  C       2.226795      0.136826     -0.113600
  C      -0.700960      2.012812      0.092596
  C       1.105688     -0.782808      0.234396
  C      -0.917665      0.995508      1.149701
  C       0.139878     -0.526725      1.153153
  O       0.147395      0.619519      1.953142
  H       2.292509      0.956325      0.599628
  H       2.111030      0.560832     -1.115966
  H       3.178989     -0.397024     -0.111723
  H      -0.809881      3.030861      0.482147
  H      -1.427334      1.889608     -0.711077
  H       0.300327      1.918514     -0.322658
  H       1.036703     -1.732239     -0.280572
  H      -1.899801      0.832014      1.579770
  H      -0.555622     -1.293479      1.473410
15
Coordinates from ORCA-job freq E -271.037030001016
  C       2.231232      0.137819     -0.106779
  C      -0.706450      2.015542      0.084060
  C       1.116993     -0.787155      0.249765
  C      -0.927864      0.987559      1.129275
  C       0.142722     -0.527207      1.158754
  O       0.133856      0.627849      1.946288
  H       2.323472      0.937188      0.626418
  H       2.085023      0.594051     -1.091027
  H       3.179718     -0.399730     -0.154017
  H      -0.754968      3.028470      0.499153
  H      -1.467524      1.941292     -0.692488
  H       0.273875      1.889002     -0.370502
  H       1.058119     -1.745062     -0.250395
  H      -1.912995      0.818080      1.550146
  H      -0.547158     -1.297154      1.483697
15
Coordinates from ORCA-job freq E -271.037101501926
  C       2.233978      0.137133     -0.104662
  C      -0.710990      2.020108      0.081643
  C       1.123378     -0.790380      0.257421
  C      -0.932462      0.982739      1.117256
  C       0.144519     -0.527810      1.160222
  O       0.127139      0.631428      1.940743
  H       2.331008      0.935140      0.629451
  H       2.079774      0.596683     -1.085985
  H       3.182166     -0.399590     -0.160817
  H      -0.723233      3.026442      0.515139
  H      -1.492401      1.976795     -0.676500
  H       0.254961      1.878450     -0.399272
  H       1.071843     -1.754176     -0.232178
  H      -1.918905      0.806998      1.532708
  H      -0.542724     -1.299416      1.487178
15
Coordinates from ORCA-job freq E -271.037178857679
  C       2.234941      0.139207     -0.101403
  C      -0.714746      2.025152      0.078441
  C       1.132310     -0.794784      0.268766
  C      -0.937742      0.974598      1.099763
  C       0.145870     -0.529883      1.161841
  O       0.116913      0.633936      1.933805
  H       2.329153      0.941929      0.628024
  H       2.073649      0.593664     -1.083879
  H       3.186355     -0.391481     -0.158001
  H      -0.659541      3.018207      0.538765
  H      -1.529918      2.035963     -0.643868
  H       0.222200      1.854770     -0.449842
  H       1.092738     -1.766054     -0.207007
  H      -1.926260      0.789412      1.506435
  H      -0.537873     -1.304090      1.490508
15
Coordinates from ORCA-job freq E -271.037246084026
  C       2.234281      0.143095     -0.098274
  C      -0.715479      2.026076      0.076246
  C       1.137241     -0.796303      0.274629
  C      -0.940322      0.968766      1.089975
  C       0.145170     -0.531814      1.161746
  O       0.110819      0.633414      1.930722
  H       2.318040      0.953773      0.623585
  H       2.074694      0.586339     -1.086068
  H       3.190406     -0.380327     -0.143615
  H      -0.603778      3.007431      0.551124
  H      -1.555965      2.078987     -0.614007
  H       0.193977      1.830847     -0.490876
  H       1.104913     -1.770386     -0.195967
  H      -1.929790      0.778635      1.492125
  H      -0.536157     -1.307990      1.491003
15
Coordinates from ORCA-job freq E -271.037323335191
  C       2.231590      0.150203     -0.094444
  C      -0.713565      2.024693      0.074212
  C       1.140958     -0.796467      0.278652
  C      -0.942856      0.962309      1.081771
  C       0.144348     -0.535761      1.161941
  O       0.104172      0.630132      1.929111
  H       2.293816      0.974866      0.613510
  H       2.081328      0.572021     -1.092919
  H       3.195025     -0.361575     -0.114738
  H      -0.531200      2.989746      0.560071
  H      -1.581517      2.128590     -0.574597
  H       0.157872      1.797914     -0.539880
  H       1.116009     -1.771377     -0.190772
  H      -1.933467      0.769623      1.479817
  H      -0.534462     -1.314372      1.490611
15
Coordinates from ORCA-job freq E -271.037394662411
  C       2.227435      0.159511     -0.090450
  C      -0.709184      2.019915      0.072615
  C       1.141727     -0.794147      0.278890
  C      -0.944481      0.956444      1.078061
  C       0.142823     -0.539700      1.161815
  O       0.098792      0.624965      1.930394
  H       2.261027      1.000744      0.599540
  H       2.094613      0.554551     -1.102149
  H       3.198716     -0.338046     -0.075891
  H      -0.454425      2.966711      0.561286
  H      -1.600657      2.175084     -0.532366
  H       0.118950      1.759809     -0.587380
  H       1.122547     -1.767684     -0.193725
  H      -1.936193      0.763378      1.472893
  H      -0.533640     -1.320994      1.488813
15
Coordinates from ORCA-job freq E -271.037443231279
  C       2.222880      0.169104     -0.087184
  C      -0.703894      2.013680      0.071787
  C       1.140074     -0.790329      0.275606
  C      -0.945602      0.952173      1.078499
  C       0.141994     -0.543919      1.161875
  O       0.095020      0.618703      1.933371
  H       2.224679      1.027657      0.581675
  H       2.113829      0.534521     -1.112632
  H       3.200473     -0.313588     -0.031579
  H      -0.385457      2.942384      0.557070
  H      -1.612064      2.214020     -0.493620
  H       0.082319      1.723900     -0.626856
  H       1.124532     -1.760862     -0.203307
  H      -1.938369      0.761030      1.471200
  H      -0.532365     -1.327930      1.486440
15
Coordinates from ORCA-job freq E -271.037477576299
  C       2.220232      0.176213     -0.084579
  C      -0.700400      2.007687      0.071378
  C       1.136951     -0.785810      0.269987
  C      -0.945799      0.950357      1.082234
  C       0.141571     -0.546524      1.161288
  O       0.094195      0.613678      1.936560
  H       2.197285      1.047689      0.566747
  H       2.134677      0.518324     -1.120097
  H       3.200547     -0.296046      0.006428
  H      -0.339172      2.923966      0.549624
  H      -1.618235      2.237531     -0.466493
  H       0.054704      1.696696     -0.652579
  H       1.121777     -1.752541     -0.216534
  H      -1.938965      0.761989      1.474891
  H      -0.531320     -1.332667      1.483492
15
Coordinates from ORCA-job freq E -271.037500085814
  C       2.219309      0.180403     -0.082950
  C      -0.698938      2.003234      0.071468
  C       1.133737     -0.781892      0.264047
  C      -0.945585      0.950073      1.086750
  C       0.141659     -0.547921      1.160445
  O       0.094998      0.610354      1.938925
  H       2.179341      1.061056      0.554980
  H       2.153678      0.505557     -1.125216
  H       3.200015     -0.285406      0.035691
  H      -0.313267      2.912902      0.542935
  H      -1.621970      2.249236     -0.450159
  H       0.037030      1.679131     -0.666654
  H       1.117070     -1.745074     -0.229417
  H      -1.938590      0.764373      1.480805
  H      -0.530436     -1.335483      1.480697
15
Coordinates from ORCA-job freq E -271.037517583700
  C       2.219378      0.182024     -0.082359
  C      -0.698848      2.000690      0.072053
  C       1.131132     -0.779205      0.259114
  C      -0.945025      0.950408      1.090522
  C       0.141763     -0.548182      1.159375
  O       0.096631      0.608701      1.940296
  H       2.169056      1.068773      0.546287
  H       2.168221      0.496017     -1.128705
  H       3.199520     -0.280088      0.055444
  H      -0.303121      2.908370      0.538919
  H      -1.624221      2.252554     -0.442554
  H       0.028723      1.670280     -0.671776
  H       1.112441     -1.739822     -0.239207
  H      -1.937507      0.766432      1.486549
  H      -0.530092     -1.336407      1.478392
15
Coordinates from ORCA-job freq E -271.037530198940
  C       2.219742      0.182380     -0.082621
  C      -0.699256      1.999305      0.073341
  C       1.128639     -0.777178      0.254256
  C      -0.944152      0.950916      1.094082
  C       0.141949     -0.548115      1.158095
  O       0.098885      0.607522      1.941220
  H       2.160000      1.075337      0.536332
  H       2.182575      0.485103     -1.132753
  H       3.198964     -0.276138      0.073806
  H      -0.300368      2.907208      0.537077
  H      -1.625818      2.252124     -0.438627
  H       0.025205      1.666047     -0.672362
  H       1.107570     -1.735594     -0.248152
  H      -1.935933      0.768239      1.492427
  H      -0.529952     -1.336614      1.476227
15
Coordinates from ORCA-job freq E -271.037540334782
  C       2.220657      0.181333     -0.083734
  C      -0.700414      1.999508      0.075361
  C       1.126627     -0.776041      0.249824
  C      -0.943225      0.951654      1.097126
  C       0.142382     -0.547981      1.156639
  O       0.101636      0.606743      1.941363
  H       2.152543      1.080715      0.524944
  H       2.196597      0.472314     -1.137449
  H       3.198572     -0.273898      0.090466
  H      -0.305343      2.909656      0.538024
  H      -1.627147      2.248451     -0.438199
  H       0.026211      1.667398     -0.668762
  H       1.102944     -1.732781     -0.255629
  H      -1.934152      0.769845      1.498026
  H      -0.529838     -1.336374      1.474346
15
Coordinates from ORCA-job freq E -271.037549307003
  C       2.221931      0.179032     -0.085684
  C      -0.702090      2.001205      0.078114
  C       1.125138     -0.775831      0.245982
  C      -0.942189      0.952679      1.099686
  C       0.143015     -0.547777      1.155029
  O       0.104812      0.606332      1.940764
  H       2.146500      1.084918      0.512350
  H       2.209638      0.457893     -1.142771
  H       3.198323     -0.273126      0.104993
  H      -0.317781      2.915542      0.541727
  H      -1.627857      2.241489     -0.441328
  H       0.031923      1.674106     -0.660891
  H       1.098756     -1.731476     -0.261402
  H      -1.932138      0.771177      1.503167
  H      -0.529933     -1.335620      1.472613
15
Coordinates from ORCA-job freq E -271.037557794650
  C       2.223439      0.175860     -0.088157
  C      -0.704044      2.003792      0.081257
  C       1.124034     -0.776273      0.242728
  C      -0.940967      0.953996      1.102033
  C       0.143499     -0.547274      1.153175
  O       0.108347      0.606282      1.939765
  H       2.142443      1.087584      0.500169
  H       2.220851      0.443609     -1.148088
  H       3.198234     -0.273892      0.116348
  H      -0.336438      2.924020      0.546974
  H      -1.627591      2.231250     -0.447844
  H       0.041650      1.684694     -0.649379
  H       1.094938     -1.731292     -0.265705
  H      -1.929845      0.772359      1.508193
  H      -0.530500     -1.334171      1.470878
15
Coordinates from ORCA-job freq E -271.037576243638
  C       2.225037      0.172502     -0.090371
  C      -0.706012      2.006573      0.083834
  C       1.123571     -0.777193      0.240772
  C      -0.939918      0.955437      1.103697
  C       0.143854     -0.546596      1.151589
  O       0.111427      0.606737      1.938549
  H       2.142196      1.087492      0.492517
  H       2.227230      0.433859     -1.151855
  H       3.198569     -0.276837      0.121100
  H      -0.357474      2.933081      0.551946
  H      -1.626451      2.219733     -0.456586
  H       0.052889      1.696658     -0.636876
  H       1.092170     -1.732052     -0.267856
  H      -1.927809      0.773581      1.512241
  H      -0.531229     -1.332433      1.469647
15
Coordinates from ORCA-job freq E -271.037571959726
  C       2.227038      0.167691     -0.093424
  C      -0.708427      2.010408      0.086998
  C       1.123166     -0.778802      0.238998
  C      -0.938482      0.957649      1.105720
  C       0.144292     -0.545468      1.149826
  O       0.115360      0.607809      1.936932
  H       2.145127      1.084793      0.486187
  H       2.231336      0.424884     -1.155901
  H       3.199236     -0.283038      0.121263
  H      -0.390407      2.946444      0.558195
  H      -1.622723      2.201017     -0.472003
  H       0.071332      1.714855     -0.616963
  H       1.088788     -1.733713     -0.269340
  H      -1.925125      0.775687      1.517398
  H      -0.532460     -1.329674      1.468461
15
Coordinates from ORCA-job freq E -271.037587276787
  C       2.228340      0.164929     -0.094634
  C      -0.709862      2.012283      0.087930
  C       1.123250     -0.779780      0.238900
  C      -0.937921      0.959140      1.106580
  C       0.144508     -0.544576      1.149298
  O       0.117159      0.608965      1.936089
  H       2.151186      1.080225      0.488445
  H       2.228992      0.425746     -1.156273
  H       3.200080     -0.289298      0.114489
  H      -0.410786      2.954086      0.560187
  H      -1.619725      2.188843     -0.482893
  H       0.082620      1.725321     -0.605064
  H       1.087324     -1.734895     -0.268982
  H      -1.923967      0.777373      1.519892
  H      -0.533148     -1.327820      1.468383
15
Coordinates from ORCA-job freq E -271.037584965619
  C       2.230428      0.160114     -0.096469
  C      -0.712111      2.015152      0.088812
  C       1.123482     -0.781594      0.239522
  C      -0.937089      0.961859      1.107741
  C       0.144854     -0.542759      1.148998
  O       0.119802      0.611584      1.934786
  H       2.165527      1.069219      0.497704
  H       2.220151      0.433134     -1.155121
  H       3.201609     -0.302480      0.095753
  H      -0.448720      2.967278      0.561973
  H      -1.612365      2.165498     -0.504431
  H       0.103868      1.744247     -0.582596
  H       1.085162     -1.737272     -0.267141
  H      -1.922196      0.780879      1.523828
  H      -0.534354     -1.324316      1.468989
15
Coordinates from ORCA-job freq E -271.037593048084
  C       2.230697      0.159264     -0.096355
  C      -0.712343      2.015405      0.088024
  C       1.123808     -0.782194      0.240674
  C      -0.937190      0.962571      1.107467
  C       0.145082     -0.542439      1.149736
  O       0.119710      0.612580      1.934557
  H       2.172444      1.063787      0.505469
  H       2.213091      0.440996     -1.152678
  H       3.201961     -0.307452      0.084652
  H      -0.457631      2.970050      0.560918
  H      -1.609829      2.159459     -0.511010
  H       0.109445      1.748127     -0.577604
  H       1.085387     -1.738166     -0.265429
  H      -1.922318      0.782278      1.523845
  H      -0.534264     -1.323723      1.470082
15
Coordinates from ORCA-job freq E -271.037601575715
  C       2.230892      0.158197     -0.095675
  C      -0.712436      2.015250      0.085971
  C       1.124441     -0.783151      0.243211
  C      -0.937539      0.963600      1.106521
  C       0.145317     -0.541727      1.151369
  O       0.119136      0.614678      1.934221
  H       2.186362      1.052719      0.522135
  H       2.198151      0.458570     -1.146633
  H       3.202262     -0.316455      0.061664
  H      -0.471264      2.973933      0.557950
  H      -1.605182      2.149497     -0.522405
  H       0.118567      1.753232     -0.570053
  H       1.086195     -1.739738     -0.261716
  H      -1.922780      0.784609      1.523270
  H      -0.534073     -1.322672      1.472517
15
Coordinates from ORCA-job freq E -271.037605530225
  C       2.230702      0.158533     -0.095277
  C      -0.712229      2.015049      0.085308
  C       1.124753     -0.783344      0.244008
  C      -0.937931      0.963428      1.105775
  C       0.145441     -0.541957      1.151954
  O       0.118409      0.614921      1.934094
  H       2.188156      1.051284      0.525221
  H       2.195180      0.462117     -1.145245
  H       3.202240     -0.317045      0.057916
  H      -0.469395      2.973237      0.557407
  H      -1.605268      2.150672     -0.522321
  H       0.117922      1.752174     -0.571442
  H       1.087096     -1.740166     -0.260519
  H      -1.923345      0.784693      1.522233
  H      -0.533683     -1.323053      1.473236
15
Coordinates from ORCA-job freq E -271.037603088772
  C       2.230520      0.158964     -0.094989
  C      -0.712078      2.014859      0.085010
  C       1.124900     -0.783347      0.244269
  C      -0.938176      0.963164      1.105317
  C       0.145487     -0.542202      1.152154
  O       0.117958      0.614865      1.933985
  H       2.187684      1.051600      0.525656
  H       2.194802      0.462711     -1.144904
  H       3.202218     -0.316330      0.058053
  H      -0.465854      2.972090      0.557280
  H      -1.606069      2.153015     -0.520628
  H       0.116034      1.750429     -0.573742
  H       1.087701     -1.740240     -0.260143
  H      -1.923678      0.784456      1.521560
  H      -0.533399     -1.323491      1.473469
15
Coordinates from ORCA-job freq E -271.037602169530
  C       2.230361      0.159338     -0.094748
  C      -0.711949      2.014674      0.084779
  C       1.124997     -0.783320      0.244430
  C      -0.938344      0.962929      1.104979
  C       0.145487     -0.542372      1.152272
  O       0.117618      0.614803      1.933927
  H       2.187085      1.051993      0.525848
  H       2.194697      0.462999     -1.144688
  H       3.202200     -0.315607      0.058490
  H      -0.462724      2.971065      0.557148
  H      -1.606782      2.155034     -0.519081
  H       0.114339      1.748855     -0.575741
  H       1.088174     -1.740245     -0.259948
  H      -1.923905      0.784228      1.521077
  H      -0.533203     -1.323831      1.473603
15
Coordinates from ORCA-job freq E -271.037603355376
  C       2.230312      0.159571     -0.094540
  C      -0.711941      2.014581      0.084577
  C       1.125112     -0.783321      0.244586
  C      -0.938516      0.962751      1.104662
  C       0.145516     -0.542491      1.152371
  O       0.117339      0.614816      1.933826
  H       2.186858      1.052143      0.526157
  H       2.194568      0.463336     -1.144446
  H       3.202235     -0.315220      0.058638
  H      -0.460427      2.970314      0.557051
  H      -1.607426      2.156621     -0.517903
  H       0.112950      1.747749     -0.577309
  H       1.088590     -1.740286     -0.259730
  H      -1.924106      0.784056      1.520696
  H      -0.533015     -1.324077      1.473712
15
Coordinates from ORCA-job freq E -271.037605061220
  C       2.230223      0.159832     -0.094333
  C      -0.711863      2.014417      0.084352
  C       1.125200     -0.783294      0.244778
  C      -0.938656      0.962588      1.104399
  C       0.145511     -0.542574      1.152497
  O       0.117066      0.614819      1.933799
  H       2.186817      1.052195      0.526677
  H       2.194173      0.463957     -1.144125
  H       3.202237     -0.314905      0.058425
  H      -0.458374      2.969597      0.556867
  H      -1.607873      2.157905     -0.516993
  H       0.111853      1.746646     -0.578654
  H       1.088928     -1.740282     -0.259516
  H      -1.924289      0.783911      1.520339
  H      -0.532902     -1.324266      1.473835
15
Coordinates from ORCA-job freq E -271.037606709017
  C       2.230108      0.160102     -0.094135
  C      -0.711767      2.014254      0.084159
  C       1.125255     -0.783266      0.244900
  C      -0.938746      0.962433      1.104192
  C       0.145494     -0.542676      1.152580
  O       0.116858      0.614773      1.933784
  H       2.186513      1.052394      0.526967
  H       2.193994      0.464322     -1.143898
  H       3.202210     -0.314469      0.058579
  H      -0.456278      2.968882      0.556693
  H      -1.608331      2.159189     -0.516002
  H       0.110718      1.745548     -0.580022
  H       1.089228     -1.740256     -0.259411
  H      -1.924414      0.783788      1.520049
  H      -0.532792     -1.324475      1.473913
15
Coordinates from ORCA-job freq E -271.037606301582
  C       2.230014      0.160328     -0.093986
  C      -0.711695      2.014155      0.084016
  C       1.125331     -0.783263      0.245019
  C      -0.938865      0.962287      1.103970
  C       0.145517     -0.542802      1.152667
  O       0.116631      0.614726      1.933738
  H       2.186162      1.052637      0.527068
  H       2.193912      0.464482     -1.143763
  H       3.202203     -0.314028      0.058834
  H      -0.454348      2.968240      0.556624
  H      -1.608768      2.160472     -0.515030
  H       0.109646      1.744622     -0.581274
  H       1.089548     -1.740274     -0.259257
  H      -1.924570      0.783655      1.519735
  H      -0.532667     -1.324696      1.473986
15
Coordinates from ORCA-job freq E -271.037606356696
  C       2.229908      0.160564     -0.093866
  C      -0.711610      2.014053      0.083922
  C       1.125387     -0.783248      0.245077
  C      -0.938965      0.962150      1.103802
  C       0.145527     -0.542933      1.152711
  O       0.116439      0.614637      1.933707
  H       2.185553      1.053053      0.526894
  H       2.194068      0.464355     -1.143756
  H       3.202189     -0.313446      0.059458
  H      -0.452348      2.967586      0.556580
  H      -1.609205      2.161774     -0.513978
  H       0.108549      1.743649     -0.582494
  H       1.089828     -1.740262     -0.259201
  H      -1.924706      0.783531      1.519489
  H      -0.532565     -1.324918      1.474002
15
Coordinates from ORCA-job freq E -271.037606223538
  C       2.229870      0.160713     -0.093746
  C      -0.711583      2.013964      0.083808
  C       1.125431     -0.783229      0.245146
  C      -0.939044      0.962057      1.103666
  C       0.145508     -0.542979      1.152744
  O       0.116298      0.614626      1.933679
  H       2.185406      1.053153      0.527074
  H       2.193999      0.464566     -1.143618
  H       3.202206     -0.313193      0.059551
  H      -0.451052      2.967139      0.556478
  H      -1.609526      2.162602     -0.513341
  H       0.107801      1.742963     -0.583340
  H       1.090037     -1.740262     -0.259119
  H      -1.924799      0.783454      1.519329
  H      -0.532500     -1.325032      1.474038
15
Coordinates from ORCA-job freq E -271.037605324919
  C       2.229835      0.160788     -0.093634
  C      -0.711566      2.013911      0.083656
  C       1.125494     -0.783263      0.245296
  C      -0.939112      0.961994      1.103497
  C       0.145522     -0.543006      1.152835
  O       0.116172      0.614690      1.933630
  H       2.185690      1.052897      0.527690
  H       2.193487      0.465225     -1.143324
  H       3.202214     -0.313256      0.058944
  H      -0.450458      2.966920      0.556344
  H      -1.609640      2.162977     -0.513183
  H       0.107493      1.742641     -0.583789
  H       1.090223     -1.740313     -0.258933
  H      -1.924880      0.783441      1.519158
  H      -0.532424     -1.325103      1.474160
15
Coordinates from ORCA-job freq E -271.037604703122
  C       2.229802      0.160874     -0.093553
  C      -0.711541      2.013866      0.083546
  C       1.125553     -0.783287      0.245428
  C      -0.939200      0.961930      1.103341
  C       0.145540     -0.543050      1.152926
  O       0.116023      0.614725      1.933594
  H       2.185849      1.052790      0.528067
  H       2.193128      0.465668     -1.143127
  H       3.202223     -0.313222      0.058546
  H      -0.449778      2.966670      0.556282
  H      -1.609758      2.163442     -0.512946
  H       0.107150      1.742292     -0.584235
  H       1.090410     -1.740371     -0.258749
  H      -1.924988      0.783400      1.518963
  H      -0.532364     -1.325185      1.474262
15
Coordinates from ORCA-job freq E -271.037605286837
  C       2.229777      0.160979     -0.093482
  C      -0.711527      2.013828      0.083488
  C       1.125590     -0.783277      0.245467
  C      -0.939260      0.961863      1.103247
  C       0.145548     -0.543108      1.152948
  O       0.115923      0.614693      1.933566
  H       2.185637      1.052955      0.528037
  H       2.193190      0.465643     -1.143096
  H       3.202236     -0.312992      0.058796
  H      -0.448810      2.966344      0.556258
  H      -1.610008      2.164097     -0.512420
  H       0.106566      1.741835     -0.584870
  H       1.090561     -1.740366     -0.258697
  H      -1.925063      0.783340      1.518842
  H      -0.532308     -1.325292      1.474264
15
Coordinates from ORCA-job freq E -271.037602674764
  C       2.229765      0.161055     -0.093397
  C      -0.711521      2.013770      0.083407
  C       1.125623     -0.783267      0.245519
  C      -0.939302      0.961822      1.103176
  C       0.145538     -0.543119      1.152965
  O       0.115854      0.614700      1.933549
  H       2.185645      1.052943      0.528251
  H       2.193087      0.465868     -1.142965
  H       3.202246     -0.312907      0.058741
  H      -0.448127      2.966109      0.556156
  H      -1.610189      2.164515     -0.512095
  H       0.106147      1.741445     -0.585345
  H       1.090662     -1.740352     -0.258659
  H      -1.925109      0.783297      1.518757
  H      -0.532271     -1.325336      1.474289
15
Coordinates from ORCA-job freq E -271.037606860057
  C       2.229689      0.161168     -0.093322
  C      -0.711446      2.013687      0.083321
  C       1.125631     -0.783260      0.245573
  C      -0.939310      0.961775      1.103117
  C       0.145531     -0.543157      1.153009
  O       0.115791      0.614677      1.933560
  H       2.185558      1.052965      0.528453
  H       2.192878      0.466121     -1.142843
  H       3.202208     -0.312761      0.058661
  H      -0.447466      2.965871      0.556053
  H      -1.610259      2.164843     -0.511858
  H       0.105875      1.741061     -0.585742
  H       1.090756     -1.740330     -0.258629
  H      -1.925138      0.783297      1.518677
  H      -0.532247     -1.325413      1.474317
15
Coordinates from ORCA-job freq E -271.037600812839
  C       2.229634      0.161245     -0.093277
  C      -0.711398      2.013652      0.083270
  C       1.125652     -0.783275      0.245626
  C      -0.939338      0.961729      1.103044
  C       0.145531     -0.543199      1.153049
  O       0.115719      0.614664      1.933559
  H       2.185454      1.053003      0.528552
  H       2.192742      0.466256     -1.142778
  H       3.202198     -0.312614      0.058629
  H      -0.446915      2.965688      0.556009
  H      -1.610324      2.165188     -0.511634
  H       0.105626      1.740780     -0.586061
  H       1.090858     -1.740354     -0.258576
  H      -1.925181      0.783269      1.518569
  H      -0.532208     -1.325488      1.474365
15
Coordinates from ORCA-job freq E -271.037609065906
  C       2.229628      0.161303     -0.093227
  C      -0.711397      2.013623      0.083232
  C       1.125676     -0.783264      0.245643
  C      -0.939368      0.961687      1.102989
  C       0.145526     -0.543219      1.153050
  O       0.115673      0.614653      1.933542
  H       2.185337      1.053093      0.528549
  H       2.192801      0.466248     -1.142753
  H       3.202212     -0.312487      0.058788
  H      -0.446317      2.965480      0.555985
  H      -1.610498      2.165589     -0.511290
  H       0.105239      1.740496     -0.586473
  H       1.090944     -1.740344     -0.258547
  H      -1.925220      0.783214      1.518497
  H      -0.532186     -1.325529      1.474362
15
Coordinates from ORCA-job freq E -271.037598048646
  C       2.229640      0.161347     -0.093200
  C      -0.711417      2.013622      0.083225
  C       1.125703     -0.783252      0.245658
  C      -0.939421      0.961644      1.102928
  C       0.145538     -0.543251      1.153056
  O       0.115603      0.614640      1.933522
  H       2.185189      1.053252      0.528394
  H       2.192971      0.466085     -1.142788
  H       3.202237     -0.312339      0.059070
  H      -0.445745      2.965295      0.556017
  H      -1.610691      2.166037     -0.510919
  H       0.104839      1.740251     -0.586851
  H       1.091023     -1.740344     -0.258530
  H      -1.925271      0.783148      1.518410
  H      -0.532147     -1.325592      1.474356
15
Coordinates from ORCA-job freq E -271.037611531061
  C       2.229608      0.161404     -0.093187
  C      -0.711394      2.013616      0.083226
  C       1.125719     -0.783250      0.245661
  C      -0.939446      0.961604      1.102888
  C       0.145546     -0.543293      1.153063
  O       0.115543      0.614601      1.933513
  H       2.184921      1.053438      0.528202
  H       2.193103      0.465888     -1.142849
  H       3.202233     -0.312126      0.059392
  H      -0.445179      2.965123      0.556048
  H      -1.610815      2.166442     -0.510583
  H       0.104523      1.740011     -0.587183
  H       1.091113     -1.740340     -0.258527
  H      -1.925311      0.783090      1.518334
  H      -0.532113     -1.325665      1.474349
15
Coordinates from ORCA-job freq E -271.037610251176
  C       2.229543      0.161506     -0.093151
  C      -0.711338      2.013560      0.083217
  C       1.125703     -0.783232      0.245623
  C      -0.939426      0.961560      1.102891
  C       0.145527     -0.543338      1.153041
  O       0.115541      0.614527      1.933534
  H       2.184494      1.053718      0.527961
  H       2.193330      0.465646     -1.142921
  H       3.202206     -0.311804      0.059906
  H      -0.444437      2.964879      0.556021
  H      -1.610962      2.166869     -0.510160
  H       0.104130      1.739636     -0.587618
  H       1.091152     -1.740303     -0.258615
  H      -1.925296      0.783051      1.518322
  H      -0.532117     -1.325732      1.474297
15
Coordinates from ORCA-job freq E -271.037602898358
  C       2.229533      0.161472     -0.093116
  C      -0.711324      2.013546      0.083102
  C       1.125745     -0.783288      0.245790
  C      -0.939468      0.961579      1.102798
  C       0.145549     -0.543317      1.153157
  O       0.115466      0.614637      1.933513
  H       2.185204      1.053157      0.528804
  H       2.192518      0.466571     -1.142588
  H       3.202202     -0.312207      0.058685
  H      -0.444986      2.965029      0.555900
  H      -1.610735      2.166474     -0.510700
  H       0.104563      1.739834     -0.587304
  H       1.091227     -1.740391     -0.258377
  H      -1.925348      0.783139      1.518240
  H      -0.532097     -1.325692      1.474442
15
Coordinates from ORCA-job freq E -271.037604939598
  C       2.229532      0.161477     -0.093104
  C      -0.711332      2.013565      0.083086
  C       1.125763     -0.783314      0.245811
  C      -0.939485      0.961572      1.102753
  C       0.145570     -0.543347      1.153175
  O       0.115447      0.614644      1.933477
  H       2.185191      1.053151      0.528836
  H       2.192486      0.466587     -1.142571
  H       3.202208     -0.312197      0.058673
  H      -0.444888      2.964994      0.555923
  H      -1.610771      2.166575     -0.510642
  H       0.104483      1.739831     -0.587395
  H       1.091274     -1.740419     -0.258356
  H      -1.925363      0.783154      1.518205
  H      -0.532066     -1.325729      1.474475
15
Coordinates from ORCA-job freq E -271.037604111122
  C       2.229536      0.161492     -0.093096
  C      -0.711335      2.013550      0.083087
  C       1.125758     -0.783294      0.245798
  C      -0.939491      0.961556      1.102750
  C       0.145552     -0.543335      1.153160
  O       0.115439      0.614642      1.933486
  H       2.185136      1.053211      0.528773
  H       2.192574      0.466520     -1.142591
  H       3.202209     -0.312150      0.058797
  H      -0.444715      2.964932      0.555925
  H      -1.610829      2.166681     -0.510532
  H       0.104369      1.739732     -0.587501
  H       1.091280     -1.740391     -0.258381
  H      -1.925368      0.783125      1.518205
  H      -0.532065     -1.325729      1.474466
