17
* (null), Energy   -1000.0000000
C    -2.338302   -0.845985    0.583733   -0.004178    0.024206   -0.003153
C     2.603266    0.113208   -0.201709   -0.000309   -0.000145    0.000109
C    -1.183676    0.034058    0.961904    0.024735   -0.108582    0.038034
C     1.414130   -0.396561    0.548843   -0.000833    0.002601    0.001835
C     0.047977   -0.127482    0.103546   -0.004987    0.016701   -0.023911
O    -0.806790    1.776756   -0.569569   -0.062406   -0.000855    0.081604
O     0.589108   -1.367832   -0.139756   -0.003629   -0.002232    0.004870
O    -0.193128    0.620819   -1.062770    0.024952   -0.037191   -0.006842
H    -1.348392    1.219036    0.412257    0.504846    1.271372   -1.438685
H    -3.242040   -0.569954    1.123249   -0.009558   -0.014589    0.005883
H    -2.528492   -0.792201   -0.487939    0.008350   -0.007328   -0.006402
H    -2.101003   -1.885958    0.826122    0.035467    0.012408    0.009344
H     3.008815    0.991398    0.300569   -0.000961   -0.000695    0.001297
H     2.319786    0.387437   -1.215214   -0.007847    0.002492    0.003857
H     3.380696   -0.649169   -0.241504   -0.000551   -0.001066    0.000824
H    -1.004849    0.165728    2.025007   -0.052038    0.161395    0.004170
H     1.560949   -0.640395    1.596708    0.002443   -0.007556    0.001911
17
* Frequency(6) -2104.4845
C    -2.338777   -0.843234    0.583375   -0.004178    0.024206   -0.003153
C     2.603231    0.113192   -0.201696   -0.000309   -0.000145    0.000109
C    -1.180865    0.021719    0.966226    0.024735   -0.108582    0.038034
C     1.414035   -0.396266    0.549051   -0.000833    0.002601    0.001835
C     0.047411   -0.125584    0.100828   -0.004987    0.016701   -0.023911
O    -0.813883    1.776658   -0.560295   -0.062406   -0.000855    0.081604
O     0.588695   -1.368085   -0.139202   -0.003629   -0.002232    0.004870
O    -0.190292    0.616593   -1.063547    0.024952   -0.037191   -0.006842
H    -1.291019    1.363521    0.248758    0.504846    1.271372   -1.438685
H    -3.243127   -0.571612    1.123917   -0.009558   -0.014589    0.005883
H    -2.527543   -0.793034   -0.488667    0.008350   -0.007328   -0.006402
H    -2.096972   -1.884548    0.827184    0.035467    0.012408    0.009344
H     3.008706    0.991319    0.300717   -0.000961   -0.000695    0.001297
H     2.318895    0.387721   -1.214776   -0.007847    0.002492    0.003857
H     3.380634   -0.649291   -0.241410   -0.000551   -0.001066    0.000824
H    -1.010763    0.184070    2.025481   -0.052038    0.161395    0.004170
H     1.561226   -0.641253    1.596926    0.002443   -0.007556    0.001911
17
* Frequency(6) -2104.4845
C    -2.339200   -0.840781    0.583055   -0.004178    0.024206   -0.003153
C     2.603200    0.113177   -0.201685   -0.000309   -0.000145    0.000109
C    -1.178358    0.010716    0.970080    0.024735   -0.108582    0.038034
C     1.413951   -0.396002    0.549237   -0.000833    0.002601    0.001835
C     0.046905   -0.123892    0.098406   -0.004987    0.016701   -0.023911
O    -0.820206    1.776572   -0.552026   -0.062406   -0.000855    0.081604
O     0.588327   -1.368312   -0.138709   -0.003629   -0.002232    0.004870
O    -0.187764    0.612824   -1.064241    0.024952   -0.037191   -0.006842
H    -1.239863    1.492348    0.102976    0.504846    1.271372   -1.438685
H    -3.244095   -0.573090    1.124513   -0.009558   -0.014589    0.005883
H    -2.526697   -0.793776   -0.489315    0.008350   -0.007328   -0.006402
H    -2.093378   -1.883290    0.828130    0.035467    0.012408    0.009344
H     3.008608    0.991248    0.300848   -0.000961   -0.000695    0.001297
H     2.318100    0.387973   -1.214385   -0.007847    0.002492    0.003857
H     3.380578   -0.649399   -0.241327   -0.000551   -0.001066    0.000824
H    -1.016036    0.200424    2.025903   -0.052038    0.161395    0.004170
H     1.561474   -0.642019    1.597119    0.002443   -0.007556    0.001911
17
* Frequency(6) -2104.4845
C    -2.339526   -0.838892    0.582809   -0.004178    0.024206   -0.003153
C     2.603176    0.113166   -0.201677   -0.000309   -0.000145    0.000109
C    -1.176428    0.002243    0.973048    0.024735   -0.108582    0.038034
C     1.413886   -0.395799    0.549381   -0.000833    0.002601    0.001835
C     0.046516   -0.122588    0.096540   -0.004987    0.016701   -0.023911
O    -0.825076    1.776505   -0.545658   -0.062406   -0.000855    0.081604
O     0.588044   -1.368486   -0.138329   -0.003629   -0.002232    0.004870
O    -0.185816    0.609922   -1.064774    0.024952   -0.037191   -0.006842
H    -1.200468    1.591558   -0.009290    0.504846    1.271372   -1.438685
H    -3.244841   -0.574228    1.124972   -0.009558   -0.014589    0.005883
H    -2.526046   -0.794348   -0.489815    0.008350   -0.007328   -0.006402
H    -2.090611   -1.882322    0.828860    0.035467    0.012408    0.009344
H     3.008533    0.991194    0.300949   -0.000961   -0.000695    0.001297
H     2.317487    0.388168   -1.214084   -0.007847    0.002492    0.003857
H     3.380535   -0.649482   -0.241263   -0.000551   -0.001066    0.000824
H    -1.020097    0.213018    2.026228   -0.052038    0.161395    0.004170
H     1.561664   -0.642609    1.597269    0.002443   -0.007556    0.001911
17
* Frequency(6) -2104.4845
C    -2.339720   -0.837772    0.582663   -0.004178    0.024206   -0.003153
C     2.603161    0.113159   -0.201672   -0.000309   -0.000145    0.000109
C    -1.175284   -0.002783    0.974808    0.024735   -0.108582    0.038034
C     1.413847   -0.395679    0.549466   -0.000833    0.002601    0.001835
C     0.046285   -0.121815    0.095433   -0.004987    0.016701   -0.023911
O    -0.827964    1.776465   -0.541881   -0.062406   -0.000855    0.081604
O     0.587876   -1.368589   -0.138103   -0.003629   -0.002232    0.004870
O    -0.184662    0.608201   -1.065091    0.024952   -0.037191   -0.006842
H    -1.177103    1.650400   -0.075875    0.504846    1.271372   -1.438685
H    -3.245283   -0.574903    1.125245   -0.009558   -0.014589    0.005883
H    -2.525659   -0.794687   -0.490111    0.008350   -0.007328   -0.006402
H    -2.088969   -1.881748    0.829292    0.035467    0.012408    0.009344
H     3.008489    0.991162    0.301009   -0.000961   -0.000695    0.001297
H     2.317124    0.388283   -1.213905   -0.007847    0.002492    0.003857
H     3.380509   -0.649531   -0.241224   -0.000551   -0.001066    0.000824
H    -1.022505    0.220488    2.026421   -0.052038    0.161395    0.004170
H     1.561777   -0.642959    1.597357    0.002443   -0.007556    0.001911
17
* Frequency(6) -2104.4845
C    -2.339759   -0.837542    0.582633   -0.004178    0.024206   -0.003153
C     2.603158    0.113158   -0.201671   -0.000309   -0.000145    0.000109
C    -1.175048   -0.003816    0.975170    0.024735   -0.108582    0.038034
C     1.413839   -0.395654    0.549483   -0.000833    0.002601    0.001835
C     0.046238   -0.121657    0.095206   -0.004987    0.016701   -0.023911
O    -0.828558    1.776457   -0.541105   -0.062406   -0.000855    0.081604
O     0.587842   -1.368610   -0.138057   -0.003629   -0.002232    0.004870
O    -0.184424    0.607847   -1.065156    0.024952   -0.037191   -0.006842
H    -1.172300    1.662496   -0.089563    0.504846    1.271372   -1.438685
H    -3.245374   -0.575042    1.125301   -0.009558   -0.014589    0.005883
H    -2.525580   -0.794757   -0.490172    0.008350   -0.007328   -0.006402
H    -2.088632   -1.881630    0.829381    0.035467    0.012408    0.009344
H     3.008480    0.991155    0.301022   -0.000961   -0.000695    0.001297
H     2.317049    0.388307   -1.213868   -0.007847    0.002492    0.003857
H     3.380504   -0.649541   -0.241217   -0.000551   -0.001066    0.000824
H    -1.023001    0.222023    2.026461   -0.052038    0.161395    0.004170
H     1.561801   -0.643030    1.597375    0.002443   -0.007556    0.001911
17
* Frequency(6) -2104.4845
C    -2.339641   -0.838226    0.582723   -0.004178    0.024206   -0.003153
C     2.603167    0.113162   -0.201674   -0.000309   -0.000145    0.000109
C    -1.175748   -0.000745    0.974094    0.024735   -0.108582    0.038034
C     1.413863   -0.395728    0.549431   -0.000833    0.002601    0.001835
C     0.046379   -0.122129    0.095882   -0.004987    0.016701   -0.023911
O    -0.826793    1.776481   -0.543413   -0.062406   -0.000855    0.081604
O     0.587944   -1.368547   -0.138195   -0.003629   -0.002232    0.004870
O    -0.185130    0.608899   -1.064963    0.024952   -0.037191   -0.006842
H    -1.186579    1.626537   -0.048872    0.504846    1.271372   -1.438685
H    -3.245104   -0.574630    1.125134   -0.009558   -0.014589    0.005883
H    -2.525816   -0.794550   -0.489991    0.008350   -0.007328   -0.006402
H    -2.089635   -1.881981    0.829117    0.035467    0.012408    0.009344
H     3.008507    0.991175    0.300985   -0.000961   -0.000695    0.001297
H     2.317271    0.388236   -1.213978   -0.007847    0.002492    0.003857
H     3.380520   -0.649511   -0.241240   -0.000551   -0.001066    0.000824
H    -1.021529    0.217458    2.026343   -0.052038    0.161395    0.004170
H     1.561732   -0.642817    1.597321    0.002443   -0.007556    0.001911
17
* Frequency(6) -2104.4845
C    -2.339378   -0.839752    0.582921   -0.004178    0.024206   -0.003153
C     2.603187    0.113171   -0.201681   -0.000309   -0.000145    0.000109
C    -1.177306    0.006098    0.971698    0.024735   -0.108582    0.038034
C     1.413915   -0.395892    0.549315   -0.000833    0.002601    0.001835
C     0.046693   -0.123181    0.097389   -0.004987    0.016701   -0.023911
O    -0.822860    1.776535   -0.548555   -0.062406   -0.000855    0.081604
O     0.588173   -1.368406   -0.138502   -0.003629   -0.002232    0.004870
O    -0.186702    0.611242   -1.064532    0.024952   -0.037191   -0.006842
H    -1.218393    1.546418    0.041791    0.504846    1.271372   -1.438685
H    -3.244502   -0.573710    1.124763   -0.009558   -0.014589    0.005883
H    -2.526342   -0.794088   -0.489588    0.008350   -0.007328   -0.006402
H    -2.091870   -1.882763    0.828528    0.035467    0.012408    0.009344
H     3.008567    0.991219    0.300903   -0.000961   -0.000695    0.001297
H     2.317766    0.388079   -1.214221   -0.007847    0.002492    0.003857
H     3.380554   -0.649444   -0.241292   -0.000551   -0.001066    0.000824
H    -1.018249    0.207288    2.026080   -0.052038    0.161395    0.004170
H     1.561578   -0.642341    1.597201    0.002443   -0.007556    0.001911
17
* Frequency(6) -2104.4845
C    -2.338998   -0.841952    0.583208   -0.004178    0.024206   -0.003153
C     2.603215    0.113184   -0.201690   -0.000309   -0.000145    0.000109
C    -1.179555    0.015971    0.968240    0.024735   -0.108582    0.038034
C     1.413991   -0.396128    0.549149   -0.000833    0.002601    0.001835
C     0.047147   -0.124700    0.099563   -0.004987    0.016701   -0.023911
O    -0.817186    1.776613   -0.555975   -0.062406   -0.000855    0.081604
O     0.588503   -1.368204   -0.138944   -0.003629   -0.002232    0.004870
O    -0.188971    0.614624   -1.063909    0.024952   -0.037191   -0.006842
H    -1.264294    1.430823    0.172598    0.504846    1.271372   -1.438685
H    -3.243633   -0.572384    1.124229   -0.009558   -0.014589    0.005883
H    -2.527101   -0.793422   -0.489006    0.008350   -0.007328   -0.006402
H    -2.095095   -1.883891    0.827678    0.035467    0.012408    0.009344
H     3.008655    0.991282    0.300785   -0.000961   -0.000695    0.001297
H     2.318479    0.387853   -1.214571   -0.007847    0.002492    0.003857
H     3.380605   -0.649347   -0.241367   -0.000551   -0.001066    0.000824
H    -1.013518    0.192613    2.025701   -0.052038    0.161395    0.004170
H     1.561356   -0.641653    1.597027    0.002443   -0.007556    0.001911
17
* Frequency(6) -2104.4845
C    -2.338543   -0.844590    0.583551   -0.004178    0.024206   -0.003153
C     2.603248    0.113200   -0.201702   -0.000309   -0.000145    0.000109
C    -1.182251    0.027803    0.964095    0.024735   -0.108582    0.038034
C     1.414082   -0.396412    0.548949   -0.000833    0.002601    0.001835
C     0.047690   -0.126520    0.102168   -0.004987    0.016701   -0.023911
O    -0.810385    1.776706   -0.564868   -0.062406   -0.000855    0.081604
O     0.588898   -1.367960   -0.139475   -0.003629   -0.002232    0.004870
O    -0.191690    0.618677   -1.063164    0.024952   -0.037191   -0.006842
H    -1.319309    1.292277    0.329377    0.504846    1.271372   -1.438685
H    -3.242591   -0.570794    1.123587   -0.009558   -0.014589    0.005883
H    -2.528011   -0.792623   -0.488308    0.008350   -0.007328   -0.006402
H    -2.098960   -1.885243    0.826660    0.035467    0.012408    0.009344
H     3.008760    0.991358    0.300644   -0.000961   -0.000695    0.001297
H     2.319334    0.387581   -1.214992   -0.007847    0.002492    0.003857
H     3.380665   -0.649231   -0.241457   -0.000551   -0.001066    0.000824
H    -1.007847    0.175026    2.025247   -0.052038    0.161395    0.004170
H     1.561089   -0.640830    1.596819    0.002443   -0.007556    0.001911
17
* Frequency(6) -2104.4845
C    -2.338061   -0.847379    0.583915   -0.004178    0.024206   -0.003153
C     2.603284    0.113217   -0.201715   -0.000309   -0.000145    0.000109
C    -1.185101    0.040314    0.959713    0.024735   -0.108582    0.038034
C     1.414178   -0.396711    0.548737   -0.000833    0.002601    0.001835
C     0.048265   -0.128444    0.104923   -0.004987    0.016701   -0.023911
O    -0.803195    1.776805   -0.574270   -0.062406   -0.000855    0.081604
O     0.589317   -1.367703   -0.140036   -0.003629   -0.002232    0.004870
O    -0.194565    0.622962   -1.062376    0.024952   -0.037191   -0.006842
H    -1.377476    1.145794    0.495137    0.504846    1.271372   -1.438685
H    -3.241490   -0.569113    1.122910   -0.009558   -0.014589    0.005883
H    -2.528973   -0.791779   -0.487570    0.008350   -0.007328   -0.006402
H    -2.103046   -1.886672    0.825583    0.035467    0.012408    0.009344
H     3.008870    0.991438    0.300495   -0.000961   -0.000695    0.001297
H     2.320238    0.387294   -1.215436   -0.007847    0.002492    0.003857
H     3.380728   -0.649108   -0.241552   -0.000551   -0.001066    0.000824
H    -1.001852    0.156430    2.024766   -0.052038    0.161395    0.004170
H     1.560808   -0.639959    1.596598    0.002443   -0.007556    0.001911
17
* Frequency(6) -2104.4845
C    -2.337606   -0.850017    0.584258   -0.004178    0.024206   -0.003153
C     2.603318    0.113232   -0.201727   -0.000309   -0.000145    0.000109
C    -1.187796    0.052146    0.955568    0.024735   -0.108582    0.038034
C     1.414268   -0.396995    0.548537   -0.000833    0.002601    0.001835
C     0.048808   -0.130264    0.107529   -0.004987    0.016701   -0.023911
O    -0.796395    1.776898   -0.583162   -0.062406   -0.000855    0.081604
O     0.589712   -1.367460   -0.140567   -0.003629   -0.002232    0.004870
O    -0.197284    0.627014   -1.061630    0.024952   -0.037191   -0.006842
H    -1.432490    1.007248    0.651915    0.504846    1.271372   -1.438685
H    -3.240448   -0.567523    1.122269   -0.009558   -0.014589    0.005883
H    -2.529883   -0.790980   -0.486873    0.008350   -0.007328   -0.006402
H    -2.106911   -1.888024    0.824565    0.035467    0.012408    0.009344
H     3.008975    0.991514    0.300353   -0.000961   -0.000695    0.001297
H     2.321093    0.387022   -1.215856   -0.007847    0.002492    0.003857
H     3.380788   -0.648992   -0.241641   -0.000551   -0.001066    0.000824
H    -0.996181    0.138843    2.024312   -0.052038    0.161395    0.004170
H     1.560542   -0.639136    1.596390    0.002443   -0.007556    0.001911
17
* Frequency(6) -2104.4845
C    -2.337226   -0.852218    0.584545   -0.004178    0.024206   -0.003153
C     2.603346    0.113246   -0.201737   -0.000309   -0.000145    0.000109
C    -1.190045    0.062019    0.952110    0.024735   -0.108582    0.038034
C     1.414344   -0.397231    0.548370   -0.000833    0.002601    0.001835
C     0.049261   -0.131783    0.109703   -0.004987    0.016701   -0.023911
O    -0.790721    1.776976   -0.590582   -0.062406   -0.000855    0.081604
O     0.590042   -1.367257   -0.141010   -0.003629   -0.002232    0.004870
O    -0.199553    0.630396   -1.061008    0.024952   -0.037191   -0.006842
H    -1.478392    0.891653    0.782723    0.504846    1.271372   -1.438685
H    -3.239579   -0.566197    1.121734   -0.009558   -0.014589    0.005883
H    -2.530642   -0.790314   -0.486291    0.008350   -0.007328   -0.006402
H    -2.110135   -1.889153    0.823715    0.035467    0.012408    0.009344
H     3.009062    0.991577    0.300235   -0.000961   -0.000695    0.001297
H     2.321807    0.386796   -1.216207   -0.007847    0.002492    0.003857
H     3.380838   -0.648895   -0.241716   -0.000551   -0.001066    0.000824
H    -0.991449    0.124168    2.023933   -0.052038    0.161395    0.004170
H     1.560319   -0.638449    1.596216    0.002443   -0.007556    0.001911
17
* Frequency(6) -2104.4845
C    -2.336963   -0.853743    0.584744   -0.004178    0.024206   -0.003153
C     2.603365    0.113255   -0.201744   -0.000309   -0.000145    0.000109
C    -1.191604    0.068861    0.949713    0.024735   -0.108582    0.038034
C     1.414397   -0.397395    0.548255   -0.000833    0.002601    0.001835
C     0.049576   -0.132835    0.111210   -0.004987    0.016701   -0.023911
O    -0.786788    1.777030   -0.595724   -0.062406   -0.000855    0.081604
O     0.590271   -1.367117   -0.141317   -0.003629   -0.002232    0.004870
O    -0.201125    0.632740   -1.060577    0.024952   -0.037191   -0.006842
H    -1.510206    0.811535    0.873385    0.504846    1.271372   -1.438685
H    -3.238977   -0.565277    1.121363   -0.009558   -0.014589    0.005883
H    -2.531169   -0.789852   -0.485887    0.008350   -0.007328   -0.006402
H    -2.112370   -1.889934    0.823127    0.035467    0.012408    0.009344
H     3.009123    0.991621    0.300153   -0.000961   -0.000695    0.001297
H     2.322301    0.386638   -1.216450   -0.007847    0.002492    0.003857
H     3.380873   -0.648828   -0.241768   -0.000551   -0.001066    0.000824
H    -0.988170    0.113998    2.023670   -0.052038    0.161395    0.004170
H     1.560165   -0.637973    1.596096    0.002443   -0.007556    0.001911
17
* Frequency(6) -2104.4845
C    -2.336844   -0.854428    0.584833   -0.004178    0.024206   -0.003153
C     2.603374    0.113259   -0.201747   -0.000309   -0.000145    0.000109
C    -1.192303    0.071932    0.948637    0.024735   -0.108582    0.038034
C     1.414420   -0.397468    0.548203   -0.000833    0.002601    0.001835
C     0.049717   -0.133307    0.111886   -0.004987    0.016701   -0.023911
O    -0.785023    1.777054   -0.598033   -0.062406   -0.000855    0.081604
O     0.590373   -1.367053   -0.141454   -0.003629   -0.002232    0.004870
O    -0.201831    0.633791   -1.060383    0.024952   -0.037191   -0.006842
H    -1.524485    0.775575    0.914077    0.504846    1.271372   -1.438685
H    -3.238707   -0.564865    1.121197   -0.009558   -0.014589    0.005883
H    -2.531405   -0.789645   -0.485706    0.008350   -0.007328   -0.006402
H    -2.113374   -1.890285    0.822862    0.035467    0.012408    0.009344
H     3.009150    0.991640    0.300117   -0.000961   -0.000695    0.001297
H     2.322523    0.386568   -1.216559   -0.007847    0.002492    0.003857
H     3.380889   -0.648798   -0.241792   -0.000551   -0.001066    0.000824
H    -0.986698    0.109433    2.023552   -0.052038    0.161395    0.004170
H     1.560096   -0.637759    1.596042    0.002443   -0.007556    0.001911
17
* Frequency(6) -2104.4845
C    -2.336884   -0.854197    0.584803   -0.004178    0.024206   -0.003153
C     2.603371    0.113258   -0.201746   -0.000309   -0.000145    0.000109
C    -1.192068    0.070899    0.948999    0.024735   -0.108582    0.038034
C     1.414412   -0.397444    0.548220   -0.000833    0.002601    0.001835
C     0.049669   -0.133149    0.111659   -0.004987    0.016701   -0.023911
O    -0.785617    1.777046   -0.597256   -0.062406   -0.000855    0.081604
O     0.590339   -1.367075   -0.141408   -0.003629   -0.002232    0.004870
O    -0.201594    0.633438   -1.060448    0.024952   -0.037191   -0.006842
H    -1.519682    0.787672    0.900389    0.504846    1.271372   -1.438685
H    -3.238797   -0.565004    1.121253   -0.009558   -0.014589    0.005883
H    -2.531325   -0.789715   -0.485767    0.008350   -0.007328   -0.006402
H    -2.113036   -1.890167    0.822951    0.035467    0.012408    0.009344
H     3.009141    0.991634    0.300129   -0.000961   -0.000695    0.001297
H     2.322449    0.386592   -1.216523   -0.007847    0.002492    0.003857
H     3.380883   -0.648808   -0.241784   -0.000551   -0.001066    0.000824
H    -0.987193    0.110968    2.023592   -0.052038    0.161395    0.004170
H     1.560120   -0.637831    1.596060    0.002443   -0.007556    0.001911
17
* Frequency(6) -2104.4845
C    -2.337078   -0.853077    0.584657   -0.004178    0.024206   -0.003153
C     2.603357    0.113251   -0.201741   -0.000309   -0.000145    0.000109
C    -1.190923    0.065874    0.950760    0.024735   -0.108582    0.038034
C     1.414374   -0.397323    0.548305   -0.000833    0.002601    0.001835
C     0.049438   -0.132376    0.110552   -0.004987    0.016701   -0.023911
O    -0.788505    1.777006   -0.593479   -0.062406   -0.000855    0.081604
O     0.590171   -1.367178   -0.141183   -0.003629   -0.002232    0.004870
O    -0.200439    0.631716   -1.060765    0.024952   -0.037191   -0.006842
H    -1.496316    0.846513    0.833804    0.504846    1.271372   -1.438685
H    -3.239240   -0.565679    1.121525   -0.009558   -0.014589    0.005883
H    -2.530939   -0.790054   -0.486063    0.008350   -0.007328   -0.006402
H    -2.111395   -1.889593    0.823384    0.035467    0.012408    0.009344
H     3.009096    0.991602    0.300189   -0.000961   -0.000695    0.001297
H     2.322086    0.386707   -1.216344   -0.007847    0.002492    0.003857
H     3.380858   -0.648857   -0.241746   -0.000551   -0.001066    0.000824
H    -0.989602    0.118438    2.023785   -0.052038    0.161395    0.004170
H     1.560233   -0.638181    1.596148    0.002443   -0.007556    0.001911
17
* Frequency(6) -2104.4845
C    -2.337404   -0.851188    0.584411   -0.004178    0.024206   -0.003153
C     2.603333    0.113240   -0.201732   -0.000309   -0.000145    0.000109
C    -1.188993    0.057401    0.953727    0.024735   -0.108582    0.038034
C     1.414309   -0.397120    0.548448   -0.000833    0.002601    0.001835
C     0.049049   -0.131072    0.108686   -0.004987    0.016701   -0.023911
O    -0.793375    1.776939   -0.587111   -0.062406   -0.000855    0.081604
O     0.589888   -1.367352   -0.140803   -0.003629   -0.002232    0.004870
O    -0.198492    0.628814   -1.061299    0.024952   -0.037191   -0.006842
H    -1.456921    0.945723    0.721537    0.504846    1.271372   -1.438685
H    -3.239986   -0.566817    1.121984   -0.009558   -0.014589    0.005883
H    -2.530287   -0.790626   -0.486563    0.008350   -0.007328   -0.006402
H    -2.108627   -1.888625    0.824113    0.035467    0.012408    0.009344
H     3.009021    0.991547    0.300290   -0.000961   -0.000695    0.001297
H     2.321473    0.386902   -1.216043   -0.007847    0.002492    0.003857
H     3.380815   -0.648940   -0.241681   -0.000551   -0.001066    0.000824
H    -0.993662    0.131032    2.024110   -0.052038    0.161395    0.004170
H     1.560423   -0.638770    1.596298    0.002443   -0.007556    0.001911
17
* Frequency(6) -2104.4845
C    -2.337827   -0.848735    0.584091   -0.004178    0.024206   -0.003153
C     2.603301    0.113225   -0.201721   -0.000309   -0.000145    0.000109
C    -1.186487    0.046398    0.957581    0.024735   -0.108582    0.038034
C     1.414224   -0.396857    0.548634   -0.000833    0.002601    0.001835
C     0.048544   -0.129380    0.106263   -0.004987    0.016701   -0.023911
O    -0.799698    1.776853   -0.578843   -0.062406   -0.000855    0.081604
O     0.589520   -1.367578   -0.140309   -0.003629   -0.002232    0.004870
O    -0.195963    0.625046   -1.061992    0.024952   -0.037191   -0.006842
H    -1.405765    1.074551    0.575756    0.504846    1.271372   -1.438685
H    -3.240954   -0.568296    1.122580   -0.009558   -0.014589    0.005883
H    -2.529441   -0.791368   -0.487212    0.008350   -0.007328   -0.006402
H    -2.105033   -1.887368    0.825060    0.035467    0.012408    0.009344
H     3.008924    0.991477    0.300422   -0.000961   -0.000695    0.001297
H     2.320678    0.387154   -1.215652   -0.007847    0.002492    0.003857
H     3.380759   -0.649048   -0.241598   -0.000551   -0.001066    0.000824
H    -0.998935    0.147386    2.024533   -0.052038    0.161395    0.004170
H     1.560671   -0.639536    1.596491    0.002443   -0.007556    0.001911
17
* Frequency(6) -2104.4845
C    -2.338302   -0.845985    0.583733   -0.004178    0.024206   -0.003153
C     2.603266    0.113208   -0.201709   -0.000309   -0.000145    0.000109
C    -1.183676    0.034058    0.961904    0.024735   -0.108582    0.038034
C     1.414130   -0.396561    0.548843   -0.000833    0.002601    0.001835
C     0.047977   -0.127482    0.103546   -0.004987    0.016701   -0.023911
O    -0.806790    1.776756   -0.569569   -0.062406   -0.000855    0.081604
O     0.589108   -1.367832   -0.139756   -0.003629   -0.002232    0.004870
O    -0.193128    0.620819   -1.062770    0.024952   -0.037191   -0.006842
H    -1.348392    1.219036    0.412257    0.504846    1.271372   -1.438685
H    -3.242040   -0.569954    1.123249   -0.009558   -0.014589    0.005883
H    -2.528492   -0.792201   -0.487939    0.008350   -0.007328   -0.006402
H    -2.101003   -1.885958    0.826122    0.035467    0.012408    0.009344
H     3.008815    0.991398    0.300569   -0.000961   -0.000695    0.001297
H     2.319786    0.387437   -1.215214   -0.007847    0.002492    0.003857
H     3.380696   -0.649169   -0.241504   -0.000551   -0.001066    0.000824
H    -1.004849    0.165728    2.025007   -0.052038    0.161395    0.004170
H     1.560949   -0.640395    1.596708    0.002443   -0.007556    0.001911
