15
Coordinates from ORCA-job freq E -271.050584700731
  C           2.44615411556862      0.23601935991035      0.18644186218240
  C          -2.00618047418271      0.35807651793839     -0.25229781556514
  C           1.12011957158447     -0.26494798361854     -0.26616985499000
  C          -1.24105802510799     -0.20356145404096      0.91022287074964
  C           0.19741413160812     -0.49872239348900      0.90213025805012
  O          -0.31147471497216      0.65557740197471      1.55561187831403
  H           2.49695801214312      0.93853628327800      1.00510591029627
  H           3.33487655794299      0.06383611995475     -0.40053199258984
  H          -2.42883561479614     -0.44766749424036     -0.85340746377583
  H          -2.82822449710156      0.97602648429098      0.10948203033465
  H          -1.37496068380238      0.97688992918999     -0.88493315039730
  H           0.65772094189464      0.45212290830956     -0.95424789578293
  H           1.23279441349862     -1.19875500113349     -0.82300912539284
  H          -1.84141623443435     -0.78145526853032      1.60835269890650
  H           0.54611350015675     -1.26197440979406      1.59404078966026
