17
Coordinates from ORCA-job freq E -421.453544551847
  C          -2.06857000605976      0.25384145565500     -0.91450369388010
  C          -2.97506467839481      0.64436401967367      0.12073483449684
  C          -0.85481003889659     -0.54165777016808     -0.61361296823536
  C           0.35083912904282      0.37631166995390     -0.34648064607877
  C           1.58518978296403     -0.44300615705658     -0.02758142848457
  O          -2.81808796677743      0.33155894856007      1.29378078705705
  O           3.81398004429224     -0.28349644212964      0.41693344603322
  O           2.63969950881830      0.47538040593601      0.17813564656863
  H          -2.25384825747947      0.60361302431036     -1.92225463770968
  H          -3.83986769857240      1.25601825304085     -0.18060661639306
  H          -0.62367898746828     -1.20564969540305     -1.44889964257786
  H          -1.04093097475606     -1.14690096203491      0.27457842958093
  H           0.55038293222974      1.00363669999590     -1.21691227379446
  H           0.12194170898398      1.03510103613188      0.49212931402028
  H           1.84093361503178     -1.11141895511245     -0.85446388162754
  H           1.43197152239388     -1.04507234797682      0.87375439176055
  H           3.96460136464803     -0.12072918337611      1.35508693926393
