17
Coordinates from ORCA-job freq E -421.380930183110
  C          -2.60537394715506      0.20788095817509      0.23531500377652
  C          -1.14236855390260      0.08551001647044      0.63795846285827
  C          -0.23456229860452     -0.05952225561007     -0.58348731619032
  C           1.20528682014453     -0.16200149784869     -0.20157754752380
  O           1.50628578409353     -1.33950589424441      0.45575930672473
  O           2.88038132633271     -1.38030119589618      0.62674502731814
  C           2.40820281349741      0.41522924688305     -0.79927080242489
  O           1.83629488835760      1.01079682843669      0.30587265962103
  H          -2.93235151305042     -0.67341322384770     -0.31830006815002
  H          -2.76407996934549      1.07943614763490     -0.40154469647601
  H          -3.24702745090182      0.31092963019450      1.10911677931124
  H          -1.00121261096700     -0.77770010130247      1.28992489655188
  H          -0.83217365658713      0.96464781089765      1.20569673953385
  H          -0.34578904412530      0.80355619381501     -1.24179013638630
  H          -0.50240770914082     -0.95081552822110     -1.15327899514455
  H           2.62133956304359      1.00151279771014     -1.68410065983079
  H           3.14955455831076     -0.53623893324685     -0.29791665356898
