17
Coordinates from ORCA-job freq E -421.422179691651
  C          -1.25613843184957      1.65113709531444      0.72018257602198
  C           2.26407977789062     -0.43897990046292      0.06022658298067
  C          -0.69658797685786      0.30338125111728      1.00447928904527
  C           1.02267856595756     -0.80338194582717     -0.69511208103268
  C          -0.32928612324525     -0.45763201852820     -0.25249050372221
  O          -2.48788099949660     -0.63287516311132     -0.93404356273015
  O           0.28547987782737      0.27276757448427     -1.28614330382059
  O          -1.28608686321631     -1.35501459226761     -0.70600625042580
  H          -0.83401642347771      2.25147280491313     -0.07041593046045
  H          -2.00281127492588      2.08211149022000      1.36712331460512
  H           2.53295086281097     -1.23516734493163      0.75469114091453
  H           2.12616818084518      0.48684292463575      0.61484831453204
  H           3.09224464686563     -0.29923350145465     -0.63396726727646
  H          -1.40903423068157     -0.30491780743064      1.56124870144350
  H           0.20063333127362      0.38075820797925      1.63105995244419
  H           1.09331394566359     -1.67345935963854     -1.34065022487344
  H          -2.31570686538378     -0.22780971501144     -1.79503074764550
