17
Coordinates from ORCA-job freq E -421.495794034107
  C           1.01866791365419      1.02880904908493     -0.27000045812932
  C          -0.27299058365331      0.50058268352042     -0.89491969955495
  C           2.16470757517203      0.01953125234984     -0.23447885457316
  C          -2.42245632265534     -0.49907709142050      0.18349493034373
  C          -0.97684413680302     -0.53607998834963     -0.05396161418441
  O          -0.34259485312802     -1.76496970531059      0.05756450275975
  O          -1.46719945098240     -0.08394887873680      1.16619789610841
  O           2.11433804929996     -0.88500047944025      0.79138390540709
  H           0.19888089686660     -1.92924892930267     -0.71715536341673
  H           0.82128324758977      1.36748323578710      0.74830097084534
  H           1.34698866361610      1.89334864270792     -0.85006264014350
  H          -0.07137794021476      0.08542850758855     -1.88808561825653
  H          -0.96501628221627      1.33080436266731     -1.03601271732597
  H           2.29608220617996     -0.47448620100199     -1.21082391648547
  H           3.10990403960766      0.55782379121439     -0.04414013497868
  H          -3.03539982795777      0.29542245072457     -0.22730758788818
  H          -2.92046819571459     -1.43352521652539      0.41044687762886
