17
Coordinates from ORCA-job freq E -421.403017655219
  C           0.55670166747309     -0.03902891107767     -0.44381622310720
  C          -0.75862010620754      0.36641315914240      0.21725954644602
  C           1.67058990558087     -0.13591729614579      0.57806657338824
  C          -3.29457065828523      0.11151781563373     -0.65748103565755
  C          -1.87776587291817      0.38991077215111     -0.75924157679309
  O           3.90486824458561     -0.51347876696704      0.81535001456845
  O          -2.35155626529795     -0.74428081920566     -1.34607201247626
  O           2.84454366282484     -0.48575782062811     -0.12701935343150
  H           0.43338032044668     -1.00123296125147     -0.94309497200398
  H           0.82822936054780      0.69215269166846     -1.20636067626621
  H          -0.66865280814300      1.35071412713754      0.67930703786785
  H          -1.00946478904081     -0.34584103387016      1.01592220858877
  H           1.44858002345881     -0.89905079363328      1.33177378565711
  H           1.82445812652438      0.81970319731164      1.08741320180692
  H          -3.99426632755374      0.62794999025541     -1.30190281824957
  H          -3.70715239885277     -0.33078903709068      0.24356222792276
  H           4.10440791485717     -1.45550731343041      0.85588107173923
