15
Coordinates from ORCA-job freq E -270.974886426858
  C           2.32346135064987      0.03300742386618      0.91496451366653
  C          -2.26962359195569      0.06168600225080      0.40564038604242
  C          -1.05995989614504     -0.52755444852884     -0.31197661435245
  C           0.21767854094812      0.03868829023335      0.20702610306656
  C           1.53791788460183      0.34390776418578     -0.32099005131526
  O           0.57705932387019      1.36469476598613     -0.00795798734539
  H           0.97784021857667     -0.20946811987245      1.36546949777190
  H           2.80229973360632      0.85243401739295      1.44158242251294
  H           2.84679879273022     -0.91722817908466      0.92657111419662
  H          -2.23489036313059     -0.16863241240008      1.47016421003795
  H          -2.28569454265445      1.14522895928676      0.29463729591639
  H          -3.19652824179800     -0.33929692749993     -0.00165053115069
  H          -1.10828569720260     -0.30898786895501     -1.38384497290534
  H          -1.03368250570149     -1.61225168517538     -0.20197665517236
  H           1.86882299360463      0.30895941831439     -1.34946473096982
