15
Coordinates from ORCA-job freq E -271.096538737458
  C           2.78059488489827      0.02477418143720      0.20981797895030
  C          -2.25482434611914      0.39304508830431      0.03113262878590
  C          -1.04633829951160     -0.41055332683607      0.49286259000814
  C           0.26162743239264      0.25399179788329      0.09959034355416
  C           1.48852575106016     -0.52054351393361      0.54347279359675
  O           1.39840909370796     -1.57016618696662      1.16319235078577
  H           2.87998712861970      0.95104107375743     -0.33704049471164
  H           3.66469734828097     -0.51231439360204      0.51813407338397
  H          -2.25911134199978      0.50687945363316     -1.05423919951149
  H          -3.18644671323069     -0.09264450903385      0.31877791598848
  H          -2.25130769327903      1.39321965962459      0.46775280632078
  H          -1.06633036462617     -0.54141735710193      1.57551988429904
  H          -1.07370604237638     -1.41628334891017      0.07151650191648
  H           0.32579080739035      1.26292461358982      0.52105440619546
  H           0.31768835479272      0.38732076815447     -0.98606457956207
