17
Coordinates from ORCA-job freq E -421.358818116342
  C          -2.01453441573876      0.02102012697396      0.72748684816486
  C           2.37388494073054      0.53084774297477      0.47695563606932
  C          -1.52353316406199     -0.35073544182026     -0.66577940648341
  C          -0.13458101327376      0.22847673313432     -0.98257137853521
  C           0.88709033039837     -0.26002261768171     -0.01902880671057
  O           2.66268908811554     -1.35057986507907      0.03234838281824
  O           1.14957367507412      0.47007981472044      1.12083532363150
  O           1.23469311253332     -1.53911188363799     -0.02208505420912
  H           3.23149217639640      0.37858757593263      1.11898879139149
  H          -1.36011662221110     -0.38637995816811      1.49903738207253
  H          -3.01684928211007     -0.36743044126810      0.90190562500126
  H          -2.04401018727517      1.10397520650182      0.85598533303411
  H           2.47426699570002      1.30886787037309     -0.27570378196617
  H          -2.21904702606596      0.01550681939494     -1.42238028629132
  H          -1.48112831752133     -1.43581167987983     -0.77235231702197
  H          -0.16128460994161      1.31792513810685     -0.92831733384593
  H           0.17157931925146     -0.06641914057772     -1.98619195711962
