17
Coordinates from ORCA-job freq
  C          -2.90243110348869     -0.11449265416994     -0.66686078702649
  C           2.09911458200365      0.23317689538903     -0.15894176777404
  C           0.80516522513014      0.76315881618735      0.33877843400140
  C          -1.60093679667721      0.62736719553164     -0.63153604967675
  C          -0.34463056216941     -0.02211377931328     -0.25019697246575
  O           4.11205392174883     -0.66755771038555      0.18495651688656
  O           2.94387679052254     -0.16943880728908      0.65563183667361
  O          -0.63471109069052      0.25871428741605     -1.60724343879474
  H           3.38419523897112     -3.34121417741203      0.12676239482253
  H          -3.43921063318907      0.01302714260080      0.27297941517529
  H          -3.53099629006394      0.26240599043475     -1.47311655325981
  H          -2.72710740456892     -1.17613657082676     -0.83333168426593
  H           2.35030177414309      0.15722802201677     -1.21454574503711
  H           0.79346271123163      0.72493615924653      1.42747146448879
  H           0.70805702262957      1.80323686907167      0.01624923692645
  H          -1.66304540929090      1.70066471285769     -0.47194748450213
  H          -0.37371897624189     -1.07776539135566      0.00504418382814
