15
Coordinates from ORCA-job freq E -271.010051107016
  C       1.601846     -0.446099      0.985444
  C      -2.147747      0.297872      0.739983
  C       1.435664     -0.403551     -0.515091
  C      -0.686033      0.416174      0.462576
  C       0.053137      0.199422     -0.781118
  O      -0.152569      1.484724     -0.244581
  H       0.273716     -0.003469      1.253633
  H       2.246592      0.306122      1.413214
  H       1.716488     -1.423427      1.427963
  H      -2.387998     -0.728725      1.007988
  H      -2.725654      0.582114     -0.141093
  H      -2.429518      0.953475      1.561936
  H       2.200622      0.208157     -0.997122
  H       1.460166     -1.402681     -0.952309
  H      -0.419008      0.020669     -1.739449
15
Coordinates from ORCA-job freq E -271.009897307855
  C       1.596367     -0.405333      0.975275
  C      -2.138190      0.295756      0.743882
  C       1.435534     -0.413479     -0.529878
  C      -0.677002      0.371496      0.459455
  C       0.060397      0.186800     -0.788239
  O      -0.123936      1.463778     -0.202879
  H       0.263752     -0.089392      1.237756
  H       2.213988      0.376557      1.402426
  H       1.685300     -1.365594      1.469875
  H      -2.415865     -0.731582      0.972429
  H      -2.708183      0.634453     -0.123655
  H      -2.398227      0.926544      1.593823
  H       2.199877      0.181610     -1.031935
  H       1.457416     -1.422675     -0.941295
  H      -0.411522      0.051839     -1.755067
15
Coordinates from ORCA-job freq E -271.008978872345
  C       1.568751     -0.425912      0.977130
  C      -2.119828      0.293262      0.752784
  C       1.433810     -0.418155     -0.534566
  C      -0.665223      0.351671      0.436999
  C       0.067444      0.190622     -0.814444
  O      -0.132209      1.463982     -0.206011
  H       0.300790     -0.044329      1.222038
  H       2.084471      0.403482      1.447279
  H       1.717059     -1.386174      1.461266
  H      -2.408904     -0.730964      0.983319
  H      -2.703085      0.642359     -0.102300
  H      -2.357423      0.922416      1.610645
  H       2.206346      0.167731     -1.034168
  H       1.454607     -1.430795     -0.937158
  H      -0.406899      0.061582     -1.780838
15
Coordinates from ORCA-job freq E -271.009570917738
  C       1.572343     -0.434188      0.977025
  C      -2.121946      0.294546      0.753476
  C       1.438129     -0.409329     -0.532982
  C      -0.666790      0.370998      0.442612
  C       0.063774      0.184803     -0.808570
  O      -0.142315      1.468263     -0.231065
  H       0.292561     -0.007661      1.233155
  H       2.137191      0.361830      1.448201
  H       1.676071     -1.404408      1.452391
  H      -2.394683     -0.731435      0.994962
  H      -2.707254      0.624634     -0.107493
  H      -2.371270      0.930605      1.602889
  H       2.203285      0.196096     -1.020603
  H       1.474065     -1.414957     -0.951896
  H      -0.413453      0.030981     -1.770129
15
Coordinates from ORCA-job freq E -271.009675214260
  C       1.568757     -0.438489      0.981110
  C      -2.121661      0.298598      0.755391
  C       1.438373     -0.402828     -0.529089
  C      -0.667072      0.383999      0.443226
  C       0.058521      0.178598     -0.806540
  O      -0.145135      1.471049     -0.251388
  H       0.289469     -0.010269      1.221073
  H       2.158787      0.338672      1.452533
  H       1.661994     -1.413518      1.447037
  H      -2.385786     -0.727170      1.007189
  H      -2.709818      0.615509     -0.108430
  H      -2.375629      0.941011      1.598444
  H       2.199292      0.218492     -1.003057
  H       1.491177     -1.401882     -0.961731
  H      -0.421563      0.009006     -1.763794
15
Coordinates from ORCA-job freq E -271.009774116215
  C       1.574277     -0.431976      0.983239
  C      -2.126266      0.298318      0.751493
  C       1.433954     -0.409200     -0.526836
  C      -0.670220      0.375684      0.443941
  C       0.059529      0.186092     -0.804435
  O      -0.136791      1.471087     -0.230246
  H       0.288671     -0.046926      1.213091
  H       2.144624      0.366265      1.443466
  H       1.704904     -1.400313      1.452862
  H      -2.399136     -0.726569      0.997690
  H      -2.710025      0.623906     -0.112161
  H      -2.377429      0.938468      1.596970
  H       2.200901      0.195616     -1.012563
  H       1.469868     -1.413680     -0.948475
  H      -0.417156      0.034006     -1.766062
15
Coordinates from ORCA-job freq E -271.009876670310
  C       1.573827     -0.429275      0.981015
  C      -2.129412      0.298342      0.748913
  C       1.432754     -0.414198     -0.528268
  C      -0.672278      0.368771      0.445916
  C       0.061799      0.189116     -0.802205
  O      -0.130463      1.468850     -0.214253
  H       0.292142     -0.065964      1.221955
  H       2.124949      0.385617      1.435617
  H       1.734325     -1.391991      1.452545
  H      -2.408989     -0.725183      0.993102
  H      -2.709118      0.628397     -0.115880
  H      -2.379208      0.938863      1.594506
  H       2.203579      0.180549     -1.020637
  H       1.457956     -1.421872     -0.943176
  H      -0.412155      0.050755     -1.767176
15
Coordinates from ORCA-job freq E -271.010136459756
  C       1.581143     -0.425681      0.982492
  C      -2.135497      0.298682      0.744750
  C       1.430023     -0.418550     -0.526949
  C      -0.677459      0.361782      0.445630
  C       0.062394      0.193653     -0.799838
  O      -0.127106      1.467693     -0.196921
  H       0.296580     -0.091105      1.224329
  H       2.119685      0.403210      1.427493
  H       1.767980     -1.382505      1.456503
  H      -2.422151     -0.723571      0.985944
  H      -2.711461      0.634306     -0.120628
  H      -2.383453      0.938718      1.591277
  H       2.203670      0.164109     -1.029309
  H       1.443158     -1.429598     -0.934144
  H      -0.407800      0.069636     -1.768655
15
Coordinates from ORCA-job freq E -271.010560872605
  C       1.588574     -0.423728      0.981404
  C      -2.144436      0.300921      0.739953
  C       1.429432     -0.422667     -0.526800
  C      -0.685122      0.353496      0.447234
  C       0.063293      0.193939     -0.794765
  O      -0.123877      1.463222     -0.177916
  H       0.297857     -0.114323      1.238867
  H       2.114055      0.418865      1.416576
  H       1.809913     -1.373968      1.453575
  H      -2.440695     -0.718914      0.979687
  H      -2.714267      0.641428     -0.127795
  H      -2.390965      0.942673      1.585586
  H       2.204348      0.150830     -1.037955
  H       1.433801     -1.436301     -0.928041
  H      -0.402205      0.085305     -1.767636
15
Coordinates from ORCA-job freq E -271.010924956974
  C       1.602761     -0.422388      0.983076
  C      -2.157362      0.304761      0.733577
  C       1.428123     -0.425616     -0.524059
  C      -0.697079      0.344657      0.447142
  C       0.062065      0.192153     -0.788585
  O      -0.123913      1.458264     -0.158448
  H       0.296012     -0.141810      1.252208
  H       2.122953      0.430644      1.404986
  H       1.861495     -1.365933      1.449745
  H      -2.465539     -0.711721      0.972538
  H      -2.720358      0.650594     -0.136838
  H      -2.401540      0.949099      1.577847
  H       2.202624      0.139772     -1.044886
  H       1.427460     -1.441304     -0.920637
  H      -0.397995      0.099604     -1.765693
15
Coordinates from ORCA-job freq E -271.010959853369
  C       1.608904     -0.423738      0.981399
  C      -2.163110      0.307481      0.731611
  C       1.429901     -0.424997     -0.524460
  C      -0.702697      0.341437      0.447740
  C       0.061128      0.186115     -0.785256
  O      -0.125256      1.454541     -0.154273
  H       0.291364     -0.146427      1.265899
  H       2.131053      0.429115      1.401417
  H       1.875580     -1.366664      1.444626
  H      -2.477117     -0.706585      0.973317
  H      -2.722890      0.653178     -0.141033
  H      -2.406307      0.955454      1.573295
  H       2.201653      0.143904     -1.045778
  H       1.435548     -1.439930     -0.923485
  H      -0.398047      0.097897     -1.763045
15
Coordinates from ORCA-job freq E -271.010927100553
  C       1.609456     -0.423636      0.982839
  C      -2.161066      0.306672      0.732632
  C       1.429576     -0.423787     -0.523427
  C      -0.701174      0.344827      0.446431
  C       0.060173      0.185498     -0.786974
  O      -0.127828      1.456880     -0.161783
  H       0.289916     -0.137403      1.259940
  H       2.139855      0.423293      1.404355
  H       1.862443     -1.369609      1.447646
  H      -2.472773     -0.708965      0.970749
  H      -2.722981      0.654808     -0.137648
  H      -2.404198      0.950666      1.577394
  H       2.200359      0.147935     -1.042965
  H       1.438934     -1.438080     -0.923895
  H      -0.400986      0.091677     -1.763319
15
Coordinates from ORCA-job freq E -271.010804107214
  C       1.592142     -0.430545      0.980900
  C      -2.152181      0.308461      0.739930
  C       1.434407     -0.414911     -0.525266
  C      -0.694902      0.356766      0.443928
  C       0.057334      0.167024     -0.790790
  O      -0.132587      1.456669     -0.197114
  H       0.280370     -0.099091      1.260528
  H       2.153823      0.387515      1.417152
  H       1.807569     -1.388323      1.439397
  H      -2.456887     -0.707243      0.986490
  H      -2.721570      0.648232     -0.128539
  H      -2.394519      0.955889      1.582243
  H       2.197527      0.187951     -1.020962
  H       1.482900     -1.419842     -0.946202
  H      -0.413721      0.052225     -1.759721
15
Coordinates from ORCA-job freq E -271.010889817204
  C       1.608888     -0.427955      0.983175
  C      -2.157658      0.307160      0.735915
  C       1.432432     -0.418416     -0.523651
  C      -0.699458      0.351669      0.443473
  C       0.057896      0.176073     -0.789650
  O      -0.133946      1.458256     -0.181366
  H       0.281727     -0.112043      1.257365
  H       2.160142      0.400988      1.413486
  H       1.828942     -1.382515      1.447686
  H      -2.465301     -0.708778      0.977946
  H      -2.724448      0.651301     -0.132773
  H      -2.400207      0.952122      1.580146
  H       2.197084      0.170428     -1.033081
  H       1.463058     -1.427945     -0.934992
  H      -0.409446      0.070434     -1.761706
15
Coordinates from ORCA-job freq E -271.010888074490
  C       1.613192     -0.421103      0.978778
  C      -2.156241      0.303374      0.734247
  C       1.432141     -0.424689     -0.525714
  C      -0.696737      0.348108      0.447783
  C       0.062587      0.183048     -0.787501
  O      -0.128812      1.458471     -0.168962
  H       0.277777     -0.110808      1.261338
  H       2.148356      0.420083      1.404726
  H       1.833481     -1.370042      1.453663
  H      -2.467081     -0.716254      0.955920
  H      -2.718944      0.665166     -0.129791
  H      -2.399676      0.933031      1.589680
  H       2.200189      0.148759     -1.047668
  H       1.442385     -1.440013     -0.923504
  H      -0.402910      0.083647     -1.761020
15
Coordinates from ORCA-job freq E -271.010912765568
  C       1.619394     -0.417152      0.977898
  C      -2.158939      0.301977      0.730262
  C       1.428507     -0.431595     -0.524215
  C      -0.697653      0.341235      0.451935
  C       0.066038      0.192399     -0.782343
  O      -0.120252      1.457763     -0.146746
  H       0.270843     -0.132160      1.257165
  H       2.126780      0.445554      1.394319
  H       1.877252     -1.355527      1.453769
  H      -2.476044     -0.717685      0.942734
  H      -2.715009      0.672967     -0.134002
  H      -2.403302      0.926713      1.588969
  H       2.202647      0.120889     -1.059801
  H       1.414517     -1.452115     -0.908531
  H      -0.395073      0.107517     -1.759437
15
Coordinates from ORCA-job freq E -271.010930606084
  C       1.611582     -0.423526      0.978902
  C      -2.158421      0.304005      0.732230
  C       1.429291     -0.427066     -0.524740
  C      -0.698130      0.342476      0.449749
  C       0.064121      0.188182     -0.784073
  O      -0.121565      1.457481     -0.152291
  H       0.272091     -0.133756      1.257253
  H       2.126669      0.432270      1.400671
  H       1.872273     -1.365097      1.447268
  H      -2.472459     -0.711248      0.968838
  H      -2.717657      0.653803     -0.138894
  H      -2.402798      0.947530      1.576942
  H       2.202936      0.136770     -1.049162
  H       1.430710     -1.443420     -0.920558
  H      -0.398937      0.102373     -1.760161
15
Coordinates from ORCA-job freq E -271.010917433484
  C       1.603100     -0.430128      0.979850
  C      -2.158518      0.305424      0.733306
  C       1.428979     -0.423682     -0.525669
  C      -0.699085      0.340620      0.447116
  C       0.063363      0.188127     -0.786018
  O      -0.121075      1.457359     -0.149625
  H       0.276255     -0.145638      1.256805
  H       2.118260      0.424087      1.405613
  H       1.876893     -1.371859      1.440914
  H      -2.469644     -0.702649      1.002056
  H      -2.721084      0.626817     -0.146793
  H      -2.402661      0.974248      1.558204
  H       2.204766      0.146078     -1.040541
  H       1.440527     -1.436353     -0.930996
  H      -0.400371      0.108329     -1.762248
15
Coordinates from ORCA-job freq E -271.010914200117
  C       1.602342     -0.437683      0.982602
  C      -2.157759      0.307226      0.736413
  C       1.431937     -0.414999     -0.525645
  C      -0.700155      0.347271      0.441668
  C       0.059170      0.181406     -0.790808
  O      -0.130788      1.459764     -0.168291
  H       0.280091     -0.131831      1.254288
  H       2.145617      0.393781      1.419006
  H       1.839991     -1.391864      1.439456
  H      -2.459803     -0.696027      1.032149
  H      -2.728419      0.602054     -0.148012
  H      -2.402595      0.994582      1.545824
  H       2.200896      0.176576     -1.025566
  H       1.468291     -1.420210     -0.947345
  H      -0.409112      0.090734     -1.763764
15
Coordinates from ORCA-job freq E -271.010927219071
  C       1.604887     -0.431617      0.980416
  C      -2.158095      0.305444      0.734238
  C       1.430439     -0.421096     -0.525767
  C      -0.699151      0.343643      0.445504
  C       0.062303      0.186330     -0.787686
  O      -0.125106      1.458714     -0.156831
  H       0.277126     -0.137587      1.256247
  H       2.130913      0.414084      1.409875
  H       1.859625     -1.378526      1.442168
  H      -2.465749     -0.702286      1.008227
  H      -2.723679      0.620937     -0.146114
  H      -2.402515      0.977359      1.556586
  H       2.203336      0.155647     -1.037028
  H       1.448576     -1.431866     -0.935283
  H      -0.403205      0.101599     -1.762578
15
Coordinates from ORCA-job freq E -271.010928170638
  C       1.605478     -0.430834      0.980185
  C      -2.158095      0.305121      0.733952
  C       1.430367     -0.421791     -0.525711
  C      -0.698999      0.343412      0.445851
  C       0.062804      0.187065     -0.787374
  O      -0.124605      1.458720     -0.155691
  H       0.276586     -0.137871      1.256161
  H       2.129896      0.416173      1.408887
  H       1.861015     -1.377123      1.442607
  H      -2.466088     -0.703160      1.005514
  H      -2.723440      0.622759     -0.145755
  H      -2.402362      0.975249      1.557809
  H       2.203601      0.153282     -1.038347
  H       1.446011     -1.433200     -0.933681
  H      -0.402462      0.102976     -1.762433
15
Coordinates from ORCA-job freq E -271.010932954761
  C       1.605350     -0.430939      0.980154
  C      -2.158037      0.305077      0.733989
  C       1.430487     -0.421703     -0.525742
  C      -0.698968      0.343500      0.445753
  C       0.062915      0.187114     -0.787454
  O      -0.124660      1.458768     -0.155815
  H       0.276507     -0.137658      1.256136
  H       2.129955      0.415830      1.409069
  H       1.860419     -1.377411      1.442453
  H      -2.465770     -0.703095      1.006255
  H      -2.723673      0.621995     -0.145785
  H      -2.402218      0.975709      1.557465
  H       2.203699      0.153581     -1.038179
  H       1.446138     -1.433051     -0.933843
  H      -0.402439      0.103061     -1.762482
15
Coordinates from ORCA-job freq E -271.010937054584
  C       1.605286     -0.431009      0.980179
  C      -2.158058      0.305057      0.733973
  C       1.430513     -0.421682     -0.525740
  C      -0.699010      0.343450      0.445652
  C       0.062997      0.187238     -0.787497
  O      -0.124629      1.458788     -0.155642
  H       0.276470     -0.137964      1.256034
  H       2.129787      0.415804      1.409144
  H       1.860578     -1.377488      1.442336
  H      -2.465681     -0.702972      1.006908
  H      -2.723873      0.621366     -0.145905
  H      -2.402146      0.976196      1.557066
  H       2.203793      0.153569     -1.038107
  H       1.446035     -1.433019     -0.933881
  H      -0.402355      0.103442     -1.762546
15
Coordinates from ORCA-job freq E -271.010927022983
  C       1.605249     -0.431046      0.980168
  C      -2.158048      0.305030      0.733979
  C       1.430556     -0.421663     -0.525755
  C      -0.699013      0.343453      0.445591
  C       0.063071      0.187306     -0.787529
  O      -0.124616      1.458814     -0.155605
  H       0.276419     -0.138005      1.256001
  H       2.129692      0.415758      1.409210
  H       1.860488     -1.377561      1.442272
  H      -2.465576     -0.702931      1.007266
  H      -2.724000      0.621009     -0.145931
  H      -2.402078      0.976414      1.556886
  H       2.203858      0.153586     -1.038087
  H       1.445984     -1.432997     -0.933906
  H      -0.402280      0.103611     -1.762586
15
Coordinates from ORCA-job freq E -271.010936660386
  C       1.605213     -0.431067      0.980178
  C      -2.158041      0.305011      0.733977
  C       1.430568     -0.421656     -0.525753
  C      -0.699023      0.343459      0.445535
  C       0.063117      0.187364     -0.787557
  O      -0.124599      1.458835     -0.155569
  H       0.276378     -0.138063      1.255951
  H       2.129637      0.415733      1.409250
  H       1.860466     -1.377606      1.442238
  H      -2.465478     -0.702904      1.007516
  H      -2.724098      0.620751     -0.145952
  H      -2.402024      0.976570      1.556756
  H       2.203891      0.153579     -1.038060
  H       1.445930     -1.432986     -0.933913
  H      -0.402232      0.103758     -1.762623
15
Coordinates from ORCA-job freq E -271.010926787988
  C       1.605231     -0.431066      0.980171
  C      -2.158050      0.304997      0.733974
  C       1.430582     -0.421674     -0.525756
  C      -0.699035      0.343437      0.445502
  C       0.063163      0.187419     -0.787568
  O      -0.124565      1.458844     -0.155491
  H       0.276307     -0.138160      1.255909
  H       2.129533      0.415804      1.409253
  H       1.860553     -1.377584      1.442227
  H      -2.465464     -0.702898      1.007618
  H      -2.724165      0.620638     -0.145949
  H      -2.401993      0.976639      1.556702
  H       2.203938      0.153493     -1.038090
  H       1.445835     -1.433019     -0.933876
  H      -0.402164      0.103908     -1.762652
15
Coordinates from ORCA-job freq E -271.010935636920
  C       1.605181     -0.431076      0.980168
  C      -2.158049      0.304992      0.733967
  C       1.430584     -0.421686     -0.525763
  C      -0.699042      0.343404      0.445476
  C       0.063194      0.187459     -0.787575
  O      -0.124522      1.458838     -0.155399
  H       0.276287     -0.138284      1.255903
  H       2.129388      0.415854      1.409240
  H       1.860667     -1.377564      1.442191
  H      -2.465446     -0.702863      1.007772
  H      -2.724209      0.620493     -0.145978
  H      -2.401961      0.976754      1.556602
  H       2.203980      0.153439     -1.038088
  H       1.445783     -1.433036     -0.933874
  H      -0.402129      0.104052     -1.762669
15
Coordinates from ORCA-job freq E -271.010926633834
  C       1.605153     -0.431116      0.980179
  C      -2.158035      0.304998      0.733980
  C       1.430602     -0.421646     -0.525761
  C      -0.699044      0.343443      0.445440
  C       0.063189      0.187435     -0.787600
  O      -0.124555      1.458854     -0.155490
  H       0.276285     -0.138213      1.255893
  H       2.129462      0.415721      1.409308
  H       1.860510     -1.377663      1.442162
  H      -2.465368     -0.702838      1.007921
  H      -2.724259      0.620360     -0.145973
  H      -2.401938      0.976854      1.556544
  H       2.203972      0.153574     -1.038017
  H       1.445890     -1.432966     -0.933937
  H      -0.402156      0.103980     -1.762676
