15
Coordinates from ORCA-job scan E -19.156365907560
  C       1.979948     -0.447115      0.918972
  C      -2.156666      0.270888      0.557481
  C       1.318322     -0.649757     -0.437232
  C      -0.784455      0.417943      0.623406
  C       0.077576      0.227660     -0.613846
  O      -0.026125      1.450802      0.117729
  H       0.047800      0.037722      1.423710
  H       1.819745      0.495391      1.404362
  H       3.059580     -0.578698      0.825846
  H      -2.513271     -0.607071     -0.015242
  H      -2.691998      1.114966      0.076055
  H      -2.675880      0.167690      1.528902
  H       1.849595     -0.917199     -1.275554
  H       0.737128     -1.572138     -0.093133
  H      -0.001592      0.649693     -1.559484
15
Coordinates from ORCA-job scan E -19.186198953120
  C       1.973612     -0.417821      0.911877
  C      -2.175186      0.276772      0.565624
  C       1.315490     -0.656024     -0.423949
  C      -0.751388      0.414298      0.620422
  C       0.093469      0.239662     -0.610729
  O       0.021045      1.468007      0.135961
  H       0.012856     -0.024466      1.384884
  H       1.793782      0.530286      1.392901
  H       3.049932     -0.576555      0.867224
  H      -2.530192     -0.584439     -0.020974
  H      -2.689234      1.139221      0.110710
  H      -2.668374      0.158832      1.542705
  H       1.881890     -0.918984     -1.279652
  H       0.763218     -1.595334     -0.114203
  H      -0.051216      0.607324     -1.600825
15
Coordinates from ORCA-job scan E -19.205129474460
  C       1.952629     -0.389250      0.903925
  C      -2.180166      0.282456      0.575057
  C       1.307699     -0.661331     -0.415063
  C      -0.717207      0.402724      0.606302
  C       0.108511      0.249430     -0.615827
  O       0.059626      1.472624      0.140593
  H      -0.025543     -0.064811      1.356252
  H       1.744954      0.559070      1.378680
  H       3.021952     -0.572310      0.920604
  H      -2.528322     -0.560508     -0.028004
  H      -2.666415      1.167585      0.152381
  H      -2.630833      0.146729      1.562804
  H       1.912416     -0.907178     -1.271826
  H       0.785814     -1.620478     -0.156328
  H      -0.105410      0.556025     -1.627576
15
Coordinates from ORCA-job scan E -19.221052330320
  C       1.929225     -0.357285      0.900821
  C      -2.184627      0.300080      0.589610
  C       1.307246     -0.662585     -0.410309
  C      -0.687329      0.383758      0.576993
  C       0.123660      0.257499     -0.634395
  O       0.078720      1.471749      0.119821
  H      -0.063261     -0.110392      1.339078
  H       1.688359      0.582813      1.375137
  H       2.979607     -0.590446      1.007843
  H      -2.532887     -0.522816     -0.030685
  H      -2.632207      1.215813      0.205408
  H      -2.571906      0.146148      1.594720
  H       1.973355     -0.841542     -1.255916
  H       0.834119     -1.656932     -0.243630
  H      -0.202368      0.444916     -1.652523
15
Coordinates from ORCA-job scan E -19.230830493040
  C       1.906249     -0.343048      0.906456
  C      -2.191180      0.324609      0.612345
  C       1.327372     -0.646481     -0.419912
  C      -0.677588      0.365705      0.544632
  C       0.127418      0.249002     -0.665984
  O       0.054292      1.463376      0.056928
  H      -0.089295     -0.117356      1.342222
  H       1.672652      0.596732      1.378281
  H       2.903788     -0.690412      1.122607
  H      -2.557279     -0.495145      0.000706
  H      -2.607205      1.257725      0.241521
  H      -2.517240      0.179276      1.636994
  H       2.062624     -0.691279     -1.235319
  H       0.927325     -1.677898     -0.376376
  H      -0.302226      0.285974     -1.663125
15
Coordinates from ORCA-job scan E -19.236101594680
  C       1.890202     -0.323692      0.906941
  C      -2.195235      0.338903      0.628429
  C       1.347647     -0.626813     -0.433184
  C      -0.682141      0.342168      0.536236
  C       0.120735      0.225324     -0.681352
  O       0.024359      1.436320      0.017352
  H      -0.106968     -0.130417      1.350769
  H       1.739030      0.651002      1.334125
  H       2.792798     -0.818774      1.222007
  H      -2.587305     -0.484677      0.036595
  H      -2.588542      1.277336      0.247401
  H      -2.496590      0.218440      1.663350
  H       2.116239     -0.551673     -1.217293
  H       1.016006     -1.677605     -0.472062
  H      -0.350528      0.184936     -1.657340
15
Coordinates from ORCA-job scan E -19.239918993480
  C       1.878397     -0.340039      0.911311
  C      -2.194302      0.344723      0.643155
  C       1.375511     -0.598570     -0.454192
  C      -0.687667      0.342087      0.541163
  C       0.105843      0.197262     -0.690078
  O      -0.023101      1.424237     -0.042708
  H      -0.103379     -0.068108      1.382098
  H       1.826190      0.653621      1.316399
  H       2.652034     -0.977478      1.302953
  H      -2.602061     -0.511163      0.108363
  H      -2.589845      1.259021      0.208936
  H      -2.489163      0.288908      1.686224
  H       2.155768     -0.388029     -1.202694
  H       1.124359     -1.660124     -0.579730
  H      -0.388878      0.094430     -1.649227
15
Coordinates from ORCA-job scan E -19.241892509110
  C       1.878705     -0.335628      0.908194
  C      -2.191694      0.343165      0.644755
  C       1.386592     -0.584804     -0.465277
  C      -0.690324      0.335972      0.556734
  C       0.094179      0.177313     -0.678571
  O      -0.036383      1.410812     -0.051403
  H      -0.098381     -0.067640      1.400475
  H       1.928081      0.674435      1.269772
  H       2.536470     -1.057503      1.357639
  H      -2.608139     -0.530458      0.145129
  H      -2.584040      1.239354      0.169950
  H      -2.502070      0.332047      1.685849
  H       2.150123     -0.299322     -1.205013
  H       1.180903     -1.649124     -0.621431
  H      -0.404315      0.072158     -1.634828
15
Coordinates from ORCA-job scan E -19.242956508880
  C       1.878389     -0.355671      0.910943
  C      -2.188224      0.338664      0.647814
  C       1.397160     -0.570911     -0.474181
  C      -0.688526      0.348617      0.565301
  C       0.084407      0.167991     -0.671656
  O      -0.050375      1.417872     -0.072934
  H      -0.086384     -0.022969      1.412939
  H       1.983111      0.652591      1.265246
  H       2.459044     -1.124074      1.386129
  H      -2.597316     -0.562648      0.193312
  H      -2.591317      1.204104      0.126628
  H      -2.509594      0.376980      1.685668
  H       2.144708     -0.228969     -1.206041
  H       1.223101     -1.633665     -0.661122
  H      -0.418480      0.052866     -1.626072
15
Coordinates from ORCA-job scan E -19.243976341180
  C       1.875286     -0.375789      0.909674
  C      -2.184137      0.332812      0.653522
  C       1.411561     -0.551535     -0.486616
  C      -0.683821      0.361084      0.574232
  C       0.075168      0.156692     -0.663038
  O      -0.060751      1.423717     -0.095311
  H      -0.074313      0.016310      1.427699
  H       2.071971      0.624312      1.248309
  H       2.322130     -1.198735      1.431604
  H      -2.578463     -0.604666      0.264515
  H      -2.596574      1.152348      0.069156
  H      -2.515799      0.441318      1.683470
  H       2.134601     -0.131933     -1.202419
  H       1.279218     -1.608836     -0.720684
  H      -0.436369      0.023679     -1.612139
15
Coordinates from ORCA-job scan E -19.244666445290
  C       1.869700     -0.401665      0.908950
  C      -2.179468      0.326230      0.663904
  C       1.429404     -0.525857     -0.499961
  C      -0.678161      0.377174      0.575900
  C       0.068278      0.148402     -0.661818
  O      -0.075937      1.431105     -0.128111
  H      -0.061535      0.064200      1.434619
  H       2.167563      0.572803      1.248545
  H       2.156473     -1.266675      1.471612
  H      -2.550774     -0.650837      0.359909
  H      -2.606786      1.083124      0.010110
  H      -2.513341      0.518465      1.680731
  H       2.129589     -0.029075     -1.187407
  H       1.337399     -1.571537     -0.793092
  H      -0.452699     -0.015078     -1.601918
15
Coordinates from ORCA-job scan E -19.245135718790
  C       1.863483     -0.427837      0.907499
  C      -2.174563      0.319533      0.676252
  C       1.446704     -0.497605     -0.510915
  C      -0.673751      0.393947      0.571208
  C       0.063931      0.144801     -0.667298
  O      -0.093655      1.438504     -0.163553
  H      -0.048814      0.109934      1.433757
  H       2.251057      0.506870      1.266837
  H       1.996623     -1.314893      1.492187
  H      -2.518727     -0.691080      0.464999
  H      -2.620994      1.004182     -0.040998
  H      -2.505593      0.596497      1.673988
  H       2.131678      0.057691     -1.164812
  H       1.385093     -1.528776     -0.859306
  H      -0.462765     -0.050988     -1.597869
15
Coordinates from ORCA-job scan E -19.245541172840
  C       1.855378     -0.456799      0.904563
  C      -2.167900      0.312022      0.691121
  C       1.463542     -0.465003     -0.520224
  C      -0.670169      0.412643      0.561148
  C       0.060826      0.145034     -0.678489
  O      -0.114727      1.446682     -0.202978
  H      -0.035082      0.157812      1.425560
  H       2.322287      0.423372      1.303467
  H       1.837178     -1.352019      1.492584
  H      -2.478651     -0.725977      0.590709
  H      -2.639167      0.905384     -0.088615
  H      -2.494264      0.683790      1.658854
  H       2.141224      0.136901     -1.133856
  H       1.426939     -1.479112     -0.922555
  H      -0.467708     -0.083953     -1.599317
15
Coordinates from ORCA-job scan E -19.245782464900
  C       1.846920     -0.481386      0.900385
  C      -2.160700      0.306417      0.703945
  C       1.474759     -0.437732     -0.526682
  C      -0.668071      0.427745      0.550517
  C       0.059021      0.147540     -0.690345
  O      -0.132591      1.453294     -0.234523
  H      -0.023956      0.195113      1.415355
  H       2.356632      0.350851      1.345563
  H       1.727774     -1.379586      1.473779
  H      -2.442837     -0.744487      0.705790
  H      -2.654460      0.811435     -0.122720
  H      -2.484804      0.761210      1.636371
  H       2.154274      0.193145     -1.103566
  H       1.455986     -1.437763     -0.967613
  H      -0.468241     -0.105019     -1.604282
15
Coordinates from ORCA-job scan E -19.245882693540
  C       1.842226     -0.493919      0.897181
  C      -2.156324      0.304621      0.709816
  C       1.477962     -0.425313     -0.530421
  C      -0.667401      0.433918      0.545621
  C       0.058301      0.149954     -0.696045
  O      -0.140496      1.456744     -0.246627
  H      -0.019299      0.209286      1.410262
  H       2.356228      0.319103      1.371178
  H       1.694445     -1.398972      1.454258
  H      -2.426830     -0.747562      0.771247
  H      -2.660914      0.757079     -0.140614
  H      -2.481650      0.806854      1.617466
  H       2.162449      0.217505     -1.087164
  H       1.468782     -1.419116     -0.986122
  H      -0.467772     -0.109406     -1.608062
15
Coordinates from ORCA-job scan E -19.245957698590
  C       1.839942     -0.502120      0.894114
  C      -2.153454      0.303914      0.712462
  C       1.478064     -0.418833     -0.534092
  C      -0.666946      0.435045      0.544527
  C       0.058089      0.153021     -0.697864
  O      -0.143323      1.459401     -0.247329
  H      -0.017793      0.209943      1.408714
  H       2.348038      0.303474      1.386217
  H       1.686577     -1.414785      1.437790
  H      -2.420040     -0.745358      0.822163
  H      -2.662513      0.713678     -0.156973
  H      -2.482829      0.845065      1.596432
  H       2.167185      0.231637     -1.077299
  H       1.476387     -1.409028     -0.996301
  H      -0.467678     -0.104277     -1.610588
15
Coordinates from ORCA-job scan E -19.246033381320
  C       1.839861     -0.507219      0.890957
  C      -2.152348      0.303493      0.712615
  C       1.476026     -0.416092     -0.537949
  C      -0.666676      0.430964      0.546830
  C       0.058711      0.158096     -0.696570
  O      -0.141543      1.461967     -0.236011
  H      -0.019502      0.197220      1.410150
  H       2.336770      0.299573      1.392089
  H       1.695917     -1.427302      1.424703
  H      -2.420527     -0.739604      0.867825
  H      -2.660168      0.673136     -0.175556
  H      -2.488065      0.882371      1.570398
  H       2.169836      0.237623     -1.073465
  H       1.478927     -1.404700     -1.001612
  H      -0.467515     -0.088749     -1.612430
15
Coordinates from ORCA-job scan E -19.246107588700
  C       1.842097     -0.507744      0.888313
  C      -2.153927      0.303133      0.710113
  C       1.472448     -0.417500     -0.540918
  C      -0.666982      0.421303      0.552141
  C       0.060555      0.165515     -0.692593
  O      -0.134865      1.463837     -0.212144
  H      -0.024796      0.171323      1.414246
  H       2.324654      0.309145      1.387176
  H       1.721978     -1.433204      1.418060
  H      -2.428422     -0.732236      0.901430
  H      -2.654581      0.641472     -0.194582
  H      -2.496076      0.913658      1.543367
  H       2.170524      0.232198     -1.077824
  H       1.473352     -1.407133     -1.001144
  H      -0.466256     -0.062988     -1.613668
15
Coordinates from ORCA-job scan E -19.246171685260
  C       1.845598     -0.504215      0.886691
  C      -2.157825      0.302647      0.705846
  C       1.468615     -0.422032     -0.542024
  C      -0.668114      0.408337      0.558602
  C       0.063496      0.174704     -0.687428
  O      -0.125161      1.464507     -0.180838
  H      -0.032374      0.138336      1.419020
  H       2.313199      0.328178      1.374504
  H       1.758214     -1.431913      1.417945
  H      -2.440052     -0.725880      0.920753
  H      -2.647774      0.621318     -0.211744
  H      -2.504309      0.935953      1.520073
  H       2.169666      0.216770     -1.088850
  H       1.459458     -1.414528     -0.996004
  H      -0.462929     -0.031403     -1.614571
15
Coordinates from ORCA-job scan E -19.246208551110
  C       1.848065     -0.500400      0.886333
  C      -2.161685      0.302085      0.702436
  C       1.466669     -0.426244     -0.541150
  C      -0.669673      0.398988      0.562675
  C       0.066159      0.182427     -0.684103
  O      -0.117905      1.464480     -0.157572
  H      -0.038184      0.114893      1.421594
  H       2.305404      0.343801      1.364014
  H       1.786734     -1.428121      1.420506
  H      -2.447379     -0.723056      0.928092
  H      -2.643560      0.612168     -0.222217
  H      -2.509324      0.946964      1.506778
  H       2.168443      0.201559     -1.099049
  H       1.444377     -1.420954     -0.990763
  H      -0.458436     -0.007812     -1.615600
15
Coordinates from ORCA-job scan E -19.246222978190
  C       1.848685     -0.499333      0.886554
  C      -2.163635      0.301647      0.701308
  C       1.466845     -0.427814     -0.539834
  C      -0.670911      0.396224      0.563502
  C       0.067436      0.186527     -0.683505
  O      -0.115691      1.464758     -0.149412
  H      -0.040309      0.107526      1.421764
  H       2.302227      0.348578      1.361567
  H       1.798205     -1.427247      1.421423
  H      -2.447991     -0.722694      0.931865
  H      -2.642989      0.607409     -0.225976
  H      -2.510832      0.951304      1.501793
  H       2.167805      0.195229     -1.103216
  H       1.435756     -1.422785     -0.988967
  H      -0.454894      0.001448     -1.616892
15
Coordinates from ORCA-job scan E -19.246226792470
  C       1.848473     -0.499771      0.886762
  C      -2.164012      0.301528      0.701459
  C       1.467539     -0.427827     -0.539123
  C      -0.671557      0.396751      0.562885
  C       0.067636      0.187638     -0.684001
  O      -0.116122      1.465106     -0.149764
  H      -0.040412      0.108224      1.421065
  H       2.301425      0.347546      1.363442
  H       1.799799     -1.428414      1.420680
  H      -2.446483     -0.722822      0.934155
  H      -2.643998      0.605116     -0.226176
  H      -2.510545      0.952674      1.500988
  H       2.167513      0.195272     -1.103452
  H       1.433501     -1.422328     -0.988994
  H      -0.453051      0.002086     -1.617951
15
Coordinates from ORCA-job scan E -19.246227680740
  C       1.848337     -0.499998      0.886831
  C      -2.163984      0.301597      0.701666
  C       1.467807     -0.427758     -0.538931
  C      -0.671837      0.397200      0.562383
  C       0.067583      0.187743     -0.684287
  O      -0.116537      1.465214     -0.150808
  H      -0.040386      0.108998      1.420569
  H       2.300990      0.346638      1.364976
  H       1.800149     -1.429237      1.419864
  H      -2.446057     -0.722713      0.935014
  H      -2.644781      0.604550     -0.225765
  H      -2.510077      0.953079      1.501143
  H       2.167226      0.196128     -1.103261
  H       1.433429     -1.422105     -0.988826
  H      -0.452156      0.001443     -1.618594
15
Coordinates from ORCA-job scan E -19.246014155170
  C       1.842423     -0.498734      0.888609
  C      -2.160911      0.300643      0.702930
  C       1.466988     -0.427427     -0.539657
  C      -0.669107      0.396731      0.560294
  C       0.067408      0.188527     -0.687172
  O      -0.115286      1.465669     -0.153130
  H      -0.034188      0.107065      1.416147
  H       2.293561      0.348131      1.367784
  H       1.792103     -1.427583      1.422130
  H      -2.442197     -0.723936      0.936049
  H      -2.643917      0.604274     -0.223135
  H      -2.505323      0.951355      1.503763
  H       2.168113      0.195878     -1.102513
  H       1.433440     -1.421933     -0.989264
  H      -0.453402      0.002120     -1.620861
15
Coordinates from ORCA-job scan E -19.246016713580
  C       1.842014     -0.498534      0.888835
  C      -2.161957      0.301142      0.703023
  C       1.467095     -0.427370     -0.539003
  C      -0.670173      0.396764      0.560186
  C       0.067277      0.188255     -0.687241
  O      -0.116232      1.465498     -0.153327
  H      -0.034955      0.106674      1.415777
  H       2.295761      0.347446      1.367094
  H       1.795611     -1.428512      1.420744
  H      -2.443682     -0.723294      0.936221
  H      -2.645087      0.604825     -0.222973
  H      -2.506183      0.951973      1.503862
  H       2.168365      0.196137     -1.101502
  H       1.434243     -1.422019     -0.988136
  H      -0.452389      0.001793     -1.621586
15
Coordinates from ORCA-job scan E -19.246017358910
  C       1.841858     -0.498461      0.889165
  C      -2.162664      0.301463      0.703090
  C       1.467059     -0.427311     -0.538556
  C      -0.671014      0.396860      0.560001
  C       0.067151      0.188085     -0.687341
  O      -0.116944      1.465396     -0.153536
  H      -0.035395      0.106513      1.415368
  H       2.297435      0.346841      1.366991
  H       1.798100     -1.429270      1.419956
  H      -2.444732     -0.722851      0.936474
  H      -2.646004      0.605101     -0.222831
  H      -2.506659      0.952451      1.503900
  H       2.168240      0.196489     -1.100949
  H       1.434690     -1.422052     -0.987510
  H      -0.451414      0.001523     -1.622249
15
Coordinates from ORCA-job scan E -19.245796683220
  C       1.835932     -0.497193      0.890927
  C      -2.159580      0.300507      0.704353
  C       1.466235     -0.426979     -0.539278
  C      -0.668284      0.396391      0.557914
  C       0.066978      0.188869     -0.690223
  O      -0.115692      1.465851     -0.155854
  H      -0.029202      0.104583      1.410937
  H       2.289996      0.348336      1.369794
  H       1.790050     -1.427614      1.422223
  H      -2.440862     -0.724077      0.937507
  H      -2.645125      0.604820     -0.220195
  H      -2.501892      0.950724      1.506513
  H       2.169118      0.196239     -1.100192
  H       1.434694     -1.421880     -0.987936
  H      -0.452659      0.002201     -1.624516
15
Coordinates from ORCA-job scan E -19.245799158690
  C       1.835557     -0.497226      0.891184
  C      -2.160594      0.300938      0.704460
  C       1.466366     -0.426854     -0.538630
  C      -0.669346      0.396648      0.557776
  C       0.066859      0.188650     -0.690353
  O      -0.116747      1.465762     -0.156188
  H      -0.029706      0.104716      1.410537
  H       2.292096      0.347404      1.369275
  H       1.793197     -1.428702      1.420929
  H      -2.441937     -0.723553      0.937931
  H      -2.646253      0.605008     -0.220123
  H      -2.502802      0.951407      1.506477
  H       2.169434      0.196523     -1.099008
  H       1.435345     -1.421769     -0.987181
  H      -0.451764      0.001827     -1.625111
15
Coordinates from ORCA-job scan E -19.245799846360
  C       1.835514     -0.497195      0.891507
  C      -2.161367      0.301183      0.704504
  C       1.466341     -0.426782     -0.538153
  C      -0.670259      0.396871      0.557621
  C       0.066771      0.188542     -0.690433
  O      -0.117459      1.465704     -0.156275
  H      -0.030016      0.104617      1.410050
  H       2.294166      0.346705      1.368987
  H       1.795284     -1.429302      1.420408
  H      -2.442760     -0.723244      0.938230
  H      -2.647140      0.605077     -0.220090
  H      -2.503436      0.951848      1.506414
  H       2.169422      0.196726     -1.098411
  H       1.435503     -1.421722     -0.986703
  H      -0.450858      0.001749     -1.625680
15
Coordinates from ORCA-job scan E -19.245572171060
  C       1.829576     -0.495922      0.893254
  C      -2.158273      0.300224      0.705766
  C       1.465513     -0.426449     -0.538870
  C      -0.667527      0.396401      0.555537
  C       0.066599      0.189325     -0.693313
  O      -0.116204      1.466158     -0.158587
  H      -0.023829      0.102688      1.405609
  H       2.286718      0.348203      1.371785
  H       1.787228     -1.427643      1.422675
  H      -2.438880     -0.724472      0.939260
  H      -2.646246      0.604794     -0.217451
  H      -2.498657      0.950117      1.509021
  H       2.170291      0.196476     -1.097646
  H       1.435500     -1.421551     -0.987121
  H      -0.452102      0.002428     -1.627945
15
Coordinates from ORCA-job scan E -19.245574713760
  C       1.829196     -0.496010      0.893518
  C      -2.159295      0.300636      0.705869
  C       1.465649     -0.426310     -0.538207
  C      -0.668597      0.396724      0.555399
  C       0.066490      0.189115     -0.693429
  O      -0.117278      1.466107     -0.158959
  H      -0.024282      0.102945      1.405204
  H       2.288905      0.347176      1.371239
  H       1.790277     -1.428756      1.421400
  H      -2.439867     -0.723978      0.939730
  H      -2.647380      0.604886     -0.217407
  H      -2.499618      0.950803      1.508944
  H       2.170645      0.196783     -1.096410
  H       1.436119     -1.421397     -0.986417
  H      -0.451259      0.002055     -1.628502
15
Coordinates from ORCA-job scan E -19.245575434660
  C       1.829156     -0.496012      0.893840
  C      -2.160076      0.300854      0.705912
  C       1.465636     -0.426229     -0.537725
  C      -0.669523      0.397002      0.555247
  C       0.066423      0.189004     -0.693492
  O      -0.118000      1.466075     -0.159068
  H      -0.024546      0.102948      1.404708
  H       2.291118      0.346396      1.370893
  H       1.792169     -1.429334      1.420948
  H      -2.440603     -0.723713      0.940054
  H      -2.648267      0.604879     -0.217395
  H      -2.500300      0.951223      1.508855
  H       2.170672      0.196996     -1.095775
  H       1.436246     -1.421314     -0.986002
  H      -0.450399      0.002003     -1.629026
15
Coordinates from ORCA-job scan E -19.245340817840
  C       1.823206     -0.494734      0.895571
  C      -2.156973      0.299893      0.707173
  C       1.464803     -0.425896     -0.538438
  C      -0.666789      0.396530      0.553166
  C       0.066252      0.189787     -0.696368
  O      -0.116742      1.466527     -0.161374
  H      -0.018364      0.101018      1.400258
  H       2.283662      0.347899      1.373687
  H       1.784107     -1.427670      1.423214
  H      -2.436714     -0.724943      0.941079
  H      -2.647359      0.604592     -0.214751
  H      -2.495510      0.949489      1.511456
  H       2.171531      0.196746     -1.095001
  H       1.436238     -1.421143     -0.986411
  H      -0.451643      0.002683     -1.631288
15
Coordinates from ORCA-job scan E -19.245343428310
  C       1.822837     -0.494830      0.895851
  C      -2.158012      0.300304      0.707267
  C       1.464940     -0.425751     -0.537764
  C      -0.667877      0.396874      0.553025
  C       0.066142      0.189574     -0.696472
  O      -0.117828      1.466486     -0.161755
  H      -0.018803      0.101288      1.399850
  H       2.285961      0.346824      1.373109
  H       1.787139     -1.428775      1.421955
  H      -2.437696     -0.724456      0.941543
  H      -2.648510      0.604674     -0.214721
  H      -2.496503      0.950172      1.511366
  H       2.171884      0.197060     -1.093745
  H       1.436854     -1.420978     -0.985713
  H      -0.450821      0.002311     -1.631821
15
Coordinates from ORCA-job scan E -19.245344177720
  C       1.822791     -0.494853      0.896179
  C      -2.158797      0.300517      0.707313
  C       1.464939     -0.425658     -0.537285
  C      -0.668814      0.397179      0.552866
  C       0.066083      0.189446     -0.696532
  O      -0.118572      1.466460     -0.161905
  H      -0.019040      0.101370      1.399356
  H       2.288252      0.345978      1.372758
  H       1.788927     -1.429361      1.421517
  H      -2.438400     -0.724203      0.941883
  H      -2.649412      0.604638     -0.214706
  H      -2.497201      0.950587      1.511274
  H       2.171920      0.197311     -1.093079
  H       1.437009     -1.420867     -0.985339
  H      -0.449981      0.002233     -1.632324
15
Coordinates from ORCA-job scan E -19.245102663660
  C       1.816829     -0.493570      0.897895
  C      -2.155684      0.299552      0.708573
  C       1.464102     -0.425325     -0.537994
  C      -0.666078      0.396707      0.550788
  C       0.065914      0.190228     -0.699404
  O      -0.117311      1.466911     -0.164205
  H      -0.012864      0.099440      1.394895
  H       2.280787      0.347484      1.375548
  H       1.780859     -1.427693      1.423781
  H      -2.434501     -0.725436      0.942905
  H      -2.648489      0.604348     -0.212058
  H      -2.492398      0.948850      1.513871
  H       2.172770      0.197062     -1.092297
  H       1.436996     -1.420695     -0.985739
  H      -0.451224      0.002915     -1.634584
15
Coordinates from ORCA-job scan E -19.245105343750
  C       1.816476     -0.493657      0.898188
  C      -2.156745      0.299966      0.708656
  C       1.464237     -0.425178     -0.537309
  C      -0.667186      0.397059      0.550647
  C       0.065799      0.190013     -0.699495
  O      -0.118404      1.466874     -0.164580
  H      -0.013299      0.099685      1.394486
  H       2.283198      0.346380      1.374933
  H       1.783898     -1.428777      1.422532
  H      -2.435501     -0.724949      0.943347
  H      -2.649659      0.604438     -0.212040
  H      -2.493421      0.949529      1.513772
  H       2.173116      0.197375     -1.091034
  H       1.437609     -1.420529     -0.985027
  H      -0.450411      0.002548     -1.635103
15
Coordinates from ORCA-job scan E -19.245106118000
  C       1.816422     -0.493700      0.898522
  C      -2.157531      0.300179      0.708708
  C       1.464246     -0.425072     -0.536834
  C      -0.668130      0.397385      0.550480
  C       0.065743      0.189867     -0.699554
  O      -0.119168      1.466849     -0.164771
  H      -0.013512      0.099840      1.393996
  H       2.285528      0.345476      1.374595
  H       1.785611     -1.429382      1.422090
  H      -2.436183     -0.724699      0.943708
  H      -2.650575      0.604381     -0.212019
  H      -2.494124      0.949948      1.513680
  H       2.173155      0.197669     -1.090345
  H       1.437801     -1.420394     -0.984687
  H      -0.449579      0.002431     -1.635595
15
Coordinates from ORCA-job scan E -19.244857752450
  C       1.810448     -0.492411      0.900223
  C      -2.154408      0.299211      0.709967
  C       1.463405     -0.424738     -0.537538
  C      -0.665393      0.396911      0.548406
  C       0.065576      0.190648     -0.702423
  O      -0.117905      1.467299     -0.167064
  H      -0.007341      0.097908      1.389526
  H       2.278055      0.346987      1.377382
  H       1.777537     -1.427710      1.424352
  H      -2.432275     -0.725935      0.944726
  H      -2.649638      0.604088     -0.209367
  H      -2.489310      0.948208      1.516271
  H       2.173995      0.197419     -1.089555
  H       1.437782     -1.420222     -0.985079
  H      -0.450822      0.003114     -1.637852
15
Coordinates from ORCA-job scan E -19.244860507010
  C       1.810117     -0.492483      0.900528
  C      -2.155494      0.299630      0.710038
  C       1.463537     -0.424592     -0.536840
  C      -0.666523      0.397264      0.548267
  C       0.065456      0.190433     -0.702498
  O      -0.118999      1.467264     -0.167421
  H      -0.007778      0.098104      1.389114
  H       2.280581      0.345866      1.376723
  H       1.780596     -1.428763      1.423115
  H      -2.433304     -0.725446      0.945140
  H      -2.650827      0.604196     -0.209361
  H      -2.490363      0.948881      1.516166
  H       2.174331      0.197722     -1.088295
  H       1.438386     -1.420060     -0.984342
  H      -0.450010      0.002761     -1.638360
15
Coordinates from ORCA-job scan E -19.244861305500
  C       1.810055     -0.492548      0.900868
  C      -2.156280      0.299843      0.710096
  C       1.463556     -0.424474     -0.536370
  C      -0.667472      0.397610      0.548093
  C       0.065403      0.190271     -0.702559
  O      -0.119786      1.467239     -0.167654
  H      -0.007965      0.098335      1.388632
  H       2.282922      0.344908      1.376410
  H       1.782257     -1.429399      1.422656
  H      -2.433967     -0.725195      0.945527
  H      -2.651756      0.604118     -0.209334
  H      -2.491069      0.949311      1.516073
  H       2.174372      0.198059     -1.087582
  H       1.438617     -1.419901     -0.984036
  H      -0.449181      0.002600     -1.638845
15
Coordinates from ORCA-job scan E -19.244606144320
  C       1.804068     -0.491253      0.902553
  C      -2.153147      0.298873      0.711355
  C       1.462710     -0.424139     -0.537070
  C      -0.664733      0.397135      0.546022
  C       0.065236      0.191051     -0.705425
  O      -0.118520      1.467688     -0.169941
  H      -0.001799      0.096402      1.384152
  H       2.275440      0.346423      1.379194
  H       1.774177     -1.427721      1.424915
  H      -2.430049     -0.726434      0.946540
  H      -2.650804      0.603821     -0.206677
  H      -2.486242      0.947567      1.518658
  H       2.175201      0.197810     -1.086783
  H       1.438592     -1.419729     -0.984418
  H      -0.450423      0.003284     -1.641101
15
Coordinates from ORCA-job scan E -19.244608977560
  C       1.803766     -0.491298      0.902870
  C      -2.154261      0.299295      0.711410
  C       1.462837     -0.423996     -0.536360
  C      -0.665887      0.397483      0.545888
  C       0.065112      0.190838     -0.705482
  O      -0.119611      1.467652     -0.170264
  H      -0.002242      0.096525      1.383737
  H       2.278088      0.345299      1.378482
  H       1.777264     -1.428730      1.423698
  H      -2.431118     -0.725944      0.946915
  H      -2.652011      0.603956     -0.206685
  H      -2.487327      0.948231      1.518548
  H       2.175527      0.198090     -1.085536
  H       1.439178     -1.419580     -0.983648
  H      -0.449608      0.002957     -1.641599
15
Coordinates from ORCA-job scan E -19.244609800060
  C       1.803690     -0.491394      0.903215
  C      -2.155045      0.299511      0.711477
  C       1.462866     -0.423866     -0.535894
  C      -0.666840      0.397851      0.545705
  C       0.065060      0.190660     -0.705546
  O      -0.120422      1.467630     -0.170545
  H      -0.002399      0.096845      1.383266
  H       2.280410      0.344287      1.378206
  H       1.778889     -1.429411      1.423211
  H      -2.431757     -0.725689      0.947339
  H      -2.652954      0.603849     -0.206651
  H      -2.488033      0.948678      1.518450
  H       2.175568      0.198474     -1.084798
  H       1.439450     -1.419395     -0.983379
  H      -0.448778      0.002746     -1.642081
15
Coordinates from ORCA-job scan E -19.244347909580
  C       1.797692     -0.490093      0.904884
  C      -2.151902      0.298539      0.712735
  C       1.462016     -0.423530     -0.536591
  C      -0.664100      0.397375      0.543637
  C       0.064895      0.191439     -0.708409
  O      -0.119154      1.468077     -0.172825
  H       0.003762      0.094911      1.378776
  H       2.272919      0.345806      1.380987
  H       1.770803     -1.427729      1.425468
  H      -2.427830     -0.726930      0.948349
  H      -2.651987      0.603549     -0.203990
  H      -2.483195      0.946931      1.521030
  H       2.176388      0.198225     -1.083990
  H       1.439420     -1.419223     -0.983753
  H      -0.450020      0.003430     -1.644334
15
Coordinates from ORCA-job scan E -19.244350825540
  C       1.797427     -0.490100      0.905212
  C      -2.153048      0.298965      0.712772
  C       1.462135     -0.423396     -0.535868
  C      -0.665280      0.397708      0.543512
  C       0.064766      0.191232     -0.708445
  O      -0.120233      1.468038     -0.173096
  H       0.003307      0.094929      1.378358
  H       2.275705      0.344694      1.380206
  H       1.773921     -1.428673      1.424281
  H      -2.428949     -0.726439      0.948670
  H      -2.653210      0.603722     -0.204015
  H      -2.484315      0.947580      1.520916
  H       2.176700      0.198468     -1.082768
  H       1.439977     -1.419096     -0.982936
  H      -0.449197      0.003147     -1.644823
15
Coordinates from ORCA-job scan E -19.244351671870
  C       1.797331     -0.490240      0.905563
  C      -2.153826      0.299185      0.712850
  C       1.462176     -0.423250     -0.535407
  C      -0.666234      0.398106      0.543317
  C       0.064717      0.191037     -0.708516
  O      -0.121077      1.468021     -0.173439
  H       0.003187      0.095367      1.377900
  H       2.277971      0.343618      1.379986
  H       1.775527     -1.429424      1.423749
  H      -2.429556     -0.726177      0.949148
  H      -2.654167      0.603575     -0.203974
  H      -2.485018      0.948055      1.520809
  H       2.176745      0.198909     -1.081994
  H       1.440297     -1.418877     -0.982715
  H      -0.448367      0.002873     -1.645302
15
Coordinates from ORCA-job scan E -19.244083130990
  C       1.791321     -0.488933      0.907216
  C      -2.150673      0.298210      0.714108
  C       1.461322     -0.422913     -0.536100
  C      -0.663493      0.397628      0.541253
  C       0.064552      0.191814     -0.711376
  O      -0.119805      1.468467     -0.175713
  H       0.009343      0.093432      1.373400
  H       2.270472      0.345141      1.382765
  H       1.767435     -1.427737      1.426004
  H      -2.425620     -0.727421      0.950154
  H      -2.653186      0.603272     -0.201308
  H      -2.480168      0.946305      1.523385
  H       2.177554      0.198661     -1.081179
  H       1.440262     -1.418705     -0.983081
  H      -0.449609      0.003558     -1.647553
15
Coordinates from ORCA-job scan E -19.244086133030
  C       1.791105     -0.488881      0.907552
  C      -2.151856      0.298638      0.714121
  C       1.461431     -0.422794     -0.535364
  C      -0.664703      0.397936      0.541140
  C       0.064420      0.191616     -0.711384
  O      -0.120862      1.468421     -0.175905
  H       0.008868      0.093298      1.372977
  H       2.273424      0.344064      1.381890
  H       1.770583     -1.428585      1.424867
  H      -2.426804     -0.726933      0.950399
  H      -2.654422      0.603501     -0.201352
  H      -2.481327      0.946926      1.523270
  H       2.177850      0.198843     -1.080001
  H       1.440772     -1.418613     -0.982201
  H      -0.448774      0.003342     -1.648034
15
Coordinates from ORCA-job scan E -19.244087002510
  C       1.790975     -0.489090      0.907910
  C      -2.152623      0.298866      0.714216
  C       1.461486     -0.422628     -0.534909
  C      -0.665656      0.398376      0.540929
  C       0.064372      0.191401     -0.711467
  O      -0.121750      1.468414     -0.176337
  H       0.008797      0.093907      1.372537
  H       2.275585      0.342904      1.381757
  H       1.772189     -1.429447      1.424262
  H      -2.427364     -0.726658      0.950959
  H      -2.655397      0.603291     -0.201302
  H      -2.482024      0.947448      1.523148
  H       2.177902      0.199363     -1.079171
  H       1.441159     -1.418348     -0.982046
  H      -0.447946      0.002980     -1.648510
15
Coordinates from ORCA-job scan E -19.243811906380
  C       1.784953     -0.487778      0.909547
  C      -2.149461      0.297888      0.715473
  C       1.460627     -0.422290     -0.535598
  C      -0.662913      0.397897      0.538868
  C       0.064209      0.192178     -0.714324
  O      -0.120476      1.468858     -0.178606
  H       0.014948      0.091969      1.368026
  H       2.268078      0.344431      1.384534
  H       1.764092     -1.427755      1.426514
  H      -2.423418     -0.727904      0.951961
  H      -2.654401      0.602985     -0.198631
  H      -2.477162      0.945695      1.525718
  H       2.178701      0.199115     -1.078348
  H       1.441119     -1.418175     -0.982403
  H      -0.449187      0.003665     -1.650759
15
Coordinates from ORCA-job scan E -19.243814995280
  C       1.784807     -0.487636      0.909890
  C      -2.150688      0.298314      0.715455
  C       1.460721     -0.422194     -0.534850
  C      -0.664157      0.398160      0.538776
  C       0.064075      0.191995     -0.714296
  O      -0.121490      1.468799     -0.178676
  H       0.014439      0.091611      1.367598
  H       2.271243      0.343423      1.383526
  H       1.767260     -1.428454      1.425461
  H      -2.424693     -0.727425      0.952092
  H      -2.655646      0.603298     -0.198700
  H      -2.478365      0.946268      1.525609
  H       2.178976      0.199204     -1.077244
  H       1.441556     -1.418140     -0.981434
  H      -0.448333      0.003557     -1.651232
15
Coordinates from ORCA-job scan E -19.243815885240
  C       1.784619     -0.487955      0.910258
  C      -2.151439      0.298555      0.715577
  C       1.460796     -0.421998     -0.534398
  C      -0.665106      0.398667      0.538539
  C       0.064028      0.191754     -0.714402
  O      -0.122448      1.468810     -0.179248
  H       0.014436      0.092479      1.367180
  H       2.273229      0.342138      1.383528
  H       1.768899     -1.429497      1.424735
  H      -2.425177     -0.727127      0.952785
  H      -2.656647      0.602990     -0.198636
  H      -2.479054      0.946865      1.525461
  H       2.179042      0.199842     -1.076321
  H       1.442040     -1.417803     -0.981376
  H      -0.447512      0.003059     -1.651706
15
Coordinates from ORCA-job scan E -19.243534352630
  C       1.778584     -0.486636      0.911879
  C      -2.148266      0.297574      0.716833
  C       1.459934     -0.421659     -0.535083
  C      -0.662362      0.398187      0.536482
  C       0.063865      0.192529     -0.717256
  O      -0.121172      1.469253     -0.181510
  H       0.020582      0.090540      1.362659
  H       2.265714      0.343671      1.386303
  H       1.760796     -1.427801      1.426986
  H      -2.421223     -0.728376      0.953782
  H      -2.655637      0.602680     -0.195961
  H      -2.474181      0.945108      1.528027
  H       2.179831      0.199594     -1.075490
  H       1.441995     -1.417631     -0.981724
  H      -0.448754      0.003745     -1.653953
15
Coordinates from ORCA-job scan E -19.243537521450
  C       1.778541     -0.486352      0.912222
  C      -2.149549      0.297993      0.716770
  C       1.460005     -0.421602     -0.534326
  C      -0.663645      0.398373      0.536424
  C       0.063733      0.192370     -0.717177
  O      -0.122111      1.469170     -0.181391
  H       0.020015      0.089840      1.362221
  H       2.269174      0.342787      1.385101
  H       1.763960     -1.428264      1.426074
  H      -2.422625     -0.727915      0.953738
  H      -2.656882      0.603122     -0.196061
  H      -2.475435      0.945599      1.527934
  H       2.180078      0.199535     -1.074509
  H       1.442317     -1.417685     -0.980626
  H      -0.447871      0.003808     -1.654418
15
Coordinates from ORCA-job scan E -19.243538423070
  C       1.778256     -0.486844      0.912607
  C      -2.150277      0.298258      0.716933
  C       1.460111     -0.421358     -0.533872
  C      -0.664590      0.398986      0.536147
  C       0.063682      0.192092     -0.717322
  O      -0.123182      1.469213     -0.182182
  H       0.020108      0.091102      1.361831
  H       2.270893      0.341310      1.385306
  H       1.765687     -1.429597      1.425150
  H      -2.422998     -0.727578      0.954637
  H      -2.657926      0.602663     -0.195979
  H      -2.476114      0.946318      1.527745
  H       2.180170      0.200353     -1.073430
  H       1.442950     -1.417239     -0.980707
  H      -0.447065      0.003099     -1.654890
15
Coordinates from ORCA-job scan E -19.243250613080
  C       1.772210     -0.485520      0.914213
  C      -2.147095      0.297275      0.718189
  C       1.459244     -0.421018     -0.534552
  C      -0.661844      0.398503      0.534094
  C       0.063520      0.192866     -0.720172
  O      -0.121902      1.469654     -0.184438
  H       0.026249      0.089161      1.357299
  H       2.263369      0.342847      1.388079
  H       1.757579     -1.427896      1.427399
  H      -2.419034     -0.728830      0.955630
  H      -2.656902      0.602350     -0.193299
  H      -2.471229      0.944559      1.530305
  H       2.180948      0.200106     -1.072591
  H       1.442900     -1.417066     -0.981047
  H      -0.448306      0.003786     -1.657135
15
Coordinates from ORCA-job scan E -19.243253834310
  C       1.772316     -0.485017      0.914549
  C      -2.148445      0.297674      0.718063
  C       1.459280     -0.421021     -0.533792
  C      -0.663173      0.398566      0.534086
  C       0.063394      0.192744     -0.720023
  O      -0.122719      1.469532     -0.184030
  H       0.025592      0.087953      1.356847
  H       2.267238      0.342171      1.386595
  H       1.760690     -1.427995      1.426716
  H      -2.420614     -0.728406      0.955322
  H      -2.658129      0.602985     -0.193439
  H      -2.472540      0.944914      1.530246
  H       2.181155      0.199820     -1.071811
  H       1.443042     -1.417258     -0.979764
  H      -0.447382      0.004114     -1.657592
15
Coordinates from ORCA-job scan E -19.243254729910
  C       1.771891     -0.485753      0.914960
  C      -2.149153      0.297979      0.718282
  C       1.459429     -0.420709     -0.533321
  C      -0.664120      0.399330      0.533753
  C       0.063333      0.192416     -0.720221
  O      -0.123957      1.469620     -0.185130
  H       0.025808      0.089756      1.356489
  H       2.268607      0.340418      1.387072
  H       1.762598     -1.429746      1.425495
  H      -2.420844     -0.728006      0.956512
  H      -2.659245      0.602318     -0.193333
  H      -2.473220      0.945814      1.529995
  H       2.181287      0.200889     -1.070492
  H       1.443888     -1.416657     -0.980023
  H      -0.446596      0.003109     -1.658064
15
Coordinates from ORCA-job scan E -19.242960869840
  C       1.765833     -0.484423      0.916550
  C      -2.145962      0.296993      0.719537
  C       1.458557     -0.420368     -0.533998
  C      -0.661374      0.398847      0.531703
  C       0.063173      0.193189     -0.723068
  O      -0.122675      1.470060     -0.187379
  H       0.031944      0.087812      1.351946
  H       2.261075      0.341959      1.389844
  H       1.754485     -1.428040      1.427742
  H      -2.416872     -0.729261      0.957501
  H      -2.658206      0.602002     -0.190650
  H      -2.468324      0.944051      1.532550
  H       2.182055      0.200643     -1.069645
  H       1.443834     -1.416484     -0.980354
  H      -0.447836      0.003796     -1.660307
15
Coordinates from ORCA-job scan E -19.242964073820
  C       1.766135     -0.483627      0.916871
  C      -2.147380      0.297358      0.719333
  C       1.458548     -0.420452     -0.533246
  C      -0.662745      0.398740      0.531763
  C       0.063059      0.193119     -0.722832
  O      -0.123316      1.469884     -0.186588
  H       0.031171      0.085945      1.351478
  H       2.265441      0.341577      1.388006
  H       1.757462     -1.427645      1.427387
  H      -2.418667     -0.728896      0.956843
  H      -2.659393      0.602888     -0.190834
  H      -2.469687      0.944213      1.532544
  H       2.182207      0.200057     -1.069149
  H       1.443730     -1.416860     -0.978845
  H      -0.446860      0.004479     -1.660757
15
Coordinates from ORCA-job scan E -19.242964956080
  C       1.765564     -0.484617      0.917313
  C      -2.148087      0.297714      0.719607
  C       1.458741     -0.420070     -0.532745
  C      -0.663711      0.399664      0.531373
  C       0.062985      0.192738     -0.723082
  O      -0.124736      1.470021     -0.188006
  H       0.031505      0.088288      1.351151
  H       2.266485      0.339528      1.388744
  H       1.759622     -1.429838      1.425836
  H      -2.418770     -0.728421      0.958332
  H      -2.660599      0.602014     -0.190710
  H      -2.470389      0.945312      1.532223
  H       2.182385      0.201381     -1.067564
  H       1.444803     -1.416101     -0.979268
  H      -0.446091      0.003165     -1.661228
15
Coordinates from ORCA-job scan E -19.242665305560
  C       1.759494     -0.483280      0.918887
  C      -2.144886      0.296726      0.720861
  C       1.457866     -0.419728     -0.533418
  C      -0.660963      0.399179      0.529328
  C       0.062825      0.193509     -0.725926
  O      -0.123452      1.470459     -0.190249
  H       0.037636      0.086342      1.346597
  H       2.258944      0.341074      1.391514
  H       1.751503     -1.428127      1.428082
  H      -2.414789     -0.729678      0.959317
  H      -2.659545      0.601694     -0.188023
  H      -2.465482      0.943547      1.534773
  H       2.183143      0.201137     -1.066710
  H       1.444744     -1.415928     -0.979591
  H      -0.447331      0.003854     -1.663469
15
Coordinates from ORCA-job scan E -19.242668409610
  C       1.759968     -0.482239      0.919192
  C      -2.146342      0.297051      0.720592
  C       1.457817     -0.419882     -0.532690
  C      -0.662353      0.398927      0.529445
  C       0.062727      0.193484     -0.725618
  O      -0.123931      1.470236     -0.189132
  H       0.036782      0.083937      1.346124
  H       2.263682      0.340951      1.389404
  H       1.754296     -1.427306      1.428031
  H      -2.416742     -0.729376      0.958365
  H      -2.660679      0.602781     -0.188243
  H      -2.466866      0.943534      1.534813
  H       2.183242      0.200299     -1.066481
  H       1.444422     -1.416459     -0.977918
  H      -0.446317      0.004840     -1.663909
15
Coordinates from ORCA-job scan E -19.242669303210
  C       1.759317     -0.483382      0.919650
  C      -2.147055      0.297441      0.720895
  C       1.458036     -0.419460     -0.532171
  C      -0.663335      0.399945      0.529023
  C       0.062645      0.193070     -0.725890
  O      -0.125457      1.470402     -0.190731
  H       0.037193      0.086586      1.345824
  H       2.264535      0.338729      1.390285
  H       1.756620     -1.429755      1.426278
  H      -2.416779     -0.728850      0.960029
  H      -2.661942      0.601786     -0.188114
  H      -2.467592      0.944758      1.534445
  H       2.183444      0.201771     -1.064742
  H       1.445631     -1.415608     -0.978434
  H      -0.445557      0.003345     -1.664373
15
Coordinates from ORCA-job scan E -19.242364003980
  C       1.753235     -0.482040      0.921208
  C      -2.143844      0.296450      0.722149
  C       1.457157     -0.419118     -0.532841
  C      -0.660585      0.399459      0.526982
  C       0.062487      0.193840     -0.728731
  O      -0.124170      1.470839     -0.192968
  H       0.043320      0.084640      1.341260
  H       2.256986      0.340279      1.393055
  H       1.748496     -1.428040      1.428523
  H      -2.412788     -0.730109      0.961011
  H      -2.660875      0.601464     -0.185422
  H      -2.462674      0.942989      1.536990
  H       2.184193      0.201527     -1.063879
  H       1.445567     -1.415435     -0.978749
  H      -0.446797      0.004034     -1.666612
15
Coordinates from ORCA-job scan E -19.242367037960
  C       1.753786     -0.480913      0.921509
  C      -2.145305      0.296754      0.721853
  C       1.457093     -0.419296     -0.532132
  C      -0.661975      0.399158      0.527119
  C       0.062398      0.193834     -0.728393
  O      -0.124584      1.470604     -0.191735
  H       0.042459      0.082057      1.340798
  H       2.261829      0.340249      1.390865
  H       1.751181     -1.427061      1.428595
  H      -2.414785     -0.729837      0.959957
  H      -2.661984      0.602609     -0.185659
  H      -2.464060      0.942908      1.537041
  H       2.184266      0.200602     -1.063767
  H       1.445159     -1.416019     -0.977037
  H      -0.445772      0.005130     -1.667041
15
Coordinates from ORCA-job scan E -19.242367941040
  C       1.753103     -0.482136      0.921973
  C      -2.146022      0.297162      0.722168
  C       1.457327     -0.418857     -0.531610
  C      -0.662970      0.400223      0.526683
  C       0.062315      0.193398     -0.728668
  O      -0.126158      1.470781     -0.193416
  H       0.042924      0.084857      1.340524
  H       2.262579      0.337942      1.391819
  H       1.753576     -1.429632      1.426747
  H      -2.414789     -0.729284      0.961709
  H      -2.663276      0.601552     -0.185531
  H      -2.464800      0.944200      1.536643
  H       2.184474      0.202148     -1.061962
  H       1.446436     -1.415123     -0.977609
  H      -0.445012      0.003547     -1.667496
15
Coordinates from ORCA-job scan E -19.242057104130
  C       1.747009     -0.480788      0.923516
  C      -2.142803      0.296169      0.723422
  C       1.456443     -0.418514     -0.532277
  C      -0.660219      0.399736      0.524645
  C       0.062158      0.194168     -0.731506
  O      -0.124868      1.471216     -0.195647
  H       0.049046      0.082909      1.335948
  H       2.255022      0.339496      1.394588
  H       1.745446     -1.427913      1.428990
  H      -2.410790     -0.730546      0.962687
  H      -2.662194      0.601226     -0.182835
  H      -2.459871      0.942429      1.539184
  H       2.185212      0.201904     -1.061092
  H       1.446366     -1.414950     -0.977915
  H      -0.446251      0.004236     -1.669733
15
Coordinates from ORCA-job scan E -19.242060133150
  C       1.747634     -0.479572      0.923816
  C      -2.144287      0.296459      0.723099
  C       1.456367     -0.418715     -0.531574
  C      -0.661623      0.399390      0.524804
  C       0.062074      0.194180     -0.731135
  O      -0.125230      1.470972     -0.194296
  H       0.048170      0.080136      1.335496
  H       2.260010      0.339544      1.392296
  H       1.748082     -1.426784      1.429160
  H      -2.412850     -0.730296      0.961528
  H      -2.663296      0.602436     -0.183093
  H      -2.461281      0.942288      1.539242
  H       2.185268      0.200888     -1.061076
  H       1.445880     -1.415589     -0.976141
  H      -0.445212      0.005440     -1.670151
15
Coordinates from ORCA-job scan E -19.242061057370
  C       1.746915     -0.480881      0.924286
  C      -2.145011      0.296890      0.723425
  C       1.456617     -0.418259     -0.531046
  C      -0.662630      0.400503      0.524353
  C       0.061989      0.193724     -0.731414
  O      -0.126855      1.471161     -0.196065
  H       0.048686      0.083088      1.335252
  H       2.260650      0.337151      1.393321
  H       1.750569     -1.429487      1.427205
  H      -2.412824     -0.729710      0.963371
  H      -2.664619      0.601317     -0.182969
  H      -2.462040      0.943654      1.538812
  H       2.185485      0.202510     -1.059197
  H       1.447232     -1.414645     -0.976767
  H      -0.444458      0.003762     -1.670593
15
Coordinates from ORCA-job scan E -19.241744888860
  C       1.740809     -0.479527      0.925813
  C      -2.141782      0.295893      0.724678
  C       1.455729     -0.417914     -0.531709
  C      -0.659878      0.400015      0.522320
  C       0.061832      0.194492     -0.734249
  O      -0.125563      1.471595     -0.198291
  H       0.054805      0.081140      1.330664
  H       2.253086      0.338708      1.396090
  H       1.742434     -1.427764      1.429446
  H      -2.408816     -0.730975      0.964345
  H      -2.663524      0.600988     -0.180268
  H      -2.457100      0.941881      1.541348
  H       2.186214      0.202267     -1.058319
  H       1.447158     -1.414472     -0.977065
  H      -0.445697      0.004452     -1.672828
15
Coordinates from ORCA-job scan E -19.241747923100
  C       1.741512     -0.478215      0.926112
  C      -2.143293      0.296170      0.724326
  C       1.455640     -0.418140     -0.531013
  C      -0.661299      0.399620      0.522501
  C       0.061755      0.194523     -0.733844
  O      -0.125873      1.471338     -0.196816
  H       0.053912      0.078167      1.330224
  H       2.258230      0.338840      1.393691
  H       1.745021     -1.426480      1.429720
  H      -2.410946     -0.730747      0.963077
  H      -2.664618      0.602268     -0.180548
  H      -2.458535      0.941677      1.541415
  H       2.186252      0.201157     -1.058406
  H       1.446589     -1.415168     -0.975226
  H      -0.444640      0.005770     -1.673239
15
Coordinates from ORCA-job scan E -19.241748884970
  C       1.740759     -0.479610      0.926590
  C      -2.144028      0.296624      0.724663
  C       1.455905     -0.417666     -0.530479
  C      -0.662323      0.400781      0.522037
  C       0.061666      0.194043     -0.734125
  O      -0.127551      1.471539     -0.198670
  H       0.054482      0.081266      1.330013
  H       2.258770      0.336360      1.394785
  H       1.747609     -1.429315      1.427658
  H      -2.410895     -0.730127      0.965010
  H      -2.665975      0.601087     -0.180428
  H      -2.459316      0.943120      1.540950
  H       2.186475      0.202854     -1.056454
  H       1.448014     -1.414178     -0.975906
  H      -0.443887      0.004000     -1.673670
15
Coordinates from ORCA-job scan E -19.241427636110
  C       1.734642     -0.478252      0.928102
  C      -2.140790      0.295625      0.725916
  C       1.455013     -0.417321     -0.531139
  C      -0.659570      0.400292      0.520007
  C       0.061511      0.194810     -0.736957
  O      -0.126257      1.471972     -0.200889
  H       0.060597      0.079317      1.325413
  H       2.251198      0.337921      1.397554
  H       1.739468     -1.427587      1.429898
  H      -2.406878     -0.731394      0.965981
  H      -2.664866      0.600755     -0.177724
  H      -2.454366      0.941344      1.543480
  H       2.187194      0.202611     -1.055569
  H       1.447934     -1.414004     -0.976196
  H      -0.445126      0.004690     -1.675903
15
Coordinates from ORCA-job scan E -19.241430672920
  C       1.735418     -0.476853      0.928399
  C      -2.142324      0.295888      0.725537
  C       1.454913     -0.417569     -0.530450
  C      -0.661006      0.399855      0.520209
  C       0.061440      0.194859     -0.736520
  O      -0.126518      1.471705     -0.199302
  H       0.059692      0.076165      1.324986
  H       2.256481      0.338128      1.395060
  H       1.742006     -1.426163      1.430266
  H      -2.409071     -0.731188      0.964616
  H      -2.665954      0.602094     -0.178025
  H      -2.455826      0.941083      1.543554
  H       2.187216      0.201416     -1.055750
  H       1.447290     -1.414751     -0.974301
  H      -0.444052      0.006111     -1.676304
15
Coordinates from ORCA-job scan E -19.241431679580
  C       1.734637     -0.478331      0.928883
  C      -2.143070      0.296365      0.725883
  C       1.455193     -0.417079     -0.529911
  C      -0.662047      0.401062      0.519732
  C       0.061349      0.194358     -0.736801
  O      -0.128246      1.471916     -0.201232
  H       0.060318      0.079402      1.324811
  H       2.256927      0.335564      1.396218
  H       1.744688     -1.429121      1.428104
  H      -2.408996     -0.730536      0.966634
  H      -2.667344      0.600855     -0.177912
  H      -2.456630      0.942602      1.543054
  H       2.187444      0.203185     -1.053732
  H       1.448783     -1.413717     -0.975033
  H      -0.443300      0.004253     -1.676722
15
Coordinates from ORCA-job scan E -19.241105624860
  C       1.728508     -0.476966      0.930379
  C      -2.139824      0.295364      0.727135
  C       1.454297     -0.416733     -0.530567
  C      -0.659293      0.400572      0.517706
  C       0.061195      0.195124     -0.739630
  O      -0.126949      1.472347     -0.203446
  H       0.066429      0.077452      1.320198
  H       2.249348      0.337129      1.398987
  H       1.736542     -1.427389      1.430342
  H      -2.404971     -0.731805      0.967602
  H      -2.666221      0.600519     -0.175204
  H      -2.451670      0.940823      1.545579
  H       2.188154      0.202942     -1.052840
  H       1.448699     -1.413544     -0.975315
  H      -0.444538      0.004944     -1.678953
15
Coordinates from ORCA-job scan E -19.241108664730
  C       1.729357     -0.475480      0.930675
  C      -2.141383      0.295612      0.726729
  C       1.454187     -0.417002     -0.529886
  C      -0.660745      0.400094      0.517929
  C       0.061130      0.195189     -0.739160
  O      -0.127163      1.472071     -0.201747
  H       0.065515      0.074123      1.319788
  H       2.254771      0.337408      1.396398
  H       1.739032     -1.425826      1.430802
  H      -2.407226     -0.731620      0.966140
  H      -2.667305      0.601916     -0.175527
  H      -2.453156      0.940506      1.545657
  H       2.188160      0.201663     -1.053115
  H       1.447982     -1.414342     -0.973365
  H      -0.443447      0.006467     -1.679345
15
Coordinates from ORCA-job scan E -19.241109726830
  C       1.728549     -0.477041      0.931164
  C      -2.142141      0.296112      0.727082
  C       1.454480     -0.416497     -0.529343
  C      -0.661805      0.401346      0.517441
  C       0.061037      0.194667     -0.739439
  O      -0.128939      1.472292     -0.203752
  H       0.066197      0.077492      1.319651
  H       2.255125      0.334765      1.397617
  H       1.741808     -1.428904      1.428542
  H      -2.407130     -0.730935      0.968241
  H      -2.668726      0.600619     -0.175422
  H      -2.453985      0.942100      1.545121
  H       2.188393      0.203502     -1.051033
  H       1.449541     -1.413265     -0.974149
  H      -0.442697      0.004525     -1.679748
15
Coordinates from ORCA-job scan E -19.240779171550
  C       1.722409     -0.475671      0.932646
  C      -2.138886      0.295109      0.728334
  C       1.453580     -0.416150     -0.529995
  C      -0.659050      0.400855      0.515420
  C       0.060884      0.195431     -0.742264
  O      -0.127639      1.472723     -0.205960
  H       0.072304      0.075542      1.315025
  H       2.247539      0.336333      1.400386
  H       1.733657     -1.427168      1.430778
  H      -2.403097     -0.732206      0.969206
  H      -2.667590      0.600279     -0.172710
  H      -2.449015      0.940318      1.547641
  H       2.189093      0.203259     -1.050134
  H       1.449452     -1.413091     -0.974422
  H      -0.443935      0.005215     -1.681978
15
Coordinates from ORCA-job scan E -19.240782215880
  C       1.723330     -0.474102      0.932940
  C      -2.140471      0.295344      0.727903
  C       1.453461     -0.416440     -0.529322
  C      -0.660518      0.400337      0.515663
  C       0.060824      0.195513     -0.741763
  O      -0.127810      1.472437     -0.204155
  H       0.071383      0.072046      1.314634
  H       2.253095      0.336680      1.397706
  H       1.736101     -1.425474      1.431325
  H      -2.405413     -0.732042      0.967654
  H      -2.668670      0.601730     -0.173055
  H      -2.450528      0.939949      1.547723
  H       2.189085      0.201900     -1.050499
  H       1.448665     -1.413937     -0.972421
  H      -0.442828      0.006835     -1.682359
15
Coordinates from ORCA-job scan E -19.240783342900
  C       1.722498     -0.475745      0.933433
  C      -2.141242      0.295867      0.728262
  C       1.453769     -0.415919     -0.528774
  C      -0.661597      0.401635      0.515164
  C       0.060729      0.194968     -0.742038
  O      -0.129633      1.472669     -0.206231
  H       0.072124      0.075544      1.314540
  H       2.253362      0.333957      1.398984
  H       1.738971     -1.428670      1.428968
  H      -2.405297     -0.731322      0.969837
  H      -2.670125      0.600375     -0.172961
  H      -2.451385      0.941619      1.547148
  H       2.189320      0.203809     -1.048356
  H       1.450291     -1.412818     -0.973257
  H      -0.442079      0.004809     -1.682747
15
Coordinates from ORCA-job scan E -19.240448630070
  C       1.716346     -0.474370      0.934900
  C      -2.137978      0.294862      0.729514
  C       1.452865     -0.415572     -0.529422
  C      -0.658841      0.401143      0.513146
  C       0.060577      0.195732     -0.744860
  O      -0.128331      1.473098     -0.208433
  H       0.078227      0.073593      1.309901
  H       2.245769      0.335528      1.401754
  H       1.730815     -1.426930      1.431203
  H      -2.401255     -0.732595      0.970799
  H      -2.668975      0.600032     -0.170245
  H      -2.446405      0.939835      1.549663
  H       2.190011      0.203567     -1.047449
  H       1.450196     -1.412644     -0.973522
  H      -0.443316      0.005500     -1.684974
15
Coordinates from ORCA-job scan E -19.240451676470
  C       1.717340     -0.472714      0.935192
  C      -2.139589      0.295084      0.729055
  C       1.452738     -0.415882     -0.528757
  C      -0.660326      0.400586      0.513411
  C       0.060524      0.195830     -0.744326
  O      -0.128457      1.472803     -0.206519
  H       0.077299      0.069926      1.309532
  H       2.251463      0.335944      1.398981
  H       1.733213     -1.425102      1.431837
  H      -2.403634     -0.732452      0.969154
  H      -2.670053      0.601537     -0.170613
  H      -2.447947      0.939412      1.549748
  H       2.189991      0.202126     -1.047907
  H       1.449338     -1.413538     -0.971468
  H      -0.442192      0.007218     -1.685345
15
Coordinates from ORCA-job scan E -19.240452882740
  C       1.716487     -0.474442      0.935689
  C      -2.140374      0.295631      0.729420
  C       1.453059     -0.415347     -0.528206
  C      -0.661425      0.401927      0.512902
  C       0.060426      0.195264     -0.744596
  O      -0.130327      1.473045     -0.208666
  H       0.078102      0.073550      1.309485
  H       2.251642      0.333143      1.400317
  H       1.736176     -1.428415      1.429384
  H      -2.403499     -0.731698      0.971419
  H      -2.671540      0.600124     -0.170531
  H      -2.448832      0.941159      1.549133
  H       2.190227      0.204104     -1.045704
  H       1.451030     -1.412377     -0.972357
  H      -0.441446      0.005109     -1.685715
15
Coordinates from ORCA-job scan E -19.240114390230
  C       1.710324     -0.473062      0.937141
  C      -2.137102      0.294623      0.730671
  C       1.452151     -0.414999     -0.528851
  C      -0.658667      0.401435      0.510889
  C       0.060276      0.196026     -0.747415
  O      -0.129022      1.473473     -0.210862
  H       0.084201      0.071599      1.304833
  H       2.244042      0.334717      1.403087
  H       1.728015     -1.426671      1.431618
  H      -2.399449     -0.732973      0.972378
  H      -2.670377      0.599778     -0.167811
  H      -2.443842      0.939373      1.551643
  H       2.190909      0.203862     -1.044790
  H       1.450930     -1.412203     -0.972614
  H      -0.442683      0.005800     -1.687941
15
Coordinates from ORCA-job scan E -19.240117441550
  C       1.711388     -0.471325      0.937430
  C      -2.138739      0.294833      0.730187
  C       1.452017     -0.415327     -0.528195
  C      -0.660170      0.400842      0.511173
  C       0.060229      0.196139     -0.746849
  O      -0.129107      1.473170     -0.208846
  H       0.083270      0.067773      1.304489
  H       2.249866      0.335195      1.400228
  H       1.730370     -1.424721      1.432332
  H      -2.401888     -0.732849      0.970648
  H      -2.671453      0.601331     -0.168203
  H      -2.445415      0.938902      1.551728
  H       2.190876      0.202347     -1.045336
  H       1.450007     -1.413142     -0.970512
  H      -0.441543      0.007609     -1.688299
15
Coordinates from ORCA-job scan E -19.240118735840
  C       1.710514     -0.473138      0.937932
  C      -2.139541      0.295404      0.730556
  C       1.452353     -0.414778     -0.527640
  C      -0.661291      0.402229      0.510654
  C       0.060128      0.195550     -0.747111
  O      -0.131024      1.473422     -0.211062
  H       0.084137      0.071523      1.304494
  H       2.249963      0.332314      1.401620
  H       1.733431     -1.428151      1.429782
  H      -2.401736     -0.732059      0.972996
  H      -2.672974      0.599859     -0.168135
  H      -2.446332      0.940728      1.551070
  H       2.191113      0.204395     -1.043073
  H       1.451764     -1.411938     -0.971456
  H      -0.440799      0.005416     -1.688651
15
Coordinates from ORCA-job scan E -19.240119212310
  C       1.710831     -0.472594      0.937761
  C      -2.139293      0.295130      0.730514
  C       1.452274     -0.414938     -0.527942
  C      -0.661108      0.401896      0.510736
  C       0.060295      0.195642     -0.747002
  O      -0.130453      1.473309     -0.210381
  H       0.084047      0.070776      1.304434
  H       2.250244      0.332972      1.401359
  H       1.731627     -1.427025      1.430861
  H      -2.401659     -0.732400      0.972493
  H      -2.672621      0.600068     -0.168067
  H      -2.445997      0.940154      1.551291
  H       2.190949      0.203920     -1.043940
  H       1.451225     -1.412244     -0.971480
  H      -0.440655      0.006114     -1.688664
15
Coordinates from ORCA-job scan E -19.239775900330
  C       1.704657     -0.471210      0.939199
  C      -2.136012      0.294121      0.731765
  C       1.451363     -0.414591     -0.528583
  C      -0.658349      0.401404      0.508728
  C       0.060147      0.196404     -0.749817
  O      -0.129146      1.473735     -0.212572
  H       0.090145      0.068829      1.299769
  H       2.242638      0.334547      1.404131
  H       1.723457     -1.425278      1.433086
  H      -2.397602     -0.733677      0.973451
  H      -2.671445      0.599717     -0.165343
  H      -2.440998      0.938367      1.553795
  H       2.191623      0.203676     -1.043019
  H       1.451119     -1.412071     -0.971730
  H      -0.441891      0.006804     -1.690887
15
Coordinates from ORCA-job scan E -19.239780497730
  C       1.705005     -0.470801      0.939674
  C      -2.137642      0.294633      0.731517
  C       1.451411     -0.414557     -0.527677
  C      -0.659883      0.401636      0.508728
  C       0.059936      0.196315     -0.749517
  O      -0.130116      1.473740     -0.212208
  H       0.089734      0.067467      1.299495
  H       2.246879      0.333562      1.402512
  H       1.727390     -1.425565      1.432084
  H      -2.399406     -0.733121      0.973172
  H      -2.672953      0.600272     -0.165696
  H      -2.442720      0.938937      1.553488
  H       2.191809      0.203427     -1.042110
  H       1.451311     -1.412209     -0.970320
  H      -0.441051      0.007041     -1.691167
15
Coordinates from ORCA-job scan E -19.239781313920
  C       1.704334     -0.472197      0.940068
  C      -2.138346      0.295102      0.731804
  C       1.451696     -0.414135     -0.527265
  C      -0.660866      0.402691      0.508323
  C       0.059880      0.195789     -0.749711
  O      -0.131670      1.473868     -0.213898
  H       0.090454      0.070405      1.299621
  H       2.247149      0.331291      1.403555
  H       1.729791     -1.428242      1.430107
  H      -2.399382     -0.732475      0.975005
  H      -2.674215      0.599158     -0.165638
  H      -2.443490      0.940397      1.552969
  H       2.191984      0.205058     -1.040376
  H       1.452727     -1.411280     -0.971093
  H      -0.440341      0.005347     -1.691497
15
Coordinates from ORCA-job scan E -19.239435105120
  C       1.698150     -0.470805      0.941491
  C      -2.135057      0.294090      0.733054
  C       1.450781     -0.413786     -0.527902
  C      -0.658107      0.402196      0.506320
  C       0.059731      0.196549     -0.752523
  O      -0.130360      1.474293     -0.216082
  H       0.096547      0.068448      1.294942
  H       2.239534      0.332874      1.406322
  H       1.721621     -1.426489      1.432337
  H      -2.395317     -0.733755      0.975956
  H      -2.673025      0.598806     -0.162910
  H      -2.438482      0.938606      1.555470
  H       2.192647      0.204818     -1.039448
  H       1.452619     -1.411106     -0.971333
  H      -0.441576      0.006040     -1.693718
15
Coordinates from ORCA-job scan E -19.239438470950
  C       1.699953     -0.467870      0.941804
  C      -2.137215      0.294248      0.732245
  C       1.450504     -0.414378     -0.527097
  C      -0.659973      0.401032      0.506863
  C       0.059676      0.196874     -0.751624
  O      -0.130019      1.473827     -0.212656
  H       0.095066      0.062036      1.294496
  H       2.247818      0.334231      1.401911
  H       1.724280     -1.422869      1.433963
  H      -2.398846     -0.733775      0.972903
  H      -2.674197      0.601355     -0.163535
  H      -2.440547      0.937491      1.555705
  H       2.192532      0.202154     -1.040809
  H       1.450847     -1.412727     -0.968104
  H      -0.440176      0.009148     -1.694093
15
Coordinates from ORCA-job scan E -19.239441269490
  C       1.698807     -0.470254      0.942315
  C      -2.137860      0.294917      0.732696
  C       1.450901     -0.413709     -0.526547
  C      -0.660939      0.402669      0.506272
  C       0.059519      0.196207     -0.751988
  O      -0.132155      1.474174     -0.215475
  H       0.096204      0.066735      1.294678
  H       2.246785      0.330988      1.403897
  H       1.727706     -1.427108      1.430833
  H      -2.398326     -0.732837      0.975771
  H      -2.675691      0.599512     -0.163468
  H      -2.441375      0.939694      1.554891
  H       2.192813      0.204679     -1.038122
  H       1.453002     -1.411224     -0.969440
  H      -0.439685      0.006335     -1.694338
15
Coordinates from ORCA-job scan E -19.239441707280
  C       1.698954     -0.469997      0.942165
  C      -2.137612      0.294683      0.732736
  C       1.450880     -0.413800     -0.526870
  C      -0.660830      0.402500      0.506284
  C       0.059713      0.196189     -0.751939
  O      -0.131807      1.474061     -0.215116
  H       0.096292      0.066702      1.294704
  H       2.246739      0.331318      1.403977
  H       1.726009     -1.426471      1.431629
  H      -2.398108     -0.733104      0.975649
  H      -2.675445      0.599463     -0.163354
  H      -2.441036      0.939350      1.555042
  H       2.192670      0.204532     -1.038766
  H       1.452714     -1.411352     -0.969756
  H      -0.439426      0.006705     -1.694410
15
Coordinates from ORCA-job scan E -19.239092512820
  C       1.692759     -0.468603      0.943574
  C      -2.134315      0.293670      0.733986
  C       1.449961     -0.413451     -0.527503
  C      -0.658069      0.402007      0.504285
  C       0.059566      0.196948     -0.754748
  O      -0.130495      1.474485     -0.217296
  H       0.102384      0.064754      1.290010
  H       2.239120      0.332899      1.406750
  H       1.717829     -1.424717      1.433851
  H      -2.394035     -0.734385      0.976601
  H      -2.674243      0.599105     -0.160623
  H      -2.436019      0.937560      1.557537
  H       2.193326      0.204289     -1.037831
  H       1.452598     -1.411180     -0.969989
  H      -0.440660      0.007396     -1.696630
15
Coordinates from ORCA-job scan E -19.239097727030
  C       1.693296     -0.468027      0.944074
  C      -2.136083      0.294189      0.733662
  C       1.449985     -0.413457     -0.526563
  C      -0.659715      0.402182      0.504331
  C       0.059350      0.196890     -0.754354
  O      -0.131417      1.474479     -0.216690
  H       0.101963      0.062950      1.289767
  H       2.243828      0.332008      1.404871
  H       1.721913     -1.424757      1.432975
  H      -2.396060     -0.733831      0.976126
  H      -2.675816      0.599790     -0.161061
  H      -2.437898      0.938073      1.557197
  H       2.193473      0.203869     -1.037067
  H       1.452646     -1.411415     -0.968410
  H      -0.439761      0.007835     -1.696882
15
Coordinates from ORCA-job scan E -19.239098344180
  C       1.692400     -0.469962      0.944529
  C      -2.136868      0.294795      0.734024
  C       1.450353     -0.412913     -0.526080
  C      -0.660826      0.403559      0.503829
  C       0.059262      0.196234     -0.754592
  O      -0.133343      1.474685     -0.218937
  H       0.102990      0.066854      1.290050
  H       2.243615      0.329144      1.406348
  H       1.724969     -1.428289      1.430340
  H      -2.395882     -0.732984      0.978542
  H      -2.677311      0.598277     -0.161024
  H      -2.438816      0.940003      1.556473
  H       2.193694      0.206001     -1.034831
  H       1.454500     -1.410181     -0.969507
  H      -0.439034      0.005555     -1.697188
15
Coordinates from ORCA-job scan E -19.239099368370
  C       1.693267     -0.468431      0.944380
  C      -2.137116      0.294489      0.733749
  C       1.450184     -0.413290     -0.526274
  C      -0.661066      0.402762      0.504107
  C       0.059466      0.196433     -0.754224
  O      -0.132521      1.474381     -0.217098
  H       0.102440      0.064147      1.289939
  H       2.246101      0.330449      1.404812
  H       1.723438     -1.425874      1.432149
  H      -2.396762     -0.733428      0.977029
  H      -2.677122      0.599290     -0.161109
  H      -2.438917      0.938946      1.556834
  H       2.193477      0.204638     -1.036348
  H       1.453319     -1.411044     -0.968656
  H      -0.438481      0.007313     -1.697316
15
Coordinates from ORCA-job scan E -19.238749326890
  C       1.687061     -0.467032      0.945775
  C      -2.133811      0.293474      0.734999
  C       1.449262     -0.412941     -0.526903
  C      -0.658305      0.402269      0.502112
  C       0.059321      0.197191     -0.757030
  O      -0.131207      1.474804     -0.219273
  H       0.108529      0.062200      1.285230
  H       2.238478      0.332031      1.407590
  H       1.715254     -1.424118      1.434369
  H      -2.392682     -0.734710      0.977979
  H      -2.675909      0.598928     -0.158374
  H      -2.433893      0.937154      1.559323
  H       2.194125      0.204395     -1.035406
  H       1.453198     -1.410871     -0.968882
  H      -0.439715      0.008003     -1.699534
15
Coordinates from ORCA-job scan E -19.238754088790
  C       1.687228     -0.467212      0.946299
  C      -2.135322      0.294058      0.734831
  C       1.449364     -0.412772     -0.526000
  C      -0.659755      0.402839      0.502005
  C       0.059071      0.197033     -0.756798
  O      -0.132414      1.474948     -0.219536
  H       0.108491      0.061859      1.285055
  H       2.241760      0.330541      1.406620
  H       1.719410     -1.425214      1.432853
  H      -2.394092     -0.734031      0.978304
  H      -2.677475      0.598990     -0.158742
  H      -2.435576      0.938118      1.558817
  H       2.194310      0.204670     -1.034102
  H       1.453757     -1.410669     -0.967930
  H      -0.439051      0.007619     -1.699704
15
Coordinates from ORCA-job scan E -19.238755311970
  C       1.687207     -0.467494      0.946523
  C      -2.136132      0.294327      0.734861
  C       1.449516     -0.412656     -0.525745
  C      -0.660740      0.403221      0.501879
  C       0.059114      0.196702     -0.756696
  O      -0.133240      1.474865     -0.219811
  H       0.108811      0.062581      1.285299
  H       2.243410      0.329465      1.406471
  H       1.720881     -1.426057      1.432121
  H      -2.394715     -0.733681      0.978879
  H      -2.678434      0.598728     -0.158823
  H      -2.436395      0.938783      1.558529
  H       2.194348      0.205187     -1.033524
  H       1.454274     -1.410427     -0.968000
  H      -0.438199      0.007233     -1.699988
15
Coordinates from ORCA-job scan E -19.238755415000
  C       1.687592     -0.466941      0.946524
  C      -2.136385      0.294212      0.734768
  C       1.449467     -0.412771     -0.525772
  C      -0.661074      0.403075      0.501911
  C       0.059239      0.196750     -0.756489
  O      -0.133058      1.474798     -0.219145
  H       0.108687      0.061725      1.285128
  H       2.244924      0.329614      1.405867
  H       1.720279     -1.425220      1.432789
  H      -2.395094     -0.733837      0.978495
  H      -2.678611      0.598916     -0.158867
  H      -2.436611      0.938496      1.558587
  H       2.194236      0.204768     -1.034027
  H       1.453865     -1.410685     -0.967718
  H      -0.437750      0.007879     -1.700078
15
Coordinates from ORCA-job scan E -19.238403816970
  C       1.681376     -0.465537      0.947905
  C      -2.133073      0.293195      0.736018
  C       1.448541     -0.412421     -0.526398
  C      -0.658313      0.402582      0.499922
  C       0.059095      0.197507     -0.759292
  O      -0.131742      1.475220     -0.221316
  H       0.114773      0.059779      1.280403
  H       2.237295      0.331199      1.408648
  H       1.712090     -1.423461      1.435005
  H      -2.391006     -0.735121      0.979443
  H      -2.677385      0.598551     -0.156129
  H      -2.431579      0.936703      1.561071
  H       2.194876      0.204525     -1.033078
  H       1.453739     -1.410512     -0.967936
  H      -0.438983      0.008569     -1.702293
15
Coordinates from ORCA-job scan E -19.238409038210
  C       1.681204     -0.466362      0.948469
  C      -2.134517      0.293908      0.735973
  C       1.448740     -0.412102     -0.525472
  C      -0.659732      0.403469      0.499703
  C       0.058797      0.197201     -0.759198
  O      -0.133311      1.475432     -0.222319
  H       0.115055      0.060646      1.280429
  H       2.239597      0.329151      1.408331
  H       1.716735     -1.425559      1.432782
  H      -2.392085     -0.734247      0.980435
  H      -2.679071      0.598175     -0.156455
  H      -2.433239      0.938137      1.560404
  H       2.195133      0.205419     -1.031215
  H       1.454831     -1.409950     -0.967443
  H      -0.438430      0.007460     -1.702448
15
Coordinates from ORCA-job scan E -19.238409730180
  C       1.682193     -0.464893      0.948668
  C      -2.135964      0.294059      0.735567
  C       1.448695     -0.412383     -0.525090
  C      -0.661150      0.402966      0.499958
  C       0.058862      0.197157     -0.758656
  O      -0.133451      1.475068     -0.220549
  H       0.114567      0.057731      1.280587
  H       2.244560      0.329463      1.406017
  H       1.718271     -1.423930      1.433484
  H      -2.394182     -0.734157      0.979093
  H      -2.680056      0.599359     -0.156815
  H      -2.434619      0.937799      1.560400
  H       2.195057      0.204281     -1.031912
  H       1.454115     -1.410716     -0.965987
  H      -0.437192      0.008975     -1.702791
15
Coordinates from ORCA-job scan E -19.238410434220
  C       1.681426     -0.466389      0.948737
  C      -2.135703      0.294202      0.735933
  C       1.448913     -0.412034     -0.525203
  C      -0.661182      0.403809      0.499595
  C       0.058924      0.196774     -0.758938
  O      -0.134263      1.475233     -0.222217
  H       0.115440      0.061021      1.280827
  H       2.242501      0.327961      1.407782
  H       1.718309     -1.426134      1.432248
  H      -2.393156     -0.733873      0.980887
  H      -2.680356      0.598014     -0.156615
  H      -2.434411      0.938826      1.560051
  H       2.195100      0.205826     -1.030852
  H       1.455248     -1.409811     -0.967406
  H      -0.437083      0.007353     -1.702855
15
Coordinates from ORCA-job scan E -19.238058928860
  C       1.675201     -0.464979      0.950103
  C      -2.132385      0.293183      0.737182
  C       1.447984     -0.411682     -0.525825
  C      -0.658421      0.403314      0.497611
  C       0.058781      0.197529     -0.761736
  O      -0.132945      1.475652     -0.224379
  H       0.121522      0.059067      1.276086
  H       2.234865      0.329552      1.410559
  H       1.710122     -1.424369      1.434468
  H      -2.389062     -0.735159      0.981829
  H      -2.679118      0.597648     -0.153875
  H      -2.429373      0.937031      1.562531
  H       2.195730      0.205586     -1.029896
  H       1.455120     -1.409638     -0.967615
  H      -0.438314      0.008043     -1.705068
15
Coordinates from ORCA-job scan E -19.238063208790
  C       1.676427     -0.463408      0.950560
  C      -2.134344      0.293558      0.736589
  C       1.447861     -0.411921     -0.524898
  C      -0.660124      0.402987      0.497885
  C       0.058582      0.197710     -0.761060
  O      -0.133292      1.475552     -0.222577
  H       0.120735      0.055119      1.275766
  H       2.241073      0.329579      1.407583
  H       1.713775     -1.422848      1.434601
  H      -2.391732     -0.734840      0.980236
  H      -2.680534      0.599067     -0.154504
  H      -2.431434      0.936881      1.562333
  H       2.195748      0.204181     -1.030039
  H       1.454338     -1.410444     -0.965272
  H      -0.437372      0.009606     -1.705229
15
Coordinates from ORCA-job scan E -19.238063599440
  C       1.675218     -0.466265      0.951175
  C      -2.135337      0.294469      0.737007
  C       1.448333     -0.411155     -0.524134
  C      -0.661414      0.404935      0.497236
  C       0.058327      0.196931     -0.761347
  O      -0.135839      1.475990     -0.225788
  H       0.122176      0.060255      1.276203
  H       2.240183      0.325722      1.409618
  H       1.718543     -1.427838      1.430678
  H      -2.391395     -0.733579      0.983516
  H      -2.682453      0.596981     -0.154595
  H      -2.432739      0.939647      1.561203
  H       2.196070      0.207069     -1.026784
  H       1.456911     -1.408704     -0.966640
  H      -0.436877      0.006321     -1.705376
15
Coordinates from ORCA-job scan E -19.238065379940
  C       1.675887     -0.464749      0.950792
  C      -2.134933      0.293944      0.736838
  C       1.448159     -0.411575     -0.524717
  C      -0.661025      0.403927      0.497549
  C       0.058632      0.197156     -0.761131
  O      -0.134611      1.475614     -0.223987
  H       0.121665      0.057990      1.276281
  H       2.241034      0.327575      1.408619
  H       1.715419     -1.425205      1.432938
  H      -2.391636     -0.734272      0.981987
  H      -2.681614      0.597910     -0.154504
  H      -2.432115      0.938262      1.561768
  H       2.195837      0.205705     -1.028728
  H       1.455626     -1.409598     -0.966270
  H      -0.436618      0.008093     -1.705460
15
Coordinates from ORCA-job scan E -19.238065483030
  C       1.675944     -0.464724      0.950787
  C      -2.134904      0.293860      0.736860
  C       1.448149     -0.411576     -0.524776
  C      -0.661087      0.404012      0.497485
  C       0.058714      0.197174     -0.761076
  O      -0.134559      1.475665     -0.223948
  H       0.121728      0.058128      1.276126
  H       2.241259      0.327432      1.408682
  H       1.714862     -1.425098      1.433146
  H      -2.391503     -0.734357      0.982119
  H      -2.681667      0.597697     -0.154480
  H      -2.432090      0.938239      1.561745
  H       2.195780      0.205723     -1.028839
  H       1.455551     -1.409573     -0.966391
  H      -0.436472      0.008176     -1.705466
15
Coordinates from ORCA-job scan E -19.237712687560
  C       1.669710     -0.463310      0.952140
  C      -2.131578      0.292839      0.738109
  C       1.447217     -0.411224     -0.525394
  C      -0.658325      0.403518      0.495506
  C       0.058572      0.197928     -0.763871
  O      -0.133239      1.476084     -0.226105
  H       0.127809      0.056177      1.271369
  H       2.233618      0.329024      1.411463
  H       1.706669     -1.423330      1.435361
  H      -2.387402     -0.735645      0.983060
  H      -2.680416      0.597326     -0.151737
  H      -2.427045      0.936443      1.564219
  H       2.196402      0.205483     -1.027877
  H       1.455418     -1.409400     -0.966593
  H      -0.437702      0.008866     -1.707677
15
Coordinates from ORCA-job scan E -19.237719036600
  C       1.670296     -0.462945      0.952685
  C      -2.133474      0.293470      0.737746
  C       1.447282     -0.411181     -0.524398
  C      -0.660046      0.403802      0.495564
  C       0.058286      0.197818     -0.763447
  O      -0.134316      1.476107     -0.225686
  H       0.127611      0.054514      1.271417
  H       2.238168      0.327943      1.409667
  H       1.711342     -1.423712      1.434136
  H      -2.389510     -0.734947      0.982727
  H      -2.682124      0.597930     -0.152289
  H      -2.429122      0.937196      1.563715
  H       2.196561      0.205244     -1.026938
  H       1.455649     -1.409529     -0.965084
  H      -0.436898      0.009068     -1.707840
15
Coordinates from ORCA-job scan E -19.237719529140
  C       1.669462     -0.464950      0.953064
  C      -2.134275      0.294128      0.738046
  C       1.447674     -0.410668     -0.523999
  C      -0.661140      0.405096      0.495134
  C       0.058194      0.197103     -0.763618
  O      -0.136202      1.476242     -0.227829
  H       0.128820      0.058336      1.272164
  H       2.237682      0.325237      1.411105
  H       1.714505     -1.427232      1.431455
  H      -2.389415     -0.734029      0.985064
  H      -2.683549      0.596489     -0.152351
  H      -2.430093      0.939204      1.562897
  H       2.196746      0.207367     -1.024833
  H       1.457535     -1.408318     -0.966274
  H      -0.436239      0.006773     -1.708051
15
Coordinates from ORCA-job scan E -19.237720770790
  C       1.670546     -0.463067      0.952938
  C      -2.134751      0.293825      0.737671
  C       1.447486     -0.411109     -0.524149
  C      -0.661582      0.404166      0.495486
  C       0.058411      0.197332     -0.763134
  O      -0.135362      1.475879     -0.225583
  H       0.128162      0.055002      1.272136
  H       2.240998      0.326697      1.409126
  H       1.713223     -1.424450      1.433441
  H      -2.390678     -0.734492      0.983230
  H      -2.683465      0.597742     -0.152538
  H      -2.430426      0.938026      1.563250
  H       2.196521      0.205719     -1.026570
  H       1.456138     -1.409360     -0.965130
  H      -0.435517      0.008868     -1.708202
15
Coordinates from ORCA-job scan E -19.237370814310
  C       1.664303     -0.461650      0.954277
  C      -2.131421      0.292803      0.738920
  C       1.446551     -0.410757     -0.524763
  C      -0.658821      0.403672      0.493512
  C       0.058271      0.198084     -0.765925
  O      -0.134041      1.476298     -0.227736
  H       0.134241      0.053055      1.267360
  H       2.233356      0.328289      1.411913
  H       1.705029     -1.422682      1.435655
  H      -2.386571     -0.735780      0.984170
  H      -2.682205      0.597367     -0.149792
  H      -2.425376      0.936230      1.565718
  H       2.197136      0.205479     -1.025601
  H       1.456000     -1.409187     -0.965323
  H      -0.436746      0.009557     -1.710411
15
Coordinates from ORCA-job scan E -19.237376238660
  C       1.664385     -0.462391      0.954867
  C      -2.132905      0.293492      0.738786
  C       1.446691     -0.410471     -0.523828
  C      -0.660264      0.404561      0.493323
  C       0.057962      0.197858     -0.765704
  O      -0.135482      1.476572     -0.228522
  H       0.134598      0.053508      1.267330
  H       2.235896      0.326337      1.411465
  H       1.709632     -1.424525      1.433635
  H      -2.387721     -0.734939      0.985015
  H      -2.683875      0.597009     -0.150235
  H      -2.427132      0.937613      1.564970
  H       2.197288      0.206217     -1.023936
  H       1.456876     -1.408681     -0.964748
  H      -0.436243      0.008618     -1.710443
15
Coordinates from ORCA-job scan E -19.237377222270
  C       1.665326     -0.461134      0.954999
  C      -2.134271      0.293625      0.738403
  C       1.446690     -0.410721     -0.523546
  C      -0.661623      0.404179      0.493566
  C       0.058067      0.197778     -0.765129
  O      -0.135647      1.476254     -0.226916
  H       0.134368      0.051103      1.267752
  H       2.240325      0.326496      1.409414
  H       1.710974     -1.423150      1.434181
  H      -2.389628     -0.734840      0.983928
  H      -2.684830      0.597919     -0.150638
  H      -2.428496      0.937410      1.564851
  H       2.197215      0.205261     -1.024617
  H       1.456275     -1.409334     -0.963580
  H      -0.435037      0.009931     -1.710694
15
Coordinates from ORCA-job scan E -19.237377531110
  C       1.664504     -0.462836      0.955078
  C      -2.134169      0.293846      0.738776
  C       1.446958     -0.410343     -0.523629
  C      -0.661860      0.405161      0.493166
  C       0.058149      0.197308     -0.765361
  O      -0.136657      1.476427     -0.228714
  H       0.135426      0.054766      1.268189
  H       2.238369      0.324698      1.411232
  H       1.711400     -1.425691      1.432655
  H      -2.388666     -0.734436      0.985970
  H      -2.685339      0.596396     -0.150489
  H      -2.428492      0.938692      1.564359
  H       2.197271      0.206985     -1.023379
  H       1.457587     -1.408331     -0.965117
  H      -0.434776      0.008137     -1.710763
15
Coordinates from ORCA-job scan E -19.237030333330
  C       1.658254     -0.461412      0.956403
  C      -2.130833      0.292823      0.740024
  C       1.446019     -0.409990     -0.524239
  C      -0.659101      0.404664      0.491198
  C       0.058009      0.198058     -0.768147
  O      -0.135334      1.476842     -0.230857
  H       0.141500      0.052806      1.263395
  H       2.230721      0.326297      1.414014
  H       1.703210     -1.423917      1.434874
  H      -2.384555     -0.735727      0.986903
  H      -2.684067      0.596021     -0.147742
  H      -2.423438      0.936894      1.566824
  H       2.197876      0.206748     -1.022403
  H       1.457448     -1.408156     -0.965302
  H      -0.436003      0.008827     -1.712970
15
Coordinates from ORCA-job scan E -19.237033009110
  C       1.660375     -0.458476      0.956847
  C      -2.133153      0.293028      0.739084
  C       1.445718     -0.410522     -0.523281
  C      -0.661003      0.403696      0.491753
  C       0.057831      0.198532     -0.767115
  O      -0.135032      1.476602     -0.227504
  H       0.140194      0.046055      1.262959
  H       2.239209      0.327435      1.409538
  H       1.706500     -1.420412      1.436276
  H      -2.388177     -0.735700      0.983859
  H      -2.685403      0.598420     -0.148608
  H      -2.425833      0.935892      1.566819
  H       2.197764      0.204063     -1.023673
  H       1.455608     -1.409719     -0.961892
  H      -0.434892      0.011885     -1.713087
15
Coordinates from ORCA-job scan E -19.237036408560
  C       1.659064     -0.461721      0.957426
  C      -2.133920      0.293963      0.739525
  C       1.446191     -0.409712     -0.522570
  C      -0.662048      0.405765      0.491069
  C       0.057529      0.197770     -0.767444
  O      -0.137541      1.477140     -0.231044
  H       0.141837      0.051632      1.263524
  H       2.237337      0.323532      1.411980
  H       1.711224     -1.425760      1.432148
  H      -2.387483     -0.734387      0.987384
  H      -2.687164      0.596100     -0.148721
  H      -2.426978      0.938822      1.565588
  H       2.198062      0.207167     -1.020279
  H       1.458322     -1.407825     -0.963535
  H      -0.434727      0.008292     -1.713077
15
Coordinates from ORCA-job scan E -19.237037470180
  C       1.659257     -0.460929      0.957021
  C      -2.133419      0.293538      0.739540
  C       1.446164     -0.409969     -0.523220
  C      -0.661678      0.405119      0.491236
  C       0.057870      0.197766     -0.767384
  O      -0.136754      1.476790     -0.230057
  H       0.141734      0.051058      1.263937
  H       2.237079      0.324680      1.411781
  H       1.708299     -1.424271      1.433651
  H      -2.387294     -0.734903      0.986718
  H      -2.686470      0.596431     -0.148533
  H      -2.426280      0.937966      1.565989
  H       2.197922      0.206558     -1.021655
  H       1.457675     -1.408294     -0.963839
  H      -0.434398      0.009237     -1.713213
15
Coordinates from ORCA-job scan E -19.236690262130
  C       1.652997     -0.459502      0.958333
  C      -2.130077      0.292514      0.740787
  C       1.445222     -0.409615     -0.523826
  C      -0.658917      0.404624      0.489273
  C       0.057732      0.198516     -0.770166
  O      -0.135430      1.477206     -0.232197
  H       0.147808      0.049105      1.259126
  H       2.229427      0.326277      1.414566
  H       1.700101     -1.422497      1.435866
  H      -2.383176     -0.736194      0.987651
  H      -2.685188      0.596052     -0.145783
  H      -2.421220      0.936168      1.568449
  H       2.198520      0.206320     -1.020671
  H       1.457530     -1.408121     -0.964016
  H      -0.435624      0.009925     -1.715417
15
Coordinates from ORCA-job scan E -19.236697784930
  C       1.654113     -0.458636      0.958929
  C      -2.132237      0.293107      0.740225
  C       1.445197     -0.409679     -0.522788
  C      -0.660854      0.404733      0.489444
  C       0.057443      0.198521     -0.769501
  O      -0.136304      1.477211     -0.231101
  H       0.147561      0.046241      1.259185
  H       2.235154      0.325529      1.412147
  H       1.704839     -1.422120      1.435147
  H      -2.385761     -0.735575      0.986757
  H      -2.686968      0.596984     -0.146540
  H      -2.423601      0.936677      1.567894
  H       2.198544      0.205595     -1.020227
  H       1.457284     -1.408519     -0.962103
  H      -0.434704      0.010710     -1.715493
15
Coordinates from ORCA-job scan E -19.236695879710
  C       1.652722     -0.462392      0.959570
  C      -2.133483      0.294277      0.740678
  C       1.445821     -0.408773     -0.522039
  C      -0.662513      0.407104      0.488702
  C       0.057183      0.197417     -0.769726
  O      -0.139435      1.477640     -0.234964
  H       0.149802      0.052826      1.260466
  H       2.233651      0.320845      1.414773
  H       1.710593     -1.428352      1.430302
  H      -2.385377     -0.733930      0.990861
  H      -2.689289      0.594337     -0.146784
  H      -2.425284      0.940266      1.566315
  H       2.198817      0.209279     -1.016451
  H       1.460519     -1.406335     -0.964165
  H      -0.434021      0.006569     -1.715564
15
Coordinates from ORCA-job scan E -19.236700712830
  C       1.654087     -0.459463      0.959114
  C      -2.133364      0.293537      0.740236
  C       1.445496     -0.409487     -0.522625
  C      -0.662288      0.405440      0.489277
  C       0.057572      0.197917     -0.769217
  O      -0.137583      1.477101     -0.231641
  H       0.148613      0.048042      1.260345
  H       2.236720      0.323778      1.412301
  H       1.706874     -1.423781      1.433813
  H      -2.386482     -0.734968      0.987955
  H      -2.688324      0.596210     -0.146834
  H      -2.424877      0.937980      1.567170
  H       2.198531      0.206648     -1.019472
  H       1.458220     -1.407991     -0.962752
  H      -0.433489      0.009815     -1.715697
15
Coordinates from ORCA-job scan E -19.236700867750
  C       1.654079     -0.459599      0.959137
  C      -2.133195      0.293432      0.740290
  C       1.445455     -0.409457     -0.522675
  C      -0.662228      0.405635      0.489147
  C       0.057643      0.197996     -0.769195
  O      -0.137518      1.477258     -0.231778
  H       0.148697      0.048412      1.259979
  H       2.236531      0.323559      1.412613
  H       1.706270     -1.423860      1.433966
  H      -2.386097     -0.735066      0.988267
  H      -2.688309      0.595800     -0.146792
  H      -2.424740      0.938017      1.567108
  H       2.198460      0.206746     -1.019479
  H       1.458143     -1.407884     -0.962967
  H      -0.433485      0.009790     -1.715647
15
Coordinates from ORCA-job scan E -19.236358602290
  C       1.647812     -0.458168      0.960437
  C      -2.129848      0.292406      0.741536
  C       1.444511     -0.409103     -0.523278
  C      -0.659469      0.405140      0.487190
  C       0.057506      0.198745     -0.771973
  O      -0.136192      1.477672     -0.233912
  H       0.154770      0.046459      1.255147
  H       2.228877      0.325158      1.415403
  H       1.698073     -1.422083      1.436180
  H      -2.381973     -0.736358      0.989198
  H      -2.687017      0.595418     -0.144040
  H      -2.419677      0.936219      1.569562
  H       2.199051      0.206508     -1.018490
  H       1.457993     -1.407710     -0.963138
  H      -0.434710      0.010477     -1.717848
15
Coordinates from ORCA-job scan E -19.236366389000
  C       1.648648     -0.457712      0.960962
  C      -2.131915      0.293063      0.741074
  C       1.444588     -0.409093     -0.522295
  C      -0.661313      0.405396      0.487319
  C       0.057215      0.198628     -0.771410
  O      -0.137219      1.477681     -0.233286
  H       0.154744      0.044439      1.255533
  H       2.233741      0.324136      1.413379
  H       1.702891     -1.422286      1.434990
  H      -2.384319     -0.735628      0.988729
  H      -2.688820      0.596079     -0.144744
  H      -2.421989      0.936995      1.568940
  H       2.199174      0.206170     -1.017729
  H       1.458151     -1.407906     -0.961571
  H      -0.433872      0.010815     -1.717917
15
Coordinates from ORCA-job scan E -19.236365622220
  C       1.647550     -0.460693      0.961379
  C      -2.132936      0.293994      0.741426
  C       1.445136     -0.408402     -0.521818
  C      -0.662683      0.407209      0.486763
  C       0.057062      0.197667     -0.771561
  O      -0.139696      1.477926     -0.236274
  H       0.156669      0.049772      1.256976
  H       2.232496      0.320484      1.415443
  H       1.707249     -1.427204      1.431176
  H      -2.384072     -0.734307      0.991987
  H      -2.690671      0.593981     -0.144954
  H      -2.423350      0.939870      1.567658
  H       2.199395      0.209118     -1.014875
  H       1.460777     -1.406199     -0.963353
  H      -0.433220      0.007562     -1.717998
15
Coordinates from ORCA-job scan E -19.236368911330
  C       1.649021     -0.457996      0.961143
  C      -2.133349      0.293484      0.740911
  C       1.444850     -0.409020     -0.522113
  C      -0.663002      0.405847      0.487273
  C       0.057357      0.198079     -0.770944
  O      -0.138356      1.477465     -0.233159
  H       0.155679      0.045114      1.256927
  H       2.236539      0.322748      1.412831
  H       1.705048     -1.423232      1.434072
  H      -2.385591     -0.735065      0.989355
  H      -2.690288      0.595713     -0.145191
  H      -2.423570      0.938064      1.568215
  H       2.199112      0.206740     -1.017420
  H       1.458726     -1.407682     -0.961795
  H      -0.432469      0.010517     -1.718132
15
Coordinates from ORCA-job scan E -19.236369155980
  C       1.648832     -0.458359      0.961165
  C      -2.132914      0.293354      0.741039
  C       1.444789     -0.408942     -0.522178
  C      -0.662674      0.406121      0.487085
  C       0.057398      0.198200     -0.771036
  O      -0.138249      1.477704     -0.233599
  H       0.155746      0.045866      1.256340
  H       2.235547      0.322500      1.413512
  H       1.704258     -1.423553      1.434123
  H      -2.384838     -0.735183      0.989864
  H      -2.690091      0.595141     -0.145066
  H      -2.423167      0.938130      1.568188
  H       2.199053      0.206994     -1.017259
  H       1.458733     -1.407455     -0.962170
  H      -0.432714      0.010260     -1.718034
15
Coordinates from ORCA-job scan E -19.236032240870
  C       1.642558     -0.456925      0.962451
  C      -2.129563      0.292327      0.742285
  C       1.443842     -0.408587     -0.522777
  C      -0.659916      0.405626      0.485134
  C       0.057262      0.198947     -0.773810
  O      -0.136922      1.478117     -0.235727
  H       0.161816      0.043913      1.251488
  H       2.227892      0.324099      1.416305
  H       1.696060     -1.421775      1.436337
  H      -2.380711     -0.736477      0.990793
  H      -2.688790      0.594756     -0.142312
  H      -2.418101      0.936333      1.570637
  H       2.199636      0.206757     -1.016264
  H       1.458581     -1.407281     -0.962333
  H      -0.433938      0.010946     -1.720233
15
Coordinates from ORCA-job scan E -19.236040751720
  C       1.643448     -0.456462      0.962967
  C      -2.131705      0.293013      0.741794
  C       1.443936     -0.408581     -0.521792
  C      -0.661813      0.405870      0.485293
  C       0.056962      0.198805     -0.773212
  O      -0.137968      1.478104     -0.235061
  H       0.161852      0.041820      1.252043
  H       2.232840      0.323080      1.414208
  H       1.701018     -1.421975      1.435096
  H      -2.383160     -0.735711      0.990292
  H      -2.690636      0.595452     -0.143066
  H      -2.420505      0.937146      1.569973
  H       2.199759      0.206420     -1.015523
  H       1.458760     -1.407486     -0.960755
  H      -0.433083      0.011284     -1.720282
15
Coordinates from ORCA-job scan E -19.236039545970
  C       1.642313     -0.459685      0.963388
  C      -2.132806      0.294026      0.742141
  C       1.444523     -0.407850     -0.521302
  C      -0.663269      0.407791      0.484724
  C       0.056785      0.197767     -0.773346
  O      -0.140599      1.478355     -0.238224
  H       0.163988      0.047484      1.253755
  H       2.231431      0.319222      1.416400
  H       1.705736     -1.427231      1.430998
  H      -2.382928     -0.734273      0.993740
  H      -2.692590      0.593231     -0.143338
  H      -2.421990      0.940245      1.568559
  H       2.199977      0.209569     -1.012511
  H       1.461567     -1.405664     -0.962687
  H      -0.432433      0.007792     -1.720323
15
Coordinates from ORCA-job scan E -19.236043557200
  C       1.643928     -0.456736      0.963141
  C      -2.133252      0.293471      0.741573
  C       1.444206     -0.408516     -0.521613
  C      -0.663605      0.406315      0.485280
  C       0.057096      0.198231     -0.772673
  O      -0.139148      1.477868     -0.234838
  H       0.162904      0.042390      1.253690
  H       2.235832      0.321686      1.413562
  H       1.703381     -1.422921      1.434144
  H      -2.384578     -0.735103      0.990867
  H      -2.692166      0.595115     -0.143610
  H      -2.422235      0.938276      1.569158
  H       2.199670      0.206975     -1.015278
  H       1.459319     -1.407275     -0.960974
  H      -0.431644      0.011002     -1.720454
15
Coordinates from ORCA-job scan E -19.236043842770
  C       1.643710     -0.457139      0.963174
  C      -2.132771      0.293332      0.741715
  C       1.444132     -0.408430     -0.521672
  C      -0.663238      0.406612      0.485070
  C       0.057135      0.198368     -0.772782
  O      -0.139034      1.478132     -0.235326
  H       0.162956      0.043201      1.253007
  H       2.234724      0.321425      1.414312
  H       1.702567     -1.423282      1.434190
  H      -2.383752     -0.735228      0.991421
  H      -2.691944      0.594499     -0.143467
  H      -2.421785      0.938348      1.569134
  H       2.199606      0.207248     -1.015083
  H       1.459321     -1.407029     -0.961367
  H      -0.431921      0.010721     -1.720352
15
Coordinates from ORCA-job scan E -19.235713973470
  C       1.637430     -0.455701      0.964448
  C      -2.129417      0.292305      0.742961
  C       1.443183     -0.408075     -0.522266
  C      -0.660482      0.406118      0.483125
  C       0.057000      0.199114     -0.775551
  O      -0.137707      1.478544     -0.237448
  H       0.169025      0.041248      1.248133
  H       2.227069      0.323025      1.417107
  H       1.694372     -1.421503      1.436405
  H      -2.379620     -0.736522      0.992347
  H      -2.690634      0.594111     -0.140713
  H      -2.416717      0.936551      1.571579
  H       2.200182      0.207012     -1.014081
  H       1.459165     -1.406855     -0.961522
  H      -0.433143      0.011406     -1.722548
15
Coordinates from ORCA-job scan E -19.235723063090
  C       1.638396     -0.455207      0.964952
  C      -2.131616      0.293001      0.742437
  C       1.443283     -0.408080     -0.521288
  C      -0.662420      0.406348      0.483312
  C       0.056698      0.198965     -0.774909
  O      -0.138741      1.478519     -0.236713
  H       0.169117      0.039046      1.248822
  H       2.232118      0.322030      1.414932
  H       1.699389     -1.421651      1.435166
  H      -2.382156     -0.735744      0.991796
  H      -2.692507      0.594835     -0.141518
  H      -2.419200      0.937372      1.570877
  H       2.200295      0.206645     -1.013398
  H       1.459325     -1.407082     -0.959926
  H      -0.432275      0.011782     -1.722568
15
Coordinates from ORCA-job scan E -19.235721044250
  C       1.637190     -0.458787      0.965390
  C      -2.132826      0.294123      0.742789
  C       1.443923     -0.407286     -0.520761
  C      -0.663998      0.408452      0.482705
  C       0.056490      0.197834     -0.775024
  O      -0.141596      1.478805     -0.240164
  H       0.171533      0.045220      1.250832
  H       2.230488      0.317833      1.417323
  H       1.704618     -1.427411      1.430647
  H      -2.381912     -0.734146      0.995555
  H      -2.694627      0.592397     -0.141863
  H      -2.420861      0.940794      1.569280
  H       2.200517      0.210087     -1.010119
  H       1.462393     -1.405084     -0.962060
  H      -0.431626      0.007946     -1.722557
15
Coordinates from ORCA-job scan E -19.235726224610
  C       1.638947     -0.455530      0.965111
  C      -2.133241      0.293489      0.742174
  C       1.443565     -0.408015     -0.521119
  C      -0.664285      0.406821      0.483314
  C       0.056827      0.198370     -0.774310
  O      -0.139962      1.478286     -0.236464
  H       0.170310      0.039632      1.250716
  H       2.235170      0.320590      1.414260
  H       1.701909     -1.422661      1.434143
  H      -2.383647     -0.735091      0.992388
  H      -2.694090      0.594459     -0.142147
  H      -2.421052      0.938585      1.569964
  H       2.200186      0.207226     -1.013179
  H       1.459897     -1.406855     -0.960188
  H      -0.430826      0.011472     -1.722688
15
Coordinates from ORCA-job scan E -19.235726529130
  C       1.638727     -0.455942      0.965160
  C      -2.132749      0.293347      0.742320
  C       1.443478     -0.407928     -0.521166
  C      -0.663916      0.407131      0.483088
  C       0.056867      0.198520     -0.774422
  O      -0.139849      1.478565     -0.236961
  H       0.170346      0.040443      1.249957
  H       2.234056      0.320322      1.415031
  H       1.701110     -1.423035      1.434199
  H      -2.382795     -0.735219      0.992960
  H      -2.693868      0.593823     -0.141997
  H      -2.420590      0.938662      1.569939
  H       2.200114      0.207496     -1.012970
  H       1.459880     -1.406605     -0.960574
  H      -0.431105      0.011198     -1.722589
15
Coordinates from ORCA-job scan E -19.235405417860
  C       1.632442     -0.454502      0.966423
  C      -2.129392      0.292319      0.743564
  C       1.442528     -0.407572     -0.521756
  C      -0.661163      0.406638      0.481149
  C       0.056733      0.199265     -0.777186
  O      -0.138522      1.478975     -0.239078
  H       0.176414      0.038489      1.245059
  H       2.226402      0.321923      1.417830
  H       1.692918     -1.421255      1.436415
  H      -2.378660     -0.736514      0.993884
  H      -2.692551      0.593433     -0.139243
  H      -2.415522      0.936866      1.572378
  H       2.200683      0.207261     -1.011962
  H       1.459720     -1.406431     -0.960722
  H      -0.432325      0.011882     -1.724783
15
Coordinates from ORCA-job scan E -19.235415086850
  C       1.633491     -0.453962      0.966912
  C      -2.131649      0.293022      0.743005
  C       1.442632     -0.407591     -0.520787
  C      -0.663140      0.406845      0.481366
  C       0.056430      0.199111     -0.776497
  O      -0.139533      1.478937     -0.238257
  H       0.176557      0.036154      1.245889
  H       2.231565      0.320964      1.415563
  H       1.697976     -1.421327      1.435194
  H      -2.381286     -0.735727      0.993272
  H      -2.694446      0.594190     -0.140101
  H      -2.418081      0.937686      1.571642
  H       2.200786      0.206852     -1.011351
  H       1.459850     -1.406687     -0.959102
  H      -0.431443      0.012312     -1.724773
15
Coordinates from ORCA-job scan E -19.235411849790
  C       1.632200     -0.457976      0.967376
  C      -2.132999      0.294281      0.743361
  C       1.443336     -0.406721     -0.520206
  C      -0.664873      0.409177      0.480709
  C       0.056181      0.197871     -0.776590
  O      -0.142663      1.479271     -0.242063
  H       0.179310      0.042939      1.248253
  H       2.229683      0.316349      1.418190
  H       1.703856     -1.427705      1.430154
  H      -2.381033     -0.733933      0.997408
  H      -2.696781      0.591489     -0.140534
  H      -2.419964      0.941502      1.569820
  H       2.201015      0.210648     -1.007734
  H       1.463235     -1.404475     -0.961470
  H      -0.430797      0.008060     -1.724699
15
Coordinates from ORCA-job scan E -19.235418676690
  C       1.634106     -0.454360      0.967056
  C      -2.133345      0.293544      0.742701
  C       1.442926     -0.407521     -0.520629
  C      -0.665071      0.407361      0.481375
  C       0.056551      0.198496     -0.775841
  O      -0.140802      1.478716     -0.238012
  H       0.177908      0.036792      1.248041
  H       2.234632      0.319462      1.414892
  H       1.700666     -1.422435      1.434080
  H      -2.382830     -0.735025      0.993903
  H      -2.696086      0.593755     -0.140815
  H      -2.420052      0.938998      1.570621
  H       2.200657      0.207477     -1.011139
  H       1.460446     -1.406432     -0.959424
  H      -0.430000      0.011951     -1.724835
15
Coordinates from ORCA-job scan E -19.235418991480
  C       1.633896     -0.454771      0.967123
  C      -2.132859      0.293401      0.742845
  C       1.442828     -0.407435     -0.520661
  C      -0.664719      0.407681      0.481134
  C       0.056593      0.198657     -0.775949
  O      -0.140696      1.479005     -0.238500
  H       0.177932      0.037579      1.247220
  H       2.233560      0.319188      1.415663
  H       1.699903     -1.422811      1.434149
  H      -2.381974     -0.735153      0.994484
  H      -2.695877      0.593106     -0.140666
  H      -2.419595      0.939081      1.570589
  H       2.200576      0.207736     -1.010923
  H       1.460403     -1.406185     -0.959793
  H      -0.430265      0.011698     -1.724742
15
Coordinates from ORCA-job scan E -19.235108520530
  C       1.627608     -0.453328      0.968375
  C      -2.129501      0.292374      0.744089
  C       1.441875     -0.407078     -0.521247
  C      -0.661969      0.407188      0.479203
  C       0.056460      0.199400     -0.778707
  O      -0.139368      1.479415     -0.240610
  H       0.183998      0.035625      1.242297
  H       2.225909      0.320788      1.418467
  H       1.691716     -1.421031      1.436366
  H      -2.377837     -0.736447      0.995406
  H      -2.694552      0.592713     -0.137911
  H      -2.414529      0.937287      1.573023
  H       2.201137      0.207502     -1.009910
  H       1.460241     -1.406010     -0.959934
  H      -0.431483      0.012380     -1.726932
15
Coordinates from ORCA-job scan E -19.235118791650
  C       1.628743     -0.452739      0.968846
  C      -2.131815      0.293082      0.743492
  C       1.441983     -0.407113     -0.520290
  C      -0.663985      0.407371      0.479449
  C       0.056157      0.199243     -0.777969
  O      -0.140353      1.479364     -0.239698
  H       0.184195      0.033147      1.243278
  H       2.231188      0.319874      1.416103
  H       1.696806     -1.421019      1.435169
  H      -2.380555     -0.735655      0.994726
  H      -2.696469      0.593505     -0.138825
  H      -2.417165      0.938101      1.572251
  H       2.201228      0.207046     -1.009379
  H       1.460335     -1.406299     -0.958289
  H      -0.430588      0.012870     -1.726891
15
Coordinates from ORCA-job scan E -19.235113876410
  C       1.627370     -0.457244      0.969342
  C      -2.133340      0.294500      0.743846
  C       1.442757     -0.406157     -0.519641
  C      -0.665907      0.409962      0.478736
  C       0.055860      0.197880     -0.778030
  O      -0.143796      1.479751     -0.243897
  H       0.187338      0.040600      1.246063
  H       2.229056      0.314782      1.418979
  H       1.703461     -1.428092      1.429529
  H      -2.380313     -0.733631      0.999283
  H      -2.699059      0.590512     -0.139369
  H      -2.419320      0.942370      1.570166
  H       2.201465      0.211238     -1.005379
  H       1.464076     -1.403848     -0.960911
  H      -0.429942      0.008155     -1.726744
15
Coordinates from ORCA-job scan E -19.235122887610
  C       1.629433     -0.453223      0.968977
  C      -2.133590      0.293642      0.743142
  C       1.442289     -0.407035     -0.520139
  C      -0.665991      0.407936      0.479462
  C       0.056269      0.198607     -0.777253
  O      -0.141674      1.479157     -0.239460
  H       0.185719      0.033837      1.245712
  H       2.234276      0.318302      1.415435
  H       1.699690     -1.422238      1.433952
  H      -2.382156     -0.734897      0.995404
  H      -2.698173      0.593003     -0.139632
  H      -2.419266      0.939524      1.571111
  H       2.201076      0.207721     -1.009172
  H       1.460957     -1.406011     -0.958674
  H      -0.429152      0.012454     -1.726891
15
Coordinates from ORCA-job scan E -19.235123212680
  C       1.629238     -0.453631      0.969062
  C      -2.133115      0.293500      0.743282
  C       1.442178     -0.406951     -0.520157
  C      -0.665661      0.408265      0.479208
  C       0.056313      0.198779     -0.777353
  O      -0.141576      1.479456     -0.239934
  H       0.185734      0.034594      1.244836
  H       2.233259      0.318021      1.416201
  H       1.698974     -1.422613      1.434034
  H      -2.381304     -0.735023      0.995992
  H      -2.697982      0.592342     -0.139488
  H      -2.418823      0.939615      1.571069
  H       2.200984      0.207967     -1.008952
  H       1.460886     -1.405767     -0.959024
  H      -0.429400      0.012225     -1.726803
15
Coordinates from ORCA-job scan E -19.234830933480
  C       1.625108     -0.452811      0.970863
  C      -2.131182      0.292911      0.744110
  C       1.441167     -0.406475     -0.519971
  C      -0.664300      0.408284      0.477114
  C       0.055684      0.199652     -0.779492
  O      -0.141295      1.480165     -0.241991
  H       0.193545      0.031901      1.238436
  H       2.228380      0.318798      1.419086
  H       1.693599     -1.421683      1.436253
  H      -2.378538     -0.735837      0.996720
  H      -2.697939      0.592099     -0.137334
  H      -2.415402      0.938451      1.572859
  H       2.201048      0.208059     -1.007581
  H       1.460401     -1.405424     -0.958513
  H      -0.430570      0.012684     -1.728584
15
Coordinates from ORCA-job scan E -19.234838846720
  C       1.624470     -0.451929      0.970294
  C      -2.132524      0.293257      0.743861
  C       1.441611     -0.406747     -0.520044
  C      -0.665429      0.407744      0.477814
  C       0.056044      0.198931     -0.778935
  O      -0.141422      1.479411     -0.240813
  H       0.193241      0.031354      1.242208
  H       2.230585      0.318652      1.416528
  H       1.695947     -1.421096      1.434653
  H      -2.380598     -0.735376      0.996208
  H      -2.698687      0.592846     -0.137926
  H      -2.416934      0.938871      1.572507
  H       2.201526      0.207659     -1.007655
  H       1.461039     -1.405929     -0.957959
  H      -0.429164      0.013129     -1.728766
15
Coordinates from ORCA-job scan E -19.234840813620
  C       1.624349     -0.452724      0.970831
  C      -2.133438      0.293740      0.743681
  C       1.441615     -0.406534     -0.519611
  C      -0.666485      0.408602      0.477628
  C       0.055928      0.198734     -0.778692
  O      -0.142454      1.479712     -0.241438
  H       0.193714      0.032103      1.243119
  H       2.232005      0.317114      1.416589
  H       1.699261     -1.422767      1.433199
  H      -2.381051     -0.734730      0.997191
  H      -2.699791      0.592050     -0.138470
  H      -2.418191      0.940185      1.571563
  H       2.201419      0.208337     -1.006735
  H       1.461589     -1.405405     -0.958197
  H      -0.428764      0.012361     -1.728685
15
Coordinates from ORCA-job scan E -19.234839546290
  C       1.625723     -0.450913      0.971119
  C      -2.134467      0.293633      0.743093
  C       1.441326     -0.406883     -0.519458
  C      -0.667500      0.408180      0.477807
  C       0.056048      0.199123     -0.778016
  O      -0.142074      1.479706     -0.239253
  H       0.193160      0.028252      1.243291
  H       2.236655      0.317917      1.414457
  H       1.699851     -1.420520      1.434769
  H      -2.382589     -0.734945      0.995688
  H      -2.700392      0.592840     -0.139057
  H      -2.419329      0.939565      1.571342
  H       2.201164      0.206637     -1.008237
  H       1.460096     -1.406303     -0.956855
  H      -0.427967      0.014490     -1.728713
15
Coordinates from ORCA-job scan E -19.234565930780
  C       1.621593     -0.450108      0.972916
  C      -2.132535      0.293046      0.743920
  C       1.440314     -0.406405     -0.519265
  C      -0.666142      0.408212      0.475724
  C       0.055422      0.199999     -0.780147
  O      -0.141808      1.480420     -0.241313
  H       0.200986      0.025609      1.236841
  H       2.231786      0.318670      1.417361
  H       1.694479     -1.419611      1.436980
  H      -2.379817     -0.735756      0.996428
  H      -2.700345      0.592579     -0.136909
  H      -2.415922      0.938411      1.573118
  H       2.201225      0.206731     -1.006859
  H       1.459604     -1.405956     -0.956337
  H      -0.429135      0.014937     -1.730484
15
Coordinates from ORCA-job scan E -19.234552800930
  C       1.617112     -0.456504      0.972380
  C      -2.131934      0.294242      0.745225
  C       1.441562     -0.405188     -0.519591
  C      -0.666074      0.411005      0.474927
  C       0.055552      0.197969     -0.781163
  O      -0.144868      1.480568     -0.247918
  H       0.204129      0.038667      1.241402
  H       2.221884      0.313042      1.422651
  H       1.698087     -1.428743      1.429356
  H      -2.376809     -0.733769      1.003219
  H      -2.701406      0.588117     -0.136526
  H      -2.415819      0.943232      1.571439
  H       2.202088      0.212754     -1.001599
  H       1.465361     -1.402541     -0.961398
  H      -0.429160      0.007929     -1.730429
15
Coordinates from ORCA-job scan E -19.234574303790
  C       1.620092     -0.450464      0.972043
  C      -2.133856      0.293624      0.743902
  C       1.441094     -0.406449     -0.519563
  C      -0.667374      0.408246      0.476270
  C       0.055927      0.198771     -0.779693
  O      -0.142523      1.479627     -0.241312
  H       0.201518      0.027729      1.242348
  H       2.232082      0.317328      1.415686
  H       1.697187     -1.420725      1.433791
  H      -2.381339     -0.734876      0.997406
  H      -2.701433      0.592261     -0.137511
  H      -2.417576      0.939919      1.572292
  H       2.201948      0.207525     -1.006072
  H       1.461479     -1.405786     -0.956975
  H      -0.427522      0.014048     -1.730637
15
Coordinates from ORCA-job scan E -19.234575530490
  C       1.620687     -0.451250      0.972903
  C      -2.134019      0.293797      0.743781
  C       1.440748     -0.406177     -0.519056
  C      -0.667755      0.409185      0.475716
  C       0.055608      0.199158     -0.779703
  O      -0.143190      1.480351     -0.242097
  H       0.201897      0.027726      1.240680
  H       2.232941      0.316346      1.416771
  H       1.698722     -1.421958      1.433857
  H      -2.380796     -0.734664      0.998183
  H      -2.702034      0.591353     -0.137709
  H      -2.417920      0.940597      1.571705
  H       2.201532      0.207938     -1.005489
  H       1.461209     -1.405254     -0.957090
  H      -0.427926      0.013631     -1.730478
15
Coordinates from ORCA-job scan E -19.234313186480
  C       1.616563     -0.450433      0.974695
  C      -2.132090      0.293211      0.744603
  C       1.439733     -0.405699     -0.518856
  C      -0.666402      0.409210      0.473645
  C       0.054980      0.200030     -0.781819
  O      -0.142915      1.481059     -0.244136
  H       0.209716      0.025042      1.234191
  H       2.228080      0.317116      1.419662
  H       1.693369     -1.421035      1.436080
  H      -2.378033     -0.735474      0.998907
  H      -2.701976      0.591101     -0.135568
  H      -2.414521      0.939443      1.573475
  H       2.201582      0.208033     -1.004107
  H       1.460715     -1.404910     -0.956563
  H      -0.429094      0.014084     -1.732237
15
Coordinates from ORCA-job scan E -19.234324873810
  C       1.615729     -0.449873      0.973866
  C      -2.133478      0.293631      0.744372
  C       1.440357     -0.405933     -0.519177
  C      -0.667586      0.408738      0.474387
  C       0.055429      0.199045     -0.781229
  O      -0.143167      1.480165     -0.243150
  H       0.209890      0.025299      1.239312
  H       2.229623      0.316730      1.417268
  H       1.695561     -1.420826      1.434022
  H      -2.380075     -0.734875      0.998741
  H      -2.702795      0.591603     -0.136248
  H      -2.416156      0.940190      1.572928
  H       2.202144      0.207996     -1.004191
  H       1.461793     -1.405247     -0.956556
  H      -0.427563      0.014136     -1.732370
15
Coordinates from ORCA-job scan E -19.234327747550
  C       1.616993     -0.448634      0.974425
  C      -2.135271      0.293980      0.743596
  C       1.440116     -0.406110     -0.518616
  C      -0.669310      0.408803      0.474589
  C       0.055356      0.199178     -0.780358
  O      -0.143526      1.480248     -0.241447
  H       0.209728      0.021851      1.240657
  H       2.235119      0.316510      1.414869
  H       1.699093     -1.419795      1.434110
  H      -2.382231     -0.734517      0.997701
  H      -2.704134      0.592153     -0.137323
  H      -2.418317      0.940526      1.572042
  H       2.201851      0.206859     -1.004828
  H       1.460871     -1.405776     -0.955184
  H      -0.426632      0.015501     -1.732259
15
Coordinates from ORCA-job scan E -19.234324071130
  C       1.615900     -0.452848      0.975432
  C      -2.135970      0.295018      0.743805
  C       1.440281     -0.405157     -0.518014
  C      -0.670631      0.411698      0.473463
  C       0.055059      0.198555     -0.780477
  O      -0.146327      1.481315     -0.245385
  H       0.212182      0.027902      1.242058
  H       2.233070      0.311897      1.418324
  H       1.704430     -1.426140      1.429987
  H      -2.380734     -0.732949      1.002215
  H      -2.706168      0.588498     -0.137901
  H      -2.419741      0.944377      1.569806
  H       2.201628      0.210352     -1.001549
  H       1.463352     -1.403350     -0.957845
  H      -0.426625      0.011608     -1.731944
15
Coordinates from ORCA-job scan E -19.234329796640
  C       1.616678     -0.450302      0.974659
  C      -2.135146      0.294143      0.743802
  C       1.440181     -0.405757     -0.518691
  C      -0.669595      0.409988      0.473922
  C       0.055430      0.199051     -0.780475
  O      -0.144401      1.480755     -0.242962
  H       0.210861      0.024520      1.240847
  H       2.233689      0.314864      1.416754
  H       1.699338     -1.422035      1.433212
  H      -2.381001     -0.734157      0.999777
  H      -2.704778      0.590257     -0.137326
  H      -2.418409      0.941860      1.571265
  H       2.201775      0.208172     -1.003968
  H       1.461646     -1.404827     -0.956643
  H      -0.426561      0.014247     -1.732200
15
Coordinates from ORCA-job scan E -19.234329933490
  C       1.616685     -0.450299      0.974628
  C      -2.135106      0.294058      0.743848
  C       1.440177     -0.405761     -0.518721
  C      -0.669644      0.410116      0.473748
  C       0.055543      0.199134     -0.780464
  O      -0.144335      1.480869     -0.242954
  H       0.210855      0.024574      1.240654
  H       2.233753      0.314729      1.416800
  H       1.698847     -1.421971      1.433326
  H      -2.380754     -0.734221      1.000087
  H      -2.704937      0.589870     -0.137263
  H      -2.418372      0.941921      1.571200
  H       2.201837      0.208108     -1.003979
  H       1.461567     -1.404825     -0.956680
  H      -0.426412      0.014475     -1.732254
15
Coordinates from ORCA-job scan E -19.234091878230
  C       1.612573     -0.449483      0.976417
  C      -2.133186      0.293476      0.744666
  C       1.439163     -0.405283     -0.518512
  C      -0.668301      0.410143      0.471695
  C       0.054916      0.200003     -0.782563
  O      -0.144063      1.481575     -0.244978
  H       0.218672      0.021886      1.234106
  H       2.228911      0.315497      1.419692
  H       1.693517     -1.421051      1.435551
  H      -2.378001     -0.735027      1.000807
  H      -2.704875      0.589617     -0.135132
  H      -2.414993      0.940776      1.572959
  H       2.201880      0.208205     -1.002592
  H       1.461070     -1.404479     -0.956143
  H      -0.427576      0.014925     -1.734000
15
Coordinates from ORCA-job scan E -19.234101711250
  C       1.612166     -0.448534      0.975776
  C      -2.134679      0.293859      0.744296
  C       1.439631     -0.405567     -0.518632
  C      -0.669512      0.409569      0.472436
  C       0.055238      0.199267     -0.781919
  O      -0.144133      1.480799     -0.243654
  H       0.218597      0.020986      1.238588
  H       2.231353      0.315418      1.416932
  H       1.695976     -1.420332      1.433943
  H      -2.380266     -0.734523      1.000164
  H      -2.705717      0.590413     -0.135893
  H      -2.416718      0.941242      1.572459
  H       2.202334      0.207745     -1.002847
  H       1.461677     -1.405020     -0.955585
  H      -0.426238      0.015456     -1.734091
15
Coordinates from ORCA-job scan E -19.234104403630
  C       1.611989     -0.450120      0.976417
  C      -2.135828      0.294599      0.744069
  C       1.439681     -0.405185     -0.518068
  C      -0.670828      0.410866      0.472102
  C       0.055000      0.198909     -0.781661
  O      -0.145630      1.481227     -0.244949
  H       0.219699      0.022591      1.240286
  H       2.232357      0.313153      1.417444
  H       1.700540     -1.423111      1.431582
  H      -2.380641     -0.733509      1.001822
  H      -2.707220      0.589095     -0.136652
  H      -2.418353      0.943306      1.571033
  H       2.202170      0.209066     -1.001327
  H       1.462716     -1.404075     -0.956231
  H      -0.425948      0.013965     -1.733895
15
Coordinates from ORCA-job scan E -19.234100069550
  C       1.614614     -0.447227      0.977069
  C      -2.137928      0.294649      0.742890
  C       1.439152     -0.405673     -0.517539
  C      -0.672809      0.410308      0.472405
  C       0.054986      0.199533     -0.780429
  O      -0.145263      1.481288     -0.241424
  H       0.219057      0.015680      1.241061
  H       2.240681      0.314254      1.413668
  H       1.702961     -1.419739      1.433717
  H      -2.383590     -0.733615      0.999263
  H      -2.708532      0.590479     -0.137953
  H      -2.420739      0.942623      1.570336
  H       2.201629      0.206389     -1.003541
  H       1.460280     -1.405458     -0.953750
  H      -0.424792      0.017287     -1.733801
15
Coordinates from ORCA-job scan E -19.234105940260
  C       1.612967     -0.449251      0.976487
  C      -2.136213      0.294425      0.743773
  C       1.439516     -0.405352     -0.518190
  C      -0.671347      0.410768      0.471987
  C       0.055178      0.199188     -0.781287
  O      -0.145384      1.481325     -0.243772
  H       0.219748      0.020678      1.240420
  H       2.234574      0.313572      1.416711
  H       1.699793     -1.421880      1.432854
  H      -2.381056     -0.733726      1.001333
  H      -2.707570      0.589058     -0.136930
  H      -2.418798      0.943028      1.570805
  H       2.201983      0.208195     -1.002440
  H       1.461769     -1.404490     -0.955872
  H      -0.425454      0.015241     -1.733906
15
Coordinates from ORCA-job scan E -19.234106063150
  C       1.612933     -0.449377      0.976470
  C      -2.136158      0.294370      0.743831
  C       1.439518     -0.405329     -0.518208
  C      -0.671385      0.410941      0.471802
  C       0.055273      0.199249     -0.781290
  O      -0.145380      1.481449     -0.243876
  H       0.219806      0.020914      1.240240
  H       2.234453      0.313360      1.416876
  H       1.699439     -1.421992      1.432851
  H      -2.380766     -0.733747      1.001739
  H      -2.707724      0.588617     -0.136875
  H      -2.418757      0.943177      1.570702
  H       2.202032      0.208243     -1.002360
  H       1.461763     -1.404421     -0.955987
  H      -0.425341      0.015327     -1.733941
15
Coordinates from ORCA-job scan E -19.233891536360
  C       1.608831     -0.448563      0.978256
  C      -2.134245      0.293790      0.744646
  C       1.438503     -0.404851     -0.517990
  C      -0.670051      0.410970      0.469765
  C       0.054646      0.200115     -0.783374
  O      -0.145113      1.482153     -0.245887
  H       0.227623      0.018228      1.233635
  H       2.229628      0.314124      1.419771
  H       1.694129     -1.421077      1.435080
  H      -2.378020     -0.734549      1.002457
  H      -2.707657      0.588361     -0.134753
  H      -2.415397      0.942039      1.572450
  H       2.202068      0.208342     -1.000967
  H       1.461264     -1.404075     -0.955442
  H      -0.426502      0.015772     -1.735674
15
Coordinates from ORCA-job scan E -19.233902450540
  C       1.608542     -0.447520      0.977558
  C      -2.135821      0.294180      0.744209
  C       1.438982     -0.405163     -0.518154
  C      -0.671306      0.410324      0.470573
  C       0.054964      0.199359     -0.782657
  O      -0.145137      1.481328     -0.244400
  H       0.227649      0.017124      1.238500
  H       2.232232      0.314147      1.416845
  H       1.696624     -1.420215      1.433508
  H      -2.380462     -0.734039      1.001661
  H      -2.708494      0.589260     -0.135611
  H      -2.417230      0.942477      1.571903
  H       2.202498      0.207811     -1.001381
  H       1.461820     -1.404673     -0.954866
  H      -0.425156      0.016378     -1.735713
15
Coordinates from ORCA-job scan E -19.233905162790
  C       1.608279     -0.449623      0.978232
  C      -2.137088      0.295073      0.743968
  C       1.439073     -0.404689     -0.517538
  C      -0.672752      0.411862      0.470198
  C       0.054661      0.198875     -0.782375
  O      -0.146922      1.481806     -0.246103
  H       0.229164      0.019417      1.240707
  H       2.232842      0.311455      1.417662
  H       1.701955     -1.423702      1.430555
  H      -2.380813     -0.732801      1.003708
  H      -2.710161      0.587667     -0.136503
  H      -2.419083      0.944978      1.570204
  H       2.202293      0.209553     -0.999502
  H       1.463184     -1.403470     -0.955814
  H      -0.424925      0.014378     -1.735425
15
Coordinates from ORCA-job scan E -19.233900417120
  C       1.611477     -0.446445      0.979066
  C      -2.139672      0.295241      0.742519
  C       1.438431     -0.405207     -0.516811
  C      -0.675156      0.411312      0.470580
  C       0.054534      0.199571     -0.780874
  O      -0.146659      1.481914     -0.242132
  H       0.228654      0.011395      1.241808
  H       2.242561      0.312592      1.413304
  H       1.705484     -1.420083      1.432761
  H      -2.384397     -0.732793      1.000743
  H      -2.711759      0.589289     -0.138181
  H      -2.422079      0.944374      1.569227
  H       2.201576      0.206595     -1.001918
  H       1.460411     -1.404979     -0.952918
  H      -0.423700      0.017999     -1.735200
15
Coordinates from ORCA-job scan E -19.233907680520
  C       1.609616     -0.448351      0.978296
  C      -2.137555      0.294832      0.743562
  C       1.438836     -0.404937     -0.517671
  C      -0.673327      0.411590      0.470144
  C       0.054845      0.199261     -0.781886
  O      -0.146510      1.481880     -0.244454
  H       0.229140      0.016673      1.240764
  H       2.235707      0.312235      1.416571
  H       1.700990     -1.421902      1.432307
  H      -2.381474     -0.733128      1.002787
  H      -2.710456      0.587893     -0.136865
  H      -2.419606      0.944434      1.570024
  H       2.202034      0.208306     -1.001019
  H       1.461855     -1.404104     -0.955177
  H      -0.424387      0.016096     -1.735408
15
Coordinates from ORCA-job scan E -19.233907822780
  C       1.609589     -0.448500      0.978287
  C      -2.137523      0.294786      0.743613
  C       1.438833     -0.404914     -0.517673
  C      -0.673393      0.411780      0.469953
  C       0.054939      0.199324     -0.781872
  O      -0.146526      1.482015     -0.244559
  H       0.229218      0.016921      1.240595
  H       2.235600      0.312001      1.416726
  H       1.700742     -1.422050      1.432262
  H      -2.381200     -0.733134      1.003212
  H      -2.710632      0.587432     -0.136830
  H      -2.419601      0.944613      1.569894
  H       2.202079      0.208357     -1.000916
  H       1.461841     -1.404031     -0.955284
  H      -0.424260      0.016177     -1.735435
15
Coordinates from ORCA-job scan E -19.233720123700
  C       1.605500     -0.447690      0.980071
  C      -2.135620      0.294210      0.744425
  C       1.437819     -0.404436     -0.517446
  C      -0.672068      0.411813      0.467933
  C       0.054312      0.200188     -0.783939
  O      -0.146264      1.482718     -0.246557
  H       0.237034      0.014240      1.233925
  H       2.230794      0.312758      1.419626
  H       1.695455     -1.421142      1.434495
  H      -2.378463     -0.733931      1.003929
  H      -2.710563      0.587173     -0.134718
  H      -2.416264      0.943484      1.571630
  H       2.202109      0.208458     -0.999517
  H       1.461340     -1.403684     -0.954729
  H      -0.425417      0.016618     -1.737155
15
Coordinates from ORCA-job scan E -19.233732325950
  C       1.605278     -0.446640      0.979314
  C      -2.137260      0.294613      0.743941
  C       1.438319     -0.404763     -0.517659
  C      -0.673366      0.411143      0.468775
  C       0.054632      0.199401     -0.783172
  O      -0.146272      1.481863     -0.245003
  H       0.237209      0.013104      1.239206
  H       2.233426      0.312813      1.416622
  H       1.697994     -1.420252      1.432887
  H      -2.381010     -0.733401      1.003081
  H      -2.711416      0.588095     -0.135657
  H      -2.418188      0.943947      1.571017
  H       2.202528      0.207920     -1.000026
  H       1.461899     -1.404299     -0.954201
  H      -0.424068      0.017234     -1.737151
15
Coordinates from ORCA-job scan E -19.233735984370
  C       1.605205     -0.448841      0.980034
  C      -2.138751      0.295597      0.743589
  C       1.438387     -0.404283     -0.516975
  C      -0.675016      0.412754      0.468407
  C       0.054278      0.198895     -0.782775
  O      -0.148164      1.482367     -0.246669
  H       0.238973      0.015256      1.241840
  H       2.234350      0.310018      1.417321
  H       1.703968     -1.423872      1.429746
  H      -2.381592     -0.732043      1.005107
  H      -2.713255      0.586486     -0.136734
  H      -2.420345      0.946622      1.569111
  H       2.202250      0.209688     -0.998120
  H       1.463244     -1.403067     -0.955123
  H      -0.423826      0.015201     -1.736784
15
Coordinates from ORCA-job scan E -19.233727956000
  C       1.609110     -0.445146      0.980974
  C      -2.141867      0.295834      0.741827
  C       1.437632     -0.404890     -0.516111
  C      -0.677887      0.412105      0.468884
  C       0.054095      0.199688     -0.780947
  O      -0.147875      1.482480     -0.241987
  H       0.238593      0.005752      1.243455
  H       2.245714      0.311390      1.412143
  H       1.708334     -1.419660      1.432242
  H      -2.385925     -0.731987      1.001560
  H      -2.715149      0.588438     -0.138813
  H      -2.423984      0.945965      1.567883
  H       2.201367      0.206239     -1.000982
  H       1.459975     -1.404836     -0.951711
  H      -0.422429      0.019407     -1.736443
15
Coordinates from ORCA-job scan E -19.233738930110
  C       1.606704     -0.447561      0.980106
  C      -2.139304      0.295373      0.743124
  C       1.438129     -0.404537     -0.517106
  C      -0.675692      0.412509      0.468336
  C       0.054458      0.199296     -0.782218
  O      -0.147788      1.482464     -0.244938
  H       0.239089      0.012363      1.242060
  H       2.237395      0.310808      1.416190
  H       1.703140     -1.422069      1.431542
  H      -2.382334     -0.732349      1.004155
  H      -2.713614      0.586691     -0.137186
  H      -2.420990      0.946124      1.568840
  H       2.201945      0.208405     -0.999724
  H       1.461826     -1.403714     -0.954480
  H      -0.423257      0.016974     -1.736728
15
Coordinates from ORCA-job scan E -19.233739108080
  C       1.606694     -0.447710      0.980090
  C      -2.139264      0.295317      0.743175
  C       1.438120     -0.404522     -0.517110
  C      -0.675759      0.412700      0.468129
  C       0.054565      0.199374     -0.782196
  O      -0.147790      1.482610     -0.245020
  H       0.239175      0.012601      1.241861
  H       2.237263      0.310597      1.416348
  H       1.702863     -1.422200      1.431522
  H      -2.382043     -0.732365      1.004587
  H      -2.713790      0.586210     -0.137147
  H      -2.420977      0.946295      1.568708
  H       2.201990      0.208432     -0.999638
  H       1.461775     -1.403653     -0.954580
  H      -0.423115      0.017092     -1.736755
15
Coordinates from ORCA-job scan E -19.233582269970
  C       1.602620     -0.446904      0.981874
  C      -2.137373      0.294745      0.743985
  C       1.437108     -0.404043     -0.516873
  C      -0.674446      0.412737      0.466127
  C       0.053939      0.200235     -0.784246
  O      -0.147535      1.483312     -0.247005
  H       0.246989      0.009926      1.235119
  H       2.232481      0.311346      1.419253
  H       1.697604     -1.421300      1.433760
  H      -2.379317     -0.733157      1.005304
  H      -2.713720      0.585948     -0.135046
  H      -2.417666      0.945177      1.570433
  H       2.202015      0.208536     -0.998234
  H       1.461274     -1.403306     -0.954016
  H      -0.424267      0.017527     -1.738460
15
Coordinates from ORCA-job scan E -19.233595872410
  C       1.602472     -0.445833      0.981052
  C      -2.139078      0.295157      0.743449
  C       1.437626     -0.404389     -0.517139
  C      -0.675786      0.412036      0.466999
  C       0.054264      0.199422     -0.783427
  O      -0.147516      1.482426     -0.245370
  H       0.247317      0.008733      1.240841
  H       2.235150      0.311447      1.416154
  H       1.700167     -1.420361      1.432128
  H      -2.381973     -0.732612      1.004391
  H      -2.714592      0.586894     -0.136066
  H      -2.419678      0.945653      1.569755
  H       2.202425      0.207974     -0.998850
  H       1.461819     -1.403947     -0.953526
  H      -0.422911      0.018177     -1.738416
15
Coordinates from ORCA-job scan E -19.233600629120
  C       1.602581     -0.448203      0.981814
  C      -2.140821      0.296251      0.742980
  C       1.437679     -0.403896     -0.516382
  C      -0.677671      0.413750      0.466624
  C       0.053854      0.198877     -0.782912
  O      -0.149546      1.482963     -0.247049
  H       0.249402      0.010831      1.244030
  H       2.236330      0.308501      1.416761
  H       1.706904     -1.424204      1.428705
  H      -2.382794     -0.731102      1.006451
  H      -2.716641      0.585229     -0.137350
  H      -2.422177      0.948566      1.567599
  H       2.202075      0.209815     -0.996872
  H       1.463186     -1.402658     -0.954462
  H      -0.422655      0.016059     -1.737964
15
Coordinates from ORCA-job scan E -19.233588198870
  C       1.607346     -0.443939      0.982895
  C      -2.144609      0.296596      0.740831
  C       1.436788     -0.404599     -0.515333
  C      -0.681138      0.413014      0.467198
  C       0.053593      0.199777     -0.780689
  O      -0.149260      1.483093     -0.241557
  H       0.249236     -0.000440      1.246349
  H       2.249655      0.310113      1.410606
  H       1.712426     -1.419359      1.431470
  H      -2.388041     -0.730956      1.002246
  H      -2.718939      0.587546     -0.139932
  H      -2.426627      0.947907      1.566027
  H       2.200986      0.205810     -1.000222
  H       1.459346     -1.404715     -0.950436
  H      -0.421057      0.020930     -1.737478
15
Coordinates from ORCA-job scan E -19.233604291800
  C       1.604323     -0.446869      0.981901
  C      -2.141499      0.296046      0.742427
  C       1.437385     -0.404165     -0.516503
  C      -0.678486      0.413522      0.466533
  C       0.054028      0.199312     -0.782261
  O      -0.149197      1.483089     -0.245164
  H       0.249679      0.007633      1.244448
  H       2.239690      0.309342      1.415534
  H       1.706255     -1.422334      1.430604
  H      -2.383668     -0.731388      1.005414
  H      -2.717089      0.585434     -0.137921
  H      -2.422986      0.948102      1.567215
  H       2.201703      0.208441     -0.998622
  H       1.461613     -1.403345     -0.953768
  H      -0.422043      0.017958     -1.737863
15
Coordinates from ORCA-job scan E -19.233604520140
  C       1.604330     -0.447025      0.981881
  C      -2.141454      0.295980      0.742478
  C       1.437368     -0.404157     -0.516507
  C      -0.678560      0.413718      0.466304
  C       0.054149      0.199407     -0.782230
  O      -0.149188      1.483248     -0.245227
  H       0.249776      0.007867      1.244217
  H       2.239526      0.309149      1.415697
  H       1.705964     -1.422457      1.430602
  H      -2.383357     -0.731412      1.005864
  H      -2.717272      0.584924     -0.137880
  H      -2.422967      0.948272      1.567076
  H       2.201749      0.208444     -0.998547
  H       1.461522     -1.403295     -0.953863
  H      -0.421881      0.018115     -1.737891
15
Coordinates from ORCA-job scan E -19.233483580380
  C       1.600276     -0.446225      0.983665
  C      -2.139578      0.295414      0.743285
  C       1.436359     -0.403679     -0.516259
  C      -0.677260      0.413760      0.464322
  C       0.053525      0.200264     -0.784260
  O      -0.148941      1.483949     -0.247198
  H       0.257585      0.005200      1.237395
  H       2.234774      0.309889      1.418607
  H       1.700738     -1.421568      1.432846
  H      -2.380646     -0.732198      1.006581
  H      -2.717204      0.584659     -0.135792
  H      -2.419687      0.947167      1.568789
  H       2.201771      0.208551     -0.997137
  H       1.461021     -1.402948     -0.953288
  H      -0.423027      0.018544     -1.739580
15
Coordinates from ORCA-job scan E -19.233498783780
  C       1.600204     -0.445131      0.982773
  C      -2.141350      0.295832      0.742694
  C       1.436895     -0.404045     -0.516583
  C      -0.678646      0.413026      0.465221
  C       0.053856      0.199427     -0.783389
  O      -0.148893      1.483032     -0.245475
  H       0.258086      0.003946      1.243604
  H       2.237476      0.310044      1.415406
  H       1.703324     -1.420574      1.431189
  H      -2.383415     -0.731640      1.005599
  H      -2.718095      0.585631     -0.136899
  H      -2.421790      0.947657      1.568041
  H       2.202169      0.207959     -0.997871
  H       1.461548     -1.403618     -0.952840
  H      -0.421663      0.019235     -1.739497
15
Coordinates from ORCA-job scan E -19.233505070020
  C       1.600543     -0.447678      0.983578
  C      -2.143401      0.297055      0.742078
  C       1.436928     -0.403544     -0.515742
  C      -0.680816      0.414845      0.464841
  C       0.053384      0.198837     -0.782730
  O      -0.151074      1.483599     -0.247139
  H       0.260557      0.005935      1.247503
  H       2.238984      0.306945      1.415871
  H       1.710965     -1.424647      1.427442
  H      -2.384542     -0.729954      1.007672
  H      -2.720394      0.583915     -0.138435
  H      -2.424701      0.950837      1.565589
  H       2.201734      0.209863     -0.995830
  H       1.462920     -1.402277     -0.953777
  H      -0.421381      0.017047     -1.738948
15
Coordinates from ORCA-job scan E -19.233485778830
  C       1.606420     -0.442724      0.984829
  C      -2.148077      0.297557      0.739421
  C       1.435867     -0.404366     -0.514454
  C      -0.685072      0.414014      0.465532
  C       0.053016      0.199858     -0.779992
  O      -0.150811      1.483748     -0.240631
  H       0.260737     -0.007585      1.250866
  H       2.254782      0.308850      1.408459
  H       1.718069     -1.419041      1.430484
  H      -2.390985     -0.729663      1.002647
  H      -2.723235      0.586686     -0.141690
  H      -2.430224      0.950223      1.563537
  H       2.200374      0.205174     -0.999786
  H       1.458369     -1.404690     -0.948982
  H      -0.419524      0.022738     -1.738266
15
Coordinates from ORCA-job scan E -19.233509710440
  C       1.602609     -0.446308      0.983690
  C      -2.144268      0.296890      0.741401
  C       1.436586     -0.403827     -0.515841
  C      -0.681837      0.414658      0.464720
  C       0.053541      0.199307     -0.781950
  O      -0.150781      1.483768     -0.245076
  H       0.261081      0.002355      1.248243
  H       2.242757      0.307826      1.414523
  H       1.710651     -1.422738      1.429424
  H      -2.385609     -0.730192      1.006546
  H      -2.720985      0.584108     -0.139182
  H      -2.425757      0.950456      1.565028
  H       2.201269      0.208393     -0.997745
  H       1.461163     -1.403002     -0.953028
  H      -0.420715      0.019083     -1.738780
15
Coordinates from ORCA-job scan E -19.233510012830
  C       1.602638     -0.446473      0.983664
  C      -2.144214      0.296812      0.741453
  C       1.436560     -0.403828     -0.515845
  C      -0.681918      0.414862      0.464461
  C       0.053680      0.199422     -0.781908
  O      -0.150760      1.483946     -0.245117
  H       0.261194      0.002584      1.247972
  H       2.242551      0.307656      1.414696
  H       1.710342     -1.422852      1.429446
  H      -2.385270     -0.730226      1.007016
  H      -2.721176      0.583562     -0.139137
  H      -2.425729      0.950625      1.564881
  H       2.201316      0.208368     -0.997684
  H       1.461021     -1.402965     -0.953116
  H      -0.420529      0.019286     -1.738808
15
Coordinates from ORCA-job scan E -19.233432145260
  C       1.598609     -0.445683      0.985449
  C      -2.142358      0.296252      0.742257
  C       1.435556     -0.403351     -0.515585
  C      -0.680635      0.414910      0.462501
  C       0.053057      0.200276     -0.783916
  O      -0.150523      1.484645     -0.247072
  H       0.268996     -0.000070      1.241058
  H       2.237834      0.308383      1.417613
  H       1.705155     -1.421977      1.431697
  H      -2.382579     -0.731004      1.007735
  H      -2.721113      0.583294     -0.137064
  H      -2.422486      0.949535      1.566580
  H       2.201335      0.208478     -0.996268
  H       1.460522     -1.402617     -0.952531
  H      -0.421667      0.019706     -1.740480
15
Coordinates from ORCA-job scan E -19.233449184400
  C       1.598616     -0.444559      0.984479
  C      -2.144200      0.296675      0.741603
  C       1.436107     -0.403742     -0.515971
  C      -0.682069      0.414136      0.463425
  C       0.053397      0.199415     -0.782990
  O      -0.150438      1.483694     -0.245249
  H       0.269691     -0.001400      1.247814
  H       2.240566      0.308606      1.414295
  H       1.707758     -1.420916      1.430017
  H      -2.385468     -0.730435      1.006673
  H      -2.722021      0.584294     -0.138264
  H      -2.424681      0.950034      1.565758
  H       2.201721      0.207847     -0.997135
  H       1.461017     -1.403325     -0.952124
  H      -0.420291      0.020452     -1.740358
15
Coordinates from ORCA-job scan E -19.233457612500
  C       1.599237     -0.447310      0.985321
  C      -2.146632      0.298052      0.740803
  C       1.436116     -0.403238     -0.515038
  C      -0.684590      0.416071      0.463040
  C       0.052855      0.198768     -0.782152
  O      -0.152792      1.484289     -0.246873
  H       0.272654      0.000445      1.252657
  H       2.242459      0.305346      1.414563
  H       1.716500     -1.425245      1.425867
  H      -2.386987     -0.728537      1.008744
  H      -2.724622      0.582529     -0.140113
  H      -2.428096      0.953530      1.562943
  H       2.201184      0.209812     -0.995035
  H       1.462385     -1.401934     -0.953060
  H      -0.419967      0.018199     -1.739693
15
Coordinates from ORCA-job scan E -19.233427585360
  C       1.606618     -0.441514      0.986793
  C      -2.152561      0.298805      0.737438
  C       1.434831     -0.404210     -0.513411
  C      -0.689964      0.415149      0.463876
  C       0.052330      0.199922     -0.778702
  O      -0.152613      1.484464     -0.239051
  H       0.273434     -0.016049      1.257677
  H       2.261526      0.307597      1.405452
  H       1.725961     -1.418731      1.429136
  H      -2.395084     -0.727997      1.002663
  H      -2.728246      0.585879     -0.144326
  H      -2.435137      0.953074      1.560173
  H       2.199446      0.204258     -0.999754
  H       1.456925     -1.404792     -0.947263
  H      -0.417757      0.024922     -1.738728
15
Coordinates from ORCA-job scan E -19.233463757450
  C       1.601788     -0.445916      0.985478
  C      -2.147814      0.297967      0.739930
  C       1.435704     -0.403540     -0.515089
  C      -0.685944      0.415958      0.462875
  C       0.052976      0.199279     -0.781173
  O      -0.152604      1.484521     -0.244565
  H       0.273580     -0.003699      1.253959
  H       2.246863      0.306262      1.413021
  H       1.716819     -1.423319      1.427910
  H      -2.388375     -0.728677      1.007491
  H      -2.725454      0.582707     -0.141143
  H      -2.429561      0.953309      1.562093
  H       2.200575      0.208217     -0.997165
  H       1.460375     -1.402703     -0.952228
  H      -0.419223      0.020412     -1.739420
15
Coordinates from ORCA-job scan E -19.233464177370
  C       1.601846     -0.446099      0.985444
  C      -2.147747      0.297872      0.739983
  C       1.435664     -0.403551     -0.515091
  C      -0.686033      0.416174      0.462576
  C       0.053137      0.199422     -0.781118
  O      -0.152569      1.484724     -0.244581
  H       0.273716     -0.003469      1.253633
  H       2.246592      0.306122      1.413214
  H       1.716488     -1.423427      1.427963
  H      -2.387998     -0.728725      1.007988
  H      -2.725654      0.582114     -0.141093
  H      -2.429518      0.953475      1.561936
  H       2.200622      0.208157     -0.997122
  H       1.460166     -1.402681     -0.952309
  H      -0.419008      0.020669     -1.739449
15
Coordinates from ORCA-job scan E -19.233440403240
  C       1.597851     -0.445320      0.987233
  C      -2.145917      0.297321      0.740784
  C       1.434667     -0.403074     -0.514817
  C      -0.684771      0.416229      0.460642
  C       0.052516      0.200271     -0.783102
  O      -0.152344      1.485421     -0.246519
  H       0.281508     -0.006106      1.246612
  H       2.241921      0.306834      1.416140
  H       1.711351     -1.422569      1.430223
  H      -2.385331     -0.729493      1.008710
  H      -2.725599      0.581842     -0.139037
  H      -2.426322      0.952403      1.563620
  H       2.200640      0.208270     -0.995699
  H       1.459671     -1.402332     -0.951714
  H      -0.420135      0.021080     -1.741102
15
Coordinates from ORCA-job scan E -19.233459577780
  C       1.597942     -0.444155      0.986172
  C      -2.147830      0.297745      0.740060
  C       1.435229     -0.403495     -0.515273
  C      -0.686257      0.415407      0.461586
  C       0.052870      0.199389     -0.782117
  O      -0.152214      1.484434     -0.244577
  H       0.282427     -0.007535      1.253992
  H       2.244676      0.307144      1.412681
  H       1.713960     -1.421418      1.428524
  H      -2.388350     -0.728917      1.007549
  H      -2.726522      0.582879     -0.140339
  H      -2.428608      0.952903      1.562719
  H       2.201010      0.207583     -0.996719
  H       1.460114     -1.403087     -0.951344
  H      -0.418741      0.021902     -1.740940
15
Coordinates from ORCA-job scan E -19.233471124160
  C       1.598911     -0.447162      0.987034
  C      -2.150752      0.299314      0.739019
  C       1.435213     -0.402998     -0.514237
  C      -0.689228      0.417472      0.461195
  C       0.052248      0.198662     -0.781047
  O      -0.154774      1.485052     -0.246134
  H       0.286051     -0.005863      1.260161
  H       2.247015      0.303709      1.412676
  H       1.724101     -1.426053      1.423838
  H      -2.390386     -0.726754      1.009601
  H      -2.729501      0.581063     -0.142592
  H      -2.432664      0.956793      1.559441
  H       2.200352      0.209610     -0.994564
  H       1.461469     -1.401648     -0.952287
  H      -0.418349      0.019582     -1.740131
15
Coordinates from ORCA-job scan E -19.233423669500
  C       1.608476     -0.440312      0.988818
  C      -2.158608      0.300505      0.734583
  C       1.433607     -0.404174     -0.512090
  C      -0.696334      0.416497      0.462216
  C       0.051473      0.199953     -0.776530
  O      -0.154815      1.485267     -0.236505
  H       0.287960     -0.026553      1.268076
  H       2.270710      0.306366      1.401089
  H       1.737428     -1.418442      1.427148
  H      -2.400971     -0.725748      1.002077
  H      -2.734366      0.585192     -0.148291
  H      -2.442051      0.956744      1.555486
  H       2.198038      0.202905     -1.000282
  H       1.454773     -1.405090     -0.945102
  H      -0.415614      0.027669     -1.738719
15
Coordinates from ORCA-job scan E -19.233479918670
  C       1.602269     -0.445758      0.987273
  C      -2.152509      0.299386      0.737802
  C       1.434682     -0.403331     -0.514184
  C      -0.691173      0.417494      0.460964
  C       0.052292      0.199225     -0.779731
  O      -0.154779      1.485384     -0.243432
  H       0.287689     -0.010956      1.262541
  H       2.252493      0.304664      1.410772
  H       1.725673     -1.424141      1.425887
  H      -2.392375     -0.726699      1.008127
  H      -2.730770      0.581236     -0.144125
  H      -2.434869      0.956873      1.558077
  H       2.199496      0.207820     -0.997013
  H       1.459064     -1.402483     -0.951304
  H      -0.417477      0.022063     -1.739681
15
Coordinates from ORCA-job scan E -19.233480547120
  C       1.602375     -0.445978      0.987229
  C      -2.152423      0.299272      0.737854
  C       1.434619     -0.403354     -0.514182
  C      -0.691274      0.417732      0.460605
  C       0.052481      0.199407     -0.779658
  O      -0.154733      1.485623     -0.243424
  H       0.287873     -0.010716      1.262140
  H       2.252122      0.304563      1.411006
  H       1.725323     -1.424253      1.425981
  H      -2.391941     -0.726763      1.008661
  H      -2.730983      0.580578     -0.144069
  H      -2.434804      0.957039      1.557905
  H       2.199538      0.207719     -0.996989
  H       1.458759     -1.402476     -0.951380
  H      -0.417227      0.022385     -1.739708
15
Coordinates from ORCA-job scan E -19.233436869950
  C       1.607084     -0.447179      0.986375
  C      -2.154985      0.300058      0.737102
  C       1.435549     -0.403675     -0.513794
  C      -0.693408      0.418198      0.461968
  C       0.052513      0.198944     -0.777728
  O      -0.155852      1.485406     -0.241950
  H       0.283473     -0.009218      1.264934
  H       2.257587      0.303265      1.409167
  H       1.731169     -1.425604      1.424474
  H      -2.395005     -0.725776      1.008227
  H      -2.732194      0.580836     -0.145874
  H      -2.438534      0.958393      1.556296
  H       2.199369      0.207882     -0.997731
  H       1.459338     -1.402660     -0.951326
  H      -0.416397      0.021906     -1.738165
15
Coordinates from ORCA-job scan E -19.233449083120
  C       1.605301     -0.446543      0.986261
  C      -2.152922      0.299147      0.737582
  C       1.435041     -0.403918     -0.514280
  C      -0.691708      0.417610      0.461591
  C       0.053172      0.199385     -0.778292
  O      -0.154344      1.485401     -0.241685
  H       0.281465     -0.008074      1.262952
  H       2.254407      0.304523      1.409859
  H       1.727667     -1.424469      1.425742
  H      -2.392753     -0.726823      1.008344
  H      -2.730513      0.580334     -0.144940
  H      -2.436011      0.957103      1.557228
  H       2.199324      0.207130     -0.998220
  H       1.457909     -1.403064     -0.951546
  H      -0.416330      0.023036     -1.738621
15
Coordinates from ORCA-job scan E -19.233460504870
  C       1.601623     -0.445674      0.985822
  C      -2.149023      0.297467      0.739111
  C       1.434813     -0.404280     -0.515162
  C      -0.688223      0.416843      0.460623
  C       0.054321      0.200652     -0.780187
  O      -0.151876      1.485912     -0.242204
  H       0.277166     -0.005885      1.257396
  H       2.247555      0.306676      1.411665
  H       1.719884     -1.422819      1.427914
  H      -2.388008     -0.728729      1.009694
  H      -2.728119      0.578870     -0.142307
  H      -2.431097      0.954848      1.559577
  H       2.200678      0.205537     -0.998276
  H       1.456656     -1.403778     -0.951675
  H      -0.416644      0.025137     -1.740017
15
Coordinates from ORCA-job scan E -19.233461578720
  C       1.601294     -0.445873      0.985776
  C      -2.148743      0.297460      0.739501
  C       1.435106     -0.404139     -0.515161
  C      -0.687889      0.416912      0.460490
  C       0.054259      0.200823     -0.780775
  O      -0.151979      1.486049     -0.242872
  H       0.276657     -0.005857      1.256098
  H       2.246676      0.306617      1.412224
  H       1.718898     -1.423067      1.427931
  H      -2.387421     -0.728707      1.010434
  H      -2.728281      0.578512     -0.141725
  H      -2.430603      0.954969      1.559917
  H       2.201280      0.205613     -0.997800
  H       1.457330     -1.403616     -0.951661
  H      -0.416879      0.025083     -1.740403
15
Coordinates from ORCA-job scan E -19.233461578730
  C       1.601294     -0.445873      0.985776
  C      -2.148743      0.297460      0.739501
  C       1.435106     -0.404139     -0.515161
  C      -0.687889      0.416912      0.460490
  C       0.054259      0.200823     -0.780775
  O      -0.151979      1.486049     -0.242872
  H       0.276657     -0.005857      1.256098
  H       2.246676      0.306617      1.412224
  H       1.718898     -1.423067      1.427931
  H      -2.387421     -0.728707      1.010434
  H      -2.728281      0.578512     -0.141725
  H      -2.430603      0.954969      1.559917
  H       2.201280      0.205613     -0.997800
  H       1.457330     -1.403616     -0.951661
  H      -0.416879      0.025083     -1.740403
15
Coordinates from ORCA-job scan E -19.233461771070
  C       1.601875     -0.446413      0.986049
  C      -2.149144      0.297791      0.739539
  C       1.435238     -0.403960     -0.514845
  C      -0.688213      0.417140      0.460516
  C       0.053975      0.200726     -0.780847
  O      -0.152414      1.486073     -0.243333
  H       0.276323     -0.006085      1.255249
  H       2.247051      0.306205      1.412611
  H       1.720342     -1.423809      1.427525
  H      -2.387726     -0.728296      1.010870
  H      -2.728760      0.578462     -0.141750
  H      -2.430990      0.955582      1.559727
  H       2.201294      0.206060     -0.997289
  H       1.457901     -1.403299     -0.951638
  H      -0.417044      0.024603     -1.740409
