15
Coordinates from ORCA-job freq E -271.063526425606
  C           2.95714101515042     -0.46074389369375     -0.39360251821789
  C          -3.07822045184292      0.20237684087951      0.23789044657230
  C           1.52920664574509     -0.81959272245952     -0.13459369224708
  C          -1.69219652056380      0.68724417883466      0.05558277869322
  C           0.55014798653538      0.07009507165192     -0.11995533115386
  O          -0.74208284943738     -0.28711329715938      0.12756647635310
  H           3.06821016938048      0.60887039014156     -0.56974469391900
  H           3.34493867886879     -0.98892365627005     -1.26630536099517
  H           3.59157868493546     -0.73076780269068      0.45234337260727
  H          -3.16859755103280     -0.36256231992617      1.16688068283283
  H          -3.39441915254560     -0.45878584027094     -0.57823029069290
  H          -3.76722619942228      1.04399070331983      0.27547390565844
  H           1.27966672287877     -1.85728091276638      0.05445669086400
  H          -1.46072621762731      1.52795934130347     -0.58878941917081
  H           0.71146403897768      1.13007391910590     -0.29165004718448
