17
* (null), Energy   -1000.0000000
C    -0.388150   -0.648703   -1.441506   -0.109474    0.062571   -0.020209
C     1.857876   -1.245542   -0.324880   -0.102829   -0.021770   -0.066223
C     0.301500    0.556238    0.650890    0.004409   -0.000655    0.000615
C    -0.811475   -0.204536   -0.070527    0.016278   -0.009967    0.002907
C     1.598853   -0.225780    0.690623    0.020806    0.003716   -0.004717
O    -2.465294    0.933775    1.052337   -0.000162   -0.000101    0.001182
O     2.488638   -0.018200   -0.415967    0.001246    0.020626    0.009853
O    -1.963030    0.616332   -0.242558   -0.001240    0.000918   -0.003243
H     0.783844   -1.244366   -1.116951    1.695698   -0.546483    0.827097
H    -0.084426    0.158133   -2.103103    0.204926   -0.066570   -0.007230
H    -1.019146   -1.395001   -1.912338    0.150857   -0.152785    0.003813
H     2.454300   -2.146479   -0.223020   -0.008498    0.062323    0.105305
H     0.474405    1.499442    0.127911   -0.002694   -0.000456   -0.001040
H    -0.024960    0.793915    1.661372   -0.005942   -0.003742   -0.001981
H    -1.099011   -1.077598    0.526885    0.000081   -0.004453   -0.001340
H     2.116249   -0.287861    1.640649    0.003780   -0.031211   -0.004773
H    -3.302008    0.456103    1.051004   -0.000420   -0.000860    0.000607
17
* Frequency(6) -1653.1827
C    -0.400591   -0.641592   -1.443802   -0.109474    0.062571   -0.020209
C     1.846190   -1.248016   -0.332406   -0.102829   -0.021770   -0.066223
C     0.302001    0.556163    0.650960    0.004409   -0.000655    0.000615
C    -0.809625   -0.205669   -0.070196    0.016278   -0.009967    0.002907
C     1.601217   -0.225358    0.690087    0.020806    0.003716   -0.004717
O    -2.465312    0.933764    1.052472   -0.000162   -0.000101    0.001182
O     2.488780   -0.015856   -0.414847    0.001246    0.020626    0.009853
O    -1.963171    0.616437   -0.242926   -0.001240    0.000918   -0.003243
H     0.976551   -1.306471   -1.022955    1.695698   -0.546483    0.827097
H    -0.061137    0.150568   -2.103925    0.204926   -0.066570   -0.007230
H    -1.002002   -1.412364   -1.911904    0.150857   -0.152785    0.003813
H     2.453335   -2.139397   -0.211052   -0.008498    0.062323    0.105305
H     0.474099    1.499390    0.127793   -0.002694   -0.000456   -0.001040
H    -0.025636    0.793489    1.661146   -0.005942   -0.003742   -0.001981
H    -1.099002   -1.078105    0.526733    0.000081   -0.004453   -0.001340
H     2.116679   -0.291408    1.640106    0.003780   -0.031211   -0.004773
H    -3.302055    0.456005    1.051073   -0.000420   -0.000860    0.000607
17
* Frequency(6) -1653.1827
C    -0.411684   -0.635251   -1.445850   -0.109474    0.062571   -0.020209
C     1.835771   -1.250222   -0.339116   -0.102829   -0.021770   -0.066223
C     0.302447    0.556097    0.651022    0.004409   -0.000655    0.000615
C    -0.807976   -0.206679   -0.069902    0.016278   -0.009967    0.002907
C     1.603325   -0.224981    0.689609    0.020806    0.003716   -0.004717
O    -2.465329    0.933754    1.052591   -0.000162   -0.000101    0.001182
O     2.488906   -0.013766   -0.413849    0.001246    0.020626    0.009853
O    -1.963296    0.616530   -0.243255   -0.001240    0.000918   -0.003243
H     1.148375   -1.361846   -0.939146    1.695698   -0.546483    0.827097
H    -0.040372    0.143823   -2.104658    0.204926   -0.066570   -0.007230
H    -0.986715   -1.427846   -1.911518    0.150857   -0.152785    0.003813
H     2.452474   -2.133081   -0.200382   -0.008498    0.062323    0.105305
H     0.473826    1.499344    0.127688   -0.002694   -0.000456   -0.001040
H    -0.026238    0.793110    1.660946   -0.005942   -0.003742   -0.001981
H    -1.098994   -1.078556    0.526597    0.000081   -0.004453   -0.001340
H     2.117062   -0.294570    1.639623    0.003780   -0.031211   -0.004773
H    -3.302098    0.455918    1.051134   -0.000420   -0.000860    0.000607
17
* Frequency(6) -1653.1827
C    -0.420227   -0.630369   -1.447427   -0.109474    0.062571   -0.020209
C     1.827746   -1.251921   -0.344284   -0.102829   -0.021770   -0.066223
C     0.302792    0.556046    0.651070    0.004409   -0.000655    0.000615
C    -0.806706   -0.207456   -0.069675    0.016278   -0.009967    0.002907
C     1.604949   -0.224691    0.689241    0.020806    0.003716   -0.004717
O    -2.465341    0.933746    1.052684   -0.000162   -0.000101    0.001182
O     2.489003   -0.012156   -0.413080    0.001246    0.020626    0.009853
O    -1.963393    0.616601   -0.243508   -0.001240    0.000918   -0.003243
H     1.280697   -1.404490   -0.874605    1.695698   -0.546483    0.827097
H    -0.024381    0.138628   -2.105222    0.204926   -0.066570   -0.007230
H    -0.974943   -1.439768   -1.911220    0.150857   -0.152785    0.003813
H     2.451810   -2.128218   -0.192164   -0.008498    0.062323    0.105305
H     0.473616    1.499308    0.127606   -0.002694   -0.000456   -0.001040
H    -0.026701    0.792818    1.660791   -0.005942   -0.003742   -0.001981
H    -1.098987   -1.078903    0.526492    0.000081   -0.004453   -0.001340
H     2.117357   -0.297006    1.639250    0.003780   -0.031211   -0.004773
H    -3.302131    0.455850    1.051182   -0.000420   -0.000860    0.000607
17
* Frequency(6) -1653.1827
C    -0.425293   -0.627473   -1.448362   -0.109474    0.062571   -0.020209
C     1.822987   -1.252929   -0.347349   -0.102829   -0.021770   -0.066223
C     0.302996    0.556016    0.651099    0.004409   -0.000655    0.000615
C    -0.805952   -0.207918   -0.069540    0.016278   -0.009967    0.002907
C     1.605912   -0.224519    0.689022    0.020806    0.003716   -0.004717
O    -2.465349    0.933741    1.052738   -0.000162   -0.000101    0.001182
O     2.489061   -0.011202   -0.412624    0.001246    0.020626    0.009853
O    -1.963451    0.616644   -0.243658   -0.001240    0.000918   -0.003243
H     1.359177   -1.429782   -0.836325    1.695698   -0.546483    0.827097
H    -0.014896    0.135547   -2.105556    0.204926   -0.066570   -0.007230
H    -0.967962   -1.446839   -1.911044    0.150857   -0.152785    0.003813
H     2.451417   -2.125334   -0.187291   -0.008498    0.062323    0.105305
H     0.473491    1.499287    0.127558   -0.002694   -0.000456   -0.001040
H    -0.026976    0.792645    1.660700   -0.005942   -0.003742   -0.001981
H    -1.098983   -1.079109    0.526430    0.000081   -0.004453   -0.001340
H     2.117532   -0.298450    1.639029    0.003780   -0.031211   -0.004773
H    -3.302150    0.455811    1.051210   -0.000420   -0.000860    0.000607
17
* Frequency(6) -1653.1827
C    -0.426335   -0.626878   -1.448555   -0.109474    0.062571   -0.020209
C     1.822009   -1.253136   -0.347979   -0.102829   -0.021770   -0.066223
C     0.303038    0.556009    0.651105    0.004409   -0.000655    0.000615
C    -0.805797   -0.208012   -0.069513    0.016278   -0.009967    0.002907
C     1.606110   -0.224484    0.688977    0.020806    0.003716   -0.004717
O    -2.465350    0.933740    1.052750   -0.000162   -0.000101    0.001182
O     2.489073   -0.011005   -0.412530    0.001246    0.020626    0.009853
O    -1.963462    0.616653   -0.243689   -0.001240    0.000918   -0.003243
H     1.375311   -1.434982   -0.828456    1.695698   -0.546483    0.827097
H    -0.012947    0.134914   -2.105625    0.204926   -0.066570   -0.007230
H    -0.966526   -1.448293   -1.911008    0.150857   -0.152785    0.003813
H     2.451336   -2.124741   -0.186289   -0.008498    0.062323    0.105305
H     0.473466    1.499283    0.127548   -0.002694   -0.000456   -0.001040
H    -0.027033    0.792609    1.660681   -0.005942   -0.003742   -0.001981
H    -1.098983   -1.079152    0.526418    0.000081   -0.004453   -0.001340
H     2.117568   -0.298747    1.638984    0.003780   -0.031211   -0.004773
H    -3.302154    0.455802    1.051216   -0.000420   -0.000860    0.000607
17
* Frequency(6) -1653.1827
C    -0.423239   -0.628647   -1.447983   -0.109474    0.062571   -0.020209
C     1.824917   -1.252520   -0.346106   -0.102829   -0.021770   -0.066223
C     0.302913    0.556028    0.651087    0.004409   -0.000655    0.000615
C    -0.806258   -0.207731   -0.069595    0.016278   -0.009967    0.002907
C     1.605521   -0.224589    0.689111    0.020806    0.003716   -0.004717
O    -2.465346    0.933743    1.052716   -0.000162   -0.000101    0.001182
O     2.489038   -0.011589   -0.412809    0.001246    0.020626    0.009853
O    -1.963427    0.616627   -0.243597   -0.001240    0.000918   -0.003243
H     1.327350   -1.419525   -0.851849    1.695698   -0.546483    0.827097
H    -0.018743    0.136796   -2.105421    0.204926   -0.066570   -0.007230
H    -0.970793   -1.443972   -1.911116    0.150857   -0.152785    0.003813
H     2.451577   -2.126504   -0.189267   -0.008498    0.062323    0.105305
H     0.473542    1.499295    0.127578   -0.002694   -0.000456   -0.001040
H    -0.026865    0.792715    1.660737   -0.005942   -0.003742   -0.001981
H    -1.098985   -1.079026    0.526456    0.000081   -0.004453   -0.001340
H     2.117461   -0.297865    1.639119    0.003780   -0.031211   -0.004773
H    -3.302142    0.455827    1.051198   -0.000420   -0.000860    0.000607
17
* Frequency(6) -1653.1827
C    -0.416340   -0.632590   -1.446710   -0.109474    0.062571   -0.020209
C     1.831397   -1.251148   -0.341933   -0.102829   -0.021770   -0.066223
C     0.302635    0.556069    0.651048    0.004409   -0.000655    0.000615
C    -0.807284   -0.207102   -0.069778    0.016278   -0.009967    0.002907
C     1.604210   -0.224823    0.689408    0.020806    0.003716   -0.004717
O    -2.465335    0.933749    1.052642   -0.000162   -0.000101    0.001182
O     2.488959   -0.012888   -0.413430    0.001246    0.020626    0.009853
O    -1.963349    0.616569   -0.243393   -0.001240    0.000918   -0.003243
H     1.220492   -1.385087   -0.903970    1.695698   -0.546483    0.827097
H    -0.031657    0.140991   -2.104965    0.204926   -0.066570   -0.007230
H    -0.980300   -1.434344   -1.911356    0.150857   -0.152785    0.003813
H     2.452112   -2.130431   -0.195903   -0.008498    0.062323    0.105305
H     0.473711    1.499324    0.127643   -0.002694   -0.000456   -0.001040
H    -0.026490    0.792951    1.660862   -0.005942   -0.003742   -0.001981
H    -1.098990   -1.078745    0.526540    0.000081   -0.004453   -0.001340
H     2.117222   -0.295898    1.639420    0.003780   -0.031211   -0.004773
H    -3.302116    0.455881    1.051160   -0.000420   -0.000860    0.000607
17
* Frequency(6) -1653.1827
C    -0.406386   -0.638279   -1.444872   -0.109474    0.062571   -0.020209
C     1.840747   -1.249169   -0.335911   -0.102829   -0.021770   -0.066223
C     0.302234    0.556129    0.650993    0.004409   -0.000655    0.000615
C    -0.808764   -0.206196   -0.070042    0.016278   -0.009967    0.002907
C     1.602318   -0.225161    0.689837    0.020806    0.003716   -0.004717
O    -2.465321    0.933758    1.052534   -0.000162   -0.000101    0.001182
O     2.488846   -0.014764   -0.414325    0.001246    0.020626    0.009853
O    -1.963236    0.616485   -0.243098   -0.001240    0.000918   -0.003243
H     1.066316   -1.335400   -0.979172    1.695698   -0.546483    0.827097
H    -0.050289    0.147044   -2.104308    0.204926   -0.066570   -0.007230
H    -0.994016   -1.420452   -1.911703    0.150857   -0.152785    0.003813
H     2.452885   -2.136097   -0.205478   -0.008498    0.062323    0.105305
H     0.473956    1.499366    0.127738   -0.002694   -0.000456   -0.001040
H    -0.025950    0.793291    1.661042   -0.005942   -0.003742   -0.001981
H    -1.098997   -1.078340    0.526662    0.000081   -0.004453   -0.001340
H     2.116879   -0.293060    1.639854    0.003780   -0.031211   -0.004773
H    -3.302078    0.455959    1.051105   -0.000420   -0.000860    0.000607
17
* Frequency(6) -1653.1827
C    -0.394456   -0.645098   -1.442670   -0.109474    0.062571   -0.020209
C     1.851952   -1.246796   -0.328695   -0.102829   -0.021770   -0.066223
C     0.301754    0.556200    0.650926    0.004409   -0.000655    0.000615
C    -0.810538   -0.205110   -0.070359    0.016278   -0.009967    0.002907
C     1.600051   -0.225566    0.690351    0.020806    0.003716   -0.004717
O    -2.465303    0.933769    1.052405   -0.000162   -0.000101    0.001182
O     2.488710   -0.017012   -0.415399    0.001246    0.020626    0.009853
O    -1.963101    0.616385   -0.242745   -0.001240    0.000918   -0.003243
H     0.881530   -1.275848   -1.069303    1.695698   -0.546483    0.827097
H    -0.072620    0.154299   -2.103520    0.204926   -0.066570   -0.007230
H    -1.010455   -1.403803   -1.912118    0.150857   -0.152785    0.003813
H     2.453811   -2.142889   -0.216953   -0.008498    0.062323    0.105305
H     0.474250    1.499415    0.127851   -0.002694   -0.000456   -0.001040
H    -0.025303    0.793699    1.661257   -0.005942   -0.003742   -0.001981
H    -1.099006   -1.077855    0.526808    0.000081   -0.004453   -0.001340
H     2.116467   -0.289659    1.640374    0.003780   -0.031211   -0.004773
H    -3.302032    0.456053    1.051039   -0.000420   -0.000860    0.000607
17
* Frequency(6) -1653.1827
C    -0.381843   -0.652307   -1.440342   -0.109474    0.062571   -0.020209
C     1.863800   -1.244288   -0.321065   -0.102829   -0.021770   -0.066223
C     0.301246    0.556275    0.650855    0.004409   -0.000655    0.000615
C    -0.812413   -0.203962   -0.070694    0.016278   -0.009967    0.002907
C     1.597654   -0.225994    0.690895    0.020806    0.003716   -0.004717
O    -2.465284    0.933781    1.052269   -0.000162   -0.000101    0.001182
O     2.488567   -0.019388   -0.416534    0.001246    0.020626    0.009853
O    -1.962958    0.616279   -0.242371   -0.001240    0.000918   -0.003243
H     0.686158   -1.212884   -1.164598    1.695698   -0.546483    0.827097
H    -0.096231    0.161968   -2.102687    0.204926   -0.066570   -0.007230
H    -1.027836   -1.386199   -1.912557    0.150857   -0.152785    0.003813
H     2.454790   -2.150070   -0.229086   -0.008498    0.062323    0.105305
H     0.474560    1.499468    0.127971   -0.002694   -0.000456   -0.001040
H    -0.024618    0.794130    1.661486   -0.005942   -0.003742   -0.001981
H    -1.099016   -1.077342    0.526962    0.000081   -0.004453   -0.001340
H     2.116031   -0.286063    1.640924    0.003780   -0.031211   -0.004773
H    -3.301983    0.456152    1.050969   -0.000420   -0.000860    0.000607
17
* Frequency(6) -1653.1827
C    -0.369914   -0.659126   -1.438139   -0.109474    0.062571   -0.020209
C     1.875006   -1.241916   -0.313848   -0.102829   -0.021770   -0.066223
C     0.300765    0.556347    0.650788    0.004409   -0.000655    0.000615
C    -0.814187   -0.202876   -0.071011    0.016278   -0.009967    0.002907
C     1.595387   -0.226399    0.691409    0.020806    0.003716   -0.004717
O    -2.465267    0.933792    1.052140   -0.000162   -0.000101    0.001182
O     2.488431   -0.021636   -0.417608    0.001246    0.020626    0.009853
O    -1.962823    0.616179   -0.242018   -0.001240    0.000918   -0.003243
H     0.501372   -1.153332   -1.254730    1.695698   -0.546483    0.827097
H    -0.118563    0.169223   -2.101899    0.204926   -0.066570   -0.007230
H    -1.044276   -1.369550   -1.912973    0.150857   -0.152785    0.003813
H     2.455716   -2.156861   -0.240561   -0.008498    0.062323    0.105305
H     0.474854    1.499517    0.128084   -0.002694   -0.000456   -0.001040
H    -0.023970    0.794538    1.661701   -0.005942   -0.003742   -0.001981
H    -1.099025   -1.076857    0.527108    0.000081   -0.004453   -0.001340
H     2.115620   -0.282662    1.641444    0.003780   -0.031211   -0.004773
H    -3.301938    0.456246    1.050903   -0.000420   -0.000860    0.000607
17
* Frequency(6) -1653.1827
C    -0.359960   -0.664815   -1.436302   -0.109474    0.062571   -0.020209
C     1.884355   -1.239936   -0.307827   -0.102829   -0.021770   -0.066223
C     0.300364    0.556406    0.650732    0.004409   -0.000655    0.000615
C    -0.815667   -0.201969   -0.071275    0.016278   -0.009967    0.002907
C     1.593495   -0.226737    0.691837    0.020806    0.003716   -0.004717
O    -2.465252    0.933801    1.052033   -0.000162   -0.000101    0.001182
O     2.488317   -0.023511   -0.418504    0.001246    0.020626    0.009853
O    -1.962710    0.616096   -0.241723   -0.001240    0.000918   -0.003243
H     0.347196   -1.103645   -1.329931    1.695698   -0.546483    0.827097
H    -0.137195    0.175276   -2.101242    0.204926   -0.066570   -0.007230
H    -1.057992   -1.355658   -1.913320    0.150857   -0.152785    0.003813
H     2.456489   -2.162528   -0.250136   -0.008498    0.062323    0.105305
H     0.475099    1.499559    0.128179   -0.002694   -0.000456   -0.001040
H    -0.023430    0.794878    1.661882   -0.005942   -0.003742   -0.001981
H    -1.099032   -1.076452    0.527230    0.000081   -0.004453   -0.001340
H     2.115276   -0.279824    1.641878    0.003780   -0.031211   -0.004773
H    -3.301899    0.456324    1.050848   -0.000420   -0.000860    0.000607
17
* Frequency(6) -1653.1827
C    -0.353061   -0.668758   -1.435028   -0.109474    0.062571   -0.020209
C     1.890835   -1.238564   -0.303654   -0.102829   -0.021770   -0.066223
C     0.300086    0.556447    0.650693    0.004409   -0.000655    0.000615
C    -0.816693   -0.201341   -0.071458    0.016278   -0.009967    0.002907
C     1.592184   -0.226971    0.692135    0.020806    0.003716   -0.004717
O    -2.465242    0.933808    1.051958   -0.000162   -0.000101    0.001182
O     2.488239   -0.024811   -0.419125    0.001246    0.020626    0.009853
O    -1.962632    0.616038   -0.241518   -0.001240    0.000918   -0.003243
H     0.240338   -1.069207   -1.382052    1.695698   -0.546483    0.827097
H    -0.150109    0.179471   -2.100786    0.204926   -0.066570   -0.007230
H    -1.067499   -1.346030   -1.913560    0.150857   -0.152785    0.003813
H     2.457024   -2.166455   -0.256772   -0.008498    0.062323    0.105305
H     0.475269    1.499588    0.128244   -0.002694   -0.000456   -0.001040
H    -0.023056    0.795114    1.662006   -0.005942   -0.003742   -0.001981
H    -1.099037   -1.076171    0.527315    0.000081   -0.004453   -0.001340
H     2.115038   -0.277857    1.642179    0.003780   -0.031211   -0.004773
H    -3.301873    0.456378    1.050810   -0.000420   -0.000860    0.000607
17
* Frequency(6) -1653.1827
C    -0.349965   -0.670528   -1.434457   -0.109474    0.062571   -0.020209
C     1.893744   -1.237948   -0.301781   -0.102829   -0.021770   -0.066223
C     0.299962    0.556466    0.650676    0.004409   -0.000655    0.000615
C    -0.817153   -0.201060   -0.071541    0.016278   -0.009967    0.002907
C     1.591595   -0.227076    0.692268    0.020806    0.003716   -0.004717
O    -2.465237    0.933810    1.051925   -0.000162   -0.000101    0.001182
O     2.488204   -0.025394   -0.419403    0.001246    0.020626    0.009853
O    -1.962597    0.616012   -0.241427   -0.001240    0.000918   -0.003243
H     0.192377   -1.053750   -1.405446    1.695698   -0.546483    0.827097
H    -0.155905    0.181353   -2.100581    0.204926   -0.066570   -0.007230
H    -1.071765   -1.341709   -1.913668    0.150857   -0.152785    0.003813
H     2.457264   -2.168218   -0.259750   -0.008498    0.062323    0.105305
H     0.475345    1.499601    0.128274   -0.002694   -0.000456   -0.001040
H    -0.022888    0.795220    1.662062   -0.005942   -0.003742   -0.001981
H    -1.099039   -1.076045    0.527353    0.000081   -0.004453   -0.001340
H     2.114931   -0.276975    1.642314    0.003780   -0.031211   -0.004773
H    -3.301861    0.456403    1.050792   -0.000420   -0.000860    0.000607
17
* Frequency(6) -1653.1827
C    -0.351006   -0.669932   -1.434649   -0.109474    0.062571   -0.020209
C     1.892765   -1.238156   -0.302411   -0.102829   -0.021770   -0.066223
C     0.300004    0.556460    0.650682    0.004409   -0.000655    0.000615
C    -0.816998   -0.201154   -0.071513    0.016278   -0.009967    0.002907
C     1.591793   -0.227041    0.692223    0.020806    0.003716   -0.004717
O    -2.465239    0.933810    1.051936   -0.000162   -0.000101    0.001182
O     2.488215   -0.025198   -0.419310    0.001246    0.020626    0.009853
O    -1.962609    0.616021   -0.241457   -0.001240    0.000918   -0.003243
H     0.208510   -1.058950   -1.397576    1.695698   -0.546483    0.827097
H    -0.153955    0.180720   -2.100650    0.204926   -0.066570   -0.007230
H    -1.070330   -1.343163   -1.913632    0.150857   -0.152785    0.003813
H     2.457184   -2.167625   -0.258749   -0.008498    0.062323    0.105305
H     0.475319    1.499596    0.128264   -0.002694   -0.000456   -0.001040
H    -0.022944    0.795184    1.662044   -0.005942   -0.003742   -0.001981
H    -1.099039   -1.076088    0.527340    0.000081   -0.004453   -0.001340
H     2.114967   -0.277271    1.642268    0.003780   -0.031211   -0.004773
H    -3.301865    0.456394    1.050798   -0.000420   -0.000860    0.000607
17
* Frequency(6) -1653.1827
C    -0.356073   -0.667036   -1.435584   -0.109474    0.062571   -0.020209
C     1.888006   -1.239163   -0.305476   -0.102829   -0.021770   -0.066223
C     0.300208    0.556429    0.650710    0.004409   -0.000655    0.000615
C    -0.816245   -0.201616   -0.071378    0.016278   -0.009967    0.002907
C     1.592756   -0.226869    0.692005    0.020806    0.003716   -0.004717
O    -2.465246    0.933805    1.051991   -0.000162   -0.000101    0.001182
O     2.488273   -0.024243   -0.418854    0.001246    0.020626    0.009853
O    -1.962666    0.616063   -0.241608   -0.001240    0.000918   -0.003243
H     0.286990   -1.084242   -1.359297    1.695698   -0.546483    0.827097
H    -0.144471    0.177639   -2.100985    0.204926   -0.066570   -0.007230
H    -1.063348   -1.350234   -1.913455    0.150857   -0.152785    0.003813
H     2.456790   -2.164741   -0.253875   -0.008498    0.062323    0.105305
H     0.475194    1.499575    0.128216   -0.002694   -0.000456   -0.001040
H    -0.023219    0.795011    1.661952   -0.005942   -0.003742   -0.001981
H    -1.099035   -1.076294    0.527278    0.000081   -0.004453   -0.001340
H     2.115142   -0.278716    1.642047    0.003780   -0.031211   -0.004773
H    -3.301885    0.456355    1.050826   -0.000420   -0.000860    0.000607
17
* Frequency(6) -1653.1827
C    -0.364616   -0.662154   -1.437161   -0.109474    0.062571   -0.020209
C     1.879982   -1.240862   -0.310643   -0.102829   -0.021770   -0.066223
C     0.300552    0.556378    0.650758    0.004409   -0.000655    0.000615
C    -0.814975   -0.202393   -0.071152    0.016278   -0.009967    0.002907
C     1.594380   -0.226579    0.691637    0.020806    0.003716   -0.004717
O    -2.465259    0.933797    1.052083   -0.000162   -0.000101    0.001182
O     2.488370   -0.022634   -0.418085    0.001246    0.020626    0.009853
O    -1.962763    0.616135   -0.241861   -0.001240    0.000918   -0.003243
H     0.419312   -1.126886   -1.294755    1.695698   -0.546483    0.827097
H    -0.128480    0.172444   -2.101549    0.204926   -0.066570   -0.007230
H    -1.051576   -1.362156   -1.913157    0.150857   -0.152785    0.003813
H     2.456127   -2.159877   -0.245657   -0.008498    0.062323    0.105305
H     0.474984    1.499540    0.128135   -0.002694   -0.000456   -0.001040
H    -0.023683    0.794719    1.661797   -0.005942   -0.003742   -0.001981
H    -1.099028   -1.076641    0.527173    0.000081   -0.004453   -0.001340
H     2.115437   -0.281151    1.641675    0.003780   -0.031211   -0.004773
H    -3.301917    0.456287    1.050874   -0.000420   -0.000860    0.000607
17
* Frequency(6) -1653.1827
C    -0.375709   -0.655813   -1.439209   -0.109474    0.062571   -0.020209
C     1.869562   -1.243068   -0.317354   -0.102829   -0.021770   -0.066223
C     0.300999    0.556312    0.650820    0.004409   -0.000655    0.000615
C    -0.813325   -0.203403   -0.070857    0.016278   -0.009967    0.002907
C     1.596488   -0.226202    0.691159    0.020806    0.003716   -0.004717
O    -2.465275    0.933787    1.052203   -0.000162   -0.000101    0.001182
O     2.488497   -0.020544   -0.417086    0.001246    0.020626    0.009853
O    -1.962889    0.616228   -0.242189   -0.001240    0.000918   -0.003243
H     0.591137   -1.182261   -1.210946    1.695698   -0.546483    0.827097
H    -0.107715    0.165699   -2.102282    0.204926   -0.066570   -0.007230
H    -1.036290   -1.377638   -1.912771    0.150857   -0.152785    0.003813
H     2.455266   -2.153562   -0.234987   -0.008498    0.062323    0.105305
H     0.474711    1.499493    0.128029   -0.002694   -0.000456   -0.001040
H    -0.024285    0.794340    1.661597   -0.005942   -0.003742   -0.001981
H    -1.099020   -1.077092    0.527037    0.000081   -0.004453   -0.001340
H     2.115820   -0.284314    1.641191    0.003780   -0.031211   -0.004773
H    -3.301960    0.456200    1.050935   -0.000420   -0.000860    0.000607
17
* Frequency(6) -1653.1827
C    -0.388150   -0.648703   -1.441506   -0.109474    0.062571   -0.020209
C     1.857876   -1.245542   -0.324880   -0.102829   -0.021770   -0.066223
C     0.301500    0.556238    0.650890    0.004409   -0.000655    0.000615
C    -0.811475   -0.204536   -0.070527    0.016278   -0.009967    0.002907
C     1.598853   -0.225780    0.690623    0.020806    0.003716   -0.004717
O    -2.465294    0.933775    1.052337   -0.000162   -0.000101    0.001182
O     2.488638   -0.018200   -0.415967    0.001246    0.020626    0.009853
O    -1.963030    0.616332   -0.242558   -0.001240    0.000918   -0.003243
H     0.783844   -1.244366   -1.116951    1.695698   -0.546483    0.827097
H    -0.084426    0.158133   -2.103103    0.204926   -0.066570   -0.007230
H    -1.019146   -1.395001   -1.912338    0.150857   -0.152785    0.003813
H     2.454300   -2.146479   -0.223020   -0.008498    0.062323    0.105305
H     0.474405    1.499442    0.127911   -0.002694   -0.000456   -0.001040
H    -0.024960    0.793915    1.661372   -0.005942   -0.003742   -0.001981
H    -1.099011   -1.077598    0.526885    0.000081   -0.004453   -0.001340
H     2.116249   -0.287861    1.640649    0.003780   -0.031211   -0.004773
H    -3.302008    0.456103    1.051004   -0.000420   -0.000860    0.000607
