17
Coordinates from ORCA-job freq E -421.373055797089
  C          -0.44373230155309     -0.44255019896050     -1.55081956963351
  C           1.80229381691357     -1.03938966069023     -0.43419357704184
  C           0.24591717963536      0.76239004350615      0.54157635607944
  C          -0.86705767676129      0.00161641844145     -0.17984040588743
  C           1.54327013573759     -0.01962767159812      0.58130894894086
  O          -2.52087621345617      1.13992767015506      0.94302345146099
  O           2.43305590035013      0.18795264868741     -0.52528050477299
  O          -2.01861222375821      0.82248467415145     -0.35187157030952
  H           0.72826140553100     -1.03821347409006     -1.22626450351686
  H          -0.14000816802929      0.36428589797033     -2.21241714490917
  H          -1.07472819611637     -1.18884857855923     -2.02165154323170
  H           2.39871797560221     -1.94032700426476     -0.33233337946977
  H           0.41882271396526      1.70559393039748      0.01859722298952
  H          -0.08054262090648      1.00006696894861      1.55205772076026
  H          -1.15459341773764     -0.87144606167469      0.41757131125885
  H           2.06066679939695     -0.08170853839229      1.53133501932580
  H          -3.35759010881354      0.66225493597192      0.94169016795707
