17
Coordinates from ORCA-job freq E -421.369844220988
  C      -0.456108     -0.482530     -1.538758
  C       1.875045     -0.951776     -0.516997
  C       0.262553      0.726272      0.541519
  C      -0.856079     -0.086701     -0.142357
  C       1.567241     -0.047274      0.588441
  O      -2.605326      0.942481      1.013634
  O       2.522340      0.259985     -0.407586
  O      -2.039121      0.679457     -0.277113
  H       0.836144     -0.901350     -1.291465
  H      -0.376955      0.358351     -2.213743
  H      -1.001585     -1.317304     -1.954198
  H       2.455090     -1.860846     -0.444256
  H       0.411824      1.647188     -0.026262
  H      -0.058724      0.991431      1.548125
  H      -1.076081     -0.977555      0.465072
  H       1.994652     -0.227002      1.570474
  H      -3.481646      1.271635      0.777957
17
Coordinates from ORCA-job freq E -421.371656707428
  C      -0.451750     -0.477302     -1.546418
  C       1.858389     -0.968435     -0.491924
  C       0.243534      0.731412      0.539649
  C      -0.861024     -0.076988     -0.155495
  C       1.547466     -0.040941      0.593805
  O      -2.520302      1.006858      1.014626
  O       2.497848      0.253796     -0.428420
  O      -2.046492      0.686780     -0.297816
  H       0.812381     -0.924397     -1.290393
  H      -0.314172      0.360621     -2.220997
  H      -1.006261     -1.300315     -1.979823
  H       2.443536     -1.877521     -0.420552
  H       0.400002      1.656654     -0.018831
  H      -0.083012      0.995055      1.544020
  H      -1.088539     -0.965742      0.446974
  H       1.996338     -0.193641      1.569040
  H      -3.454676      1.158567      0.835044
17
Coordinates from ORCA-job freq E -421.372323155551
  C      -0.449147     -0.470005     -1.550035
  C       1.844961     -0.988646     -0.471787
  C       0.239825      0.736036      0.540025
  C      -0.864030     -0.058661     -0.165430
  C       1.543139     -0.035038      0.593763
  O      -2.493873      1.050481      1.006527
  O       2.478936      0.239634     -0.456702
  O      -2.035648      0.732429     -0.311794
  H       0.790924     -0.956651     -1.278842
  H      -0.260783      0.360829     -2.224088
  H      -1.022035     -1.276280     -1.994521
  H       2.435518     -1.895366     -0.396079
  H       0.400783      1.666458     -0.008637
  H      -0.089491      0.994916      1.544309
  H      -1.114775     -0.941852      0.432853
  H       2.015558     -0.157081      1.561389
  H      -3.446600      1.023258      0.871538
17
Coordinates from ORCA-job freq E -421.372668319318
  C      -0.447665     -0.459546     -1.554718
  C       1.831383     -1.003735     -0.457815
  C       0.238456      0.748060      0.535847
  C      -0.865106     -0.038878     -0.173627
  C       1.535248     -0.033451      0.595049
  O      -2.484899      1.140475      0.966322
  O       2.473093      0.221284     -0.462719
  O      -2.037295      0.756105     -0.333531
  H       0.776464     -0.977488     -1.271464
  H      -0.234141      0.367275     -2.227579
  H      -1.032656     -1.254811     -2.004602
  H       2.416314     -1.914001     -0.374690
  H       0.409237      1.680099     -0.007075
  H      -0.092450      1.004817      1.540009
  H      -1.122965     -0.918714      0.426207
  H       2.012274     -0.142863      1.561743
  H      -3.402028      0.849835      0.935133
17
Coordinates from ORCA-job freq E -421.372934719048
  C      -0.443000     -0.435569     -1.542643
  C       1.796010     -1.052249     -0.427251
  C       0.256251      0.764163      0.545908
  C      -0.863843      0.009378     -0.172083
  C       1.555823     -0.014849      0.573791
  O      -2.552996      1.106592      0.948294
  O       2.420098      0.174873     -0.558070
  O      -2.008013      0.844619     -0.339831
  H       0.715597     -1.052843     -1.208905
  H      -0.114037      0.365543     -2.198840
  H      -1.087545     -1.165316     -2.021478
  H       2.396149     -1.950328     -0.321112
  H       0.424892      1.708896      0.024222
  H      -0.063336      0.999964      1.559031
  H      -1.159414     -0.862889      0.421719
  H       2.095906     -0.057079      1.512045
  H      -3.395276      0.641554      0.897692
17
Coordinates from ORCA-job freq E -421.372931429469
  C      -0.446792     -0.442281     -1.555219
  C       1.799165     -1.036532     -0.432632
  C       0.240758      0.766483      0.536875
  C      -0.872555      0.009331     -0.187151
  C       1.533007     -0.023121      0.587749
  O      -2.520937      1.179172      0.918431
  O       2.438936      0.187454     -0.505244
  O      -2.017845      0.839395     -0.368143
  H       0.730984     -1.030240     -1.231851
  H      -0.149153      0.362042     -2.222616
  H      -1.073513     -1.195687     -2.020420
  H       2.388765     -1.941824     -0.329877
  H       0.422250      1.706171      0.010550
  H      -0.090187      1.010399      1.544452
  H      -1.168802     -0.858769      0.412996
  H       2.037279     -0.095121      1.544139
  H      -3.278093      0.587589      0.990448
17
Coordinates from ORCA-job freq E -421.373076309171
  C      -0.444139     -0.443141     -1.549999
  C       1.802974     -1.038941     -0.434940
  C       0.246341      0.761763      0.542326
  C      -0.867046      0.001598     -0.179058
  C       1.543885     -0.019946      0.581288
  O      -2.522356      1.140242      0.942308
  O       2.433168      0.188711     -0.525538
  O      -2.017242      0.824563     -0.351720
  H       0.728655     -1.037704     -1.226510
  H      -0.141787      0.363576     -2.212389
  H      -1.074905     -1.190229     -2.019904
  H       2.399794     -1.939694     -0.333810
  H       0.419067      1.705150      0.019618
  H      -0.080045      0.999018      1.552950
  H      -1.155930     -0.870767      0.418510
  H       2.061716     -0.082335      1.531042
  H      -3.358886      0.662597      0.938313
17
Coordinates from ORCA-job freq E -421.373057104322
  C      -0.443740     -0.442606     -1.550741
  C       1.802345     -1.039396     -0.434251
  C       0.245944      0.762315      0.541682
  C      -0.867072      0.001621     -0.179781
  C       1.543349     -0.019622      0.581252
  O      -2.520989      1.139871      0.943007
  O       2.432961      0.188016     -0.525457
  O      -2.018497      0.822661     -0.351854
  H       0.728233     -1.038321     -1.226155
  H      -0.139979      0.364202     -2.212351
  H      -1.074776     -1.188890     -2.021547
  H       2.398905     -1.940254     -0.332435
  H       0.418750      1.705593      0.018804
  H      -0.080469      0.999869      1.552209
  H      -1.154758     -0.871393      0.417614
  H       2.060900     -0.081644      1.531200
  H      -3.357842      0.662441      0.941292
17
Coordinates from ORCA-job freq E -421.373055797089
  C      -0.443732     -0.442550     -1.550820
  C       1.802294     -1.039390     -0.434194
  C       0.245917      0.762390      0.541576
  C      -0.867058      0.001616     -0.179840
  C       1.543270     -0.019628      0.581309
  O      -2.520876      1.139928      0.943023
  O       2.433056      0.187953     -0.525281
  O      -2.018612      0.822485     -0.351872
  H       0.728261     -1.038213     -1.226265
  H      -0.140008      0.364286     -2.212417
  H      -1.074728     -1.188849     -2.021652
  H       2.398718     -1.940327     -0.332333
  H       0.418823      1.705594      0.018597
  H      -0.080543      1.000067      1.552058
  H      -1.154593     -0.871446      0.417571
  H       2.060667     -0.081709      1.531335
  H      -3.357590      0.662255      0.941690
