17
Coordinates from ORCA-job freq E -421.418271041167
  C          -2.44639135480153      0.56439647663072     -1.68593087862402
  C           1.90639076976016      1.05906322577824      1.13751380288000
  C           0.48222652409807     -0.52595801325327     -0.19179856548660
  C           1.32695730394251      0.71150990445407     -0.23415875288277
  C          -0.82197078182286     -0.52766166530723     -0.41710419522427
  O          -0.97969832893693     -2.79980123315711     -0.19251090100940
  O          -1.54289310180007      0.59321704480289     -0.66044299848113
  O          -1.68229550698639     -1.60080492771500     -0.39925016673992
  H          -2.32714658799711     -0.19228752260534     -2.44540571563703
  H          -2.88665755940645      1.52685779697050     -1.87961788422208
  H           2.49938318768105      0.23200188676442      1.53015114893236
  H           1.10726401650056      1.26455188647231      1.84960283898213
  H           2.54983453439492      1.93700342869059      1.08114622837750
  H           0.94990134908196     -1.46775789262902      0.05183493905351
  H           2.14694785237360      0.55867237569804     -0.94017815663356
  H           0.73666921842022      1.54631858627557     -0.60943193134422
  H          -1.11186953450170     -2.94364535787033      0.75340418805950
