17
Coordinates from ORCA-job freq E -421.389068397414
  C          -1.72273854684817      0.26414567005988      0.68471879875867
  C           0.14400099301138     -0.92162289513939     -0.63596202011886
  C          -1.33742974957833     -0.64989570093839     -0.47881169921266
  C           1.04352464884854      0.14061839220827     -1.17752229498361
  C           1.68570056655566      1.03016031877078     -0.19939119368289
  O           1.42399566814576     -0.52056369917786      1.42971124620443
  O           0.66623595485385      1.50833464864939     -1.01847823221400
  O           1.29550417612531      0.82639772788937      1.11889853545841
  H           0.67379565806038     -0.99098568063633      0.57226907377093
  H          -1.33554985129031     -0.12836075073000      1.62518489176247
  H          -1.32414528320623      1.26587484797483      0.55207625364335
  H          -2.80777899971942      0.32698521744867      0.75939494306487
  H           0.37905897953549     -1.89088813817230     -1.07056924748233
  H          -1.84283971262056     -1.60912964010201     -0.36451163691091
  H          -1.70114286745774     -0.21314283967908     -1.41566919115370
  H           1.57885683751463     -0.07010067680928     -2.09719570382603
  H           2.66886252806976      1.46644519838343     -0.32718852307812
