17
Coordinates from ORCA-job freq E -421.407689318510
  C          -2.50997059941949     -1.00001560486999     -0.00963230237490
  C          -2.05860256233650      0.40811042806767      0.12422432384719
  C           1.78634820271140      0.06969912722317     -0.65911190821307
  C          -0.71221564198990      0.68513112945191     -0.50239239093573
  C           0.33890964078387     -0.32795162623613     -0.59728738853593
  O           3.61214676047621      0.47636077416953      0.63707621848733
  O           2.24008319229179      0.12087840938184      0.67931736962151
  O          -0.42752390397304      0.03699868994873     -1.73277307805101
  H          -2.35600572984719     -1.52380359918222     -0.94082127578435
  H          -3.16137529298137     -1.43883210149721      0.72926018411469
  H          -2.78451986810341      1.08597700818770     -0.34824959961068
  H          -2.01328593868117      0.70625979881702      1.17409252388350
  H           2.37011660322676     -0.66214213270721     -1.22491276164346
  H           1.88538909492624      1.04813764361029     -1.13476001846403
  H          -0.39218242845108      1.72311580320604     -0.47399522282888
  H           0.12679315041768     -1.31964485307463     -0.20850774101549
  H           4.03499232094916     -0.34151889449652      0.92264806750329
