17
Coordinates from ORCA-job freq E -421.361079299639
  C          -1.70195714580707      0.92897563475549      0.23695205617636
  C           2.17100683261642      0.03007635590199      0.23004024888019
  C          -1.42831194619446     -0.42298306932952     -0.41177474912301
  C           1.09156010905707     -0.16348819454182     -0.76002351948827
  C          -0.04126143950769     -0.99100908077748     -0.13288605977992
  O           0.87562291273951      0.13819474917185      1.59367854126872
  O           2.15501853323024     -0.74330823768181     -1.37734265472534
  O           0.25915184526075     -1.03275056912963      1.27079712444950
  H           2.60542386402664     -0.82193751961165      0.72329312290089
  H          -1.62848641995591      0.85857810035936      1.32043458543126
  H          -2.70607385771925      1.26659980814482     -0.01631923526770
  H          -0.99873361456452      1.69387745578942     -0.09157329679117
  H           2.73958972135585      0.94763890059437      0.20135327989688
  H          -1.54127774906944     -0.35916307065661     -1.49738807853764
  H          -2.16409163235762     -1.14869821364055     -0.06262669589998
  H           0.74463277373050      0.75979835129282     -1.22962602421995
  H           0.02342121315897     -2.02882840064106     -0.46356664517080
