15
Coordinates from ORCA-job freq E -271.050805007881
  C           1.70831045175188      0.81954757272763     -0.11450755456369
  C           1.20946659377388     -0.45140658501023     -0.70261915434828
  C           0.04487335320014     -1.15395945746368     -0.09338301897646
  C          -1.67889540200151      0.58884165451526      0.76048673460497
  C          -1.23981745404966     -0.36939120945028     -0.25571944486868
  O          -2.29569853682716     -0.68134484752894      0.63247148931625
  H           2.69997061094299      1.07608026910007     -0.48419524656263
  H           1.75430771412537      0.75458746248477      0.97638649591599
  H           1.04790165280105      1.66587331271192     -0.34511114505215
  H           1.56861911541178     -0.76353516721693     -1.67281288154179
  H          -0.08866924898198     -2.14235767121635     -0.53582573401716
  H           0.19988989696820     -1.29511988824160      0.98246446017674
  H          -1.07460813446190      0.71775557346549      1.65238510227817
  H          -2.29760674819634      1.43321808170299      0.48068366953800
  H          -1.55804486445676     -0.19878810058008     -1.28070177189927
