15
Coordinates from ORCA-job freq E -270.972362215236
  C           2.18315324557723      0.23924535220954     -0.27017174198268
  C          -2.27327065427293      0.68115308884854      0.51085839681980
  C           1.39361928102747     -0.74265429665933      0.54345533047721
  C          -0.05082766296081     -0.63204473903957      0.65220328504265
  C          -1.17567652122524     -0.13101145009718     -0.10628067243209
  O          -1.07275310691379     -1.50847624819507      0.32678190263785
  H           0.73517412282426     -0.32141301282732      1.64379738166127
  H           3.22230759471866      0.28158902687807      0.05054169452817
  H           2.16735916106713     -0.02698210621821     -1.33197259540241
  H           1.76063852803560      1.24123081041782     -0.18229528031845
  H          -3.23318819544935      0.43323843364038      0.05792917884122
  H          -2.32348592898786      0.48418102812019      1.58000540788622
  H          -2.08702754716098      1.74433790596511      0.35538930209534
  H           1.80318741514680     -1.71428566750122      0.78839434389862
  H          -1.04920973142615     -0.02810812554174     -1.18184093375273
