17
Coordinates from ORCA-job freq E -421.392044352766
  C          -2.26070997815028      0.26336868322437      0.99916584697450
  C           0.21630813910175     -0.08458448167148      0.56065079254670
  C           2.68970060379223     -0.17964264597923     -0.49372923525186
  C           1.23630334989072     -0.15641134433750     -0.53353786461343
  C          -1.20197718742189     -0.05720593050974     -0.03045664110329
  O          -0.47874451589636      0.60232314965524     -2.08855764350201
  O           1.89412976708588     -1.32756454272548     -0.83459898336634
  O          -1.23529285182791      0.98593964565344     -0.99554531239943
  H           0.57006126694947      0.37211919875688     -1.57090733193858
  H          -3.24696414278103      0.27678515460664      0.53980295320632
  H          -2.25133555189073     -0.48622332617757      1.78955673563042
  H          -2.06837064196079      1.23996092496127      1.44356970938544
  H           0.33443020283137     -0.94716153517631      1.22075817572138
  H           0.35995233500067      0.83095418013250      1.13617351446405
  H           3.20228078620424     -0.25944444510406      0.45836035619074
  H           3.25617182398787      0.24417825817806     -1.31245906998432
  H          -1.41145440491522     -1.00082694348702     -0.54118800196029
