17
Coordinates from ORCA-job freq E -421.401185618930
  C          -2.61446646116803     -0.54538760584626     -0.15585637299254
  C          -0.47626221885507      0.11407232603773      0.97311340964755
  C           0.80083467171465      0.25502688438440      0.52782422340625
  C           1.23615054761237     -0.18631712982922     -1.19120391876322
  C          -1.68896080203142      0.60357626362853      0.25711610774929
  O           3.06154434112647      0.20250534588853     -2.51057426248900
  O           1.11224198848954      1.04516270288515     -0.59038713795576
  O           2.45890162166496     -0.63258024796547     -1.41683449342913
  H          -2.10531595326516     -1.22880680495375     -0.83557668754344
  H          -2.93325793887199     -1.11906612585237      0.71480583835790
  H          -3.50480713359971     -0.16581185249788     -0.65584325544984
  H          -0.61254499364395     -0.45650025114200      1.88395297841020
  H           1.65759764450297     -0.05883847697609      1.10943201014902
  H           0.41646291766468     -0.49980992675366     -1.82841903995859
  H          -1.38868870525956      1.18327953780296     -0.61555136926167
  H          -2.24175633683545      1.28249338486668      0.91283764822707
  H           3.44254681075470      0.91578897632270     -1.98199967810407
