17
* (null), Energy   -1000.0000000
C    -2.151436    0.472150   -1.149360   -0.000209   -0.002273   -0.000121
C     1.751911    0.197819   -0.091898    0.055158   -0.057477   -0.090627
C    -0.418012   -1.125026   -0.177161   -0.004134   -0.002993   -0.001096
C    -1.418977    0.003498    0.091933    0.007170    0.013062    0.007618
C     0.844548   -0.649612   -0.854548   -0.023775    0.006661    0.009082
O     0.097118    0.844614    1.613791    0.084761   -0.030719    0.012829
O     2.073749   -1.119635   -0.255265    0.010289    0.019044    0.005688
O    -0.762337    1.174037    0.586649   -0.028957    0.008177   -0.045442
H     1.084415    0.552522    1.018893   -1.503607    0.546749    1.175484
H    -2.797640    1.315811   -0.913234    0.005403    0.000019    0.004471
H    -2.764309   -0.335077   -1.548144   -0.004332    0.000938   -0.004676
H    -1.442239    0.787393   -1.915351   -0.001575    0.003692   -0.000468
H     2.428928    0.972225   -0.439171    0.045238    0.059760    0.155868
H    -0.120397   -1.574836    0.768730   -0.005359   -0.001406    0.000856
H    -0.911340   -1.896992   -0.768997    0.010564   -0.007792   -0.005636
H    -2.131179   -0.336800    0.849083    0.000492   -0.028488   -0.005297
H     0.883753   -0.632265   -1.937184   -0.003496   -0.005341    0.002149
17
* Frequency(6) -2065.2226
C    -2.151460    0.471892   -1.149374   -0.000209   -0.002273   -0.000121
C     1.758180    0.191287   -0.102197    0.055158   -0.057477   -0.090627
C    -0.418482   -1.125366   -0.177285   -0.004134   -0.002993   -0.001096
C    -1.418162    0.004983    0.092799    0.007170    0.013062    0.007618
C     0.841846   -0.648855   -0.853516   -0.023775    0.006661    0.009082
O     0.106750    0.841123    1.615249    0.084761   -0.030719    0.012829
O     2.074919   -1.117471   -0.254618    0.010289    0.019044    0.005688
O    -0.765628    1.174966    0.581484   -0.028957    0.008177   -0.045442
H     0.913538    0.614657    1.152481   -1.503607    0.546749    1.175484
H    -2.797026    1.315813   -0.912726    0.005403    0.000019    0.004471
H    -2.764801   -0.334971   -1.548675   -0.004332    0.000938   -0.004676
H    -1.442418    0.787812   -1.915404   -0.001575    0.003692   -0.000468
H     2.434069    0.979016   -0.421458    0.045238    0.059760    0.155868
H    -0.121006   -1.574996    0.768827   -0.005359   -0.001406    0.000856
H    -0.910139   -1.897877   -0.769637    0.010564   -0.007792   -0.005636
H    -2.131123   -0.340037    0.848481    0.000492   -0.028488   -0.005297
H     0.883356   -0.632872   -1.936940   -0.003496   -0.005341    0.002149
17
* Frequency(6) -2065.2226
C    -2.151481    0.471662   -1.149386   -0.000209   -0.002273   -0.000121
C     1.763769    0.185463   -0.111381    0.055158   -0.057477   -0.090627
C    -0.418901   -1.125669   -0.177396   -0.004134   -0.002993   -0.001096
C    -1.417435    0.006306    0.093571    0.007170    0.013062    0.007618
C     0.839437   -0.648180   -0.852596   -0.023775    0.006661    0.009082
O     0.115339    0.838010    1.616549    0.084761   -0.030719    0.012829
O     2.075961   -1.115541   -0.254042    0.010289    0.019044    0.005688
O    -0.768562    1.175795    0.576880   -0.028957    0.008177   -0.045442
H     0.761178    0.670059    1.271592   -1.503607    0.546749    1.175484
H    -2.796479    1.315815   -0.912272    0.005403    0.000019    0.004471
H    -2.765240   -0.334876   -1.549149   -0.004332    0.000938   -0.004676
H    -1.442577    0.788186   -1.915451   -0.001575    0.003692   -0.000468
H     2.438653    0.985071   -0.405664    0.045238    0.059760    0.155868
H    -0.121549   -1.575138    0.768914   -0.005359   -0.001406    0.000856
H    -0.909069   -1.898667   -0.770208    0.010564   -0.007792   -0.005636
H    -2.131074   -0.342924    0.847944    0.000492   -0.028488   -0.005297
H     0.883002   -0.633413   -1.936722   -0.003496   -0.005341    0.002149
17
* Frequency(6) -2065.2226
C    -2.151497    0.471484   -1.149395   -0.000209   -0.002273   -0.000121
C     1.768073    0.180978   -0.118453    0.055158   -0.057477   -0.090627
C    -0.419223   -1.125903   -0.177482   -0.004134   -0.002993   -0.001096
C    -1.416876    0.007326    0.094165    0.007170    0.013062    0.007618
C     0.837582   -0.647660   -0.851887   -0.023775    0.006661    0.009082
O     0.121954    0.835613    1.617550    0.084761   -0.030719    0.012829
O     2.076764   -1.114055   -0.253598    0.010289    0.019044    0.005688
O    -0.770822    1.176433    0.573334   -0.028957    0.008177   -0.045442
H     0.643846    0.712724    1.363320   -1.503607    0.546749    1.175484
H    -2.796057    1.315816   -0.911924    0.005403    0.000019    0.004471
H    -2.765578   -0.334803   -1.549514   -0.004332    0.000938   -0.004676
H    -1.442700    0.788475   -1.915488   -0.001575    0.003692   -0.000468
H     2.442183    0.989735   -0.393500    0.045238    0.059760    0.155868
H    -0.121967   -1.575248    0.768981   -0.005359   -0.001406    0.000856
H    -0.908244   -1.899275   -0.770648    0.010564   -0.007792   -0.005636
H    -2.131035   -0.345147    0.847531    0.000492   -0.028488   -0.005297
H     0.882729   -0.633830   -1.936555   -0.003496   -0.005341    0.002149
17
* Frequency(6) -2065.2226
C    -2.151507    0.471379   -1.149401   -0.000209   -0.002273   -0.000121
C     1.770626    0.178318   -0.122647    0.055158   -0.057477   -0.090627
C    -0.419415   -1.126041   -0.177532   -0.004134   -0.002993   -0.001096
C    -1.416544    0.007930    0.094518    0.007170    0.013062    0.007618
C     0.836481   -0.647352   -0.851467   -0.023775    0.006661    0.009082
O     0.125876    0.834192    1.618144    0.084761   -0.030719    0.012829
O     2.077240   -1.113174   -0.253335    0.010289    0.019044    0.005688
O    -0.772162    1.176811    0.571231   -0.028957    0.008177   -0.045442
H     0.574256    0.738028    1.417724   -1.503607    0.546749    1.175484
H    -2.795807    1.315817   -0.911717    0.005403    0.000019    0.004471
H    -2.765778   -0.334759   -1.549731   -0.004332    0.000938   -0.004676
H    -1.442773    0.788645   -1.915510   -0.001575    0.003692   -0.000468
H     2.444277    0.992500   -0.386287    0.045238    0.059760    0.155868
H    -0.122215   -1.575313    0.769021   -0.005359   -0.001406    0.000856
H    -0.907756   -1.899635   -0.770909    0.010564   -0.007792   -0.005636
H    -2.131012   -0.346465    0.847286    0.000492   -0.028488   -0.005297
H     0.882567   -0.634077   -1.936455   -0.003496   -0.005341    0.002149
17
* Frequency(6) -2065.2226
C    -2.151509    0.471357   -1.149402   -0.000209   -0.002273   -0.000121
C     1.771151    0.177771   -0.123509    0.055158   -0.057477   -0.090627
C    -0.419454   -1.126070   -0.177543   -0.004134   -0.002993   -0.001096
C    -1.416476    0.008054    0.094590    0.007170    0.013062    0.007618
C     0.836255   -0.647288   -0.851381   -0.023775    0.006661    0.009082
O     0.126683    0.833899    1.618266    0.084761   -0.030719    0.012829
O     2.077338   -1.112993   -0.253281    0.010289    0.019044    0.005688
O    -0.772437    1.176889    0.570798   -0.028957    0.008177   -0.045442
H     0.559950    0.743230    1.428908   -1.503607    0.546749    1.175484
H    -2.795756    1.315817   -0.911674    0.005403    0.000019    0.004471
H    -2.765820   -0.334750   -1.549775   -0.004332    0.000938   -0.004676
H    -1.442788    0.788681   -1.915514   -0.001575    0.003692   -0.000468
H     2.444707    0.993069   -0.384804    0.045238    0.059760    0.155868
H    -0.122266   -1.575327    0.769029   -0.005359   -0.001406    0.000856
H    -0.907655   -1.899709   -0.770962    0.010564   -0.007792   -0.005636
H    -2.131008   -0.346736    0.847235    0.000492   -0.028488   -0.005297
H     0.882534   -0.634128   -1.936435   -0.003496   -0.005341    0.002149
17
* Frequency(6) -2065.2226
C    -2.151503    0.471422   -1.149399   -0.000209   -0.002273   -0.000121
C     1.769590    0.179396   -0.120946    0.055158   -0.057477   -0.090627
C    -0.419337   -1.125985   -0.177512   -0.004134   -0.002993   -0.001096
C    -1.416679    0.007685    0.094375    0.007170    0.013062    0.007618
C     0.836928   -0.647477   -0.851637   -0.023775    0.006661    0.009082
O     0.124286    0.834768    1.617903    0.084761   -0.030719    0.012829
O     2.077047   -1.113531   -0.253442    0.010289    0.019044    0.005688
O    -0.771618    1.176658    0.572083   -0.028957    0.008177   -0.045442
H     0.602478    0.727766    1.395660   -1.503607    0.546749    1.175484
H    -2.795909    1.315817   -0.911801    0.005403    0.000019    0.004471
H    -2.765697   -0.334777   -1.549643   -0.004332    0.000938   -0.004676
H    -1.442744    0.788576   -1.915501   -0.001575    0.003692   -0.000468
H     2.443428    0.991379   -0.389212    0.045238    0.059760    0.155868
H    -0.122114   -1.575287    0.769005   -0.005359   -0.001406    0.000856
H    -0.907954   -1.899489   -0.770803    0.010564   -0.007792   -0.005636
H    -2.131022   -0.345931    0.847385    0.000492   -0.028488   -0.005297
H     0.882633   -0.633977   -1.936495   -0.003496   -0.005341    0.002149
17
* Frequency(6) -2065.2226
C    -2.151490    0.471565   -1.149391   -0.000209   -0.002273   -0.000121
C     1.766115    0.183018   -0.115235    0.055158   -0.057477   -0.090627
C    -0.419077   -1.125796   -0.177443   -0.004134   -0.002993   -0.001096
C    -1.417130    0.006862    0.093895    0.007170    0.013062    0.007618
C     0.838426   -0.647896   -0.852210   -0.023775    0.006661    0.009082
O     0.118944    0.836704    1.617095    0.084761   -0.030719    0.012829
O     2.076399   -1.114732   -0.253800    0.010289    0.019044    0.005688
O    -0.769794    1.176143    0.574947   -0.028957    0.008177   -0.045442
H     0.697231    0.693311    1.321585   -1.503607    0.546749    1.175484
H    -2.796249    1.315816   -0.912082    0.005403    0.000019    0.004471
H    -2.765424   -0.334836   -1.549348   -0.004332    0.000938   -0.004676
H    -1.442644    0.788343   -1.915471   -0.001575    0.003692   -0.000468
H     2.440577    0.987613   -0.399035    0.045238    0.059760    0.155868
H    -0.121777   -1.575198    0.768951   -0.005359   -0.001406    0.000856
H    -0.908620   -1.898998   -0.770448    0.010564   -0.007792   -0.005636
H    -2.131053   -0.344135    0.847719    0.000492   -0.028488   -0.005297
H     0.882853   -0.633640   -1.936631   -0.003496   -0.005341    0.002149
17
* Frequency(6) -2065.2226
C    -2.151471    0.471772   -1.149380   -0.000209   -0.002273   -0.000121
C     1.761100    0.188244   -0.106995    0.055158   -0.057477   -0.090627
C    -0.418701   -1.125524   -0.177343   -0.004134   -0.002993   -0.001096
C    -1.417782    0.005674    0.093202    0.007170    0.013062    0.007618
C     0.840587   -0.648502   -0.853035   -0.023775    0.006661    0.009082
O     0.111237    0.839497    1.615928    0.084761   -0.030719    0.012829
O     2.075463   -1.116463   -0.254317    0.010289    0.019044    0.005688
O    -0.767161    1.175399    0.579079   -0.028957    0.008177   -0.045442
H     0.833942    0.643600    1.214707   -1.503607    0.546749    1.175484
H    -2.796740    1.315814   -0.912489    0.005403    0.000019    0.004471
H    -2.765030   -0.334921   -1.548923   -0.004332    0.000938   -0.004676
H    -1.442501    0.788008   -1.915429   -0.001575    0.003692   -0.000468
H     2.436464    0.982179   -0.413206    0.045238    0.059760    0.155868
H    -0.121289   -1.575070    0.768873   -0.005359   -0.001406    0.000856
H    -0.909580   -1.898290   -0.769935    0.010564   -0.007792   -0.005636
H    -2.131097   -0.341545    0.848200    0.000492   -0.028488   -0.005297
H     0.883171   -0.633155   -1.936826   -0.003496   -0.005341    0.002149
17
* Frequency(6) -2065.2226
C    -2.151448    0.472019   -1.149367   -0.000209   -0.002273   -0.000121
C     1.755089    0.194508   -0.097119    0.055158   -0.057477   -0.090627
C    -0.418250   -1.125198   -0.177224   -0.004134   -0.002993   -0.001096
C    -1.418564    0.004251    0.092372    0.007170    0.013062    0.007618
C     0.843178   -0.649228   -0.854025   -0.023775    0.006661    0.009082
O     0.102001    0.842844    1.614530    0.084761   -0.030719    0.012829
O     2.074342   -1.118538   -0.254937    0.010289    0.019044    0.005688
O    -0.764005    1.174508    0.584031   -0.028957    0.008177   -0.045442
H     0.997795    0.584019    1.086611   -1.503607    0.546749    1.175484
H    -2.797329    1.315812   -0.912976    0.005403    0.000019    0.004471
H    -2.764558   -0.335023   -1.548413   -0.004332    0.000938   -0.004676
H    -1.442330    0.787605   -1.915378   -0.001575    0.003692   -0.000468
H     2.431534    0.975667   -0.430192    0.045238    0.059760    0.155868
H    -0.120705   -1.574917    0.768779   -0.005359   -0.001406    0.000856
H    -0.910731   -1.897441   -0.769321    0.010564   -0.007792   -0.005636
H    -2.131151   -0.338441    0.848778    0.000492   -0.028488   -0.005297
H     0.883552   -0.632573   -1.937060   -0.003496   -0.005341    0.002149
17
* Frequency(6) -2065.2226
C    -2.151424    0.472281   -1.149353   -0.000209   -0.002273   -0.000121
C     1.748734    0.201130   -0.086677    0.055158   -0.057477   -0.090627
C    -0.417774   -1.124853   -0.177098   -0.004134   -0.002993   -0.001096
C    -1.419390    0.002746    0.091494    0.007170    0.013062    0.007618
C     0.845918   -0.649996   -0.855071   -0.023775    0.006661    0.009082
O     0.092235    0.846384    1.613052    0.084761   -0.030719    0.012829
O     2.073157   -1.120733   -0.255593    0.010289    0.019044    0.005688
O    -0.760669    1.173566    0.589266   -0.028957    0.008177   -0.045442
H     1.171035    0.521024    0.951176   -1.503607    0.546749    1.175484
H    -2.797952    1.315809   -0.913491    0.005403    0.000019    0.004471
H    -2.764059   -0.335131   -1.547875   -0.004332    0.000938   -0.004676
H    -1.442148    0.787180   -1.915324   -0.001575    0.003692   -0.000468
H     2.426322    0.968782   -0.448151    0.045238    0.059760    0.155868
H    -0.120088   -1.574755    0.768681   -0.005359   -0.001406    0.000856
H    -0.911948   -1.896543   -0.768672    0.010564   -0.007792   -0.005636
H    -2.131208   -0.335158    0.849388    0.000492   -0.028488   -0.005297
H     0.883955   -0.631957   -1.937308   -0.003496   -0.005341    0.002149
17
* Frequency(6) -2065.2226
C    -2.151401    0.472529   -1.149340   -0.000209   -0.002273   -0.000121
C     1.742723    0.207394   -0.076801    0.055158   -0.057477   -0.090627
C    -0.417323   -1.124527   -0.176978   -0.004134   -0.002993   -0.001096
C    -1.420171    0.001323    0.090664    0.007170    0.013062    0.007618
C     0.848508   -0.650721   -0.856061   -0.023775    0.006661    0.009082
O     0.082998    0.849731    1.611654    0.084761   -0.030719    0.012829
O     2.072035   -1.122808   -0.256212    0.010289    0.019044    0.005688
O    -0.757513    1.172675    0.594218   -0.028957    0.008177   -0.045442
H     1.334888    0.461443    0.823079   -1.503607    0.546749    1.175484
H    -2.798540    1.315807   -0.913978    0.005403    0.000019    0.004471
H    -2.763587   -0.335234   -1.547365   -0.004332    0.000938   -0.004676
H    -1.441977    0.786778   -1.915273   -0.001575    0.003692   -0.000468
H     2.421392    0.962270   -0.465136    0.045238    0.059760    0.155868
H    -0.119504   -1.574602    0.768587   -0.005359   -0.001406    0.000856
H    -0.913100   -1.895694   -0.768058    0.010564   -0.007792   -0.005636
H    -2.131261   -0.332054    0.849965    0.000492   -0.028488   -0.005297
H     0.884336   -0.631375   -1.937542   -0.003496   -0.005341    0.002149
17
* Frequency(6) -2065.2226
C    -2.151382    0.472736   -1.149329   -0.000209   -0.002273   -0.000121
C     1.737708    0.212619   -0.068561    0.055158   -0.057477   -0.090627
C    -0.416947   -1.124255   -0.176879   -0.004134   -0.002993   -0.001096
C    -1.420823    0.000135    0.089972    0.007170    0.013062    0.007618
C     0.850670   -0.651327   -0.856887   -0.023775    0.006661    0.009082
O     0.075291    0.852524    1.610488    0.084761   -0.030719    0.012829
O     2.071100   -1.124539   -0.256730    0.010289    0.019044    0.005688
O    -0.754881    1.171932    0.598350   -0.028957    0.008177   -0.045442
H     1.471599    0.411732    0.716202   -1.503607    0.546749    1.175484
H    -2.799032    1.315806   -0.914385    0.005403    0.000019    0.004471
H    -2.763193   -0.335319   -1.546940   -0.004332    0.000938   -0.004676
H    -1.441833    0.786442   -1.915230   -0.001575    0.003692   -0.000468
H     2.417279    0.956836   -0.479308    0.045238    0.059760    0.155868
H    -0.119017   -1.574474    0.768510   -0.005359   -0.001406    0.000856
H    -0.914060   -1.894985   -0.767545    0.010564   -0.007792   -0.005636
H    -2.131306   -0.329464    0.850447    0.000492   -0.028488   -0.005297
H     0.884653   -0.630890   -1.937738   -0.003496   -0.005341    0.002149
17
* Frequency(6) -2065.2226
C    -2.151369    0.472879   -1.149321   -0.000209   -0.002273   -0.000121
C     1.734232    0.216241   -0.062850    0.055158   -0.057477   -0.090627
C    -0.416687   -1.124066   -0.176810   -0.004134   -0.002993   -0.001096
C    -1.421275   -0.000688    0.089492    0.007170    0.013062    0.007618
C     0.852168   -0.651747   -0.857459   -0.023775    0.006661    0.009082
O     0.069950    0.854460    1.609679    0.084761   -0.030719    0.012829
O     2.070452   -1.125739   -0.257088    0.010289    0.019044    0.005688
O    -0.753056    1.171416    0.601214   -0.028957    0.008177   -0.045442
H     1.566352    0.377277    0.642127   -1.503607    0.546749    1.175484
H    -2.799372    1.315804   -0.914667    0.005403    0.000019    0.004471
H    -2.762920   -0.335378   -1.546645   -0.004332    0.000938   -0.004676
H    -1.441734    0.786209   -1.915201   -0.001575    0.003692   -0.000468
H     2.414428    0.953070   -0.489130    0.045238    0.059760    0.155868
H    -0.118679   -1.574385    0.768456   -0.005359   -0.001406    0.000856
H    -0.914726   -1.894494   -0.767190    0.010564   -0.007792   -0.005636
H    -2.131337   -0.327668    0.850781    0.000492   -0.028488   -0.005297
H     0.884874   -0.630553   -1.937873   -0.003496   -0.005341    0.002149
17
* Frequency(6) -2065.2226
C    -2.151363    0.472943   -1.149318   -0.000209   -0.002273   -0.000121
C     1.732672    0.217867   -0.060287    0.055158   -0.057477   -0.090627
C    -0.416570   -1.123982   -0.176779   -0.004134   -0.002993   -0.001096
C    -1.421478   -0.001058    0.089276    0.007170    0.013062    0.007618
C     0.852841   -0.651935   -0.857716   -0.023775    0.006661    0.009082
O     0.067553    0.855329    1.609317    0.084761   -0.030719    0.012829
O     2.070160   -1.126278   -0.257249    0.010289    0.019044    0.005688
O    -0.752237    1.171185    0.602499   -0.028957    0.008177   -0.045442
H     1.608880    0.361813    0.608879   -1.503607    0.546749    1.175484
H    -2.799525    1.315804   -0.914793    0.005403    0.000019    0.004471
H    -2.762797   -0.335404   -1.546513   -0.004332    0.000938   -0.004676
H    -1.441690    0.786105   -1.915187   -0.001575    0.003692   -0.000468
H     2.413149    0.951380   -0.493539    0.045238    0.059760    0.155868
H    -0.118527   -1.574345    0.768431   -0.005359   -0.001406    0.000856
H    -0.915025   -1.894274   -0.767031    0.010564   -0.007792   -0.005636
H    -2.131351   -0.326863    0.850931    0.000492   -0.028488   -0.005297
H     0.884973   -0.630402   -1.937934   -0.003496   -0.005341    0.002149
17
* Frequency(6) -2065.2226
C    -2.151365    0.472922   -1.149319   -0.000209   -0.002273   -0.000121
C     1.733197    0.217320   -0.061149    0.055158   -0.057477   -0.090627
C    -0.416609   -1.124010   -0.176789   -0.004134   -0.002993   -0.001096
C    -1.421410   -0.000933    0.089349    0.007170    0.013062    0.007618
C     0.852614   -0.651872   -0.857630   -0.023775    0.006661    0.009082
O     0.068359    0.855037    1.609439    0.084761   -0.030719    0.012829
O     2.070258   -1.126097   -0.257195    0.010289    0.019044    0.005688
O    -0.752512    1.171263    0.602067   -0.028957    0.008177   -0.045442
H     1.594574    0.367015    0.620063   -1.503607    0.546749    1.175484
H    -2.799473    1.315804   -0.914751    0.005403    0.000019    0.004471
H    -2.762839   -0.335396   -1.546557   -0.004332    0.000938   -0.004676
H    -1.441705    0.786140   -1.915192   -0.001575    0.003692   -0.000468
H     2.413579    0.951949   -0.492056    0.045238    0.059760    0.155868
H    -0.118578   -1.574359    0.768440   -0.005359   -0.001406    0.000856
H    -0.914924   -1.894348   -0.767085    0.010564   -0.007792   -0.005636
H    -2.131346   -0.327134    0.850880    0.000492   -0.028488   -0.005297
H     0.884939   -0.630453   -1.937913   -0.003496   -0.005341    0.002149
17
* Frequency(6) -2065.2226
C    -2.151375    0.472816   -1.149325   -0.000209   -0.002273   -0.000121
C     1.735750    0.214660   -0.065344    0.055158   -0.057477   -0.090627
C    -0.416801   -1.124149   -0.176840   -0.004134   -0.002993   -0.001096
C    -1.421078   -0.000329    0.089701    0.007170    0.013062    0.007618
C     0.851514   -0.651564   -0.857209   -0.023775    0.006661    0.009082
O     0.072282    0.853615    1.610032    0.084761   -0.030719    0.012829
O     2.070735   -1.125215   -0.256932    0.010289    0.019044    0.005688
O    -0.753853    1.171641    0.599964   -0.028957    0.008177   -0.045442
H     1.524984    0.392320    0.674467   -1.503607    0.546749    1.175484
H    -2.799223    1.315805   -0.914544    0.005403    0.000019    0.004471
H    -2.763039   -0.335352   -1.546774   -0.004332    0.000938   -0.004676
H    -1.441778    0.786311   -1.915213   -0.001575    0.003692   -0.000468
H     2.415673    0.954715   -0.484842    0.045238    0.059760    0.155868
H    -0.118826   -1.574424    0.768479   -0.005359   -0.001406    0.000856
H    -0.914435   -1.894709   -0.767345    0.010564   -0.007792   -0.005636
H    -2.131324   -0.328452    0.850635    0.000492   -0.028488   -0.005297
H     0.884778   -0.630700   -1.937814   -0.003496   -0.005341    0.002149
17
* Frequency(6) -2065.2226
C    -2.151391    0.472639   -1.149334   -0.000209   -0.002273   -0.000121
C     1.740054    0.210175   -0.072416    0.055158   -0.057477   -0.090627
C    -0.417123   -1.124382   -0.176925   -0.004134   -0.002993   -0.001096
C    -1.420518    0.000690    0.090296    0.007170    0.013062    0.007618
C     0.849659   -0.651044   -0.856501   -0.023775    0.006661    0.009082
O     0.078896    0.851218    1.611033    0.084761   -0.030719    0.012829
O     2.071537   -1.123729   -0.256488    0.010289    0.019044    0.005688
O    -0.756112    1.172279    0.596418   -0.028957    0.008177   -0.045442
H     1.407652    0.434984    0.766194   -1.503607    0.546749    1.175484
H    -2.798802    1.315806   -0.914195    0.005403    0.000019    0.004471
H    -2.763377   -0.335279   -1.547139   -0.004332    0.000938   -0.004676
H    -1.441900    0.786599   -1.915250   -0.001575    0.003692   -0.000468
H     2.419203    0.959378   -0.472679    0.045238    0.059760    0.155868
H    -0.119245   -1.574534    0.768546   -0.005359   -0.001406    0.000856
H    -0.913611   -1.895317   -0.767785    0.010564   -0.007792   -0.005636
H    -2.131285   -0.330675    0.850222    0.000492   -0.028488   -0.005297
H     0.884505   -0.631117   -1.937646   -0.003496   -0.005341    0.002149
17
* Frequency(6) -2065.2226
C    -2.151412    0.472409   -1.149346   -0.000209   -0.002273   -0.000121
C     1.745643    0.204351   -0.081599    0.055158   -0.057477   -0.090627
C    -0.417542   -1.124685   -0.177036   -0.004134   -0.002993   -0.001096
C    -1.419792    0.002014    0.091067    0.007170    0.013062    0.007618
C     0.847250   -0.650369   -0.855580   -0.023775    0.006661    0.009082
O     0.087485    0.848105    1.612333    0.084761   -0.030719    0.012829
O     2.072580   -1.121800   -0.255911    0.010289    0.019044    0.005688
O    -0.759046    1.173108    0.591813   -0.028957    0.008177   -0.045442
H     1.255292    0.490386    0.885306   -1.503607    0.546749    1.175484
H    -2.798254    1.315808   -0.913742    0.005403    0.000019    0.004471
H    -2.763816   -0.335184   -1.547612   -0.004332    0.000938   -0.004676
H    -1.442060    0.786973   -1.915297   -0.001575    0.003692   -0.000468
H     2.423787    0.965433   -0.456885    0.045238    0.059760    0.155868
H    -0.119788   -1.574676    0.768633   -0.005359   -0.001406    0.000856
H    -0.912540   -1.896106   -0.768356    0.010564   -0.007792   -0.005636
H    -2.131235   -0.333562    0.849685    0.000492   -0.028488   -0.005297
H     0.884151   -0.631658   -1.937428   -0.003496   -0.005341    0.002149
17
* Frequency(6) -2065.2226
C    -2.151436    0.472150   -1.149360   -0.000209   -0.002273   -0.000121
C     1.751911    0.197819   -0.091898    0.055158   -0.057477   -0.090627
C    -0.418012   -1.125026   -0.177161   -0.004134   -0.002993   -0.001096
C    -1.418977    0.003498    0.091933    0.007170    0.013062    0.007618
C     0.844548   -0.649612   -0.854548   -0.023775    0.006661    0.009082
O     0.097118    0.844614    1.613791    0.084761   -0.030719    0.012829
O     2.073749   -1.119635   -0.255265    0.010289    0.019044    0.005688
O    -0.762337    1.174037    0.586649   -0.028957    0.008177   -0.045442
H     1.084415    0.552522    1.018893   -1.503607    0.546749    1.175484
H    -2.797640    1.315811   -0.913234    0.005403    0.000019    0.004471
H    -2.764309   -0.335077   -1.548144   -0.004332    0.000938   -0.004676
H    -1.442239    0.787393   -1.915351   -0.001575    0.003692   -0.000468
H     2.428928    0.972225   -0.439171    0.045238    0.059760    0.155868
H    -0.120397   -1.574836    0.768730   -0.005359   -0.001406    0.000856
H    -0.911340   -1.896992   -0.768997    0.010564   -0.007792   -0.005636
H    -2.131179   -0.336800    0.849083    0.000492   -0.028488   -0.005297
H     0.883753   -0.632265   -1.937184   -0.003496   -0.005341    0.002149
