17
Coordinates from ORCA-job freq E -421.309824304273
  C          -1.64082710419563      1.35851981900491     -0.24651306687496
  C          -1.33792364675451     -0.60189968327247      0.00785681517036
  C           2.43178401893291      0.25546807899970     -0.06413530048132
  C           0.06606238558088     -0.50410428174947      0.60612789808204
  C           1.14199855982374     -0.32643634803816     -0.43108044763350
  O          -0.94326279532466     -2.28288209708387      0.29221277570399
  O           1.46667920028563      1.00713362641954     -0.78315090165771
  O           0.11908990526545     -1.80962061928192      1.14043191885573
  H          -2.19771366034701     -0.60089390921204      0.66155847714477
  H          -2.59526311727796      1.39425594288129     -0.75516283646325
  H          -1.65591488665643      1.72312735246314      0.77295749172704
  H          -0.78409557301662      1.66886068831791     -0.82999016152869
  H          -1.49286807988033     -0.70088913884552     -1.05760311545562
  H           3.31612153603164     -0.01509137942951     -0.62687489597076
  H           2.59390113497947      0.57513632339356      0.95883432905162
  H           0.17161097538910      0.24947274988873      1.39061824365463
  H           1.10083514716433     -1.03052012445580     -1.25679022332437
