17
* (null), Energy   -1000.0000000
C    -1.640827    1.358520   -0.246513   -0.089151    0.667371   -0.071414
C    -1.337924   -0.601900    0.007857    0.210272   -1.463199    0.174924
C     2.431784    0.255468   -0.064135    0.003245    0.000963   -0.005626
C     0.066062   -0.504104    0.606128    0.066730    0.057088    0.043820
C     1.141999   -0.326436   -0.431080    0.006700    0.011458    0.009020
O    -0.943263   -2.282882    0.292213   -0.180419    0.401652   -0.120172
O     1.466679    1.007134   -0.783151    0.003565    0.004971   -0.009682
O     0.119090   -1.809621    1.140432    0.024360    0.049101    0.021741
H    -2.197714   -0.600894    0.661558    0.015469    0.641146   -0.051857
H    -2.595263    1.394256   -0.755163   -0.085596   -0.125557   -0.037657
H    -1.655915    1.723127    0.772957    0.001606   -0.023900    0.120534
H    -0.784096    1.668861   -0.829990    0.133818   -0.051551   -0.041496
H    -1.492868   -0.700889   -1.057603   -0.034668    0.762304   -0.008878
H     3.316122   -0.015091   -0.626875   -0.003371   -0.008294   -0.009908
H     2.593901    0.575136    0.958834    0.007788    0.004893   -0.007887
H     0.171611    0.249473    1.390618   -0.005224    0.187825   -0.079693
H     1.100835   -1.030520   -1.256790    0.033705    0.034452    0.036850
17
* Frequency(6) -1115.9125
C    -1.650959    1.434363   -0.254629   -0.089151    0.667371   -0.071414
C    -1.314027   -0.768185    0.027736    0.210272   -1.463199    0.174924
C     2.432153    0.255578   -0.064775    0.003245    0.000963   -0.005626
C     0.073646   -0.497616    0.611108    0.066730    0.057088    0.043820
C     1.142760   -0.325134   -0.430055    0.006700    0.011458    0.009020
O    -0.963767   -2.237236    0.278556   -0.180419    0.401652   -0.120172
O     1.467084    1.007699   -0.784251    0.003565    0.004971   -0.009682
O     0.121858   -1.804041    1.142903    0.024360    0.049101    0.021741
H    -2.195956   -0.528031    0.655665    0.015469    0.641146   -0.051857
H    -2.604991    1.379987   -0.759442   -0.085596   -0.125557   -0.037657
H    -1.655732    1.720411    0.786656    0.001606   -0.023900    0.120534
H    -0.768888    1.663002   -0.834706    0.133818   -0.051551   -0.041496
H    -1.496808   -0.614257   -1.058612   -0.034668    0.762304   -0.008878
H     3.315738   -0.016034   -0.628001   -0.003371   -0.008294   -0.009908
H     2.594786    0.575692    0.957938    0.007788    0.004893   -0.007887
H     0.171017    0.270818    1.381561   -0.005224    0.187825   -0.079693
H     1.104666   -1.026605   -1.252602    0.033705    0.034452    0.036850
17
* Frequency(6) -1115.9125
C    -1.659992    1.501988   -0.261865   -0.089151    0.667371   -0.071414
C    -1.292721   -0.916450    0.045461    0.210272   -1.463199    0.174924
C     2.432482    0.255675   -0.065345    0.003245    0.000963   -0.005626
C     0.080408   -0.491832    0.615548    0.066730    0.057088    0.043820
C     1.143439   -0.323973   -0.429141    0.006700    0.011458    0.009020
O    -0.982048   -2.196537    0.266379   -0.180419    0.401652   -0.120172
O     1.467446    1.008202   -0.785232    0.003565    0.004971   -0.009682
O     0.124327   -1.799065    1.145106    0.024360    0.049101    0.021741
H    -2.194388   -0.463064    0.650410    0.015469    0.641146   -0.051857
H    -2.613664    1.367264   -0.763258   -0.085596   -0.125557   -0.037657
H    -1.655570    1.717989    0.798869    0.001606   -0.023900    0.120534
H    -0.755328    1.657778   -0.838911    0.133818   -0.051551   -0.041496
H    -1.500321   -0.537013   -1.059512   -0.034668    0.762304   -0.008878
H     3.315397   -0.016874   -0.629005   -0.003371   -0.008294   -0.009908
H     2.595575    0.576188    0.957139    0.007788    0.004893   -0.007887
H     0.170488    0.289850    1.373486   -0.005224    0.187825   -0.079693
H     1.108081   -1.023114   -1.248869    0.033705    0.034452    0.036850
17
* Frequency(6) -1115.9125
C    -1.666949    1.554065   -0.267438   -0.089151    0.667371   -0.071414
C    -1.276312   -1.030629    0.059111    0.210272   -1.463199    0.174924
C     2.432735    0.255750   -0.065784    0.003245    0.000963   -0.005626
C     0.085615   -0.487377    0.618968    0.066730    0.057088    0.043820
C     1.143962   -0.323079   -0.428438    0.006700    0.011458    0.009020
O    -0.996127   -2.165195    0.257001   -0.180419    0.401652   -0.120172
O     1.467724    1.008590   -0.785988    0.003565    0.004971   -0.009682
O     0.126228   -1.795234    1.146802    0.024360    0.049101    0.021741
H    -2.193181   -0.413033    0.646364    0.015469    0.641146   -0.051857
H    -2.620344    1.357467   -0.766197   -0.085596   -0.125557   -0.037657
H    -1.655444    1.716124    0.808275    0.001606   -0.023900    0.120534
H    -0.744886    1.653756   -0.842149    0.133818   -0.051551   -0.041496
H    -1.503026   -0.477528   -1.060204   -0.034668    0.762304   -0.008878
H     3.315134   -0.017522   -0.629778   -0.003371   -0.008294   -0.009908
H     2.596183    0.576570    0.956523    0.007788    0.004893   -0.007887
H     0.170080    0.304507    1.367267   -0.005224    0.187825   -0.079693
H     1.110711   -1.020425   -1.245993    0.033705    0.034452    0.036850
17
* Frequency(6) -1115.9125
C    -1.671075    1.584952   -0.270743   -0.089151    0.667371   -0.071414
C    -1.266580   -1.098349    0.067207    0.210272   -1.463199    0.174924
C     2.432885    0.255795   -0.066044    0.003245    0.000963   -0.005626
C     0.088703   -0.484735    0.620996    0.066730    0.057088    0.043820
C     1.144272   -0.322549   -0.428020    0.006700    0.011458    0.009020
O    -1.004477   -2.146605    0.251440   -0.180419    0.401652   -0.120172
O     1.467889    1.008820   -0.786436    0.003565    0.004971   -0.009682
O     0.127355   -1.792961    1.147808    0.024360    0.049101    0.021741
H    -2.192465   -0.383359    0.643964    0.015469    0.641146   -0.051857
H    -2.624305    1.351656   -0.767939   -0.085596   -0.125557   -0.037657
H    -1.655370    1.715018    0.813853    0.001606   -0.023900    0.120534
H    -0.738692    1.651370   -0.844069    0.133818   -0.051551   -0.041496
H    -1.504631   -0.442247   -1.060615   -0.034668    0.762304   -0.008878
H     3.314978   -0.017906   -0.630236   -0.003371   -0.008294   -0.009908
H     2.596543    0.576797    0.956158    0.007788    0.004893   -0.007887
H     0.169839    0.313200    1.363579   -0.005224    0.187825   -0.079693
H     1.112271   -1.018831   -1.244288    0.033705    0.034452    0.036850
17
* Frequency(6) -1115.9125
C    -1.671923    1.591302   -0.271423   -0.089151    0.667371   -0.071414
C    -1.264580   -1.112270    0.068871    0.210272   -1.463199    0.174924
C     2.432916    0.255804   -0.066098    0.003245    0.000963   -0.005626
C     0.089338   -0.484192    0.621413    0.066730    0.057088    0.043820
C     1.144335   -0.322440   -0.427934    0.006700    0.011458    0.009020
O    -1.006194   -2.142784    0.250296   -0.180419    0.401652   -0.120172
O     1.467923    1.008867   -0.786528    0.003565    0.004971   -0.009682
O     0.127587   -1.792494    1.148015    0.024360    0.049101    0.021741
H    -2.192318   -0.377259    0.643470    0.015469    0.641146   -0.051857
H    -2.625120    1.350461   -0.768298   -0.085596   -0.125557   -0.037657
H    -1.655355    1.714791    0.815000    0.001606   -0.023900    0.120534
H    -0.737419    1.650879   -0.844464    0.133818   -0.051551   -0.041496
H    -1.504961   -0.434994   -1.060700   -0.034668    0.762304   -0.008878
H     3.314946   -0.017984   -0.630331   -0.003371   -0.008294   -0.009908
H     2.596618    0.576843    0.956083    0.007788    0.004893   -0.007887
H     0.169789    0.314987    1.362821   -0.005224    0.187825   -0.079693
H     1.112591   -1.018503   -1.243937    0.033705    0.034452    0.036850
17
* Frequency(6) -1115.9125
C    -1.669402    1.572426   -0.269403   -0.089151    0.667371   -0.071414
C    -1.270527   -1.070885    0.063923    0.210272   -1.463199    0.174924
C     2.432824    0.255777   -0.065938    0.003245    0.000963   -0.005626
C     0.087451   -0.485806    0.620173    0.066730    0.057088    0.043820
C     1.144146   -0.322764   -0.428189    0.006700    0.011458    0.009020
O    -1.001091   -2.154144    0.253695   -0.180419    0.401652   -0.120172
O     1.467822    1.008727   -0.786254    0.003565    0.004971   -0.009682
O     0.126898   -1.793883    1.147400    0.024360    0.049101    0.021741
H    -2.192755   -0.395393    0.644937    0.015469    0.641146   -0.051857
H    -2.622699    1.354012   -0.767233   -0.085596   -0.125557   -0.037657
H    -1.655400    1.715467    0.811591    0.001606   -0.023900    0.120534
H    -0.741204    1.652337   -0.843290    0.133818   -0.051551   -0.041496
H    -1.503980   -0.456555   -1.060449   -0.034668    0.762304   -0.008878
H     3.315041   -0.017750   -0.630050   -0.003371   -0.008294   -0.009908
H     2.596397    0.576705    0.956307    0.007788    0.004893   -0.007887
H     0.169937    0.309674    1.365075   -0.005224    0.187825   -0.079693
H     1.111638   -1.019477   -1.244979    0.033705    0.034452    0.036850
17
* Frequency(6) -1115.9125
C    -1.663784    1.530370   -0.264903   -0.089151    0.667371   -0.071414
C    -1.283778   -0.978678    0.052900    0.210272   -1.463199    0.174924
C     2.432620    0.255716   -0.065584    0.003245    0.000963   -0.005626
C     0.083246   -0.489404    0.617412    0.066730    0.057088    0.043820
C     1.143724   -0.323486   -0.428758    0.006700    0.011458    0.009020
O    -0.989721   -2.179455    0.261268   -0.180419    0.401652   -0.120172
O     1.467597    1.008414   -0.785644    0.003565    0.004971   -0.009682
O     0.125363   -1.796977    1.146030    0.024360    0.049101    0.021741
H    -2.193730   -0.435797    0.648205    0.015469    0.641146   -0.051857
H    -2.617304    1.361925   -0.764860   -0.085596   -0.125557   -0.037657
H    -1.655501    1.716973    0.803995    0.001606   -0.023900    0.120534
H    -0.749637    1.655586   -0.840675    0.133818   -0.051551   -0.041496
H    -1.501795   -0.504593   -1.059889   -0.034668    0.762304   -0.008878
H     3.315253   -0.017227   -0.629426   -0.003371   -0.008294   -0.009908
H     2.595906    0.576396    0.956803    0.007788    0.004893   -0.007887
H     0.170266    0.297838    1.370097   -0.005224    0.187825   -0.079693
H     1.109514   -1.021649   -1.247301    0.033705    0.034452    0.036850
17
* Frequency(6) -1115.9125
C    -1.655678    1.469692   -0.258409   -0.089151    0.667371   -0.071414
C    -1.302896   -0.845642    0.036996    0.210272   -1.463199    0.174924
C     2.432325    0.255629   -0.065072    0.003245    0.000963   -0.005626
C     0.077178   -0.494594    0.613427    0.066730    0.057088    0.043820
C     1.143115   -0.324528   -0.429578    0.006700    0.011458    0.009020
O    -0.973317   -2.215974    0.272194   -0.180419    0.401652   -0.120172
O     1.467273    1.007962   -0.784764    0.003565    0.004971   -0.009682
O     0.123148   -1.801441    1.144054    0.024360    0.049101    0.021741
H    -2.195137   -0.494091    0.652920    0.015469    0.641146   -0.051857
H    -2.609522    1.373340   -0.761436   -0.085596   -0.125557   -0.037657
H    -1.655647    1.719146    0.793036    0.001606   -0.023900    0.120534
H    -0.761804    1.660273   -0.836903    0.133818   -0.051551   -0.041496
H    -1.498643   -0.573903   -1.059082   -0.034668    0.762304   -0.008878
H     3.315560   -0.016473   -0.628525   -0.003371   -0.008294   -0.009908
H     2.595198    0.575951    0.957521    0.007788    0.004893   -0.007887
H     0.170741    0.280761    1.377343   -0.005224    0.187825   -0.079693
H     1.106450   -1.024781   -1.250652    0.033705    0.034452    0.036850
17
* Frequency(6) -1115.9125
C    -1.645963    1.396966   -0.250627   -0.089151    0.667371   -0.071414
C    -1.325810   -0.686192    0.017934    0.210272   -1.463199    0.174924
C     2.431971    0.255524   -0.064459    0.003245    0.000963   -0.005626
C     0.069907   -0.500816    0.608652    0.066730    0.057088    0.043820
C     1.142385   -0.325776   -0.430561    0.006700    0.011458    0.009020
O    -0.953656   -2.259744    0.285290   -0.180419    0.401652   -0.120172
O     1.466885    1.007420   -0.783709    0.003565    0.004971   -0.009682
O     0.120493   -1.806792    1.141684    0.024360    0.049101    0.021741
H    -2.196823   -0.563959    0.658571    0.015469    0.641146   -0.051857
H    -2.600194    1.387023   -0.757332   -0.085596   -0.125557   -0.037657
H    -1.655822    1.721750    0.779901    0.001606   -0.023900    0.120534
H    -0.776387    1.665891   -0.832381    0.133818   -0.051551   -0.041496
H    -1.494865   -0.656974   -1.058115   -0.034668    0.762304   -0.008878
H     3.315927   -0.015569   -0.627446   -0.003371   -0.008294   -0.009908
H     2.594350    0.575418    0.958380    0.007788    0.004893   -0.007887
H     0.171310    0.260293    1.386027   -0.005224    0.187825   -0.079693
H     1.102777   -1.028535   -1.254667    0.033705    0.034452    0.036850
17
* Frequency(6) -1115.9125
C    -1.635691    1.320074   -0.242399   -0.089151    0.667371   -0.071414
C    -1.350037   -0.517608   -0.002220    0.210272   -1.463199    0.174924
C     2.431597    0.255413   -0.063811    0.003245    0.000963   -0.005626
C     0.062218   -0.507393    0.603604    0.066730    0.057088    0.043820
C     1.141613   -0.327096   -0.431600    0.006700    0.011458    0.009020
O    -0.932869   -2.306021    0.299136   -0.180419    0.401652   -0.120172
O     1.466474    1.006847   -0.782593    0.003565    0.004971   -0.009682
O     0.117687   -1.812449    1.139179    0.024360    0.049101    0.021741
H    -2.198605   -0.637829    0.664546    0.015469    0.641146   -0.051857
H    -2.590332    1.401489   -0.752993   -0.085596   -0.125557   -0.037657
H    -1.656007    1.724504    0.766014    0.001606   -0.023900    0.120534
H    -0.791805    1.671830   -0.827600    0.133818   -0.051551   -0.041496
H    -1.490871   -0.744804   -1.057092   -0.034668    0.762304   -0.008878
H     3.316316   -0.014614   -0.626304   -0.003371   -0.008294   -0.009908
H     2.593453    0.574854    0.959289    0.007788    0.004893   -0.007887
H     0.171912    0.238653    1.395209   -0.005224    0.187825   -0.079693
H     1.098893   -1.032505   -1.258913    0.033705    0.034452    0.036850
17
* Frequency(6) -1115.9125
C    -1.625976    1.247348   -0.234617   -0.089151    0.667371   -0.071414
C    -1.372951   -0.358158   -0.021282    0.210272   -1.463199    0.174924
C     2.431244    0.255308   -0.063198    0.003245    0.000963   -0.005626
C     0.054946   -0.513614    0.598828    0.066730    0.057088    0.043820
C     1.140883   -0.328345   -0.432583    0.006700    0.011458    0.009020
O    -0.913208   -2.349790    0.312231   -0.180419    0.401652   -0.120172
O     1.466085    1.006306   -0.781538    0.003565    0.004971   -0.009682
O     0.115032   -1.817800    1.136810    0.024360    0.049101    0.021741
H    -2.200291   -0.707697    0.670197    0.015469    0.641146   -0.051857
H    -2.581004    1.415171   -0.748890   -0.085596   -0.125557   -0.037657
H    -1.656182    1.727109    0.752879    0.001606   -0.023900    0.120534
H    -0.806387    1.677448   -0.823078    0.133818   -0.051551   -0.041496
H    -1.487093   -0.827875   -1.056124   -0.034668    0.762304   -0.008878
H     3.316683   -0.013710   -0.625224   -0.003371   -0.008294   -0.009908
H     2.592604    0.574321    0.960148    0.007788    0.004893   -0.007887
H     0.172481    0.218185    1.403894   -0.005224    0.187825   -0.079693
H     1.095221   -1.036259   -1.262929    0.033705    0.034452    0.036850
17
* Frequency(6) -1115.9125
C    -1.617871    1.186670   -0.228124   -0.089151    0.667371   -0.071414
C    -1.392069   -0.225121   -0.037187    0.210272   -1.463199    0.174924
C     2.430949    0.255220   -0.062687    0.003245    0.000963   -0.005626
C     0.048879   -0.518805    0.594844    0.066730    0.057088    0.043820
C     1.140273   -0.329387   -0.433403    0.006700    0.011458    0.009020
O    -0.896804   -2.386309    0.323157   -0.180419    0.401652   -0.120172
O     1.465761    1.005854   -0.780658    0.003565    0.004971   -0.009682
O     0.112817   -1.822264    1.134834    0.024360    0.049101    0.021741
H    -2.201697   -0.765991    0.674912    0.015469    0.641146   -0.051857
H    -2.573222    1.426587   -0.745466   -0.085596   -0.125557   -0.037657
H    -1.656328    1.729282    0.741920    0.001606   -0.023900    0.120534
H    -0.818554    1.682135   -0.819305    0.133818   -0.051551   -0.041496
H    -1.483941   -0.897185   -1.055317   -0.034668    0.762304   -0.008878
H     3.316990   -0.012956   -0.624324   -0.003371   -0.008294   -0.009908
H     2.591896    0.573876    0.960865    0.007788    0.004893   -0.007887
H     0.172956    0.201107    1.411140   -0.005224    0.187825   -0.079693
H     1.092156   -1.039392   -1.266279    0.033705    0.034452    0.036850
17
* Frequency(6) -1115.9125
C    -1.612252    1.144614   -0.223623   -0.089151    0.667371   -0.071414
C    -1.405320   -0.132914   -0.048210    0.210272   -1.463199    0.174924
C     2.430744    0.255159   -0.062332    0.003245    0.000963   -0.005626
C     0.044674   -0.522402    0.592083    0.066730    0.057088    0.043820
C     1.139851   -0.330109   -0.433971    0.006700    0.011458    0.009020
O    -0.885435   -2.411620    0.330730   -0.180419    0.401652   -0.120172
O     1.465537    1.005540   -0.780047    0.003565    0.004971   -0.009682
O     0.111282   -1.825358    1.133463    0.024360    0.049101    0.021741
H    -2.202672   -0.806395    0.678180    0.015469    0.641146   -0.051857
H    -2.567828    1.434500   -0.743093   -0.085596   -0.125557   -0.037657
H    -1.656430    1.730788    0.734324    0.001606   -0.023900    0.120534
H    -0.826987    1.685384   -0.816690    0.133818   -0.051551   -0.041496
H    -1.481756   -0.945223   -1.054758   -0.034668    0.762304   -0.008878
H     3.317202   -0.012433   -0.623699   -0.003371   -0.008294   -0.009908
H     2.591405    0.573568    0.961362    0.007788    0.004893   -0.007887
H     0.173285    0.189271    1.416162   -0.005224    0.187825   -0.079693
H     1.090032   -1.041563   -1.268601    0.033705    0.034452    0.036850
17
* Frequency(6) -1115.9125
C    -1.609731    1.125738   -0.221603   -0.089151    0.667371   -0.071414
C    -1.411268   -0.091529   -0.053157    0.210272   -1.463199    0.174924
C     2.430652    0.255132   -0.062173    0.003245    0.000963   -0.005626
C     0.042787   -0.524017    0.590843    0.066730    0.057088    0.043820
C     1.139662   -0.330433   -0.434227    0.006700    0.011458    0.009020
O    -0.880332   -2.422980    0.334129   -0.180419    0.401652   -0.120172
O     1.465436    1.005400   -0.779774    0.003565    0.004971   -0.009682
O     0.110593   -1.826747    1.132849    0.024360    0.049101    0.021741
H    -2.203109   -0.824529    0.679647    0.015469    0.641146   -0.051857
H    -2.565407    1.438051   -0.742028   -0.085596   -0.125557   -0.037657
H    -1.656475    1.731464    0.730915    0.001606   -0.023900    0.120534
H    -0.830772    1.686842   -0.815516    0.133818   -0.051551   -0.041496
H    -1.480776   -0.966784   -1.054506   -0.034668    0.762304   -0.008878
H     3.317297   -0.012198   -0.623419   -0.003371   -0.008294   -0.009908
H     2.591185    0.573430    0.961585    0.007788    0.004893   -0.007887
H     0.173433    0.183959    1.418416   -0.005224    0.187825   -0.079693
H     1.089079   -1.042537   -1.269644    0.033705    0.034452    0.036850
17
* Frequency(6) -1115.9125
C    -1.610579    1.132087   -0.222283   -0.089151    0.667371   -0.071414
C    -1.409267   -0.105451   -0.051493    0.210272   -1.463199    0.174924
C     2.430683    0.255141   -0.062227    0.003245    0.000963   -0.005626
C     0.043422   -0.523474    0.591260    0.066730    0.057088    0.043820
C     1.139725   -0.330324   -0.434141    0.006700    0.011458    0.009020
O    -0.882048   -2.419159    0.332986   -0.180419    0.401652   -0.120172
O     1.465470    1.005447   -0.779866    0.003565    0.004971   -0.009682
O     0.110825   -1.826280    1.133055    0.024360    0.049101    0.021741
H    -2.202962   -0.818429    0.679153    0.015469    0.641146   -0.051857
H    -2.566221    1.436856   -0.742386   -0.085596   -0.125557   -0.037657
H    -1.656460    1.731236    0.732062    0.001606   -0.023900    0.120534
H    -0.829499    1.686351   -0.815911    0.133818   -0.051551   -0.041496
H    -1.481105   -0.959531   -1.054591   -0.034668    0.762304   -0.008878
H     3.317265   -0.012277   -0.623513   -0.003371   -0.008294   -0.009908
H     2.591259    0.573476    0.961510    0.007788    0.004893   -0.007887
H     0.173383    0.185746    1.417657   -0.005224    0.187825   -0.079693
H     1.089400   -1.042209   -1.269293    0.033705    0.034452    0.036850
17
* Frequency(6) -1115.9125
C    -1.614705    1.162975   -0.225588   -0.089151    0.667371   -0.071414
C    -1.399535   -0.173170   -0.043397    0.210272   -1.463199    0.174924
C     2.430833    0.255186   -0.062487    0.003245    0.000963   -0.005626
C     0.046510   -0.520832    0.593288    0.066730    0.057088    0.043820
C     1.140036   -0.329794   -0.433723    0.006700    0.011458    0.009020
O    -0.890398   -2.400570    0.327424   -0.180419    0.401652   -0.120172
O     1.465635    1.005677   -0.780314    0.003565    0.004971   -0.009682
O     0.111952   -1.824008    1.134062    0.024360    0.049101    0.021741
H    -2.202246   -0.788755    0.676753    0.015469    0.641146   -0.051857
H    -2.570183    1.431045   -0.744129   -0.085596   -0.125557   -0.037657
H    -1.656385    1.730130    0.737640    0.001606   -0.023900    0.120534
H    -0.823305    1.683966   -0.817832    0.133818   -0.051551   -0.041496
H    -1.482710   -0.924251   -1.055002   -0.034668    0.762304   -0.008878
H     3.317109   -0.012661   -0.623972   -0.003371   -0.008294   -0.009908
H     2.591619    0.573703    0.961145    0.007788    0.004893   -0.007887
H     0.173142    0.194439    1.413969   -0.005224    0.187825   -0.079693
H     1.090959   -1.040615   -1.267587    0.033705    0.034452    0.036850
17
* Frequency(6) -1115.9125
C    -1.621662    1.215052   -0.231161   -0.089151    0.667371   -0.071414
C    -1.383127   -0.287349   -0.029747    0.210272   -1.463199    0.174924
C     2.431087    0.255261   -0.062926    0.003245    0.000963   -0.005626
C     0.051717   -0.516377    0.596708    0.066730    0.057088    0.043820
C     1.140558   -0.328899   -0.433019    0.006700    0.011458    0.009020
O    -0.904477   -2.369227    0.318047   -0.180419    0.401652   -0.120172
O     1.465913    1.006065   -0.781069    0.003565    0.004971   -0.009682
O     0.113853   -1.820176    1.135758    0.024360    0.049101    0.021741
H    -2.201039   -0.738724    0.672706    0.015469    0.641146   -0.051857
H    -2.576862    1.421247   -0.747068   -0.085596   -0.125557   -0.037657
H    -1.656260    1.728265    0.747046    0.001606   -0.023900    0.120534
H    -0.812863    1.679943   -0.821070    0.133818   -0.051551   -0.041496
H    -1.485415   -0.864765   -1.055695   -0.034668    0.762304   -0.008878
H     3.316846   -0.013308   -0.624745   -0.003371   -0.008294   -0.009908
H     2.592227    0.574084    0.960530    0.007788    0.004893   -0.007887
H     0.172734    0.209095    1.407750   -0.005224    0.187825   -0.079693
H     1.093590   -1.037927   -1.264712    0.033705    0.034452    0.036850
17
* Frequency(6) -1115.9125
C    -1.630696    1.282677   -0.238397   -0.089151    0.667371   -0.071414
C    -1.361820   -0.435615   -0.012022    0.210272   -1.463199    0.174924
C     2.431415    0.255359   -0.063496    0.003245    0.000963   -0.005626
C     0.058479   -0.510592    0.601148    0.066730    0.057088    0.043820
C     1.141237   -0.327738   -0.432105    0.006700    0.011458    0.009020
O    -0.922759   -2.328528    0.305870   -0.180419    0.401652   -0.120172
O     1.466274    1.006569   -0.782051    0.003565    0.004971   -0.009682
O     0.116322   -1.815201    1.137961    0.024360    0.049101    0.021741
H    -2.199472   -0.673757    0.667452    0.015469    0.641146   -0.051857
H    -2.585536    1.408525   -0.750883   -0.085596   -0.125557   -0.037657
H    -1.656097    1.725844    0.759259    0.001606   -0.023900    0.120534
H    -0.799303    1.674719   -0.825274    0.133818   -0.051551   -0.041496
H    -1.488928   -0.787521   -1.056594   -0.034668    0.762304   -0.008878
H     3.316505   -0.014149   -0.625749   -0.003371   -0.008294   -0.009908
H     2.593016    0.574580    0.959731    0.007788    0.004893   -0.007887
H     0.172205    0.228127    1.399675   -0.005224    0.187825   -0.079693
H     1.097005   -1.034435   -1.260978    0.033705    0.034452    0.036850
17
* Frequency(6) -1115.9125
C    -1.640827    1.358520   -0.246513   -0.089151    0.667371   -0.071414
C    -1.337924   -0.601900    0.007857    0.210272   -1.463199    0.174924
C     2.431784    0.255468   -0.064135    0.003245    0.000963   -0.005626
C     0.066062   -0.504104    0.606128    0.066730    0.057088    0.043820
C     1.141999   -0.326436   -0.431080    0.006700    0.011458    0.009020
O    -0.943263   -2.282882    0.292213   -0.180419    0.401652   -0.120172
O     1.466679    1.007134   -0.783151    0.003565    0.004971   -0.009682
O     0.119090   -1.809621    1.140432    0.024360    0.049101    0.021741
H    -2.197714   -0.600894    0.661558    0.015469    0.641146   -0.051857
H    -2.595263    1.394256   -0.755163   -0.085596   -0.125557   -0.037657
H    -1.655915    1.723127    0.772957    0.001606   -0.023900    0.120534
H    -0.784096    1.668861   -0.829990    0.133818   -0.051551   -0.041496
H    -1.492868   -0.700889   -1.057603   -0.034668    0.762304   -0.008878
H     3.316122   -0.015091   -0.626875   -0.003371   -0.008294   -0.009908
H     2.593901    0.575136    0.958834    0.007788    0.004893   -0.007887
H     0.171611    0.249473    1.390618   -0.005224    0.187825   -0.079693
H     1.100835   -1.030520   -1.256790    0.033705    0.034452    0.036850
