17
Coordinates from ORCA-job freq E -421.364914330663
  C          -1.70982347339176     -0.60334825441994     -0.81934489534899
  C          -0.47148925052560      0.24139009777255     -0.70736586881855
  C           1.61773333650360     -1.09854855780620     -0.63972521682019
  C           0.15409245989715      0.37141584204619      0.66844070253700
  C           1.36188386808637     -0.55794018338881      0.68751765193789
  O          -0.38485738582073      2.57536217965411      0.94393434378801
  O           1.01476294009883     -1.89153964517840      0.33227543123009
  O           0.69695270578107      1.65782026039456      0.90914426219514
  H           0.56454559854356     -0.44721150044109     -1.24682438428390
  H          -2.01960903606037     -0.71763160001604     -1.85697283031114
  H          -1.54310853670131     -1.59535416538424     -0.39753001202551
  H          -2.53965859994393     -0.14459386121137     -0.27215791447481
  H          -0.50069564911820      1.19008940973473     -1.23583775409845
  H           2.55108453745275     -1.42040064404512     -1.08529386809030
  H          -0.54939378540542      0.11504674509324      1.46951498164179
  H           2.10830395117455     -0.45389814608371      1.46391254605138
  H          -0.41264768057057      2.80442802327955      1.88002882489054
