17
* (null), Energy   -1000.0000000
C    -1.968590   -0.748550   -1.023722    0.016231   -0.005156   -0.009381
C    -0.730255    0.096189   -0.911743   -0.091118    0.055456    0.065555
C     1.358967   -1.243750   -0.844102   -0.080666    0.067437   -0.069123
C    -0.104674    0.226214    0.464064    0.007084   -0.005854   -0.009408
C     1.103118   -0.703142    0.483141    0.008656   -0.019491    0.007706
O    -0.643624    2.430161    0.739558   -0.000424    0.000486    0.000358
O     0.755997   -2.036741    0.127899   -0.007950   -0.001644    0.020431
O     0.438186    1.512619    0.704768   -0.001022   -0.000883   -0.001463
H     0.305779   -0.592413   -1.451201    1.663891   -1.067338   -0.033406
H    -2.278375   -0.862833   -2.061350   -0.004865    0.003664   -0.003241
H    -1.801875   -1.740556   -0.601907    0.001346   -0.001518    0.009002
H    -2.798425   -0.289795   -0.476535    0.004887    0.004500    0.004161
H    -0.759462    1.044888   -1.440215    0.156429   -0.064672   -0.143600
H     2.292318   -1.565602   -1.289671   -0.022311    0.060377    0.060177
H    -0.808160   -0.030155    1.265138   -0.002967   -0.012357   -0.012010
H     1.849538   -0.599100    1.259536    0.017620    0.006649   -0.013443
H    -0.671414    2.659227    1.675652    0.001073    0.002166    0.000188
17
* Frequency(6) -1771.6352
C    -1.966745   -0.749136   -1.024788    0.016231   -0.005156   -0.009381
C    -0.740611    0.102491   -0.904293   -0.091118    0.055456    0.065555
C     1.349800   -1.236086   -0.851957   -0.080666    0.067437   -0.069123
C    -0.103869    0.225549    0.462995    0.007084   -0.005854   -0.009408
C     1.104101   -0.705357    0.484017    0.008656   -0.019491    0.007706
O    -0.643672    2.430216    0.739598   -0.000424    0.000486    0.000358
O     0.755093   -2.036928    0.130221   -0.007950   -0.001644    0.020431
O     0.438070    1.512519    0.704601   -0.001022   -0.000883   -0.001463
H     0.494872   -0.713710   -1.454998    1.663891   -1.067338   -0.033406
H    -2.278928   -0.862417   -2.061718   -0.004865    0.003664   -0.003241
H    -1.801722   -1.740728   -0.600884    0.001346   -0.001518    0.009002
H    -2.797869   -0.289284   -0.476062    0.004887    0.004500    0.004161
H    -0.741684    1.037538   -1.456534    0.156429   -0.064672   -0.143600
H     2.289783   -1.558741   -1.282832   -0.022311    0.060377    0.060177
H    -0.808497   -0.031559    1.263773   -0.002967   -0.012357   -0.012010
H     1.851540   -0.598344    1.258008    0.017620    0.006649   -0.013443
H    -0.671292    2.659473    1.675673    0.001073    0.002166    0.000188
17
* Frequency(6) -1771.6352
C    -1.965101   -0.749658   -1.025738    0.016231   -0.005156   -0.009381
C    -0.749844    0.108110   -0.897650   -0.091118    0.055456    0.065555
C     1.341626   -1.229253   -0.858962   -0.080666    0.067437   -0.069123
C    -0.103151    0.224956    0.462041    0.007084   -0.005854   -0.009408
C     1.104978   -0.707332    0.484798    0.008656   -0.019491    0.007706
O    -0.643715    2.430265    0.739634   -0.000424    0.000486    0.000358
O     0.754288   -2.037094    0.132291   -0.007950   -0.001644    0.020431
O     0.437967    1.512429    0.704453   -0.001022   -0.000883   -0.001463
H     0.663473   -0.821863   -1.458382    1.663891   -1.067338   -0.033406
H    -2.279421   -0.862045   -2.062046   -0.004865    0.003664   -0.003241
H    -1.801585   -1.740882   -0.599972    0.001346   -0.001518    0.009002
H    -2.797374   -0.288828   -0.475640    0.004887    0.004500    0.004161
H    -0.725834    1.030985   -1.471085    0.156429   -0.064672   -0.143600
H     2.287522   -1.552623   -1.276734   -0.022311    0.060377    0.060177
H    -0.808798   -0.032811    1.262556   -0.002967   -0.012357   -0.012010
H     1.853326   -0.597670    1.256646    0.017620    0.006649   -0.013443
H    -0.671183    2.659692    1.675692    0.001073    0.002166    0.000188
17
* Frequency(6) -1771.6352
C    -1.963834   -0.750061   -1.026470    0.016231   -0.005156   -0.009381
C    -0.756954    0.112438   -0.892534   -0.091118    0.055456    0.065555
C     1.335331   -1.223990   -0.864356   -0.080666    0.067437   -0.069123
C    -0.102598    0.224499    0.461307    0.007084   -0.005854   -0.009408
C     1.105654   -0.708853    0.485399    0.008656   -0.019491    0.007706
O    -0.643748    2.430303    0.739662   -0.000424    0.000486    0.000358
O     0.753667   -2.037223    0.133885   -0.007950   -0.001644    0.020431
O     0.437887    1.512360    0.704339   -0.001022   -0.000883   -0.001463
H     0.793313   -0.905152   -1.460989    1.663891   -1.067338   -0.033406
H    -2.279801   -0.861759   -2.062299   -0.004865    0.003664   -0.003241
H    -1.801480   -1.741000   -0.599269    0.001346   -0.001518    0.009002
H    -2.796993   -0.288477   -0.475315    0.004887    0.004500    0.004161
H    -0.713627    1.025939   -1.482291    0.156429   -0.064672   -0.143600
H     2.285781   -1.547911   -1.272038   -0.022311    0.060377    0.060177
H    -0.809029   -0.033775    1.261619   -0.002967   -0.012357   -0.012010
H     1.854701   -0.597151    1.255597    0.017620    0.006649   -0.013443
H    -0.671099    2.659861    1.675707    0.001073    0.002166    0.000188
17
* Frequency(6) -1771.6352
C    -1.963083   -0.750299   -1.026904    0.016231   -0.005156   -0.009381
C    -0.761171    0.115004   -0.889500   -0.091118    0.055456    0.065555
C     1.331598   -1.220869   -0.867555   -0.080666    0.067437   -0.069123
C    -0.102270    0.224228    0.460872    0.007084   -0.005854   -0.009408
C     1.106054   -0.709755    0.485756    0.008656   -0.019491    0.007706
O    -0.643767    2.430326    0.739679   -0.000424    0.000486    0.000358
O     0.753299   -2.037299    0.134831   -0.007950   -0.001644    0.020431
O     0.437840    1.512319    0.704271   -0.001022   -0.000883   -0.001463
H     0.870321   -0.954550   -1.462535    1.663891   -1.067338   -0.033406
H    -2.280026   -0.861590   -2.062449   -0.004865    0.003664   -0.003241
H    -1.801418   -1.741071   -0.598852    0.001346   -0.001518    0.009002
H    -2.796767   -0.288268   -0.475123    0.004887    0.004500    0.004161
H    -0.706387    1.022945   -1.488937    0.156429   -0.064672   -0.143600
H     2.284748   -1.545117   -1.269253   -0.022311    0.060377    0.060177
H    -0.809167   -0.034347    1.261063   -0.002967   -0.012357   -0.012010
H     1.855516   -0.596844    1.254975    0.017620    0.006649   -0.013443
H    -0.671050    2.659962    1.675716    0.001073    0.002166    0.000188
17
* Frequency(6) -1771.6352
C    -1.962928   -0.750348   -1.026994    0.016231   -0.005156   -0.009381
C    -0.762038    0.115532   -0.888877   -0.091118    0.055456    0.065555
C     1.330830   -1.220228   -0.868212   -0.080666    0.067437   -0.069123
C    -0.102203    0.224173    0.460782    0.007084   -0.005854   -0.009408
C     1.106137   -0.709940    0.485829    0.008656   -0.019491    0.007706
O    -0.643771    2.430330    0.739682   -0.000424    0.000486    0.000358
O     0.753224   -2.037314    0.135025   -0.007950   -0.001644    0.020431
O     0.437830    1.512311    0.704257   -0.001022   -0.000883   -0.001463
H     0.886152   -0.964705   -1.462853    1.663891   -1.067338   -0.033406
H    -2.280072   -0.861555   -2.062480   -0.004865    0.003664   -0.003241
H    -1.801405   -1.741085   -0.598767    0.001346   -0.001518    0.009002
H    -2.796720   -0.288225   -0.475083    0.004887    0.004500    0.004161
H    -0.704899    1.022330   -1.490303    0.156429   -0.064672   -0.143600
H     2.284536   -1.544542   -1.268681   -0.022311    0.060377    0.060177
H    -0.809195   -0.034465    1.260949   -0.002967   -0.012357   -0.012010
H     1.855684   -0.596780    1.254847    0.017620    0.006649   -0.013443
H    -0.671040    2.659982    1.675718    0.001073    0.002166    0.000188
17
* Frequency(6) -1771.6352
C    -1.963387   -0.750202   -1.026728    0.016231   -0.005156   -0.009381
C    -0.759461    0.113963   -0.890731   -0.091118    0.055456    0.065555
C     1.333112   -1.222135   -0.866257   -0.080666    0.067437   -0.069123
C    -0.102403    0.224338    0.461048    0.007084   -0.005854   -0.009408
C     1.105892   -0.709389    0.485611    0.008656   -0.019491    0.007706
O    -0.643759    2.430317    0.739672   -0.000424    0.000486    0.000358
O     0.753449   -2.037268    0.134447   -0.007950   -0.001644    0.020431
O     0.437859    1.512336    0.704299   -0.001022   -0.000883   -0.001463
H     0.839091   -0.934517   -1.461908    1.663891   -1.067338   -0.033406
H    -2.279935   -0.861659   -2.062388   -0.004865    0.003664   -0.003241
H    -1.801443   -1.741042   -0.599021    0.001346   -0.001518    0.009002
H    -2.796858   -0.288353   -0.475201    0.004887    0.004500    0.004161
H    -0.709323    1.024159   -1.486241    0.156429   -0.064672   -0.143600
H     2.285167   -1.546250   -1.270383   -0.022311    0.060377    0.060177
H    -0.809111   -0.034115    1.261289   -0.002967   -0.012357   -0.012010
H     1.855185   -0.596968    1.255227    0.017620    0.006649   -0.013443
H    -0.671070    2.659921    1.675712    0.001073    0.002166    0.000188
17
* Frequency(6) -1771.6352
C    -1.964410   -0.749877   -1.026137    0.016231   -0.005156   -0.009381
C    -0.753719    0.110469   -0.894862   -0.091118    0.055456    0.065555
C     1.338195   -1.226385   -0.861901   -0.080666    0.067437   -0.069123
C    -0.102850    0.224707    0.461641    0.007084   -0.005854   -0.009408
C     1.105347   -0.708161    0.485125    0.008656   -0.019491    0.007706
O    -0.643733    2.430286    0.739650   -0.000424    0.000486    0.000358
O     0.753950   -2.037164    0.133160   -0.007950   -0.001644    0.020431
O     0.437923    1.512392    0.704391   -0.001022   -0.000883   -0.001463
H     0.734237   -0.867256   -1.459803    1.663891   -1.067338   -0.033406
H    -2.279628   -0.861889   -2.062184   -0.004865    0.003664   -0.003241
H    -1.801528   -1.740946   -0.599589    0.001346   -0.001518    0.009002
H    -2.797166   -0.288636   -0.475463    0.004887    0.004500    0.004161
H    -0.719181    1.028235   -1.477192    0.156429   -0.064672   -0.143600
H     2.286573   -1.550055   -1.274175   -0.022311    0.060377    0.060177
H    -0.808924   -0.033337    1.262045   -0.002967   -0.012357   -0.012010
H     1.854075   -0.597387    1.256074    0.017620    0.006649   -0.013443
H    -0.671138    2.659784    1.675700    0.001073    0.002166    0.000188
17
* Frequency(6) -1771.6352
C    -1.965886   -0.749409   -1.025284    0.016231   -0.005156   -0.009381
C    -0.745434    0.105427   -0.900822   -0.091118    0.055456    0.065555
C     1.345530   -1.232516   -0.855617   -0.080666    0.067437   -0.069123
C    -0.103494    0.225239    0.462497    0.007084   -0.005854   -0.009408
C     1.104560   -0.706388    0.484425    0.008656   -0.019491    0.007706
O    -0.643694    2.430242    0.739617   -0.000424    0.000486    0.000358
O     0.754672   -2.037015    0.131302   -0.007950   -0.001644    0.020431
O     0.438016    1.512472    0.704524   -0.001022   -0.000883   -0.001463
H     0.582953   -0.770212   -1.456766    1.663891   -1.067338   -0.033406
H    -2.279186   -0.862223   -2.061889   -0.004865    0.003664   -0.003241
H    -1.801651   -1.740808   -0.600407    0.001346   -0.001518    0.009002
H    -2.797611   -0.289046   -0.475842    0.004887    0.004500    0.004161
H    -0.733404    1.034115   -1.464136    0.156429   -0.064672   -0.143600
H     2.288602   -1.555544   -1.279646   -0.022311    0.060377    0.060177
H    -0.808654   -0.032213    1.263138   -0.002967   -0.012357   -0.012010
H     1.852473   -0.597992    1.257296    0.017620    0.006649   -0.013443
H    -0.671235    2.659588    1.675683    0.001073    0.002166    0.000188
17
* Frequency(6) -1771.6352
C    -1.967655   -0.748847   -1.024262    0.016231   -0.005156   -0.009381
C    -0.735505    0.099383   -0.907966   -0.091118    0.055456    0.065555
C     1.354320   -1.239865   -0.848084   -0.080666    0.067437   -0.069123
C    -0.104266    0.225877    0.463522    0.007084   -0.005854   -0.009408
C     1.103616   -0.704264    0.483585    0.008656   -0.019491    0.007706
O    -0.643648    2.430189    0.739578   -0.000424    0.000486    0.000358
O     0.755539   -2.036836    0.129076   -0.007950   -0.001644    0.020431
O     0.438128    1.512568    0.704683   -0.001022   -0.000883   -0.001463
H     0.401633   -0.653900   -1.453126    1.663891   -1.067338   -0.033406
H    -2.278656   -0.862622   -2.061536   -0.004865    0.003664   -0.003241
H    -1.801797   -1.740643   -0.601388    0.001346   -0.001518    0.009002
H    -2.798143   -0.289536   -0.476295    0.004887    0.004500    0.004161
H    -0.750450    1.041162   -1.448487    0.156429   -0.064672   -0.143600
H     2.291033   -1.562124   -1.286204   -0.022311    0.060377    0.060177
H    -0.808331   -0.030867    1.264446   -0.002967   -0.012357   -0.012010
H     1.850553   -0.598717    1.258761    0.017620    0.006649   -0.013443
H    -0.671352    2.659351    1.675663    0.001073    0.002166    0.000188
17
* Frequency(6) -1771.6352
C    -1.969525   -0.748253   -1.023181    0.016231   -0.005156   -0.009381
C    -0.725006    0.092994   -0.915519   -0.091118    0.055456    0.065555
C     1.363614   -1.247635   -0.840120   -0.080666    0.067437   -0.069123
C    -0.105082    0.226552    0.464606    0.007084   -0.005854   -0.009408
C     1.102619   -0.702019    0.482697    0.008656   -0.019491    0.007706
O    -0.643599    2.430133    0.739537   -0.000424    0.000486    0.000358
O     0.756455   -2.036646    0.126722   -0.007950   -0.001644    0.020431
O     0.438245    1.512670    0.704852   -0.001022   -0.000883   -0.001463
H     0.209926   -0.530926   -1.449277    1.663891   -1.067338   -0.033406
H    -2.278095   -0.863044   -2.061163   -0.004865    0.003664   -0.003241
H    -1.801952   -1.740468   -0.602425    0.001346   -0.001518    0.009002
H    -2.798706   -0.290055   -0.476774    0.004887    0.004500    0.004161
H    -0.768473    1.048614   -1.431942    0.156429   -0.064672   -0.143600
H     2.293604   -1.569080   -1.293137   -0.022311    0.060377    0.060177
H    -0.807989   -0.029443    1.265830   -0.002967   -0.012357   -0.012010
H     1.848523   -0.599483    1.260310    0.017620    0.006649   -0.013443
H    -0.671476    2.659102    1.675641    0.001073    0.002166    0.000188
17
* Frequency(6) -1771.6352
C    -1.971293   -0.747691   -1.022159    0.016231   -0.005156   -0.009381
C    -0.715077    0.086951   -0.922663   -0.091118    0.055456    0.065555
C     1.372405   -1.254984   -0.832587   -0.080666    0.067437   -0.069123
C    -0.105854    0.227190    0.465631    0.007084   -0.005854   -0.009408
C     1.101676   -0.699895    0.481857    0.008656   -0.019491    0.007706
O    -0.643553    2.430080    0.739498   -0.000424    0.000486    0.000358
O     0.757321   -2.036467    0.124495   -0.007950   -0.001644    0.020431
O     0.438357    1.512766    0.705011   -0.001022   -0.000883   -0.001463
H     0.028606   -0.414614   -1.445636    1.663891   -1.067338   -0.033406
H    -2.277565   -0.863443   -2.060810   -0.004865    0.003664   -0.003241
H    -1.802099   -1.740303   -0.603406    0.001346   -0.001518    0.009002
H    -2.799239   -0.290545   -0.477228    0.004887    0.004500    0.004161
H    -0.785520    1.055661   -1.416293    0.156429   -0.064672   -0.143600
H     2.296035   -1.575660   -1.299695   -0.022311    0.060377    0.060177
H    -0.807666   -0.028096    1.267139   -0.002967   -0.012357   -0.012010
H     1.846602   -0.600207    1.261775    0.017620    0.006649   -0.013443
H    -0.671593    2.658866    1.675621    0.001073    0.002166    0.000188
17
* Frequency(6) -1771.6352
C    -1.972769   -0.747222   -1.021306    0.016231   -0.005156   -0.009381
C    -0.706792    0.081909   -0.928623   -0.091118    0.055456    0.065555
C     1.379739   -1.261115   -0.826303   -0.080666    0.067437   -0.069123
C    -0.106498    0.227722    0.466487    0.007084   -0.005854   -0.009408
C     1.100889   -0.698123    0.481157    0.008656   -0.019491    0.007706
O    -0.643514    2.430036    0.739466   -0.000424    0.000486    0.000358
O     0.758044   -2.036318    0.122638   -0.007950   -0.001644    0.020431
O     0.438450    1.512846    0.705144   -0.001022   -0.000883   -0.001463
H    -0.122678   -0.317570   -1.442599    1.663891   -1.067338   -0.033406
H    -2.277122   -0.863777   -2.060515   -0.004865    0.003664   -0.003241
H    -1.802221   -1.740165   -0.604225    0.001346   -0.001518    0.009002
H    -2.799683   -0.290954   -0.477606    0.004887    0.004500    0.004161
H    -0.799743    1.061541   -1.403237    0.156429   -0.064672   -0.143600
H     2.298063   -1.581149   -1.305166   -0.022311    0.060377    0.060177
H    -0.807396   -0.026973    1.268231   -0.002967   -0.012357   -0.012010
H     1.845000   -0.600812    1.262997    0.017620    0.006649   -0.013443
H    -0.671690    2.658669    1.675604    0.001073    0.002166    0.000188
17
* Frequency(6) -1771.6352
C    -1.973792   -0.746897   -1.020715    0.016231   -0.005156   -0.009381
C    -0.701050    0.078414   -0.932754   -0.091118    0.055456    0.065555
C     1.384822   -1.265365   -0.821947   -0.080666    0.067437   -0.069123
C    -0.106944    0.228091    0.467079    0.007084   -0.005854   -0.009408
C     1.100343   -0.696894    0.480671    0.008656   -0.019491    0.007706
O    -0.643488    2.430005    0.739443   -0.000424    0.000486    0.000358
O     0.758545   -2.036214    0.121350   -0.007950   -0.001644    0.020431
O     0.438514    1.512902    0.705236   -0.001022   -0.000883   -0.001463
H    -0.227532   -0.250309   -1.440494    1.663891   -1.067338   -0.033406
H    -2.276816   -0.864008   -2.060311   -0.004865    0.003664   -0.003241
H    -1.802306   -1.740069   -0.604792    0.001346   -0.001518    0.009002
H    -2.799991   -0.291238   -0.477868    0.004887    0.004500    0.004161
H    -0.809601    1.065617   -1.394188    0.156429   -0.064672   -0.143600
H     2.299469   -1.584954   -1.308959   -0.022311    0.060377    0.060177
H    -0.807209   -0.026194    1.268988   -0.002967   -0.012357   -0.012010
H     1.843890   -0.601231    1.263844    0.017620    0.006649   -0.013443
H    -0.671758    2.658532    1.675592    0.001073    0.002166    0.000188
17
* Frequency(6) -1771.6352
C    -1.974251   -0.746751   -1.020450    0.016231   -0.005156   -0.009381
C    -0.698473    0.076846   -0.934608   -0.091118    0.055456    0.065555
C     1.387104   -1.267272   -0.819992   -0.080666    0.067437   -0.069123
C    -0.107145    0.228256    0.467346    0.007084   -0.005854   -0.009408
C     1.100098   -0.696343    0.480453    0.008656   -0.019491    0.007706
O    -0.643476    2.429991    0.739433   -0.000424    0.000486    0.000358
O     0.758770   -2.036168    0.120772   -0.007950   -0.001644    0.020431
O     0.438543    1.512927    0.705278   -0.001022   -0.000883   -0.001463
H    -0.274593   -0.220121   -1.439549    1.663891   -1.067338   -0.033406
H    -2.276678   -0.864111   -2.060219   -0.004865    0.003664   -0.003241
H    -1.802344   -1.740026   -0.605047    0.001346   -0.001518    0.009002
H    -2.800129   -0.291365   -0.477986    0.004887    0.004500    0.004161
H    -0.814025    1.067446   -1.390126    0.156429   -0.064672   -0.143600
H     2.300100   -1.586662   -1.310661   -0.022311    0.060377    0.060177
H    -0.807125   -0.025845    1.269328   -0.002967   -0.012357   -0.012010
H     1.843392   -0.601419    1.264225    0.017620    0.006649   -0.013443
H    -0.671788    2.658471    1.675587    0.001073    0.002166    0.000188
17
* Frequency(6) -1771.6352
C    -1.974097   -0.746800   -1.020539    0.016231   -0.005156   -0.009381
C    -0.699340    0.077373   -0.933985   -0.091118    0.055456    0.065555
C     1.386336   -1.266631   -0.820649   -0.080666    0.067437   -0.069123
C    -0.107077    0.228200    0.467256    0.007084   -0.005854   -0.009408
C     1.100181   -0.696529    0.480526    0.008656   -0.019491    0.007706
O    -0.643480    2.429996    0.739436   -0.000424    0.000486    0.000358
O     0.758694   -2.036183    0.120967   -0.007950   -0.001644    0.020431
O     0.438533    1.512918    0.705264   -0.001022   -0.000883   -0.001463
H    -0.258762   -0.230276   -1.439867    1.663891   -1.067338   -0.033406
H    -2.276725   -0.864076   -2.060250   -0.004865    0.003664   -0.003241
H    -1.802331   -1.740041   -0.604961    0.001346   -0.001518    0.009002
H    -2.800083   -0.291322   -0.477946    0.004887    0.004500    0.004161
H    -0.812537    1.066831   -1.391492    0.156429   -0.064672   -0.143600
H     2.299888   -1.586087   -1.310088   -0.022311    0.060377    0.060177
H    -0.807153   -0.025962    1.269213   -0.002967   -0.012357   -0.012010
H     1.843559   -0.601355    1.264097    0.017620    0.006649   -0.013443
H    -0.671778    2.658492    1.675588    0.001073    0.002166    0.000188
17
* Frequency(6) -1771.6352
C    -1.973345   -0.747039   -1.020973    0.016231   -0.005156   -0.009381
C    -0.703557    0.079940   -0.930951   -0.091118    0.055456    0.065555
C     1.382603   -1.263510   -0.823848   -0.080666    0.067437   -0.069123
C    -0.106749    0.227930    0.466821    0.007084   -0.005854   -0.009408
C     1.100581   -0.697431    0.480883    0.008656   -0.019491    0.007706
O    -0.643499    2.430018    0.739453   -0.000424    0.000486    0.000358
O     0.758326   -2.036259    0.121912   -0.007950   -0.001644    0.020431
O     0.438486    1.512877    0.705196   -0.001022   -0.000883   -0.001463
H    -0.181754   -0.279674   -1.441413    1.663891   -1.067338   -0.033406
H    -2.276950   -0.863907   -2.060400   -0.004865    0.003664   -0.003241
H    -1.802269   -1.740111   -0.604545    0.001346   -0.001518    0.009002
H    -2.799857   -0.291114   -0.477754    0.004887    0.004500    0.004161
H    -0.805297    1.063837   -1.398138    0.156429   -0.064672   -0.143600
H     2.298856   -1.583293   -1.307303   -0.022311    0.060377    0.060177
H    -0.807291   -0.026534    1.268657   -0.002967   -0.012357   -0.012010
H     1.844375   -0.601048    1.263475    0.017620    0.006649   -0.013443
H    -0.671728    2.658592    1.675597    0.001073    0.002166    0.000188
17
* Frequency(6) -1771.6352
C    -1.972079   -0.747441   -1.021705    0.016231   -0.005156   -0.009381
C    -0.710667    0.084267   -0.925835   -0.091118    0.055456    0.065555
C     1.376308   -1.258247   -0.829242   -0.080666    0.067437   -0.069123
C    -0.106197    0.227473    0.466086    0.007084   -0.005854   -0.009408
C     1.101257   -0.698952    0.481484    0.008656   -0.019491    0.007706
O    -0.643533    2.430056    0.739481   -0.000424    0.000486    0.000358
O     0.757706   -2.036388    0.123507   -0.007950   -0.001644    0.020431
O     0.438406    1.512809    0.705082   -0.001022   -0.000883   -0.001463
H    -0.051915   -0.362963   -1.444020    1.663891   -1.067338   -0.033406
H    -2.277329   -0.863621   -2.060653   -0.004865    0.003664   -0.003241
H    -1.802164   -1.740229   -0.603842    0.001346   -0.001518    0.009002
H    -2.799475   -0.290763   -0.477429    0.004887    0.004500    0.004161
H    -0.793090    1.058791   -1.409344    0.156429   -0.064672   -0.143600
H     2.297115   -1.578581   -1.302607   -0.022311    0.060377    0.060177
H    -0.807522   -0.027498    1.267720   -0.002967   -0.012357   -0.012010
H     1.845750   -0.600529    1.262426    0.017620    0.006649   -0.013443
H    -0.671645    2.658761    1.675612    0.001073    0.002166    0.000188
17
* Frequency(6) -1771.6352
C    -1.970434   -0.747964   -1.022656    0.016231   -0.005156   -0.009381
C    -0.719900    0.089886   -0.919193   -0.091118    0.055456    0.065555
C     1.368134   -1.251414   -0.836247   -0.080666    0.067437   -0.069123
C    -0.105479    0.226880    0.465133    0.007084   -0.005854   -0.009408
C     1.102134   -0.700927    0.482265    0.008656   -0.019491    0.007706
O    -0.643575    2.430106    0.739517   -0.000424    0.000486    0.000358
O     0.756900   -2.036554    0.125577   -0.007950   -0.001644    0.020431
O     0.438303    1.512719    0.704934   -0.001022   -0.000883   -0.001463
H     0.116687   -0.471116   -1.447405    1.663891   -1.067338   -0.033406
H    -2.277822   -0.863249   -2.060981   -0.004865    0.003664   -0.003241
H    -1.802028   -1.740383   -0.602930    0.001346   -0.001518    0.009002
H    -2.798980   -0.290307   -0.477008    0.004887    0.004500    0.004161
H    -0.777239    1.052238   -1.423895    0.156429   -0.064672   -0.143600
H     2.294854   -1.572464   -1.296509   -0.022311    0.060377    0.060177
H    -0.807823   -0.028750    1.266503   -0.002967   -0.012357   -0.012010
H     1.847535   -0.599855    1.261063    0.017620    0.006649   -0.013443
H    -0.671536    2.658980    1.675631    0.001073    0.002166    0.000188
17
* Frequency(6) -1771.6352
C    -1.968590   -0.748550   -1.023722    0.016231   -0.005156   -0.009381
C    -0.730255    0.096189   -0.911743   -0.091118    0.055456    0.065555
C     1.358967   -1.243750   -0.844102   -0.080666    0.067437   -0.069123
C    -0.104674    0.226214    0.464064    0.007084   -0.005854   -0.009408
C     1.103118   -0.703142    0.483141    0.008656   -0.019491    0.007706
O    -0.643624    2.430161    0.739558   -0.000424    0.000486    0.000358
O     0.755997   -2.036741    0.127899   -0.007950   -0.001644    0.020431
O     0.438186    1.512619    0.704768   -0.001022   -0.000883   -0.001463
H     0.305779   -0.592413   -1.451201    1.663891   -1.067338   -0.033406
H    -2.278375   -0.862833   -2.061350   -0.004865    0.003664   -0.003241
H    -1.801875   -1.740556   -0.601907    0.001346   -0.001518    0.009002
H    -2.798425   -0.289795   -0.476535    0.004887    0.004500    0.004161
H    -0.759462    1.044888   -1.440215    0.156429   -0.064672   -0.143600
H     2.292318   -1.565602   -1.289671   -0.022311    0.060377    0.060177
H    -0.808160   -0.030155    1.265138   -0.002967   -0.012357   -0.012010
H     1.849538   -0.599100    1.259536    0.017620    0.006649   -0.013443
H    -0.671414    2.659227    1.675652    0.001073    0.002166    0.000188
