15
* (null), Energy   -1000.0000000
C     2.215513   -0.867509    0.058381    0.036740    0.154223   -0.036568
C    -2.069593   -0.127133   -0.125918   -0.000202    0.000358    0.000905
C     1.060026    0.014389   -0.247758   -0.147865   -0.062140    0.011481
C    -1.213634    0.518062    0.922250   -0.008301    0.004994    0.002255
C     0.261400    0.581792    0.846825    0.011825   -0.001023   -0.012104
O    -0.546470    1.717921    0.566591   -0.003670    0.001442    0.000699
H     2.278703    0.398391   -0.252542    1.506982   -1.208405    0.428049
H     2.474036   -1.059174    1.088085   -0.086342   -0.031385   -0.025241
H     2.620800   -1.495949   -0.716890   -0.095965   -0.026872    0.019221
H    -3.008905    0.416441   -0.228935   -0.001620   -0.001060    0.001353
H    -1.571568   -0.132766   -1.092851    0.004306   -0.003020    0.003465
H    -2.300693   -1.154909    0.155277    0.001264   -0.000186    0.000295
H     0.660039    0.000449   -1.250411    0.023278    0.104846   -0.040941
H    -1.649087    0.546975    1.918358   -0.005417    0.003293    0.004946
H     0.789431    0.643022    1.796330   -0.003701   -0.008919    0.003250
15
* Frequency(6) -1798.3984
C     2.219689   -0.849983    0.054226    0.036740    0.154223   -0.036568
C    -2.069616   -0.127092   -0.125815   -0.000202    0.000358    0.000905
C     1.043222    0.007327   -0.246454   -0.147865   -0.062140    0.011481
C    -1.214577    0.518629    0.922507   -0.008301    0.004994    0.002255
C     0.262744    0.581676    0.845449    0.011825   -0.001023   -0.012104
O    -0.546887    1.718085    0.566670   -0.003670    0.001442    0.000699
H     2.449964    0.261062   -0.203896    1.506982   -1.208405    0.428049
H     2.464224   -1.062741    1.085217   -0.086342   -0.031385   -0.025241
H     2.609894   -1.499003   -0.714706   -0.095965   -0.026872    0.019221
H    -3.009089    0.416320   -0.228781   -0.001620   -0.001060    0.001353
H    -1.571079   -0.133109   -1.092457    0.004306   -0.003020    0.003465
H    -2.300550   -1.154930    0.155310    0.001264   -0.000186    0.000295
H     0.662684    0.012364   -1.255064    0.023278    0.104846   -0.040941
H    -1.649702    0.547349    1.918920   -0.005417    0.003293    0.004946
H     0.789010    0.642008    1.796699   -0.003701   -0.008919    0.003250
15
* Frequency(6) -1798.3984
C     2.223412   -0.834356    0.050520    0.036740    0.154223   -0.036568
C    -2.069636   -0.127056   -0.125723   -0.000202    0.000358    0.000905
C     1.028238    0.001031   -0.245290   -0.147865   -0.062140    0.011481
C    -1.215418    0.519135    0.922735   -0.008301    0.004994    0.002255
C     0.263942    0.581572    0.844223    0.011825   -0.001023   -0.012104
O    -0.547259    1.718231    0.566741   -0.003670    0.001442    0.000699
H     2.602666    0.138614   -0.160522    1.506982   -1.208405    0.428049
H     2.455475   -1.065921    1.082659   -0.086342   -0.031385   -0.025241
H     2.600170   -1.501726   -0.712758   -0.095965   -0.026872    0.019221
H    -3.009253    0.416213   -0.228644   -0.001620   -0.001060    0.001353
H    -1.570643   -0.133415   -1.092106    0.004306   -0.003020    0.003465
H    -2.300422   -1.154949    0.155340    0.001264   -0.000186    0.000295
H     0.665043    0.022988   -1.259213    0.023278    0.104846   -0.040941
H    -1.650251    0.547683    1.919421   -0.005417    0.003293    0.004946
H     0.788635    0.641104    1.797028   -0.003701   -0.008919    0.003250
15
* Frequency(6) -1798.3984
C     2.226278   -0.822321    0.047667    0.036740    0.154223   -0.036568
C    -2.069652   -0.127028   -0.125653   -0.000202    0.000358    0.000905
C     1.016700   -0.003818   -0.244394   -0.147865   -0.062140    0.011481
C    -1.216066    0.519525    0.922911   -0.008301    0.004994    0.002255
C     0.264865    0.581492    0.843278    0.011825   -0.001023   -0.012104
O    -0.547545    1.718343    0.566796   -0.003670    0.001442    0.000699
H     2.720261    0.044318   -0.127120    1.506982   -1.208405    0.428049
H     2.448737   -1.068370    1.080690   -0.086342   -0.031385   -0.025241
H     2.592681   -1.503823   -0.711258   -0.095965   -0.026872    0.019221
H    -3.009380    0.416130   -0.228538   -0.001620   -0.001060    0.001353
H    -1.570307   -0.133651   -1.091835    0.004306   -0.003020    0.003465
H    -2.300323   -1.154963    0.155363    0.001264   -0.000186    0.000295
H     0.666859    0.031170   -1.262407    0.023278    0.104846   -0.040941
H    -1.650674    0.547940    1.919807   -0.005417    0.003293    0.004946
H     0.788346    0.640408    1.797282   -0.003701   -0.008919    0.003250
15
* Frequency(6) -1798.3984
C     2.227979   -0.815183    0.045974    0.036740    0.154223   -0.036568
C    -2.069661   -0.127012   -0.125611   -0.000202    0.000358    0.000905
C     1.009857   -0.006694   -0.243863   -0.147865   -0.062140    0.011481
C    -1.216450    0.519756    0.923015   -0.008301    0.004994    0.002255
C     0.265412    0.581445    0.842718    0.011825   -0.001023   -0.012104
O    -0.547715    1.718410    0.566828   -0.003670    0.001442    0.000699
H     2.790007   -0.011609   -0.107309    1.506982   -1.208405    0.428049
H     2.444741   -1.069823    1.079521   -0.086342   -0.031385   -0.025241
H     2.588240   -1.505066   -0.710369   -0.095965   -0.026872    0.019221
H    -3.009455    0.416081   -0.228476   -0.001620   -0.001060    0.001353
H    -1.570107   -0.133791   -1.091675    0.004306   -0.003020    0.003465
H    -2.300264   -1.154972    0.155377    0.001264   -0.000186    0.000295
H     0.667937    0.036022   -1.264302    0.023278    0.104846   -0.040941
H    -1.650925    0.548092    1.920036   -0.005417    0.003293    0.004946
H     0.788175    0.639996    1.797432   -0.003701   -0.008919    0.003250
15
* Frequency(6) -1798.3984
C     2.228328   -0.813716    0.045627    0.036740    0.154223   -0.036568
C    -2.069663   -0.127008   -0.125602   -0.000202    0.000358    0.000905
C     1.008450   -0.007285   -0.243754   -0.147865   -0.062140    0.011481
C    -1.216529    0.519804    0.923037   -0.008301    0.004994    0.002255
C     0.265525    0.581435    0.842603    0.011825   -0.001023   -0.012104
O    -0.547750    1.718424    0.566835   -0.003670    0.001442    0.000699
H     2.804346   -0.023107   -0.103236    1.506982   -1.208405    0.428049
H     2.443919   -1.070121    1.079281   -0.086342   -0.031385   -0.025241
H     2.587327   -1.505322   -0.710186   -0.095965   -0.026872    0.019221
H    -3.009470    0.416071   -0.228463   -0.001620   -0.001060    0.001353
H    -1.570066   -0.133819   -1.091642    0.004306   -0.003020    0.003465
H    -2.300252   -1.154973    0.155380    0.001264   -0.000186    0.000295
H     0.668158    0.037020   -1.264692    0.023278    0.104846   -0.040941
H    -1.650976    0.548123    1.920083   -0.005417    0.003293    0.004946
H     0.788140    0.639911    1.797463   -0.003701   -0.008919    0.003250
15
* Frequency(6) -1798.3984
C     2.227289   -0.818078    0.046661    0.036740    0.154223   -0.036568
C    -2.069657   -0.127018   -0.125628   -0.000202    0.000358    0.000905
C     1.012632   -0.005528   -0.244079   -0.147865   -0.062140    0.011481
C    -1.216294    0.519662    0.922973   -0.008301    0.004994    0.002255
C     0.265190    0.581464    0.842945    0.011825   -0.001023   -0.012104
O    -0.547646    1.718383    0.566815   -0.003670    0.001442    0.000699
H     2.761722    0.011072   -0.115343    1.506982   -1.208405    0.428049
H     2.446361   -1.069234    1.079995   -0.086342   -0.031385   -0.025241
H     2.590041   -1.504562   -0.710730   -0.095965   -0.026872    0.019221
H    -3.009424    0.416101   -0.228501   -0.001620   -0.001060    0.001353
H    -1.570188   -0.133734   -1.091740    0.004306   -0.003020    0.003465
H    -2.300288   -1.154968    0.155371    0.001264   -0.000186    0.000295
H     0.667500    0.034054   -1.263534    0.023278    0.104846   -0.040941
H    -1.650823    0.548030    1.919943   -0.005417    0.003293    0.004946
H     0.788244    0.640163    1.797371   -0.003701   -0.008919    0.003250
15
* Frequency(6) -1798.3984
C     2.224974   -0.827797    0.048965    0.036740    0.154223   -0.036568
C    -2.069645   -0.127041   -0.125685   -0.000202    0.000358    0.000905
C     1.021950   -0.001612   -0.244802   -0.147865   -0.062140    0.011481
C    -1.215771    0.519348    0.922831   -0.008301    0.004994    0.002255
C     0.264445    0.581529    0.843708    0.011825   -0.001023   -0.012104
O    -0.547415    1.718292    0.566771   -0.003670    0.001442    0.000699
H     2.666756    0.087222   -0.142318    1.506982   -1.208405    0.428049
H     2.451803   -1.067256    1.081586   -0.086342   -0.031385   -0.025241
H     2.596089   -1.502868   -0.711941   -0.095965   -0.026872    0.019221
H    -3.009322    0.416168   -0.228586   -0.001620   -0.001060    0.001353
H    -1.570460   -0.133544   -1.091958    0.004306   -0.003020    0.003465
H    -2.300368   -1.154956    0.155353    0.001264   -0.000186    0.000295
H     0.666033    0.027447   -1.260954    0.023278    0.104846   -0.040941
H    -1.650482    0.547823    1.919631   -0.005417    0.003293    0.004946
H     0.788478    0.640725    1.797167   -0.003701   -0.008919    0.003250
15
* Frequency(6) -1798.3984
C     2.221634   -0.841819    0.052290    0.036740    0.154223   -0.036568
C    -2.069626   -0.127073   -0.125767   -0.000202    0.000358    0.000905
C     1.035394    0.004038   -0.245846   -0.147865   -0.062140    0.011481
C    -1.215016    0.518894    0.922626   -0.008301    0.004994    0.002255
C     0.263370    0.581621    0.844809    0.011825   -0.001023   -0.012104
O    -0.547081    1.718161    0.566707   -0.003670    0.001442    0.000699
H     2.529739    0.197093   -0.181237    1.506982   -1.208405    0.428049
H     2.459653   -1.064402    1.083881   -0.086342   -0.031385   -0.025241
H     2.604814   -1.500425   -0.713689   -0.095965   -0.026872    0.019221
H    -3.009175    0.416264   -0.228709   -0.001620   -0.001060    0.001353
H    -1.570851   -0.133269   -1.092273    0.004306   -0.003020    0.003465
H    -2.300483   -1.154940    0.155326    0.001264   -0.000186    0.000295
H     0.663916    0.017914   -1.257231    0.023278    0.104846   -0.040941
H    -1.649989    0.547523    1.919182   -0.005417    0.003293    0.004946
H     0.788814    0.641536    1.796871   -0.003701   -0.008919    0.003250
15
* Frequency(6) -1798.3984
C     2.217630   -0.858625    0.056275    0.036740    0.154223   -0.036568
C    -2.069604   -0.127112   -0.125866   -0.000202    0.000358    0.000905
C     1.051507    0.010809   -0.247097   -0.147865   -0.062140    0.011481
C    -1.214112    0.518349    0.922380   -0.008301    0.004994    0.002255
C     0.262081    0.581733    0.846128    0.011825   -0.001023   -0.012104
O    -0.546681    1.718004    0.566631   -0.003670    0.001442    0.000699
H     2.365518    0.328777   -0.227883    1.506982   -1.208405    0.428049
H     2.469062   -1.060982    1.086631   -0.086342   -0.031385   -0.025241
H     2.615272   -1.497497   -0.715783   -0.095965   -0.026872    0.019221
H    -3.008998    0.416380   -0.228857   -0.001620   -0.001060    0.001353
H    -1.571320   -0.132940   -1.092651    0.004306   -0.003020    0.003465
H    -2.300620   -1.154919    0.155294    0.001264   -0.000186    0.000295
H     0.661380    0.006489   -1.252770    0.023278    0.104846   -0.040941
H    -1.649399    0.547164    1.918643   -0.005417    0.003293    0.004946
H     0.789217    0.642508    1.796517   -0.003701   -0.008919    0.003250
15
* Frequency(6) -1798.3984
C     2.213397   -0.876394    0.060488    0.036740    0.154223   -0.036568
C    -2.069581   -0.127154   -0.125970   -0.000202    0.000358    0.000905
C     1.068544    0.017969   -0.248420   -0.147865   -0.062140    0.011481
C    -1.213155    0.517774    0.922120   -0.008301    0.004994    0.002255
C     0.260719    0.581851    0.847522    0.011825   -0.001023   -0.012104
O    -0.546258    1.717838    0.566550   -0.003670    0.001442    0.000699
H     2.191889    0.468004   -0.277201    1.506982   -1.208405    0.428049
H     2.479010   -1.057366    1.089539   -0.086342   -0.031385   -0.025241
H     2.626328   -1.494401   -0.717998   -0.095965   -0.026872    0.019221
H    -3.008812    0.416502   -0.229013   -0.001620   -0.001060    0.001353
H    -1.571816   -0.132592   -1.093050    0.004306   -0.003020    0.003465
H    -2.300766   -1.154898    0.155260    0.001264   -0.000186    0.000295
H     0.658698   -0.005591   -1.248053    0.023278    0.104846   -0.040941
H    -1.648775    0.546785    1.918073   -0.005417    0.003293    0.004946
H     0.789644    0.643535    1.796142   -0.003701   -0.008919    0.003250
15
* Frequency(6) -1798.3984
C     2.209393   -0.893200    0.064473    0.036740    0.154223   -0.036568
C    -2.069559   -0.127193   -0.126069   -0.000202    0.000358    0.000905
C     1.084657    0.024741   -0.249671   -0.147865   -0.062140    0.011481
C    -1.212251    0.517230    0.921875   -0.008301    0.004994    0.002255
C     0.259430    0.581962    0.848841    0.011825   -0.001023   -0.012104
O    -0.545859    1.717680    0.566474   -0.003670    0.001442    0.000699
H     2.027668    0.599689   -0.323847    1.506982   -1.208405    0.428049
H     2.488419   -1.053946    1.092290   -0.086342   -0.031385   -0.025241
H     2.636786   -1.491472   -0.720092   -0.095965   -0.026872    0.019221
H    -3.008635    0.416617   -0.229160   -0.001620   -0.001060    0.001353
H    -1.572285   -0.132263   -1.093428    0.004306   -0.003020    0.003465
H    -2.300904   -1.154878    0.155228    0.001264   -0.000186    0.000295
H     0.656161   -0.017017   -1.243591    0.023278    0.104846   -0.040941
H    -1.648184    0.546426    1.917534   -0.005417    0.003293    0.004946
H     0.790047    0.644507    1.795788   -0.003701   -0.008919    0.003250
15
* Frequency(6) -1798.3984
C     2.206053   -0.907222    0.067798    0.036740    0.154223   -0.036568
C    -2.069541   -0.127225   -0.126151   -0.000202    0.000358    0.000905
C     1.098101    0.030390   -0.250715   -0.147865   -0.062140    0.011481
C    -1.211496    0.516776    0.921670   -0.008301    0.004994    0.002255
C     0.258355    0.582055    0.849942    0.011825   -0.001023   -0.012104
O    -0.545525    1.717549    0.566411   -0.003670    0.001442    0.000699
H     1.890650    0.709559   -0.362766    1.506982   -1.208405    0.428049
H     2.496270   -1.051092    1.094585   -0.086342   -0.031385   -0.025241
H     2.645511   -1.489029   -0.721840   -0.095965   -0.026872    0.019221
H    -3.008488    0.416714   -0.229283   -0.001620   -0.001060    0.001353
H    -1.572677   -0.131988   -1.093743    0.004306   -0.003020    0.003465
H    -2.301019   -1.154861    0.155201    0.001264   -0.000186    0.000295
H     0.654044   -0.026549   -1.239869    0.023278    0.104846   -0.040941
H    -1.647692    0.546127    1.917084   -0.005417    0.003293    0.004946
H     0.790384    0.645318    1.795493   -0.003701   -0.008919    0.003250
15
* Frequency(6) -1798.3984
C     2.203738   -0.916941    0.070102    0.036740    0.154223   -0.036568
C    -2.069528   -0.127248   -0.126208   -0.000202    0.000358    0.000905
C     1.107419    0.034306   -0.251438   -0.147865   -0.062140    0.011481
C    -1.210973    0.516461    0.921528   -0.008301    0.004994    0.002255
C     0.257610    0.582120    0.850705    0.011825   -0.001023   -0.012104
O    -0.545294    1.717458    0.566366   -0.003670    0.001442    0.000699
H     1.795684    0.785709   -0.389740    1.506982   -1.208405    0.428049
H     2.501711   -1.049114    1.096176   -0.086342   -0.031385   -0.025241
H     2.651559   -1.487336   -0.723051   -0.095965   -0.026872    0.019221
H    -3.008386    0.416780   -0.229368   -0.001620   -0.001060    0.001353
H    -1.572948   -0.131798   -1.093961    0.004306   -0.003020    0.003465
H    -2.301098   -1.154849    0.155182    0.001264   -0.000186    0.000295
H     0.652577   -0.033156   -1.237289    0.023278    0.104846   -0.040941
H    -1.647350    0.545919    1.916773   -0.005417    0.003293    0.004946
H     0.790617    0.645880    1.795288   -0.003701   -0.008919    0.003250
15
* Frequency(6) -1798.3984
C     2.202699   -0.921303    0.071136    0.036740    0.154223   -0.036568
C    -2.069522   -0.127258   -0.126233   -0.000202    0.000358    0.000905
C     1.111601    0.036064   -0.251763   -0.147865   -0.062140    0.011481
C    -1.210738    0.516320    0.921464   -0.008301    0.004994    0.002255
C     0.257275    0.582149    0.851047    0.011825   -0.001023   -0.012104
O    -0.545190    1.717418    0.566347   -0.003670    0.001442    0.000699
H     1.753061    0.819888   -0.401847    1.506982   -1.208405    0.428049
H     2.504153   -1.048226    1.096889   -0.086342   -0.031385   -0.025241
H     2.654273   -1.486576   -0.723595   -0.095965   -0.026872    0.019221
H    -3.008340    0.416810   -0.229406   -0.001620   -0.001060    0.001353
H    -1.573070   -0.131713   -1.094059    0.004306   -0.003020    0.003465
H    -2.301134   -1.154844    0.155174    0.001264   -0.000186    0.000295
H     0.651919   -0.036122   -1.236131    0.023278    0.104846   -0.040941
H    -1.647197    0.545826    1.916633   -0.005417    0.003293    0.004946
H     0.790721    0.646132    1.795196   -0.003701   -0.008919    0.003250
15
* Frequency(6) -1798.3984
C     2.203048   -0.919836    0.070789    0.036740    0.154223   -0.036568
C    -2.069524   -0.127254   -0.126225   -0.000202    0.000358    0.000905
C     1.110195    0.035473   -0.251654   -0.147865   -0.062140    0.011481
C    -1.210817    0.516367    0.921485   -0.008301    0.004994    0.002255
C     0.257388    0.582139    0.850932    0.011825   -0.001023   -0.012104
O    -0.545225    1.717431    0.566353   -0.003670    0.001442    0.000699
H     1.767399    0.808390   -0.397775    1.506982   -1.208405    0.428049
H     2.503331   -1.048525    1.096649   -0.086342   -0.031385   -0.025241
H     2.653360   -1.486831   -0.723412   -0.095965   -0.026872    0.019221
H    -3.008355    0.416800   -0.229394   -0.001620   -0.001060    0.001353
H    -1.573029   -0.131741   -1.094026    0.004306   -0.003020    0.003465
H    -2.301122   -1.154846    0.155177    0.001264   -0.000186    0.000295
H     0.652141   -0.035124   -1.236521    0.023278    0.104846   -0.040941
H    -1.647249    0.545857    1.916680   -0.005417    0.003293    0.004946
H     0.790686    0.646048    1.795227   -0.003701   -0.008919    0.003250
15
* Frequency(6) -1798.3984
C     2.204748   -0.912698    0.069096    0.036740    0.154223   -0.036568
C    -2.069533   -0.127238   -0.126183   -0.000202    0.000358    0.000905
C     1.103351    0.032597   -0.251122   -0.147865   -0.062140    0.011481
C    -1.211202    0.516598    0.921590   -0.008301    0.004994    0.002255
C     0.257935    0.582092    0.850372    0.011825   -0.001023   -0.012104
O    -0.545395    1.717498    0.566386   -0.003670    0.001442    0.000699
H     1.837145    0.752463   -0.377964    1.506982   -1.208405    0.428049
H     2.499335   -1.049978    1.095481   -0.086342   -0.031385   -0.025241
H     2.648918   -1.488075   -0.722522   -0.095965   -0.026872    0.019221
H    -3.008430    0.416751   -0.229331   -0.001620   -0.001060    0.001353
H    -1.572830   -0.131881   -1.093866    0.004306   -0.003020    0.003465
H    -2.301064   -1.154854    0.155191    0.001264   -0.000186    0.000295
H     0.653218   -0.030272   -1.238416    0.023278    0.104846   -0.040941
H    -1.647499    0.546010    1.916909   -0.005417    0.003293    0.004946
H     0.790515    0.645635    1.795377   -0.003701   -0.008919    0.003250
15
* Frequency(6) -1798.3984
C     2.207615   -0.900663    0.066243    0.036740    0.154223   -0.036568
C    -2.069549   -0.127210   -0.126112   -0.000202    0.000358    0.000905
C     1.091813    0.027748   -0.250227   -0.147865   -0.062140    0.011481
C    -1.211849    0.516988    0.921766   -0.008301    0.004994    0.002255
C     0.258858    0.582012    0.849427    0.011825   -0.001023   -0.012104
O    -0.545681    1.717611    0.566440   -0.003670    0.001442    0.000699
H     1.954740    0.658167   -0.344561    1.506982   -1.208405    0.428049
H     2.492597   -1.052427    1.093511   -0.086342   -0.031385   -0.025241
H     2.641430   -1.490172   -0.721023   -0.095965   -0.026872    0.019221
H    -3.008557    0.416668   -0.229225   -0.001620   -0.001060    0.001353
H    -1.572494   -0.132117   -1.093596    0.004306   -0.003020    0.003465
H    -2.300965   -1.154869    0.155214    0.001264   -0.000186    0.000295
H     0.655034   -0.022090   -1.241610    0.023278    0.104846   -0.040941
H    -1.647922    0.546267    1.917295   -0.005417    0.003293    0.004946
H     0.790226    0.644939    1.795631   -0.003701   -0.008919    0.003250
15
* Frequency(6) -1798.3984
C     2.211338   -0.885036    0.062537    0.036740    0.154223   -0.036568
C    -2.069570   -0.127174   -0.126021   -0.000202    0.000358    0.000905
C     1.076830    0.021451   -0.249063   -0.147865   -0.062140    0.011481
C    -1.212690    0.517494    0.921994   -0.008301    0.004994    0.002255
C     0.260056    0.581908    0.848201    0.011825   -0.001023   -0.012104
O    -0.546053    1.717757    0.566511   -0.003670    0.001442    0.000699
H     2.107442    0.535719   -0.301187    1.506982   -1.208405    0.428049
H     2.483848   -1.055607    1.090954   -0.086342   -0.031385   -0.025241
H     2.631706   -1.492895   -0.719075   -0.095965   -0.026872    0.019221
H    -3.008721    0.416561   -0.229088   -0.001620   -0.001060    0.001353
H    -1.572058   -0.132423   -1.093244    0.004306   -0.003020    0.003465
H    -2.300837   -1.154888    0.155243    0.001264   -0.000186    0.000295
H     0.657393   -0.011466   -1.245759    0.023278    0.104846   -0.040941
H    -1.648471    0.546601    1.917796   -0.005417    0.003293    0.004946
H     0.789851    0.644035    1.795960   -0.003701   -0.008919    0.003250
15
* Frequency(6) -1798.3984
C     2.215513   -0.867509    0.058381    0.036740    0.154223   -0.036568
C    -2.069593   -0.127133   -0.125918   -0.000202    0.000358    0.000905
C     1.060026    0.014389   -0.247758   -0.147865   -0.062140    0.011481
C    -1.213634    0.518062    0.922250   -0.008301    0.004994    0.002255
C     0.261400    0.581792    0.846825    0.011825   -0.001023   -0.012104
O    -0.546470    1.717921    0.566591   -0.003670    0.001442    0.000699
H     2.278703    0.398391   -0.252542    1.506982   -1.208405    0.428049
H     2.474036   -1.059174    1.088085   -0.086342   -0.031385   -0.025241
H     2.620800   -1.495949   -0.716890   -0.095965   -0.026872    0.019221
H    -3.008905    0.416441   -0.228935   -0.001620   -0.001060    0.001353
H    -1.571568   -0.132766   -1.092851    0.004306   -0.003020    0.003465
H    -2.300693   -1.154909    0.155277    0.001264   -0.000186    0.000295
H     0.660039    0.000449   -1.250411    0.023278    0.104846   -0.040941
H    -1.649087    0.546975    1.918358   -0.005417    0.003293    0.004946
H     0.789431    0.643022    1.796330   -0.003701   -0.008919    0.003250
