17
Coordinates from ORCA-job freq E -421.474922695760
  C          -2.59444332707766      0.69632889235775     -0.59922238693299
  C           1.80094035399845     -1.23932662116430      0.18248872332471
  C          -1.13344058571765      0.77492744906907     -0.17922026982707
  C          -0.28787826087507     -0.30852193725167     -0.85203113644770
  C           1.16762883519864     -0.16849921401077     -0.49097044047781
  O           1.78749265110113      0.88143767510690     -0.76891038586883
  O           3.83039365221039     -0.12756771250123      0.30347216049520
  O           3.05587470343143     -1.26955113931697      0.57823940804998
  H          -2.69547028558187      0.82446061202710     -1.67777790819388
  H          -3.18627754934190      1.47059203399662     -0.11283592014025
  H          -3.02747508432771     -0.27019016152066     -0.33701070076692
  H           1.29243234472151     -2.15708509256486      0.43872513285678
  H          -0.71367086076730      1.74762599685298     -0.43696236242326
  H          -1.04947453699375      0.67223256779664      0.90527781889406
  H          -0.36706800721346     -0.20633513187804     -1.93739422537529
  H          -0.65761472738683     -1.30055784264445     -0.58600505177691
  H           3.18055668462166      0.48200162564587     -0.16566345538984
