15
Coordinates from ORCA-job freq E -270.979478938785
  C           1.88264360530445      0.87829600527994     -0.56065105182041
  C           0.08628955413817     -0.37455235049454     -0.33509258274309
  C           1.50070241736648     -0.35912185797913      0.24056484159541
  C          -2.43120833179432     -0.26588965783021      0.18903687748893
  C          -1.03878450963508      0.01206888536365      0.54254039384019
  O          -1.76981570057250     -1.04732079218354      1.16698724180535
  H           0.55844154094415      0.73478964832193     -1.02015525273651
  H           2.55648016515316      0.75693082925520     -1.40092037827079
  H           1.95574855039530      1.82165224818794     -0.03151110764396
  H          -0.13400712168795     -1.14866312042838     -1.06478402909064
  H           1.52309486429045     -0.21434925791350      1.31899987878491
  H           2.08240946290629     -1.24389282097579     -0.00322410437357
  H          -3.22078457959150      0.37489872951665      0.56412524562047
  H          -2.64112994622846     -0.77608320870120     -0.74488047486537
  H          -0.84602697098866      0.84759672058097      1.21073750240909
