17
Coordinates from ORCA-job freq E -421.390593479355
  C          -0.13783859854878     -0.02694010635618      0.16003112141804
  C           0.81599974675030     -0.63303604233054     -0.83673947057187
  C           2.26662395937446     -0.24076289773797     -0.51738805214817
  C          -2.69124492741911     -0.16973877143674     -0.16893573518952
  C          -1.40521131072037      0.52844714715876     -0.36447807267914
  O           1.68121146706287      1.53326218076258      0.73731968545621
  O          -2.34973938127735      0.97098833625352      0.58935121636326
  O           2.32966405137629      1.16490500630199     -0.42348166176013
  H           0.61569113557854      0.99449897676196      0.58691494738488
  H          -0.26229603292116     -0.58175091534046      1.08908301557260
  H           0.58270949697377     -0.28034368367465     -1.84256404033411
  H           0.74370130842472     -1.72411969684578     -0.83946485182090
  H           2.94296067313491     -0.52009942570810     -1.32376248730083
  H           2.60070250022603     -0.68398402060718      0.42316132097721
  H          -3.48820974294281     -0.02971851007828     -0.89001744683764
  H          -2.69973844152736     -1.10446329712180      0.38038736399193
  H          -1.31453790354499      1.17085771999885     -1.23631485252181
