17
Coordinates from ORCA-job freq E -421.378251477195
  C          -1.53480818067769      1.14387747924248     -1.02599843141700
  C          -0.02108408753004     -0.77913716653711     -0.25656370168583
  C           2.14410670802077      0.14665785157875      0.78026162490960
  C          -0.94901671461539      0.37124320363937      0.13063508286655
  C           1.43567716770120     -0.52780623565070     -0.32064634405186
  O          -1.31886385129967     -1.16664331465160      1.66848019596038
  O           1.84028626508622      0.83909881713297     -0.40993328907104
  O          -1.99868335180756     -0.30216105469550      0.82310708750775
  H          -0.40301911186199     -1.40495408993349      0.84630587661449
  H          -2.05932754215015      0.47180240059181     -1.70430921855111
  H          -2.23341192592613      1.89795953294961     -0.66601940114857
  H          -0.73120609720911      1.64297062868127     -1.56598881427319
  H          -0.41847179042180     -1.40700726656947     -1.05321809262736
  H           3.19383218099280     -0.07068183773450      0.93679109621434
  H           1.58157243873442      0.45122204996434      1.65608492136681
  H          -0.43187025441213      1.03742724376848      0.82616587455381
  H           2.01775414737626     -1.19579824177669     -0.94468546716780
