15
Coordinates from ORCA-job freq E -271.005435177963
  C          -1.75198925736188      0.61296459549842      0.27531405127456
  C          -0.79440254295247     -0.53687739044511      0.11481905017401
  C           1.24905461876742     -0.19406277482328      1.49062289067107
  C           0.39474174662072     -0.32249670211015     -0.81001287888159
  C           1.57859046315869      0.00577877772187      0.08500634984173
  O           1.33136799166090      1.09411551860471      0.97933212103826
  H          -0.05303112434847     -0.58879997396126      1.25196639048504
  H          -2.27333928919288      0.82168989199312     -0.66469422316604
  H          -2.50681475699300      0.40382053178646      1.03261258820815
  H          -1.21552090406092      1.51930169665429      0.55954547275852
  H          -1.26831923574469     -1.51082925725935      0.02750093497910
  H           1.88042006449080     -0.47747008181012      2.32473324814109
  H           0.22201415560628      0.48764494506077     -1.52275755622802
  H           0.62722471602543     -1.22271628097680     -1.38031031045197
  H           2.58970735432407     -0.03251149593361     -0.29983412884393
