15
* (null), Energy   -1000.0000000
C    -1.751989    0.612965    0.275314    0.010946   -0.007075    0.015638
C    -0.794403   -0.536877    0.114819   -0.055717    0.015771   -0.113124
C     1.249055   -0.194063    1.490623   -0.112784   -0.054505   -0.009937
C     0.394742   -0.322497   -0.810013   -0.001233   -0.002047    0.012916
C     1.578590    0.005779    0.085006    0.015250    0.016560    0.008566
O     1.331368    1.094116    0.979332    0.003312    0.012749   -0.017778
H    -0.053031   -0.588800    1.251966    1.575111    0.260801    1.166604
H    -2.273339    0.821690   -0.664694    0.007265   -0.000611   -0.004312
H    -2.506815    0.403821    1.032613   -0.006047   -0.002673   -0.001413
H    -1.215521    1.519302    0.559545    0.007129    0.004793   -0.003059
H    -1.268319   -1.510829    0.027501    0.074820   -0.060433    0.195551
H     1.880420   -0.477470    2.324733    0.003146   -0.016904   -0.085281
H     0.222014    0.487645   -1.522758   -0.003844    0.010652    0.018322
H     0.627225   -1.222716   -1.380310   -0.006645   -0.004933    0.011379
H     2.589707   -0.032511   -0.299834    0.006858   -0.020133    0.008427
15
* Frequency(6) -1772.7671
C    -1.750745    0.612161    0.277091    0.010946   -0.007075    0.015638
C    -0.800735   -0.535085    0.101963   -0.055717    0.015771   -0.113124
C     1.236237   -0.200257    1.489494   -0.112784   -0.054505   -0.009937
C     0.394602   -0.322729   -0.808545   -0.001233   -0.002047    0.012916
C     1.580324    0.007661    0.085980    0.015250    0.016560    0.008566
O     1.331744    1.095564    0.977312    0.003312    0.012749   -0.017778
H     0.125972   -0.559161    1.384545    1.575111    0.260801    1.166604
H    -2.272514    0.821620   -0.665184    0.007265   -0.000611   -0.004312
H    -2.507502    0.403517    1.032452   -0.006047   -0.002673   -0.001413
H    -1.214711    1.519846    0.559198    0.007129    0.004793   -0.003059
H    -1.259816   -1.517697    0.049724    0.074820   -0.060433    0.195551
H     1.880778   -0.479391    2.315042    0.003146   -0.016904   -0.085281
H     0.221577    0.488856   -1.520675   -0.003844    0.010652    0.018322
H     0.626470   -1.223277   -1.379017   -0.006645   -0.004933    0.011379
H     2.590487   -0.034800   -0.298876    0.006858   -0.020133    0.008427
15
* Frequency(6) -1772.7671
C    -1.749636    0.611444    0.278676    0.010946   -0.007075    0.015638
C    -0.806380   -0.533487    0.090500   -0.055717    0.015771   -0.113124
C     1.224809   -0.205780    1.488487   -0.112784   -0.054505   -0.009937
C     0.394477   -0.322937   -0.807236   -0.001233   -0.002047    0.012916
C     1.581869    0.009339    0.086848    0.015250    0.016560    0.008566
O     1.332080    1.096856    0.975510    0.003312    0.012749   -0.017778
H     0.285578   -0.532734    1.502757    1.575111    0.260801    1.166604
H    -2.271778    0.821559   -0.665621    0.007265   -0.000611   -0.004312
H    -2.508115    0.403246    1.032309   -0.006047   -0.002673   -0.001413
H    -1.213988    1.520332    0.558888    0.007129    0.004793   -0.003059
H    -1.252235   -1.523821    0.069539    0.074820   -0.060433    0.195551
H     1.881096   -0.481104    2.306400    0.003146   -0.016904   -0.085281
H     0.221188    0.489935   -1.518819   -0.003844    0.010652    0.018322
H     0.625796   -1.223777   -1.377864   -0.006645   -0.004933    0.011379
H     2.591182   -0.036840   -0.298022    0.006858   -0.020133    0.008427
15
* Frequency(6) -1772.7671
C    -1.748782    0.610891    0.279896    0.010946   -0.007075    0.015638
C    -0.810728   -0.532256    0.081673   -0.055717    0.015771   -0.113124
C     1.216008   -0.210033    1.487711   -0.112784   -0.054505   -0.009937
C     0.394380   -0.323096   -0.806228   -0.001233   -0.002047    0.012916
C     1.583059    0.010631    0.087516    0.015250    0.016560    0.008566
O     1.332338    1.097851    0.974123    0.003312    0.012749   -0.017778
H     0.408490   -0.512383    1.593791    1.575111    0.260801    1.166604
H    -2.271211    0.821511   -0.665958    0.007265   -0.000611   -0.004312
H    -2.508587    0.403037    1.032198   -0.006047   -0.002673   -0.001413
H    -1.213432    1.520706    0.558649    0.007129    0.004793   -0.003059
H    -1.246396   -1.528537    0.084799    0.074820   -0.060433    0.195551
H     1.881342   -0.482423    2.299745    0.003146   -0.016904   -0.085281
H     0.220888    0.490766   -1.517389   -0.003844    0.010652    0.018322
H     0.625278   -1.224162   -1.376976   -0.006645   -0.004933    0.011379
H     2.591717   -0.038411   -0.297365    0.006858   -0.020133    0.008427
15
* Frequency(6) -1772.7671
C    -1.748275    0.610564    0.280620    0.010946   -0.007075    0.015638
C    -0.813307   -0.531526    0.076437   -0.055717    0.015771   -0.113124
C     1.210788   -0.212556    1.487251   -0.112784   -0.054505   -0.009937
C     0.394323   -0.323191   -0.805631   -0.001233   -0.002047    0.012916
C     1.583765    0.011398    0.087913    0.015250    0.016560    0.008566
O     1.332492    1.098441    0.973300    0.003312    0.012749   -0.017778
H     0.481389   -0.500313    1.647784    1.575111    0.260801    1.166604
H    -2.270875    0.821483   -0.666157    0.007265   -0.000611   -0.004312
H    -2.508867    0.402914    1.032133   -0.006047   -0.002673   -0.001413
H    -1.213102    1.520928    0.558508    0.007129    0.004793   -0.003059
H    -1.242933   -1.531333    0.093849    0.074820   -0.060433    0.195551
H     1.881488   -0.483205    2.295798    0.003146   -0.016904   -0.085281
H     0.220710    0.491259   -1.516541   -0.003844    0.010652    0.018322
H     0.624970   -1.224390   -1.376449   -0.006645   -0.004933    0.011379
H     2.592034   -0.039343   -0.296975    0.006858   -0.020133    0.008427
15
* Frequency(6) -1772.7671
C    -1.748171    0.610497    0.280769    0.010946   -0.007075    0.015638
C    -0.813837   -0.531376    0.075361   -0.055717    0.015771   -0.113124
C     1.209715   -0.213074    1.487157   -0.112784   -0.054505   -0.009937
C     0.394312   -0.323211   -0.805508   -0.001233   -0.002047    0.012916
C     1.583910    0.011555    0.087994    0.015250    0.016560    0.008566
O     1.332523    1.098562    0.973131    0.003312    0.012749   -0.017778
H     0.496375   -0.497831    1.658883    1.575111    0.260801    1.166604
H    -2.270805    0.821477   -0.666198    0.007265   -0.000611   -0.004312
H    -2.508924    0.402888    1.032120   -0.006047   -0.002673   -0.001413
H    -1.213034    1.520974    0.558478    0.007129    0.004793   -0.003059
H    -1.242222   -1.531908    0.095710    0.074820   -0.060433    0.195551
H     1.881518   -0.483366    2.294987    0.003146   -0.016904   -0.085281
H     0.220673    0.491361   -1.516367   -0.003844    0.010652    0.018322
H     0.624907   -1.224437   -1.376341   -0.006645   -0.004933    0.011379
H     2.592099   -0.039534   -0.296895    0.006858   -0.020133    0.008427
15
* Frequency(6) -1772.7671
C    -1.748481    0.610697    0.280326    0.010946   -0.007075    0.015638
C    -0.812261   -0.531822    0.078561   -0.055717    0.015771   -0.113124
C     1.212905   -0.211533    1.487438   -0.112784   -0.054505   -0.009937
C     0.394347   -0.323153   -0.805873   -0.001233   -0.002047    0.012916
C     1.583478    0.011087    0.087752    0.015250    0.016560    0.008566
O     1.332429    1.098202    0.973634    0.003312    0.012749   -0.017778
H     0.451825   -0.505208    1.625887    1.575111    0.260801    1.166604
H    -2.271011    0.821494   -0.666076    0.007265   -0.000611   -0.004312
H    -2.508753    0.402964    1.032160   -0.006047   -0.002673   -0.001413
H    -1.213236    1.520838    0.558565    0.007129    0.004793   -0.003059
H    -1.244338   -1.530199    0.090179    0.074820   -0.060433    0.195551
H     1.881429   -0.482888    2.297399    0.003146   -0.016904   -0.085281
H     0.220782    0.491059   -1.516885   -0.003844    0.010652    0.018322
H     0.625095   -1.224297   -1.376663   -0.006645   -0.004933    0.011379
H     2.591905   -0.038965   -0.297133    0.006858   -0.020133    0.008427
15
* Frequency(6) -1772.7671
C    -1.749171    0.611143    0.279341    0.010946   -0.007075    0.015638
C    -0.808750   -0.532816    0.085689   -0.055717    0.015771   -0.113124
C     1.220012   -0.208098    1.488064   -0.112784   -0.054505   -0.009937
C     0.394424   -0.323024   -0.806687   -0.001233   -0.002047    0.012916
C     1.582517    0.010043    0.087212    0.015250    0.016560    0.008566
O     1.332221    1.097398    0.974754    0.003312    0.012749   -0.017778
H     0.352565   -0.521643    1.552371    1.575111    0.260801    1.166604
H    -2.271469    0.821533   -0.665805    0.007265   -0.000611   -0.004312
H    -2.508372    0.403132    1.032249   -0.006047   -0.002673   -0.001413
H    -1.213685    1.520536    0.558758    0.007129    0.004793   -0.003059
H    -1.249053   -1.526391    0.077856    0.074820   -0.060433    0.195551
H     1.881230   -0.481823    2.302773    0.003146   -0.016904   -0.085281
H     0.221024    0.490388   -1.518039   -0.003844    0.010652    0.018322
H     0.625514   -1.223987   -1.377380   -0.006645   -0.004933    0.011379
H     2.591473   -0.037696   -0.297664    0.006858   -0.020133    0.008427
15
* Frequency(6) -1772.7671
C    -1.750166    0.611786    0.277919    0.010946   -0.007075    0.015638
C    -0.803684   -0.534250    0.095975   -0.055717    0.015771   -0.113124
C     1.230267   -0.203142    1.488968   -0.112784   -0.054505   -0.009937
C     0.394536   -0.322838   -0.807861   -0.001233   -0.002047    0.012916
C     1.581131    0.008537    0.086433    0.015250    0.016560    0.008566
O     1.331920    1.096239    0.976371    0.003312    0.012749   -0.017778
H     0.209353   -0.545355    1.446301    1.575111    0.260801    1.166604
H    -2.272129    0.821588   -0.665413    0.007265   -0.000611   -0.004312
H    -2.507822    0.403375    1.032377   -0.006047   -0.002673   -0.001413
H    -1.214333    1.520100    0.559036    0.007129    0.004793   -0.003059
H    -1.255856   -1.520896    0.060076    0.074820   -0.060433    0.195551
H     1.880944   -0.480286    2.310527    0.003146   -0.016904   -0.085281
H     0.221374    0.489419   -1.519705   -0.003844    0.010652    0.018322
H     0.626118   -1.223538   -1.378415   -0.006645   -0.004933    0.011379
H     2.590850   -0.035865   -0.298430    0.006858   -0.020133    0.008427
15
* Frequency(6) -1772.7671
C    -1.751359    0.612557    0.276215    0.010946   -0.007075    0.015638
C    -0.797612   -0.535969    0.108302   -0.055717    0.015771   -0.113124
C     1.242557   -0.197203    1.490050   -0.112784   -0.054505   -0.009937
C     0.394671   -0.322615   -0.809269   -0.001233   -0.002047    0.012916
C     1.579469    0.006733    0.085500    0.015250    0.016560    0.008566
O     1.331559    1.094850    0.978308    0.003312    0.012749   -0.017778
H     0.037708   -0.573776    1.319172    1.575111    0.260801    1.166604
H    -2.272921    0.821655   -0.664943    0.007265   -0.000611   -0.004312
H    -2.507163    0.403667    1.032531   -0.006047   -0.002673   -0.001413
H    -1.215110    1.519578    0.559369    0.007129    0.004793   -0.003059
H    -1.264009   -1.514311    0.038766    0.074820   -0.060433    0.195551
H     1.880601   -0.478444    2.319820    0.003146   -0.016904   -0.085281
H     0.221793    0.488259   -1.521702   -0.003844    0.010652    0.018322
H     0.626842   -1.223000   -1.379655   -0.006645   -0.004933    0.011379
H     2.590102   -0.033671   -0.299349    0.006858   -0.020133    0.008427
15
* Frequency(6) -1772.7671
C    -1.752620    0.613372    0.274413    0.010946   -0.007075    0.015638
C    -0.791193   -0.537786    0.121336   -0.055717    0.015771   -0.113124
C     1.255552   -0.190923    1.491195   -0.112784   -0.054505   -0.009937
C     0.394813   -0.322379   -0.810757   -0.001233   -0.002047    0.012916
C     1.577712    0.004825    0.084513    0.015250    0.016560    0.008566
O     1.331177    1.093381    0.980356    0.003312    0.012749   -0.017778
H    -0.143770   -0.603824    1.184761    1.575111    0.260801    1.166604
H    -2.273758    0.821725   -0.664446    0.007265   -0.000611   -0.004312
H    -2.506466    0.403975    1.032694   -0.006047   -0.002673   -0.001413
H    -1.215932    1.519026    0.559722    0.007129    0.004793   -0.003059
H    -1.272629   -1.507348    0.016236    0.074820   -0.060433    0.195551
H     1.880239   -0.476496    2.329646    0.003146   -0.016904   -0.085281
H     0.222236    0.487031   -1.523813   -0.003844    0.010652    0.018322
H     0.627608   -1.222432   -1.380966   -0.006645   -0.004933    0.011379
H     2.589312   -0.031352   -0.300320    0.006858   -0.020133    0.008427
15
* Frequency(6) -1772.7671
C    -1.753813    0.614143    0.272709    0.010946   -0.007075    0.015638
C    -0.785121   -0.539505    0.133663   -0.055717    0.015771   -0.113124
C     1.267842   -0.184983    1.492278   -0.112784   -0.054505   -0.009937
C     0.394947   -0.322156   -0.812164   -0.001233   -0.002047    0.012916
C     1.576050    0.003020    0.083579    0.015250    0.016560    0.008566
O     1.330816    1.091992    0.982294    0.003312    0.012749   -0.017778
H    -0.315416   -0.632245    1.057632    1.575111    0.260801    1.166604
H    -2.274549    0.821792   -0.663976    0.007265   -0.000611   -0.004312
H    -2.505807    0.404266    1.032848   -0.006047   -0.002673   -0.001413
H    -1.216708    1.518503    0.560055    0.007129    0.004793   -0.003059
H    -1.280783   -1.500762   -0.005074    0.074820   -0.060433    0.195551
H     1.879896   -0.474654    2.338939    0.003146   -0.016904   -0.085281
H     0.222654    0.485870   -1.525810   -0.003844    0.010652    0.018322
H     0.628332   -1.221895   -1.382206   -0.006645   -0.004933    0.011379
H     2.588565   -0.029158   -0.301238    0.006858   -0.020133    0.008427
15
* Frequency(6) -1772.7671
C    -1.754808    0.614787    0.271287    0.010946   -0.007075    0.015638
C    -0.780055   -0.540939    0.143949   -0.055717    0.015771   -0.113124
C     1.278097   -0.180028    1.493182   -0.112784   -0.054505   -0.009937
C     0.395059   -0.321970   -0.813339   -0.001233   -0.002047    0.012916
C     1.574664    0.001514    0.082801    0.015250    0.016560    0.008566
O     1.330515    1.090833    0.983910    0.003312    0.012749   -0.017778
H    -0.458628   -0.655957    0.951562    1.575111    0.260801    1.166604
H    -2.275210    0.821847   -0.663584    0.007265   -0.000611   -0.004312
H    -2.505258    0.404509    1.032977   -0.006047   -0.002673   -0.001413
H    -1.217357    1.518067    0.560333    0.007129    0.004793   -0.003059
H    -1.287586   -1.495268   -0.022854    0.074820   -0.060433    0.195551
H     1.879610   -0.473117    2.346693    0.003146   -0.016904   -0.085281
H     0.223004    0.484902   -1.527476   -0.003844    0.010652    0.018322
H     0.628936   -1.221446   -1.383241   -0.006645   -0.004933    0.011379
H     2.587941   -0.027327   -0.302004    0.006858   -0.020133    0.008427
15
* Frequency(6) -1772.7671
C    -1.755498    0.615232    0.270302    0.010946   -0.007075    0.015638
C    -0.776544   -0.541932    0.151078   -0.055717    0.015771   -0.113124
C     1.285204   -0.176593    1.493808   -0.112784   -0.054505   -0.009937
C     0.395137   -0.321841   -0.814153   -0.001233   -0.002047    0.012916
C     1.573702    0.000471    0.082261    0.015250    0.016560    0.008566
O     1.330307    1.090029    0.985030    0.003312    0.012749   -0.017778
H    -0.557887   -0.672392    0.878046    1.575111    0.260801    1.166604
H    -2.275668    0.821886   -0.663312    0.007265   -0.000611   -0.004312
H    -2.504877    0.404677    1.033066   -0.006047   -0.002673   -0.001413
H    -1.217806    1.517765    0.560526    0.007129    0.004793   -0.003059
H    -1.292301   -1.491459   -0.035177    0.074820   -0.060433    0.195551
H     1.879412   -0.472052    2.352068    0.003146   -0.016904   -0.085281
H     0.223246    0.484231   -1.528630   -0.003844    0.010652    0.018322
H     0.629355   -1.221135   -1.383958   -0.006645   -0.004933    0.011379
H     2.587509   -0.026058   -0.302535    0.006858   -0.020133    0.008427
15
* Frequency(6) -1772.7671
C    -1.755807    0.615433    0.269859    0.010946   -0.007075    0.015638
C    -0.774968   -0.542378    0.154277   -0.055717    0.015771   -0.113124
C     1.288394   -0.175051    1.494089   -0.112784   -0.054505   -0.009937
C     0.395172   -0.321783   -0.814518   -0.001233   -0.002047    0.012916
C     1.573271    0.000002    0.082018    0.015250    0.016560    0.008566
O     1.330213    1.089669    0.985533    0.003312    0.012749   -0.017778
H    -0.602437   -0.679769    0.845049    1.575111    0.260801    1.166604
H    -2.275873    0.821903   -0.663190    0.007265   -0.000611   -0.004312
H    -2.504705    0.404753    1.033106   -0.006047   -0.002673   -0.001413
H    -1.218007    1.517630    0.560612    0.007129    0.004793   -0.003059
H    -1.294417   -1.489750   -0.040708    0.074820   -0.060433    0.195551
H     1.879323   -0.471574    2.354480    0.003146   -0.016904   -0.085281
H     0.223355    0.483929   -1.529148   -0.003844    0.010652    0.018322
H     0.629543   -1.220996   -1.384279   -0.006645   -0.004933    0.011379
H     2.587315   -0.025489   -0.302774    0.006858   -0.020133    0.008427
15
* Frequency(6) -1772.7671
C    -1.755703    0.615365    0.270008    0.010946   -0.007075    0.015638
C    -0.775498   -0.542228    0.153201   -0.055717    0.015771   -0.113124
C     1.287321   -0.175570    1.493994   -0.112784   -0.054505   -0.009937
C     0.395160   -0.321802   -0.814395   -0.001233   -0.002047    0.012916
C     1.573416    0.000160    0.082100    0.015250    0.016560    0.008566
O     1.330244    1.089790    0.985364    0.003312    0.012749   -0.017778
H    -0.587451   -0.677287    0.856149    1.575111    0.260801    1.166604
H    -2.275804    0.821897   -0.663231    0.007265   -0.000611   -0.004312
H    -2.504763    0.404728    1.033092   -0.006047   -0.002673   -0.001413
H    -1.217940    1.517675    0.560583    0.007129    0.004793   -0.003059
H    -1.293705   -1.490325   -0.038848    0.074820   -0.060433    0.195551
H     1.879353   -0.471735    2.353668    0.003146   -0.016904   -0.085281
H     0.223318    0.484031   -1.528974   -0.003844    0.010652    0.018322
H     0.629479   -1.221043   -1.384171   -0.006645   -0.004933    0.011379
H     2.587381   -0.025680   -0.302693    0.006858   -0.020133    0.008427
15
* Frequency(6) -1772.7671
C    -1.755197    0.615038    0.270732    0.010946   -0.007075    0.015638
C    -0.778077   -0.541498    0.147965   -0.055717    0.015771   -0.113124
C     1.282101   -0.178092    1.493534   -0.112784   -0.054505   -0.009937
C     0.395103   -0.321897   -0.813797   -0.001233   -0.002047    0.012916
C     1.574122    0.000926    0.082496    0.015250    0.016560    0.008566
O     1.330398    1.090380    0.984541    0.003312    0.012749   -0.017778
H    -0.514552   -0.665217    0.910142    1.575111    0.260801    1.166604
H    -2.275468    0.821869   -0.663431    0.007265   -0.000611   -0.004312
H    -2.505043    0.404604    1.033027   -0.006047   -0.002673   -0.001413
H    -1.217610    1.517897    0.560442    0.007129    0.004793   -0.003059
H    -1.290242   -1.493122   -0.029797    0.074820   -0.060433    0.195551
H     1.879498   -0.472517    2.349721    0.003146   -0.016904   -0.085281
H     0.223140    0.484524   -1.528126   -0.003844    0.010652    0.018322
H     0.629172   -1.221271   -1.383645   -0.006645   -0.004933    0.011379
H     2.587698   -0.026612   -0.302303    0.006858   -0.020133    0.008427
15
* Frequency(6) -1772.7671
C    -1.754342    0.614486    0.271952    0.010946   -0.007075    0.015638
C    -0.782425   -0.540268    0.139138   -0.055717    0.015771   -0.113124
C     1.273300   -0.182346    1.492759   -0.112784   -0.054505   -0.009937
C     0.395007   -0.322057   -0.812789   -0.001233   -0.002047    0.012916
C     1.575312    0.002219    0.083165    0.015250    0.016560    0.008566
O     1.330656    1.091375    0.983154    0.003312    0.012749   -0.017778
H    -0.391640   -0.644866    1.001176    1.575111    0.260801    1.166604
H    -2.274901    0.821821   -0.663767    0.007265   -0.000611   -0.004312
H    -2.505515    0.404395    1.032916   -0.006047   -0.002673   -0.001413
H    -1.217053    1.518271    0.560203    0.007129    0.004793   -0.003059
H    -1.284404   -1.497838   -0.014538    0.074820   -0.060433    0.195551
H     1.879744   -0.473836    2.343066    0.003146   -0.016904   -0.085281
H     0.222840    0.485355   -1.526696   -0.003844    0.010652    0.018322
H     0.628653   -1.221656   -1.382757   -0.006645   -0.004933    0.011379
H     2.588233   -0.028183   -0.301646    0.006858   -0.020133    0.008427
15
* Frequency(6) -1772.7671
C    -1.753233    0.613769    0.273537    0.010946   -0.007075    0.015638
C    -0.788071   -0.538670    0.127675   -0.055717    0.015771   -0.113124
C     1.261872   -0.187869    1.491752   -0.112784   -0.054505   -0.009937
C     0.394882   -0.322264   -0.811481   -0.001233   -0.002047    0.012916
C     1.576857    0.003897    0.084033    0.015250    0.016560    0.008566
O     1.330992    1.092667    0.981353    0.003312    0.012749   -0.017778
H    -0.232034   -0.618439    1.119388    1.575111    0.260801    1.166604
H    -2.274165    0.821759   -0.664204    0.007265   -0.000611   -0.004312
H    -2.506128    0.404124    1.032773   -0.006047   -0.002673   -0.001413
H    -1.216331    1.518757    0.559893    0.007129    0.004793   -0.003059
H    -1.276822   -1.503961    0.005278    0.074820   -0.060433    0.195551
H     1.880062   -0.475549    2.334425    0.003146   -0.016904   -0.085281
H     0.222451    0.486434   -1.524840   -0.003844    0.010652    0.018322
H     0.627980   -1.222156   -1.381604   -0.006645   -0.004933    0.011379
H     2.588928   -0.030223   -0.300792    0.006858   -0.020133    0.008427
15
* Frequency(6) -1772.7671
C    -1.751989    0.612965    0.275314    0.010946   -0.007075    0.015638
C    -0.794403   -0.536877    0.114819   -0.055717    0.015771   -0.113124
C     1.249055   -0.194063    1.490623   -0.112784   -0.054505   -0.009937
C     0.394742   -0.322497   -0.810013   -0.001233   -0.002047    0.012916
C     1.578590    0.005779    0.085006    0.015250    0.016560    0.008566
O     1.331368    1.094116    0.979332    0.003312    0.012749   -0.017778
H    -0.053031   -0.588800    1.251966    1.575111    0.260801    1.166604
H    -2.273339    0.821690   -0.664694    0.007265   -0.000611   -0.004312
H    -2.506815    0.403821    1.032613   -0.006047   -0.002673   -0.001413
H    -1.215521    1.519302    0.559545    0.007129    0.004793   -0.003059
H    -1.268319   -1.510829    0.027501    0.074820   -0.060433    0.195551
H     1.880420   -0.477470    2.324733    0.003146   -0.016904   -0.085281
H     0.222014    0.487645   -1.522758   -0.003844    0.010652    0.018322
H     0.627225   -1.222716   -1.380310   -0.006645   -0.004933    0.011379
H     2.589707   -0.032511   -0.299834    0.006858   -0.020133    0.008427
