17
Coordinates from ORCA-job freq E -421.372628489987
  C      -1.486331      1.262019     -0.239675
  C      -1.379926     -0.222794     -0.306026
  C       2.393871      0.138866      0.145150
  C       0.004050     -0.857297     -0.101777
  C       1.174267     -0.058563     -0.643903
  O      -1.112477     -1.362090      1.777367
  O       1.484489      1.175396     -0.078562
  O       0.140156     -1.003773      1.306567
  H      -1.723835     -0.736465      0.884009
  H      -2.526006      1.565243     -0.128126
  H      -0.893243      1.657903      0.581618
  H      -1.107646      1.713963     -1.160754
  H      -2.002801     -0.700077     -1.055305
  H       3.346935      0.229228     -0.363400
  H       2.421106     -0.248289      1.155460
  H       0.014840     -1.849828     -0.584160
  H       1.255182     -0.102155     -1.728588
17
Coordinates from ORCA-job freq E -421.373936171896
  C      -1.483161      1.265416     -0.190479
  C      -1.371672     -0.218640     -0.322351
  C       2.385810      0.162935      0.132087
  C       0.005684     -0.861047     -0.102468
  C       1.186636     -0.106087     -0.668077
  O      -1.126541     -1.371155      1.742229
  O       1.471596      1.179277     -0.195270
  O       0.124503     -0.953670      1.310741
  H      -1.740877     -0.762027      0.834903
  H      -2.526337      1.565686     -0.105353
  H      -0.925393      1.620058      0.673867
  H      -1.063095      1.762069     -1.069951
  H      -1.974201     -0.667717     -1.106095
  H       3.348405      0.222971     -0.362005
  H       2.391075     -0.138984      1.171098
  H       0.003273     -1.870313     -0.539650
  H       1.296926     -0.227484     -1.743331
17
Coordinates from ORCA-job freq E -421.374673238497
  C      -1.496782      1.262695     -0.176431
  C      -1.366542     -0.220890     -0.332844
  C       2.404171      0.144699      0.107089
  C       0.009791     -0.851194     -0.082489
  C       1.187866     -0.116993     -0.667429
  O      -1.133539     -1.354970      1.731601
  O       1.475323      1.170967     -0.178291
  O       0.108351     -0.874733      1.332321
  H      -1.755308     -0.794331      0.797234
  H      -2.544364      1.558678     -0.151995
  H      -0.997238      1.603805      0.728503
  H      -1.022498      1.776493     -1.018510
  H      -1.935361     -0.658065     -1.149165
  H       3.353698      0.221597     -0.408510
  H       2.436398     -0.166662      1.143407
  H       0.004377     -1.877281     -0.469074
  H       1.274289     -0.222531     -1.745522
17
Coordinates from ORCA-job freq E -421.374722256947
  C      -1.495908      1.260001     -0.152762
  C      -1.362575     -0.221620     -0.341836
  C       2.399712      0.153464      0.099579
  C       0.010908     -0.854672     -0.085826
  C       1.192675     -0.137796     -0.680179
  O      -1.140030     -1.329793      1.730763
  O       1.468584      1.170436     -0.229881
  O       0.107209     -0.859956      1.330135
  H      -1.760358     -0.800813      0.772710
  H      -2.543434      1.557316     -0.159145
  H      -1.032024      1.574483      0.780559
  H      -0.987684      1.795697     -0.960552
  H      -1.922340     -0.642864     -1.173052
  H       3.353452      0.220499     -0.409298
  H       2.421245     -0.122833      1.145770
  H       0.002012     -1.886209     -0.453677
  H       1.291188     -0.274054     -1.753413
17
Coordinates from ORCA-job freq E -421.374739135115
  C      -1.497084      1.261979     -0.165380
  C      -1.364233     -0.221819     -0.336571
  C       2.403093      0.146459      0.103110
  C       0.011182     -0.852993     -0.084161
  C       1.190401     -0.128114     -0.673477
  O      -1.136410     -1.339299      1.730674
  O       1.471092      1.170778     -0.199519
  O       0.109589     -0.866498      1.331300
  H      -1.758538     -0.797480      0.782772
  H      -2.545067      1.557859     -0.158394
  H      -1.018026      1.590825      0.755167
  H      -1.004868      1.786891     -0.990075
  H      -1.929300     -0.653009     -1.159078
  H       3.353500      0.221975     -0.410747
  H       2.431623     -0.149941      1.143703
  H       0.004310     -1.881852     -0.459702
  H       1.281367     -0.244475     -1.749725
17
Coordinates from ORCA-job freq E -421.374724578630
  C      -1.497264      1.261818     -0.165144
  C      -1.364307     -0.221935     -0.336995
  C       2.403166      0.146341      0.103144
  C       0.011182     -0.852759     -0.084232
  C       1.190515     -0.127982     -0.673651
  O      -1.136593     -1.339418      1.730323
  O       1.471657      1.171169     -0.200284
  O       0.109256     -0.865647      1.331294
  H      -1.758890     -0.797097      0.782588
  H      -2.545256      1.557654     -0.157277
  H      -1.017539      1.590173      0.755241
  H      -1.005495      1.787149     -0.989849
  H      -1.929235     -0.653225     -1.159550
  H       3.353733      0.221231     -0.410515
  H       2.431286     -0.149539      1.143894
  H       0.004738     -1.881831     -0.459252
  H       1.281679     -0.244816     -1.749839
17
Coordinates from ORCA-job freq E -421.374737388068
  C      -1.497071      1.261855     -0.165193
  C      -1.364293     -0.221932     -0.336914
  C       2.403059      0.146466      0.103158
  C       0.011146     -0.852892     -0.084237
  C       1.190442     -0.128065     -0.673620
  O      -1.136605     -1.339449      1.730396
  O       1.471301      1.171130     -0.200162
  O       0.109322     -0.865958      1.331286
  H      -1.758863     -0.797205      0.782639
  H      -2.545028      1.557810     -0.157387
  H      -1.017301      1.590251      0.755146
  H      -1.005236      1.787039     -0.989953
  H      -1.929297     -0.653174     -1.159441
  H       3.353598      0.221603     -0.410517
  H       2.431243     -0.149461      1.143889
  H       0.004613     -1.881918     -0.459378
  H       1.281602     -0.244813     -1.749815
