15
Coordinates from ORCA-job freq E -270.969848300777
  C           1.88493522249706      0.88786362367585     -0.43019838877357
  C          -0.35068308596694     -0.24020976961610     -0.19637344785323
  C          -2.16575776336672      0.11347581251162      1.03390588926348
  C           1.08728893493671     -0.22948599052418      0.23119019322793
  C          -1.37618302159968     -1.01909539635931      0.57746397765221
  O          -1.36606664129516     -0.57142578482383      1.93854279499916
  H          -1.16622363410868      0.81142348822675      0.31804437232843
  H           1.85715316306610      0.79685416250775     -1.51701353039244
  H           2.92829124656798      0.86713286345126     -0.11820433449920
  H           1.47055904996256      1.86122281401520     -0.16669939505782
  H          -0.53972181418548     -0.21676253267144     -1.26906315384141
  H          -3.22411940799094      0.25974536666021      1.22261283759962
  H           1.53863682612456     -1.19959317910833     -0.01388197790210
  H           1.12970110078192     -0.13890701863751      1.31815194146628
  H          -1.70022117542330     -2.03781645930791      0.41884422178265
