15
Coordinates from ORCA-job freq E -271.042395657331
  C      -1.660275     -0.354982      0.721371
  C      -1.133475     -0.781925     -0.598130
  C       0.068301     -0.433375     -1.188540
  O       0.369680      1.312849     -1.311315
  C       1.180138      0.397564     -0.654281
  C       1.439907      0.605229      0.816544
  H      -2.620551     -0.820871      0.926163
  H      -0.985384     -0.611908      1.538339
  H      -1.796925      0.727335      0.758394
  H      -1.782447     -1.401337     -1.205578
  H       0.247890     -0.815149     -2.183454
  H       2.117633      0.182030     -1.183963
  H       0.576855      1.030813      1.317133
  H       1.707107     -0.333357      1.302696
  H       2.271547      1.297084      0.944620
15
Coordinates from ORCA-job freq E -271.042279358978
  C      -1.639109     -0.345622      0.723900
  C      -1.122703     -0.795691     -0.597782
  C       0.070022     -0.458063     -1.189448
  O       0.359259      1.323778     -1.304371
  C       1.165795      0.408831     -0.660855
  C       1.417469      0.606747      0.815134
  H      -2.646964     -0.715895      0.892203
  H      -1.013137     -0.698944      1.545549
  H      -1.658775      0.743392      0.783017
  H      -1.771542     -1.432600     -1.186698
  H       0.252465     -0.833456     -2.186004
  H       2.105340      0.205292     -1.189313
  H       0.537573      0.991448      1.320441
  H       1.722028     -0.328484      1.286093
  H       2.222278      1.329268      0.948134
15
Coordinates from ORCA-job freq E -271.042230768601
  C      -1.637397     -0.329911      0.719179
  C      -1.109114     -0.815650     -0.590368
  C       0.070139     -0.472462     -1.187118
  O       0.334885      1.341158     -1.279824
  C       1.151038      0.426602     -0.664732
  C       1.416272      0.600774      0.814317
  H      -2.675583     -0.626223      0.847045
  H      -1.068983     -0.740400      1.557510
  H      -1.575911      0.756416      0.779843
  H      -1.740424     -1.492913     -1.152658
  H       0.256696     -0.844759     -2.184040
  H       2.086629      0.242901     -1.205454
  H       0.532877      0.946679      1.341682
  H       1.756774     -0.336376      1.256521
  H       2.202102      1.344166      0.948095
15
Coordinates from ORCA-job freq E -271.042240714548
  C      -1.642637     -0.327233      0.717033
  C      -1.109799     -0.815826     -0.589370
  C       0.070686     -0.472689     -1.184981
  O       0.330881      1.341707     -1.273575
  C       1.151367      0.427114     -0.663393
  C       1.422766      0.597722      0.814884
  H      -2.678334     -0.632752      0.845367
  H      -1.071113     -0.726104      1.558413
  H      -1.594036      0.760211      0.769668
  H      -1.741502     -1.491504     -1.153293
  H       0.259811     -0.849882     -2.179713
  H       2.085101      0.246898     -1.208533
  H       0.539644      0.932972      1.349468
  H       1.774540     -0.338267      1.250679
  H       2.202626      1.347632      0.947344
15
Coordinates from ORCA-job freq E -271.042216328569
  C      -1.635820     -0.329744      0.719743
  C      -1.116275     -0.804922     -0.596935
  C       0.071223     -0.476362     -1.186562
  O       0.343692      1.335661     -1.279764
  C       1.155162      0.417407     -0.662146
  C       1.415587      0.598578      0.816480
  H      -2.661851     -0.657438      0.868160
  H      -1.038729     -0.715051      1.548956
  H      -1.608443      0.759148      0.773288
  H      -1.761902     -1.458182     -1.171321
  H       0.260592     -0.855042     -2.180616
  H       2.091329      0.230082     -1.200577
  H       0.524982      0.930901      1.340718
  H       1.772186     -0.331028      1.261929
  H       2.188267      1.355993      0.948646
15
Coordinates from ORCA-job freq E -271.042236816282
  C      -1.640289     -0.324980      0.716559
  C      -1.108900     -0.817693     -0.588912
  C       0.071222     -0.474408     -1.185522
  O       0.324606      1.340468     -1.271543
  C       1.149546      0.428056     -0.663829
  C       1.421048      0.597263      0.814455
  H      -2.682039     -0.612219      0.837969
  H      -1.080947     -0.738770      1.559116
  H      -1.571332      0.761039      0.774641
  H      -1.740137     -1.495911     -1.150254
  H       0.262638     -0.855485     -2.178372
  H       2.083344      0.252592     -1.210394
  H       0.534706      0.920479      1.351190
  H       1.784016     -0.336046      1.246784
  H       2.192517      1.355618      0.948110
15
Coordinates from ORCA-job freq E -271.042242224278
  C      -1.639990     -0.327629      0.717310
  C      -1.110041     -0.815047     -0.590748
  C       0.071054     -0.473108     -1.185979
  O       0.330024      1.341102     -1.273342
  C       1.151186      0.426611     -0.663437
  C       1.420287      0.597448      0.815303
  H      -2.673954     -0.636803      0.850289
  H      -1.063191     -0.723167      1.556596
  H      -1.594563      0.760168      0.768852
  H      -1.743465     -1.488447     -1.155406
  H       0.260687     -0.850910     -2.180379
  H       2.085406      0.247729     -1.208087
  H       0.537286      0.938893      1.346327
  H       1.765182     -0.339842      1.253809
  H       2.204092      1.343003      0.948891
15
Coordinates from ORCA-job freq E -271.042236183994
  C      -1.640369     -0.327479      0.717321
  C      -1.110017     -0.815176     -0.590460
  C       0.071108     -0.473293     -1.185728
  O       0.329779      1.340886     -1.273385
  C       1.151227      0.426631     -0.663526
  C       1.420697      0.597678      0.815091
  H      -2.675566     -0.633456      0.848240
  H      -1.066395     -0.726248      1.557051
  H      -1.591535      0.760053      0.770383
  H      -1.743172     -1.489017     -1.154902
  H       0.260759     -0.851425     -2.180004
  H       2.085357      0.247874     -1.208374
  H       0.537110      0.936343      1.346888
  H       1.768553     -0.338799      1.252983
  H       2.202465      1.345429      0.948421
15
Coordinates from ORCA-job freq E -271.042242929722
  C      -1.640403     -0.327454      0.717321
  C      -1.110031     -0.815159     -0.590447
  C       0.071103     -0.473282     -1.185709
  O       0.329797      1.340856     -1.273398
  C       1.151250      0.426613     -0.663524
  C       1.420726      0.597671      0.815089
  H      -2.675634     -0.633349      0.848155
  H      -1.066519     -0.726303      1.557079
  H      -1.591461      0.760072      0.770424
  H      -1.743178     -1.488996     -1.154897
  H       0.260754     -0.851454     -2.179970
  H       2.085370      0.247825     -1.208381
  H       0.537067      0.936062      1.346946
  H       1.768864     -0.338737      1.252901
  H       2.202295      1.345636      0.948410
