15
* (null), Energy   -1000.0000000
C    -1.684606   -0.487114    1.058840   -0.011245   -0.019119    0.019476
C    -1.154233   -0.974819   -0.248927   -0.080357    0.083202    0.046262
C     0.026900   -0.632943   -0.844189    0.037922    1.127627   -0.274741
O     0.285595    1.181196   -0.931878   -0.372257   -0.906426   -0.120986
C     1.107048    0.266952   -0.322004    0.415703   -0.137368    0.209469
C     1.376524    0.438010    1.156608    0.083227    0.038634    0.124443
H    -2.719836   -0.793010    1.189675    0.004713   -0.059100    0.069221
H    -1.110722   -0.885963    1.898599    0.032349    0.048416    0.043964
H    -1.635663    0.600411    1.111944   -0.043729   -0.002431    0.026139
H    -1.787381   -1.648657   -0.813377    0.111925    0.086791   -0.121698
H     0.216552   -1.011115   -1.838451    0.023720    0.951494   -0.209590
H     2.041167    0.088165   -0.866862    0.433034    0.160828    0.204787
H     0.492865    0.776401    1.688466   -0.044324   -0.020888   -0.054100
H     1.724661   -0.498398    1.594421    0.086995    0.091562    0.236092
H     2.158093    1.185975    1.289929   -0.001665    0.106598    0.237112
15
* Frequency(6) -536.0673
C    -1.685883   -0.489287    1.061054   -0.011245   -0.019119    0.019476
C    -1.163365   -0.965364   -0.243669   -0.080357    0.083202    0.046262
C     0.031210   -0.504794   -0.875412    0.037922    1.127627   -0.274741
O     0.243290    1.078185   -0.945628   -0.372257   -0.906426   -0.120986
C     1.154291    0.251341   -0.298199    0.415703   -0.137368    0.209469
C     1.385982    0.442401    1.170750    0.083227    0.038634    0.124443
H    -2.719300   -0.799726    1.197541    0.004713   -0.059100    0.069221
H    -1.107045   -0.880461    1.903595    0.032349    0.048416    0.043964
H    -1.640633    0.600135    1.114915   -0.043729   -0.002431    0.026139
H    -1.774661   -1.638793   -0.827207    0.111925    0.086791   -0.121698
H     0.219247   -0.902983   -1.862269    0.023720    0.951494   -0.209590
H     2.090379    0.106442   -0.843589    0.433034    0.160828    0.204787
H     0.487827    0.774027    1.682317   -0.044324   -0.020888   -0.054100
H     1.734548   -0.487993    1.621251    0.086995    0.091562    0.236092
H     2.157903    1.198090    1.316876   -0.001665    0.106598    0.237112
15
* Frequency(6) -536.0673
C    -1.687023   -0.491225    1.063027   -0.011245   -0.019119    0.019476
C    -1.171508   -0.956933   -0.238982   -0.080357    0.083202    0.046262
C     0.035053   -0.390532   -0.903251    0.037922    1.127627   -0.274741
O     0.205569    0.986337   -0.957887   -0.372257   -0.906426   -0.120986
C     1.196414    0.237421   -0.276974    0.415703   -0.137368    0.209469
C     1.394416    0.446316    1.183360    0.083227    0.038634    0.124443
H    -2.718823   -0.805715    1.204556    0.004713   -0.059100    0.069221
H    -1.103767   -0.875555    1.908050    0.032349    0.048416    0.043964
H    -1.645064    0.599888    1.117563   -0.043729   -0.002431    0.026139
H    -1.763320   -1.629999   -0.839539    0.111925    0.086791   -0.121698
H     0.221651   -0.806568   -1.883507    0.023720    0.951494   -0.209590
H     2.134258    0.122739   -0.822838    0.433034    0.160828    0.204787
H     0.483336    0.771910    1.676836   -0.044324   -0.020888   -0.054100
H     1.743363   -0.478715    1.645174    0.086995    0.091562    0.236092
H     2.157735    1.208891    1.340902   -0.001665    0.106598    0.237112
15
* Frequency(6) -536.0673
C    -1.687900   -0.492717    1.064547   -0.011245   -0.019119    0.019476
C    -1.177778   -0.950441   -0.235372   -0.080357    0.083202    0.046262
C     0.038012   -0.302539   -0.924690    0.037922    1.127627   -0.274741
O     0.176520    0.915605   -0.967328   -0.372257   -0.906426   -0.120986
C     1.228852    0.226702   -0.260628    0.415703   -0.137368    0.209469
C     1.400910    0.449330    1.193071    0.083227    0.038634    0.124443
H    -2.718455   -0.810326    1.209957    0.004713   -0.059100    0.069221
H    -1.101243   -0.871777    1.911481    0.032349    0.048416    0.043964
H    -1.648476    0.599699    1.119603   -0.043729   -0.002431    0.026139
H    -1.754586   -1.623226   -0.849035    0.111925    0.086791   -0.121698
H     0.223502   -0.732319   -1.899862    0.023720    0.951494   -0.209590
H     2.168050    0.135289   -0.806857    0.433034    0.160828    0.204787
H     0.479877    0.770280    1.672614   -0.044324   -0.020888   -0.054100
H     1.750152   -0.471570    1.663597    0.086995    0.091562    0.236092
H     2.157605    1.217209    1.359405   -0.001665    0.106598    0.237112
15
* Frequency(6) -536.0673
C    -1.688421   -0.493601    1.065448   -0.011245   -0.019119    0.019476
C    -1.181497   -0.946590   -0.233231   -0.080357    0.083202    0.046262
C     0.039767   -0.250350   -0.937406    0.037922    1.127627   -0.274741
O     0.159292    0.873654   -0.972928   -0.372257   -0.906426   -0.120986
C     1.248092    0.220344   -0.250934    0.415703   -0.137368    0.209469
C     1.404762    0.451119    1.198830    0.083227    0.038634    0.124443
H    -2.718237   -0.813062    1.213161    0.004713   -0.059100    0.069221
H    -1.099746   -0.869536    1.913515    0.032349    0.048416    0.043964
H    -1.650500    0.599586    1.120813   -0.043729   -0.002431    0.026139
H    -1.749406   -1.619209   -0.854668    0.111925    0.086791   -0.121698
H     0.224600   -0.688282   -1.909562    0.023720    0.951494   -0.209590
H     2.188091    0.142732   -0.797380    0.433034    0.160828    0.204787
H     0.477826    0.769314    1.670110   -0.044324   -0.020888   -0.054100
H     1.754178   -0.467332    1.674524    0.086995    0.091562    0.236092
H     2.157528    1.222143    1.370379   -0.001665    0.106598    0.237112
15
* Frequency(6) -536.0673
C    -1.688528   -0.493783    1.065634   -0.011245   -0.019119    0.019476
C    -1.182262   -0.945798   -0.232790   -0.080357    0.083202    0.046262
C     0.040128   -0.239622   -0.940020    0.037922    1.127627   -0.274741
O     0.155750    0.865030   -0.974079   -0.372257   -0.906426   -0.120986
C     1.252047    0.219037   -0.248941    0.415703   -0.137368    0.209469
C     1.405554    0.451486    1.200014    0.083227    0.038634    0.124443
H    -2.718192   -0.813624    1.213819    0.004713   -0.059100    0.069221
H    -1.099438   -0.869076    1.913934    0.032349    0.048416    0.043964
H    -1.650916    0.599563    1.121062   -0.043729   -0.002431    0.026139
H    -1.748341   -1.618384   -0.855826    0.111925    0.086791   -0.121698
H     0.224825   -0.679229   -1.911557    0.023720    0.951494   -0.209590
H     2.192211    0.144262   -0.795431    0.433034    0.160828    0.204787
H     0.477404    0.769115    1.669595   -0.044324   -0.020888   -0.054100
H     1.755006   -0.466461    1.676771    0.086995    0.091562    0.236092
H     2.157512    1.223157    1.372635   -0.001665    0.106598    0.237112
15
* Frequency(6) -536.0673
C    -1.688210   -0.493243    1.065083   -0.011245   -0.019119    0.019476
C    -1.179989   -0.948151   -0.234099   -0.080357    0.083202    0.046262
C     0.039055   -0.271515   -0.932249    0.037922    1.127627   -0.274741
O     0.166279    0.890667   -0.970657   -0.372257   -0.906426   -0.120986
C     1.240289    0.222922   -0.254865    0.415703   -0.137368    0.209469
C     1.403200    0.450393    1.196495    0.083227    0.038634    0.124443
H    -2.718326   -0.811952    1.211862    0.004713   -0.059100    0.069221
H    -1.100353   -0.870445    1.912690    0.032349    0.048416    0.043964
H    -1.649679    0.599632    1.120322   -0.043729   -0.002431    0.026139
H    -1.751506   -1.620838   -0.852384    0.111925    0.086791   -0.121698
H     0.224154   -0.706141   -1.905629    0.023720    0.951494   -0.209590
H     2.179963    0.139713   -0.801223    0.433034    0.160828    0.204787
H     0.478658    0.769706    1.671125   -0.044324   -0.020888   -0.054100
H     1.752545   -0.469051    1.670093    0.086995    0.091562    0.236092
H     2.157559    1.220142    1.365928   -0.001665    0.106598    0.237112
15
* Frequency(6) -536.0673
C    -1.687501   -0.492038    1.063856   -0.011245   -0.019119    0.019476
C    -1.174925   -0.953395   -0.237014   -0.080357    0.083202    0.046262
C     0.036665   -0.342575   -0.914936    0.037922    1.127627   -0.274741
O     0.189737    0.947788   -0.963033   -0.372257   -0.906426   -0.120986
C     1.214093    0.231579   -0.268065    0.415703   -0.137368    0.209469
C     1.397955    0.447959    1.188653    0.083227    0.038634    0.124443
H    -2.718623   -0.808228    1.207500    0.004713   -0.059100    0.069221
H    -1.102392   -0.873496    1.909920    0.032349    0.048416    0.043964
H    -1.646924    0.599785    1.118675   -0.043729   -0.002431    0.026139
H    -1.758560   -1.626308   -0.844715    0.111925    0.086791   -0.121698
H     0.222660   -0.766102   -1.892421    0.023720    0.951494   -0.209590
H     2.152675    0.129579   -0.814128    0.433034    0.160828    0.204787
H     0.481451    0.771022    1.674535   -0.044324   -0.020888   -0.054100
H     1.747063   -0.474821    1.655215    0.086995    0.091562    0.236092
H     2.157664    1.213425    1.350986   -0.001665    0.106598    0.237112
15
* Frequency(6) -536.0673
C    -1.686479   -0.490299    1.062085   -0.011245   -0.019119    0.019476
C    -1.167619   -0.960959   -0.241220   -0.080357    0.083202    0.046262
C     0.033218   -0.445101   -0.889956    0.037922    1.127627   -0.274741
O     0.223584    1.030202   -0.952033   -0.372257   -0.906426   -0.120986
C     1.176297    0.244069   -0.287111    0.415703   -0.137368    0.209469
C     1.390388    0.444446    1.177338    0.083227    0.038634    0.124443
H    -2.719051   -0.802855    1.201206    0.004713   -0.059100    0.069221
H    -1.105333   -0.877898    1.905922    0.032349    0.048416    0.043964
H    -1.642948    0.600006    1.116298   -0.043729   -0.002431    0.026139
H    -1.768736   -1.634199   -0.833650    0.111925    0.086791   -0.121698
H     0.220503   -0.852613   -1.873364    0.023720    0.951494   -0.209590
H     2.113303    0.114956   -0.832748    0.433034    0.160828    0.204787
H     0.485481    0.772921    1.679454   -0.044324   -0.020888   -0.054100
H     1.739153   -0.483146    1.633749    0.086995    0.091562    0.236092
H     2.157815    1.203732    1.329428   -0.001665    0.106598    0.237112
15
* Frequency(6) -536.0673
C    -1.685253   -0.488216    1.059962   -0.011245   -0.019119    0.019476
C    -1.158862   -0.970026   -0.246262   -0.080357    0.083202    0.046262
C     0.029085   -0.567983   -0.860016    0.037922    1.127627   -0.274741
O     0.264150    1.128978   -0.938848   -0.372257   -0.906426   -0.120986
C     1.130996    0.259038   -0.309937    0.415703   -0.137368    0.209469
C     1.381318    0.440236    1.163777    0.083227    0.038634    0.124443
H    -2.719565   -0.796414    1.193663    0.004713   -0.059100    0.069221
H    -1.108858   -0.883174    1.901132    0.032349    0.048416    0.043964
H    -1.638182    0.600271    1.113450   -0.043729   -0.002431    0.026139
H    -1.780933   -1.643657   -0.820388    0.111925    0.086791   -0.121698
H     0.217918   -0.956301   -1.850525    0.023720    0.951494   -0.209590
H     2.066113    0.097430   -0.855064    0.433034    0.160828    0.204787
H     0.490311    0.775198    1.685349   -0.044324   -0.020888   -0.054100
H     1.729673   -0.493124    1.608021    0.086995    0.091562    0.236092
H     2.157997    1.192116    1.303589   -0.001665    0.106598    0.237112
15
* Frequency(6) -536.0673
C    -1.683958   -0.486013    1.057718   -0.011245   -0.019119    0.019476
C    -1.149604   -0.979612   -0.251592   -0.080357    0.083202    0.046262
C     0.024716   -0.697904   -0.828362    0.037922    1.127627   -0.274741
O     0.307040    1.233413   -0.924909   -0.372257   -0.906426   -0.120986
C     1.083100    0.274865   -0.334071    0.415703   -0.137368    0.209469
C     1.371729    0.435785    1.149439    0.083227    0.038634    0.124443
H    -2.720107   -0.789605    1.185687    0.004713   -0.059100    0.069221
H    -1.112585   -0.888753    1.896066    0.032349    0.048416    0.043964
H    -1.633144    0.600551    1.110438   -0.043729   -0.002431    0.026139
H    -1.793828   -1.653656   -0.806366    0.111925    0.086791   -0.121698
H     0.215185   -1.065929   -1.826377    0.023720    0.951494   -0.209590
H     2.016221    0.078900   -0.878659    0.433034    0.160828    0.204787
H     0.495418    0.777604    1.691582   -0.044324   -0.020888   -0.054100
H     1.719650   -0.503673    1.580820    0.086995    0.091562    0.236092
H     2.158189    1.179834    1.276270   -0.001665    0.106598    0.237112
15
* Frequency(6) -536.0673
C    -1.682732   -0.483930    1.055596   -0.011245   -0.019119    0.019476
C    -1.140847   -0.988679   -0.256633   -0.080357    0.083202    0.046262
C     0.020583   -0.820785   -0.798422    0.037922    1.127627   -0.274741
O     0.347606    1.332189   -0.911724   -0.372257   -0.906426   -0.120986
C     1.037800    0.289835   -0.356898    0.415703   -0.137368    0.209469
C     1.362660    0.431575    1.135878    0.083227    0.038634    0.124443
H    -2.720621   -0.783165    1.178144    0.004713   -0.059100    0.069221
H    -1.116110   -0.894029    1.891275    0.032349    0.048416    0.043964
H    -1.628379    0.600816    1.107590   -0.043729   -0.002431    0.026139
H    -1.806025   -1.663114   -0.793104    0.111925    0.086791   -0.121698
H     0.212600   -1.169616   -1.803537    0.023720    0.951494   -0.209590
H     1.969032    0.061374   -0.900975    0.433034    0.160828    0.204787
H     0.500248    0.779880    1.697478   -0.044324   -0.020888   -0.054100
H     1.710170   -0.513651    1.555092    0.086995    0.091562    0.236092
H     2.158370    1.168218    1.250431   -0.001665    0.106598    0.237112
15
* Frequency(6) -536.0673
C    -1.681710   -0.482191    1.053825   -0.011245   -0.019119    0.019476
C    -1.133541   -0.996244   -0.260840   -0.080357    0.083202    0.046262
C     0.017135   -0.923311   -0.773442    0.037922    1.127627   -0.274741
O     0.381452    1.414603   -0.900724   -0.372257   -0.906426   -0.120986
C     1.000003    0.302325   -0.375943    0.415703   -0.137368    0.209469
C     1.355093    0.428062    1.124564    0.083227    0.038634    0.124443
H    -2.721050   -0.777791    1.171850    0.004713   -0.059100    0.069221
H    -1.119052   -0.898431    1.887278    0.032349    0.048416    0.043964
H    -1.624403    0.601037    1.105213   -0.043729   -0.002431    0.026139
H    -1.816201   -1.671005   -0.782039    0.111925    0.086791   -0.121698
H     0.210444   -1.256128   -1.784481    0.023720    0.951494   -0.209590
H     1.929659    0.046751   -0.919595    0.433034    0.160828    0.204787
H     0.504278    0.781780    1.702397   -0.044324   -0.020888   -0.054100
H     1.702260   -0.521976    1.533626    0.086995    0.091562    0.236092
H     2.158522    1.158526    1.228872   -0.001665    0.106598    0.237112
15
* Frequency(6) -536.0673
C    -1.681001   -0.480986    1.052598   -0.011245   -0.019119    0.019476
C    -1.128477   -1.001487   -0.263755   -0.080357    0.083202    0.046262
C     0.014746   -0.994371   -0.756129    0.037922    1.127627   -0.274741
O     0.404911    1.471724   -0.893100   -0.372257   -0.906426   -0.120986
C     0.973807    0.310981   -0.389143    0.415703   -0.137368    0.209469
C     1.349848    0.425627    1.116722    0.083227    0.038634    0.124443
H    -2.721346   -0.774067    1.167488    0.004713   -0.059100    0.069221
H    -1.121090   -0.901482    1.884508    0.032349    0.048416    0.043964
H    -1.621647    0.601190    1.103566   -0.043729   -0.002431    0.026139
H    -1.823255   -1.676475   -0.774370    0.111925    0.086791   -0.121698
H     0.208949   -1.316089   -1.771273    0.023720    0.951494   -0.209590
H     1.902371    0.036616   -0.932500    0.433034    0.160828    0.204787
H     0.507071    0.783096    1.705806   -0.044324   -0.020888   -0.054100
H     1.696778   -0.527746    1.518748    0.086995    0.091562    0.236092
H     2.158626    1.151808    1.213930   -0.001665    0.106598    0.237112
15
* Frequency(6) -536.0673
C    -1.680683   -0.480446    1.052047   -0.011245   -0.019119    0.019476
C    -1.126204   -1.003841   -0.265063   -0.080357    0.083202    0.046262
C     0.013673   -1.026265   -0.748358    0.037922    1.127627   -0.274741
O     0.415440    1.497361   -0.889678   -0.372257   -0.906426   -0.120986
C     0.962049    0.314866   -0.395068    0.415703   -0.137368    0.209469
C     1.347494    0.424535    1.113202    0.083227    0.038634    0.124443
H    -2.721480   -0.772395    1.165530    0.004713   -0.059100    0.069221
H    -1.122005   -0.902851    1.883264    0.032349    0.048416    0.043964
H    -1.620410    0.601259    1.102827   -0.043729   -0.002431    0.026139
H    -1.826420   -1.678930   -0.770928    0.111925    0.086791   -0.121698
H     0.208278   -1.343001   -1.765345    0.023720    0.951494   -0.209590
H     1.890123    0.032067   -0.938292    0.433034    0.160828    0.204787
H     0.508325    0.783687    1.707336   -0.044324   -0.020888   -0.054100
H     1.694317   -0.530335    1.512071    0.086995    0.091562    0.236092
H     2.158674    1.148793    1.207224   -0.001665    0.106598    0.237112
15
* Frequency(6) -536.0673
C    -1.680790   -0.480627    1.052232   -0.011245   -0.019119    0.019476
C    -1.126969   -1.003049   -0.264623   -0.080357    0.083202    0.046262
C     0.014034   -1.015536   -0.750972    0.037922    1.127627   -0.274741
O     0.411898    1.488737   -0.890829   -0.372257   -0.906426   -0.120986
C     0.966004    0.313559   -0.393075    0.415703   -0.137368    0.209469
C     1.348286    0.424902    1.114386    0.083227    0.038634    0.124443
H    -2.721435   -0.772957    1.166189    0.004713   -0.059100    0.069221
H    -1.121697   -0.902390    1.883682    0.032349    0.048416    0.043964
H    -1.620826    0.601236    1.103075   -0.043729   -0.002431    0.026139
H    -1.825355   -1.678104   -0.772086    0.111925    0.086791   -0.121698
H     0.208504   -1.333948   -1.767339    0.023720    0.951494   -0.209590
H     1.894243    0.033597   -0.936344    0.433034    0.160828    0.204787
H     0.507903    0.783488    1.706821   -0.044324   -0.020888   -0.054100
H     1.695145   -0.529464    1.514317    0.086995    0.091562    0.236092
H     2.158658    1.149808    1.209480   -0.001665    0.106598    0.237112
15
* Frequency(6) -536.0673
C    -1.681311   -0.481512    1.053134   -0.011245   -0.019119    0.019476
C    -1.130688   -0.999198   -0.262482   -0.080357    0.083202    0.046262
C     0.015789   -0.963347   -0.763687    0.037922    1.127627   -0.274741
O     0.394669    1.446786   -0.896429   -0.372257   -0.906426   -0.120986
C     0.985244    0.307202   -0.383380    0.415703   -0.137368    0.209469
C     1.352138    0.426690    1.120145    0.083227    0.038634    0.124443
H    -2.721217   -0.775693    1.169393    0.004713   -0.059100    0.069221
H    -1.120200   -0.900150    1.885717    0.032349    0.048416    0.043964
H    -1.622850    0.601123    1.104285   -0.043729   -0.002431    0.026139
H    -1.820175   -1.674087   -0.777718    0.111925    0.086791   -0.121698
H     0.209601   -1.289911   -1.777039    0.023720    0.951494   -0.209590
H     1.914285    0.041041   -0.926866    0.433034    0.160828    0.204787
H     0.505852    0.782521    1.704317   -0.044324   -0.020888   -0.054100
H     1.699171   -0.525227    1.525244    0.086995    0.091562    0.236092
H     2.158581    1.154741    1.220453   -0.001665    0.106598    0.237112
15
* Frequency(6) -536.0673
C    -1.682188   -0.483004    1.054654   -0.011245   -0.019119    0.019476
C    -1.136958   -0.992706   -0.258872   -0.080357    0.083202    0.046262
C     0.018748   -0.875354   -0.785127    0.037922    1.127627   -0.274741
O     0.365621    1.376054   -0.905870   -0.372257   -0.906426   -0.120986
C     1.017683    0.296482   -0.367035    0.415703   -0.137368    0.209469
C     1.358632    0.429705    1.129856    0.083227    0.038634    0.124443
H    -2.720849   -0.780304    1.174794    0.004713   -0.059100    0.069221
H    -1.117676   -0.896372    1.889148    0.032349    0.048416    0.043964
H    -1.626262    0.600934    1.106325   -0.043729   -0.002431    0.026139
H    -1.811441   -1.667314   -0.787215    0.111925    0.086791   -0.121698
H     0.211452   -1.215662   -1.793394    0.023720    0.951494   -0.209590
H     1.948076    0.053591   -0.910886    0.433034    0.160828    0.204787
H     0.502393    0.780891    1.700096   -0.044324   -0.020888   -0.054100
H     1.705960   -0.518082    1.543667    0.086995    0.091562    0.236092
H     2.158451    1.163059    1.238956   -0.001665    0.106598    0.237112
15
* Frequency(6) -536.0673
C    -1.683328   -0.484942    1.056627   -0.011245   -0.019119    0.019476
C    -1.145101   -0.984275   -0.254184   -0.080357    0.083202    0.046262
C     0.022591   -0.761092   -0.812966    0.037922    1.127627   -0.274741
O     0.327900    1.284206   -0.918129   -0.372257   -0.906426   -0.120986
C     1.059806    0.282563   -0.345809    0.415703   -0.137368    0.209469
C     1.367066    0.433620    1.142466    0.083227    0.038634    0.124443
H    -2.720372   -0.786293    1.181808    0.004713   -0.059100    0.069221
H    -1.114398   -0.891466    1.893603    0.032349    0.048416    0.043964
H    -1.630694    0.600687    1.108974   -0.043729   -0.002431    0.026139
H    -1.800100   -1.658520   -0.799547    0.111925    0.086791   -0.121698
H     0.213856   -1.119247   -1.814632    0.023720    0.951494   -0.209590
H     1.991955    0.069887   -0.890135    0.433034    0.160828    0.204787
H     0.497902    0.778775    1.694614   -0.044324   -0.020888   -0.054100
H     1.714775   -0.508804    1.567590    0.086995    0.091562    0.236092
H     2.158282    1.173861    1.262983   -0.001665    0.106598    0.237112
15
* Frequency(6) -536.0673
C    -1.684606   -0.487114    1.058840   -0.011245   -0.019119    0.019476
C    -1.154233   -0.974819   -0.248927   -0.080357    0.083202    0.046262
C     0.026900   -0.632943   -0.844189    0.037922    1.127627   -0.274741
O     0.285595    1.181196   -0.931878   -0.372257   -0.906426   -0.120986
C     1.107048    0.266952   -0.322004    0.415703   -0.137368    0.209469
C     1.376524    0.438010    1.156608    0.083227    0.038634    0.124443
H    -2.719836   -0.793010    1.189675    0.004713   -0.059100    0.069221
H    -1.110722   -0.885963    1.898599    0.032349    0.048416    0.043964
H    -1.635663    0.600411    1.111944   -0.043729   -0.002431    0.026139
H    -1.787381   -1.648657   -0.813377    0.111925    0.086791   -0.121698
H     0.216552   -1.011115   -1.838451    0.023720    0.951494   -0.209590
H     2.041167    0.088165   -0.866862    0.433034    0.160828    0.204787
H     0.492865    0.776401    1.688466   -0.044324   -0.020888   -0.054100
H     1.724661   -0.498398    1.594421    0.086995    0.091562    0.236092
H     2.158093    1.185975    1.289929   -0.001665    0.106598    0.237112
