15
Coordinates from ORCA-job freq E -271.042242929722
  C          -1.64040317815796     -0.32745369930876      0.71732075360504
  C          -1.11003068898421     -0.81515862659273     -0.59044658998682
  C           0.07110282143358     -0.47328245319046     -1.18570864897230
  O           0.32979715954515      1.34085631140623     -1.27339814901822
  C           1.15125039961528      0.42661253650819     -0.66352393610479
  C           1.42072627148472      0.59767107066632      0.81508854412709
  H          -2.67563366362219     -0.63334879568659      0.84815521035220
  H          -1.06651927451170     -0.72630266096802      1.55707920307736
  H          -1.59146077217641      0.76007176451481      0.77042444882858
  H          -1.74317815309475     -1.48899582195086     -1.15489656102716
  H           0.26075388802851     -0.85145418508222     -2.17997039033323
  H           2.08536950679962      0.24782547027659     -1.20838141709785
  H           0.53706692801890      0.93606164637805      1.34694600984668
  H           1.76886368868486     -0.33873748260576      1.25290097988769
  H           2.20229506693654      1.34563592563517      0.94840954281573
