17
Coordinates from ORCA-job freq E -421.376804573486
  C           1.91629691886289     -0.51868704638317      0.02305642755605
  C          -1.02774186270071      0.51280272702808     -0.11007757951509
  C          -1.73745422124662     -0.69800647481645      0.49072850150991
  C           1.44048377671659      0.72063448003308      0.71776519945695
  C           0.03987015580196      1.20540915692359      0.64703589164442
  O          -1.02709164295578     -1.44501472838081     -1.44478732985567
  O          -2.16824242583745     -1.41065598170640     -0.65674130424423
  O           0.55499539247095      0.56121670978317      1.80568220098620
  H          -0.64495526085803     -0.29617941870660     -1.09712725509085
  H           1.12037186555998     -1.25427646327444     -0.07241840164368
  H           2.73660247079956     -0.96518994742989      0.58503353023166
  H           2.28352289445221     -0.27352178037714     -0.97406607378233
  H          -1.70199618232070      1.19039629681761     -0.63026304631763
  H          -2.62479167090426     -0.45592456975856      1.07601030960683
  H          -1.04046030842859     -1.29012380914887      1.08499531688267
  H           2.19283460114005      1.48700148343743      0.88401650593974
  H          -0.09681750055206      2.27567436595938      0.77151910663503
