17
Coordinates from ORCA-job freq E -421.423356928085
  C           2.66128905067351      0.01550967847547      0.28658784574332
  C          -1.60763894122629     -1.30413102308891     -0.15019067390313
  C           1.44544618266081     -0.36571538469239     -0.48200760274745
  C           0.28700984941859      0.53564497676544     -0.14649035147107
  C          -1.09124006662697      0.08929291254354      0.04609167567989
  O          -1.78432573739518      2.29559629489600      0.02666792372988
  O          -0.29721864628115      0.36240958369185      1.16611671931816
  O          -2.17707834044626      0.95066643921871     -0.13337154036026
  H           3.64764123649392     -0.18874587336571     -0.09915796302868
  H           2.56384951031413      0.32545893467257      1.31643027309260
  H          -1.94227898388167     -1.43803512414948     -1.17706202435379
  H          -0.83329966782883     -2.02949868773207      0.07876217659334
  H          -2.45177408105065     -1.46946416071844      0.51784180822898
  H           1.63555326135366     -0.30670143669412     -1.55635926187598
  H           1.17244022610049     -1.40670900610951     -0.27256630735904
  H           0.42708271919088      1.57887681985932     -0.40462083432743
  H          -1.65545757146899      2.35554705642773      0.98332913704065
