15
Coordinates from ORCA-job freq E -270.964819955937
  C          -3.95947279234016     -2.14956394984179      3.17989310634178
  C          -2.89773286242985     -1.49747046961590      0.98892857933545
  C          -2.93562546940764     -1.26992420973700      2.47313661247982
  C          -1.56571945126667      0.67556887740646      0.08492276008966
  C          -2.43604302625882     -0.47750037631750      0.06663614342014
  O          -1.37473105646790     -0.43041741125716     -0.82122314644190
  H          -3.69720489056349     -0.78721714024692      0.16046043097819
  H          -3.94691671324347     -1.98453252628694      4.25659330034012
  H          -4.96403370587295     -1.94075190674471      2.81174088093741
  H          -3.75161603126534     -3.20483185123988      2.99908932105585
  H          -2.90567402702889     -2.50817760352247      0.59713157583647
  H          -1.93819238361169     -1.45752324876258      2.88905453880419
  H          -3.14787191689246     -0.21574574627140      2.66730692272264
  H          -1.87639482422484      1.60190016868472     -0.38217922141255
  H          -0.79820684912564      0.75827339375317      0.84771519551260
