17
Coordinates from ORCA-job freq E -421.373192185775
  C       2.190427      0.199140     -0.426708
  C      -0.624561     -0.660746      0.429960
  C      -2.151725     -0.688007      0.437875
  C       1.414359      0.916664      0.643645
  C       0.040357      0.498751      1.042809
  O      -1.638505     -0.463100     -1.737154
  O      -2.559630     -0.088657     -0.783524
  O       1.166095      0.274626      1.853693
  H      -0.685518     -0.542261     -0.902606
  H       2.091018     -0.877074     -0.319159
  H       3.243862      0.459372     -0.352618
  H       1.827195      0.496474     -1.408442
  H      -0.127431     -1.606620      0.613981
  H      -2.615736     -0.092366      1.226611
  H      -2.500303     -1.727239      0.496227
  H       1.630192      1.980280      0.732343
  H      -0.618821      1.296946      1.379987
17
Coordinates from ORCA-job freq E -421.374996858938
  C       2.189760      0.194292     -0.423186
  C      -0.622160     -0.666353      0.432445
  C      -2.150634     -0.702050      0.439475
  C       1.405131      0.930074      0.625037
  C       0.037411      0.514231      1.022698
  O      -1.646090     -0.453478     -1.709570
  O      -2.537273     -0.022268     -0.744565
  O       1.162307      0.298956      1.853101
  H      -0.686733     -0.559909     -0.892325
  H       2.058266     -0.879948     -0.319894
  H       3.249636      0.423697     -0.328310
  H       1.859439      0.497948     -1.415955
  H      -0.116203     -1.604880      0.633600
  H      -2.611736     -0.155115      1.263112
  H      -2.501088     -1.738643      0.426762
  H       1.619528      1.993044      0.707545
  H      -0.628286      1.306586      1.356952
17
Coordinates from ORCA-job freq E -421.375717146829
  C       2.206940      0.180985     -0.408565
  C      -0.620427     -0.667769      0.422276
  C      -2.147826     -0.726384      0.452720
  C       1.399156      0.940919      0.602482
  C       0.029072      0.533535      0.987571
  O      -1.691208     -0.407137     -1.683064
  O      -2.547597      0.024100     -0.682309
  O       1.142004      0.336371      1.846760
  H      -0.713569     -0.555096     -0.897032
  H       2.034323     -0.888982     -0.318667
  H       3.269287      0.372222     -0.263613
  H       1.936115      0.498770     -1.415372
  H      -0.094286     -1.594472      0.627715
  H      -2.601676     -0.241603      1.317942
  H      -2.486924     -1.762081      0.371992
  H       1.612293      2.004766      0.667777
  H      -0.644402      1.328042      1.298308
17
Coordinates from ORCA-job freq E -421.376116963880
  C       2.262776      0.154555     -0.359857
  C      -0.621396     -0.651777      0.364473
  C      -2.139527     -0.772566      0.489928
  C       1.400391      0.952094      0.572451
  C       0.013156      0.569586      0.906148
  O      -1.839924     -0.330495     -1.643675
  O      -2.633866      0.035491     -0.565751
  O       1.084462      0.393801      1.829751
  H      -0.809265     -0.503764     -0.941949
  H       2.024878     -0.905358     -0.308356
  H       3.313847      0.282416     -0.102195
  H       2.119855      0.497872     -1.384587
  H      -0.045586     -1.557620      0.524293
  H      -2.549246     -0.368412      1.416196
  H      -2.447988     -1.811185      0.355682
  H       1.617586      2.016039      0.613164
  H      -0.668880      1.375506      1.161205
17
Coordinates from ORCA-job freq E -421.376335883224
  C       2.355384      0.107637     -0.256571
  C      -0.627296     -0.612958      0.234432
  C      -2.107524     -0.840774      0.543566
  C       1.409297      0.957814      0.539327
  C      -0.009469      0.621196      0.760047
  O      -2.123107     -0.216975     -1.560472
  O      -2.772506      0.027163     -0.357279
  O       0.970363      0.470370      1.791620
  H      -1.001567     -0.389143     -1.026087
  H       2.084986     -0.944344     -0.211251
  H       3.368163      0.215322      0.131377
  H       2.357221      0.425364     -1.299218
  H       0.015314     -1.485864      0.270338
  H      -2.406282     -0.547539      1.550395
  H      -2.379325     -1.879945      0.350253
  H       1.641210      2.019458      0.550438
  H      -0.693585      1.449402      0.916005
17
Coordinates from ORCA-job freq E -421.376379595476
  C       2.373213      0.108184     -0.242578
  C      -0.628712     -0.620554      0.216809
  C      -2.103621     -0.846140      0.552763
  C       1.407053      0.959424      0.526880
  C      -0.012361      0.620106      0.730366
  O      -2.159115     -0.190781     -1.541329
  O      -2.781755      0.039863     -0.322145
  O       0.954575      0.474336      1.775642
  H      -1.032537     -0.388977     -1.034652
  H       2.102609     -0.943826     -0.198557
  H       3.375032      0.217932      0.172412
  H       2.402287      0.421671     -1.286144
  H       0.013930     -1.493461      0.244088
  H      -2.380888     -0.568502      1.570180
  H      -2.384451     -1.880341      0.346555
  H       1.637572      2.021423      0.537629
  H      -0.701560      1.445826      0.879002
17
Coordinates from ORCA-job freq E -421.376383787702
  C       2.376362      0.104689     -0.235167
  C      -0.628808     -0.614883      0.205197
  C      -2.099032     -0.849153      0.555219
  C       1.408744      0.959903      0.527957
  C      -0.013134      0.624658      0.722061
  O      -2.177535     -0.190121     -1.537346
  O      -2.790936      0.033290     -0.312357
  O       0.946331      0.476188      1.773661
  H      -1.045031     -0.379430     -1.041511
  H       2.104325     -0.946833     -0.186977
  H       3.377070      0.215178      0.182188
  H       2.408659      0.413378     -1.280102
  H       0.017336     -1.485620      0.220061
  H      -2.367742     -0.572900      1.575299
  H      -2.376255     -1.884909      0.351756
  H       1.642610      2.021145      0.540205
  H      -0.701690      1.451605      0.866775
17
Coordinates from ORCA-job freq E -421.376379856362
  C       2.377562      0.103879     -0.233287
  C      -0.628930     -0.614043      0.202689
  C      -2.098108     -0.850184      0.555923
  C       1.408895      0.960000      0.527504
  C      -0.013424      0.625599      0.719514
  O      -2.182211     -0.188519     -1.535603
  O      -2.792922      0.032695     -0.308886
  O       0.944290      0.477231      1.772803
  H      -1.048443     -0.377423     -1.042849
  H       2.105254     -0.947542     -0.184516
  H       3.377578      0.214543      0.185684
  H       2.411740      0.411587     -1.278449
  H       0.018051     -1.484190      0.215203
  H      -2.364676     -0.575498      1.576988
  H      -2.374830     -1.885957      0.351797
  H       1.643295      2.021121      0.539547
  H      -0.701847      1.452882      0.862858
17
Coordinates from ORCA-job freq E -421.376366357041
  C       2.378002      0.103747     -0.232762
  C      -0.628975     -0.614019      0.202004
  C      -2.097883     -0.850416      0.556168
  C       1.408909      0.960014      0.527325
  C      -0.013515      0.625712      0.718707
  O      -2.183497     -0.187973     -1.535049
  O      -2.793336      0.032767     -0.307806
  O       0.943695      0.477508      1.772504
  H      -1.049418     -0.377097     -1.043212
  H       2.105608     -0.947657     -0.184097
  H       3.377745      0.214376      0.186867
  H       2.412904      0.411368     -1.277929
  H       0.018152     -1.484064      0.213969
  H      -2.363719     -0.576133      1.577533
  H      -2.374697     -1.886114      0.351826
  H       1.643310      2.021140      0.539258
  H      -0.702011      1.453025      0.861616
17
Coordinates from ORCA-job freq E -421.376389275413
  C       2.379277      0.103008     -0.230915
  C      -0.629120     -0.613414      0.199677
  C      -2.097033     -0.851436      0.556879
  C       1.408995      0.960080      0.526757
  C      -0.013819      0.626474      0.716145
  O      -2.187981     -0.186062     -1.533179
  O      -2.795100      0.032511     -0.304209
  O       0.941695      0.478643      1.771593
  H      -1.052738     -0.375266     -1.044369
  H       2.106732     -0.948336     -0.181796
  H       3.378262      0.213873      0.190463
  H       2.416152      0.409721     -1.276272
  H       0.018733     -1.482932      0.209387
  H      -2.360700     -0.578852      1.579264
  H      -2.373550     -1.887041      0.351641
  H       1.643750      2.021139      0.538297
  H      -0.702281      1.454073      0.857559
17
Coordinates from ORCA-job freq E -421.376387433675
  C       2.376929      0.104321     -0.234273
  C      -0.628823     -0.614615      0.204046
  C      -2.098584     -0.849646      0.555544
  C       1.408794      0.959971      0.527717
  C      -0.013275      0.625039      0.720841
  O      -2.179665     -0.189149     -1.536462
  O      -2.791724      0.033210     -0.310622
  O       0.945362      0.476746      1.773263
  H      -1.046619     -0.378574     -1.042160
  H       2.104824     -0.947168     -0.185720
  H       3.377326      0.214982      0.183778
  H       2.410038      0.412473     -1.279341
  H       0.017692     -1.485094      0.217922
  H      -2.366273     -0.574219      1.576116
  H      -2.375706     -1.885338      0.351616
  H       1.642847      2.021170      0.539791
  H      -0.701869      1.452074      0.864864
17
Coordinates from ORCA-job freq E -421.376388333727
  C       2.377406      0.104029     -0.233574
  C      -0.628895     -0.614255      0.203089
  C      -2.098246     -0.849998      0.555819
  C       1.408854      0.959978      0.527551
  C      -0.013382      0.625386      0.719902
  O      -2.181497     -0.188696     -1.535847
  O      -2.792552      0.032897     -0.309381
  O       0.944622      0.477070      1.772929
  H      -1.047956     -0.377790     -1.042671
  H       2.105191     -0.947421     -0.184872
  H       3.377506      0.214737      0.185177
  H       2.411312      0.411868     -1.278703
  H       0.017922     -1.484523      0.215979
  H      -2.365106     -0.575078      1.576748
  H      -2.375141     -1.885731      0.351751
  H       1.643122      2.021134      0.539578
  H      -0.701888      1.452574      0.863446
17
Coordinates from ORCA-job freq E -421.376366699067
  C       2.377664      0.103893     -0.233187
  C      -0.628908     -0.614205      0.202604
  C      -2.098058     -0.850226      0.555980
  C       1.408856      0.960010      0.527425
  C      -0.013462      0.625525      0.719316
  O      -2.182362     -0.188201     -1.535412
  O      -2.792823      0.032952     -0.308558
  O       0.944154      0.477346      1.772725
  H      -1.048582     -0.377499     -1.042897
  H       2.105372     -0.947536     -0.184463
  H       3.377606      0.214560      0.185948
  H       2.412012      0.411601     -1.278343
  H       0.018055     -1.484365      0.215116
  H      -2.364421     -0.575694      1.577140
  H      -2.374990     -1.885901      0.351673
  H       1.643157      2.021160      0.539360
  H      -0.701993      1.452763      0.862494
