17
* (null), Energy   -1000.0000000
C    -3.382008   -0.117631   -0.431754    0.000145   -0.006539   -0.001250
C    -2.343784   -1.189589   -0.401358   -0.101369   -0.003654    0.133838
C    -0.897251   -0.868794   -0.250839   -0.041507   -0.046423   -0.157554
C    -0.411396    0.506991   -0.113961    0.012384    0.018300   -0.004072
C     0.899143    0.819232    0.466669   -0.003741   -0.002452    0.004333
O     3.006251    0.077450    0.696807   -0.000649    0.000185    0.000025
O     0.728292    0.921961   -0.914159   -0.010269   -0.004419    0.005206
O     1.640369   -0.257797    0.900626    0.000320   -0.000412   -0.000121
H    -1.453174   -1.151930   -1.362776    1.898296    0.521926    0.161904
H    -3.121318    0.680884   -1.130171    0.013883    0.000586   -0.017684
H    -4.345165   -0.519710   -0.738706   -0.008775    0.008287    0.004510
H    -3.510159    0.350119    0.552264   -0.019860    0.052735   -0.012329
H    -2.625934   -2.206998   -0.175282   -0.054962   -0.043541   -0.069941
H    -0.231672   -1.678322    0.008268   -0.065150    0.016848    0.147651
H    -1.165601    1.281806   -0.037980    0.001837    0.007151   -0.000896
H     1.124121    1.742946    0.989425   -0.001249   -0.001768   -0.000598
H     3.124366   -0.143868   -0.236726    0.001959   -0.002705    0.000648
17
* Frequency(6) -1773.2255
C    -3.381992   -0.118374   -0.431896    0.000145   -0.006539   -0.001250
C    -2.355304   -1.190004   -0.386148   -0.101369   -0.003654    0.133838
C    -0.901968   -0.874070   -0.268745   -0.041507   -0.046423   -0.157554
C    -0.409988    0.509071   -0.114424    0.012384    0.018300   -0.004072
C     0.898718    0.818953    0.467162   -0.003741   -0.002452    0.004333
O     3.006177    0.077471    0.696810   -0.000649    0.000185    0.000025
O     0.727125    0.921459   -0.913567   -0.010269   -0.004419    0.005206
O     1.640406   -0.257844    0.900612    0.000320   -0.000412   -0.000121
H    -1.237443   -1.092616   -1.344377    1.898296    0.521926    0.161904
H    -3.119740    0.680950   -1.132180    0.013883    0.000586   -0.017684
H    -4.346162   -0.518769   -0.738193   -0.008775    0.008287    0.004510
H    -3.512416    0.356112    0.550863   -0.019860    0.052735   -0.012329
H    -2.632180   -2.211946   -0.183230   -0.054962   -0.043541   -0.069941
H    -0.239076   -1.676407    0.025048   -0.065150    0.016848    0.147651
H    -1.165392    1.282619   -0.038082    0.001837    0.007151   -0.000896
H     1.123979    1.742745    0.989357   -0.001249   -0.001768   -0.000598
H     3.124588   -0.144175   -0.236653    0.001959   -0.002705    0.000648
17
* Frequency(6) -1773.2255
C    -3.381977   -0.119037   -0.432023    0.000145   -0.006539   -0.001250
C    -2.365576   -1.190374   -0.372586   -0.101369   -0.003654    0.133838
C    -0.906174   -0.878774   -0.284709   -0.041507   -0.046423   -0.157554
C    -0.408734    0.510925   -0.114836    0.012384    0.018300   -0.004072
C     0.898339    0.818705    0.467601   -0.003741   -0.002452    0.004333
O     3.006111    0.077490    0.696812   -0.000649    0.000185    0.000025
O     0.726085    0.921011   -0.913040   -0.010269   -0.004419    0.005206
O     1.640438   -0.257886    0.900600    0.000320   -0.000412   -0.000121
H    -1.045089   -1.039729   -1.327971    1.898296    0.521926    0.161904
H    -3.118333    0.681010   -1.133972    0.013883    0.000586   -0.017684
H    -4.347051   -0.517929   -0.737736   -0.008775    0.008287    0.004510
H    -3.514429    0.361456    0.549614   -0.019860    0.052735   -0.012329
H    -2.637749   -2.216358   -0.190318   -0.054962   -0.043541   -0.069941
H    -0.245678   -1.674700    0.040010   -0.065150    0.016848    0.147651
H    -1.165206    1.283343   -0.038173    0.001837    0.007151   -0.000896
H     1.123852    1.742566    0.989297   -0.001249   -0.001768   -0.000598
H     3.124787   -0.144449   -0.236587    0.001959   -0.002705    0.000648
17
* Frequency(6) -1773.2255
C    -3.381966   -0.119547   -0.432121    0.000145   -0.006539   -0.001250
C    -2.373486   -1.190659   -0.362142   -0.101369   -0.003654    0.133838
C    -0.909413   -0.882397   -0.297004   -0.041507   -0.046423   -0.157554
C    -0.407767    0.512353   -0.115154    0.012384    0.018300   -0.004072
C     0.898047    0.818513    0.467939   -0.003741   -0.002452    0.004333
O     3.006060    0.077504    0.696814   -0.000649    0.000185    0.000025
O     0.725283    0.920666   -0.912634   -0.010269   -0.004419    0.005206
O     1.640463   -0.257918    0.900590    0.000320   -0.000412   -0.000121
H    -0.896958   -0.999001   -1.315337    1.898296    0.521926    0.161904
H    -3.117250    0.681055   -1.135352    0.013883    0.000586   -0.017684
H    -4.347736   -0.517282   -0.737384   -0.008775    0.008287    0.004510
H    -3.515978    0.365571    0.548652   -0.019860    0.052735   -0.012329
H    -2.642038   -2.219756   -0.195775   -0.054962   -0.043541   -0.069941
H    -0.250762   -1.673385    0.051532   -0.065150    0.016848    0.147651
H    -1.165062    1.283901   -0.038243    0.001837    0.007151   -0.000896
H     1.123755    1.742428    0.989250   -0.001249   -0.001768   -0.000598
H     3.124940   -0.144660   -0.236536    0.001959   -0.002705    0.000648
17
* Frequency(6) -1773.2255
C    -3.381959   -0.119850   -0.432178    0.000145   -0.006539   -0.001250
C    -2.378178   -1.190829   -0.355948   -0.101369   -0.003654    0.133838
C    -0.911334   -0.884546   -0.304296   -0.041507   -0.046423   -0.157554
C    -0.407194    0.513200   -0.115343    0.012384    0.018300   -0.004072
C     0.897874    0.818400    0.468140   -0.003741   -0.002452    0.004333
O     3.006030    0.077513    0.696815   -0.000649    0.000185    0.000025
O     0.724808    0.920462   -0.912393   -0.010269   -0.004419    0.005206
O     1.640478   -0.257937    0.900585    0.000320   -0.000412   -0.000121
H    -0.809101   -0.974845   -1.307844    1.898296    0.521926    0.161904
H    -3.116607    0.681082   -1.136171    0.013883    0.000586   -0.017684
H    -4.348142   -0.516899   -0.737176   -0.008775    0.008287    0.004510
H    -3.516898    0.368011    0.548081   -0.019860    0.052735   -0.012329
H    -2.644582   -2.221771   -0.199012   -0.054962   -0.043541   -0.069941
H    -0.253777   -1.672606    0.058365   -0.065150    0.016848    0.147651
H    -1.164977    1.284232   -0.038285    0.001837    0.007151   -0.000896
H     1.123697    1.742346    0.989223   -0.001249   -0.001768   -0.000598
H     3.125031   -0.144786   -0.236506    0.001959   -0.002705    0.000648
17
* Frequency(6) -1773.2255
C    -3.381958   -0.119912   -0.432190    0.000145   -0.006539   -0.001250
C    -2.379142   -1.190863   -0.354674   -0.101369   -0.003654    0.133838
C    -0.911729   -0.884987   -0.305795   -0.041507   -0.046423   -0.157554
C    -0.407076    0.513374   -0.115381    0.012384    0.018300   -0.004072
C     0.897838    0.818377    0.468181   -0.003741   -0.002452    0.004333
O     3.006024    0.077514    0.696816   -0.000649    0.000185    0.000025
O     0.724710    0.920420   -0.912343   -0.010269   -0.004419    0.005206
O     1.640481   -0.257941    0.900584    0.000320   -0.000412   -0.000121
H    -0.791040   -0.969880   -1.306303    1.898296    0.521926    0.161904
H    -3.116475    0.681088   -1.136339    0.013883    0.000586   -0.017684
H    -4.348226   -0.516820   -0.737133   -0.008775    0.008287    0.004510
H    -3.517087    0.368513    0.547964   -0.019860    0.052735   -0.012329
H    -2.645105   -2.222185   -0.199678   -0.054962   -0.043541   -0.069941
H    -0.254397   -1.672445    0.059770   -0.065150    0.016848    0.147651
H    -1.164960    1.284300   -0.038293    0.001837    0.007151   -0.000896
H     1.123685    1.742329    0.989217   -0.001249   -0.001768   -0.000598
H     3.125049   -0.144811   -0.236500    0.001959   -0.002705    0.000648
17
* Frequency(6) -1773.2255
C    -3.381962   -0.119727   -0.432155    0.000145   -0.006539   -0.001250
C    -2.376275   -1.190760   -0.358460   -0.101369   -0.003654    0.133838
C    -0.910555   -0.883674   -0.301339   -0.041507   -0.046423   -0.157554
C    -0.407426    0.512857   -0.115266    0.012384    0.018300   -0.004072
C     0.897944    0.818446    0.468058   -0.003741   -0.002452    0.004333
O     3.006043    0.077509    0.696815   -0.000649    0.000185    0.000025
O     0.725001    0.920545   -0.912490   -0.010269   -0.004419    0.005206
O     1.640472   -0.257929    0.900587    0.000320   -0.000412   -0.000121
H    -0.844731   -0.984642   -1.310883    1.898296    0.521926    0.161904
H    -3.116868    0.681071   -1.135839    0.013883    0.000586   -0.017684
H    -4.347977   -0.517054   -0.737260   -0.008775    0.008287    0.004510
H    -3.516525    0.367022    0.548312   -0.019860    0.052735   -0.012329
H    -2.643550   -2.220954   -0.197700   -0.054962   -0.043541   -0.069941
H    -0.252554   -1.672922    0.055594   -0.065150    0.016848    0.147651
H    -1.165012    1.284098   -0.038268    0.001837    0.007151   -0.000896
H     1.123721    1.742379    0.989234   -0.001249   -0.001768   -0.000598
H     3.124994   -0.144735   -0.236519    0.001959   -0.002705    0.000648
17
* Frequency(6) -1773.2255
C    -3.381971   -0.119315   -0.432076    0.000145   -0.006539   -0.001250
C    -2.369887   -1.190530   -0.366894   -0.101369   -0.003654    0.133838
C    -0.907940   -0.880749   -0.291410   -0.041507   -0.046423   -0.157554
C    -0.408207    0.511704   -0.115010    0.012384    0.018300   -0.004072
C     0.898180    0.818601    0.467785   -0.003741   -0.002452    0.004333
O     3.006084    0.077497    0.696813   -0.000649    0.000185    0.000025
O     0.725648    0.920823   -0.912818   -0.010269   -0.004419    0.005206
O     1.640452   -0.257903    0.900595    0.000320   -0.000412   -0.000121
H    -0.964357   -1.017532   -1.321086    1.898296    0.521926    0.161904
H    -3.117743    0.681034   -1.134724    0.013883    0.000586   -0.017684
H    -4.347424   -0.517576   -0.737544   -0.008775    0.008287    0.004510
H    -3.515273    0.363698    0.549089   -0.019860    0.052735   -0.012329
H    -2.640087   -2.218210   -0.193292   -0.054962   -0.043541   -0.069941
H    -0.248449   -1.673984    0.046289   -0.065150    0.016848    0.147651
H    -1.165127    1.283647   -0.038211    0.001837    0.007151   -0.000896
H     1.123799    1.742491    0.989271   -0.001249   -0.001768   -0.000598
H     3.124870   -0.144564   -0.236559    0.001959   -0.002705    0.000648
17
* Frequency(6) -1773.2255
C    -3.381984   -0.118721   -0.431963    0.000145   -0.006539   -0.001250
C    -2.360671   -1.190198   -0.379063   -0.101369   -0.003654    0.133838
C    -0.904166   -0.876528   -0.277085   -0.041507   -0.046423   -0.157554
C    -0.409333    0.510040   -0.114639    0.012384    0.018300   -0.004072
C     0.898520    0.818823    0.467391   -0.003741   -0.002452    0.004333
O     3.006143    0.077481    0.696811   -0.000649    0.000185    0.000025
O     0.726582    0.921225   -0.913292   -0.010269   -0.004419    0.005206
O     1.640422   -0.257866    0.900606    0.000320   -0.000412   -0.000121
H    -1.136953   -1.064987   -1.335806    1.898296    0.521926    0.161904
H    -3.119005    0.680981   -1.133116    0.013883    0.000586   -0.017684
H    -4.346627   -0.518330   -0.737955   -0.008775    0.008287    0.004510
H    -3.513468    0.358904    0.550210   -0.019860    0.052735   -0.012329
H    -2.635089   -2.214251   -0.186933   -0.054962   -0.043541   -0.069941
H    -0.242525   -1.675515    0.032864   -0.065150    0.016848    0.147651
H    -1.165295    1.282997   -0.038130    0.001837    0.007151   -0.000896
H     1.123913    1.742651    0.989326   -0.001249   -0.001768   -0.000598
H     3.124692   -0.144318   -0.236618    0.001959   -0.002705    0.000648
17
* Frequency(6) -1773.2255
C    -3.382000   -0.118008   -0.431826    0.000145   -0.006539   -0.001250
C    -2.349624   -1.189799   -0.393647   -0.101369   -0.003654    0.133838
C    -0.899642   -0.871469   -0.259916   -0.041507   -0.046423   -0.157554
C    -0.410682    0.508045   -0.114196    0.012384    0.018300   -0.004072
C     0.898928    0.819091    0.466919   -0.003741   -0.002452    0.004333
O     3.006213    0.077460    0.696809   -0.000649    0.000185    0.000025
O     0.727701    0.921707   -0.913859   -0.010269   -0.004419    0.005206
O     1.640388   -0.257821    0.900619    0.000320   -0.000412   -0.000121
H    -1.343817   -1.121863   -1.353449    1.898296    0.521926    0.161904
H    -3.120518    0.680917   -1.131189    0.013883    0.000586   -0.017684
H    -4.345670   -0.519233   -0.738446   -0.008775    0.008287    0.004510
H    -3.511303    0.353157    0.551554   -0.019860    0.052735   -0.012329
H    -2.629100   -2.209506   -0.179311   -0.054962   -0.043541   -0.069941
H    -0.235426   -1.677351    0.016774   -0.065150    0.016848    0.147651
H    -1.165495    1.282218   -0.038032    0.001837    0.007151   -0.000896
H     1.124049    1.742844    0.989391   -0.001249   -0.001768   -0.000598
H     3.124479   -0.144024   -0.236689    0.001959   -0.002705    0.000648
17
* Frequency(6) -1773.2255
C    -3.382017   -0.117255   -0.431682    0.000145   -0.006539   -0.001250
C    -2.337945   -1.189378   -0.409068   -0.101369   -0.003654    0.133838
C    -0.894860   -0.866120   -0.241763   -0.041507   -0.046423   -0.157554
C    -0.412109    0.505937   -0.113727    0.012384    0.018300   -0.004072
C     0.899359    0.819373    0.466420   -0.003741   -0.002452    0.004333
O     3.006288    0.077439    0.696806   -0.000649    0.000185    0.000025
O     0.728884    0.922216   -0.914459   -0.010269   -0.004419    0.005206
O     1.640351   -0.257773    0.900633    0.000320   -0.000412   -0.000121
H    -1.562532   -1.181997   -1.372103    1.898296    0.521926    0.161904
H    -3.122117    0.680850   -1.129152    0.013883    0.000586   -0.017684
H    -4.344659   -0.520188   -0.738966   -0.008775    0.008287    0.004510
H    -3.509015    0.347081    0.552974   -0.019860    0.052735   -0.012329
H    -2.622768   -2.204489   -0.171253   -0.054962   -0.043541   -0.069941
H    -0.227919   -1.679292   -0.000238   -0.065150    0.016848    0.147651
H    -1.165706    1.281394   -0.037929    0.001837    0.007151   -0.000896
H     1.124193    1.743048    0.989460   -0.001249   -0.001768   -0.000598
H     3.124253   -0.143712   -0.236763    0.001959   -0.002705    0.000648
17
* Frequency(6) -1773.2255
C    -3.382033   -0.116542   -0.431546    0.000145   -0.006539   -0.001250
C    -2.326898   -1.188980   -0.423653   -0.101369   -0.003654    0.133838
C    -0.890337   -0.861061   -0.224594   -0.041507   -0.046423   -0.157554
C    -0.413459    0.503943   -0.113283    0.012384    0.018300   -0.004072
C     0.899766    0.819640    0.465948   -0.003741   -0.002452    0.004333
O     3.006359    0.077419    0.696803   -0.000649    0.000185    0.000025
O     0.730003    0.922698   -0.915026   -0.010269   -0.004419    0.005206
O     1.640316   -0.257728    0.900646    0.000320   -0.000412   -0.000121
H    -1.769395   -1.238873   -1.389747    1.898296    0.521926    0.161904
H    -3.123630    0.680786   -1.127225    0.013883    0.000586   -0.017684
H    -4.343703   -0.521091   -0.739457   -0.008775    0.008287    0.004510
H    -3.506851    0.341334    0.554318   -0.019860    0.052735   -0.012329
H    -2.616778   -2.199744   -0.163631   -0.054962   -0.043541   -0.069941
H    -0.220820   -1.681128   -0.016328   -0.065150    0.016848    0.147651
H    -1.165907    1.280615   -0.037831    0.001837    0.007151   -0.000896
H     1.124329    1.743240    0.989525   -0.001249   -0.001768   -0.000598
H     3.124039   -0.143417   -0.236834    0.001959   -0.002705    0.000648
17
* Frequency(6) -1773.2255
C    -3.382046   -0.115948   -0.431432    0.000145   -0.006539   -0.001250
C    -2.317682   -1.188648   -0.435821   -0.101369   -0.003654    0.133838
C    -0.886563   -0.856840   -0.210269   -0.041507   -0.046423   -0.157554
C    -0.414585    0.502279   -0.112913    0.012384    0.018300   -0.004072
C     0.900107    0.819863    0.465554   -0.003741   -0.002452    0.004333
O     3.006418    0.077402    0.696801   -0.000649    0.000185    0.000025
O     0.730937    0.923099   -0.915499   -0.010269   -0.004419    0.005206
O     1.640287   -0.257691    0.900657    0.000320   -0.000412   -0.000121
H    -1.941992   -1.286328   -1.404467    1.898296    0.521926    0.161904
H    -3.124893    0.680733   -1.125617    0.013883    0.000586   -0.017684
H    -4.342905   -0.521844   -0.739867   -0.008775    0.008287    0.004510
H    -3.505045    0.336539    0.555439   -0.019860    0.052735   -0.012329
H    -2.611781   -2.195786   -0.157272   -0.054962   -0.043541   -0.069941
H    -0.214896   -1.682660   -0.029752   -0.065150    0.016848    0.147651
H    -1.166074    1.279965   -0.037750    0.001837    0.007151   -0.000896
H     1.124443    1.743401    0.989579   -0.001249   -0.001768   -0.000598
H     3.123861   -0.143171   -0.236893    0.001959   -0.002705    0.000648
17
* Frequency(6) -1773.2255
C    -3.382055   -0.115536   -0.431354    0.000145   -0.006539   -0.001250
C    -2.311294   -1.188418   -0.444255   -0.101369   -0.003654    0.133838
C    -0.883947   -0.853915   -0.200340   -0.041507   -0.046423   -0.157554
C    -0.415365    0.501126   -0.112656    0.012384    0.018300   -0.004072
C     0.900342    0.820018    0.465281   -0.003741   -0.002452    0.004333
O     3.006459    0.077390    0.696799   -0.000649    0.000185    0.000025
O     0.731584    0.923378   -0.915827   -0.010269   -0.004419    0.005206
O     1.640267   -0.257665    0.900664    0.000320   -0.000412   -0.000121
H    -2.061617   -1.319218   -1.414670    1.898296    0.521926    0.161904
H    -3.125768    0.680696   -1.124503    0.013883    0.000586   -0.017684
H    -4.342352   -0.522366   -0.740151   -0.008775    0.008287    0.004510
H    -3.503794    0.333216    0.556216   -0.019860    0.052735   -0.012329
H    -2.608317   -2.193042   -0.152864   -0.054962   -0.043541   -0.069941
H    -0.210790   -1.683722   -0.039057   -0.065150    0.016848    0.147651
H    -1.166189    1.279514   -0.037693    0.001837    0.007151   -0.000896
H     1.124521    1.743513    0.989617   -0.001249   -0.001768   -0.000598
H     3.123738   -0.143001   -0.236934    0.001959   -0.002705    0.000648
17
* Frequency(6) -1773.2255
C    -3.382059   -0.115351   -0.431318    0.000145   -0.006539   -0.001250
C    -2.308426   -1.188314   -0.448041   -0.101369   -0.003654    0.133838
C    -0.882773   -0.852602   -0.195884   -0.041507   -0.046423   -0.157554
C    -0.415716    0.500608   -0.112541    0.012384    0.018300   -0.004072
C     0.900448    0.820087    0.465158   -0.003741   -0.002452    0.004333
O     3.006477    0.077385    0.696798   -0.000649    0.000185    0.000025
O     0.731874    0.923503   -0.915975   -0.010269   -0.004419    0.005206
O     1.640258   -0.257653    0.900668    0.000320   -0.000412   -0.000121
H    -2.115309   -1.333980   -1.419249    1.898296    0.521926    0.161904
H    -3.126160    0.680679   -1.124002    0.013883    0.000586   -0.017684
H    -4.342104   -0.522601   -0.740279   -0.008775    0.008287    0.004510
H    -3.503232    0.331725    0.556565   -0.019860    0.052735   -0.012329
H    -2.606763   -2.191810   -0.150886   -0.054962   -0.043541   -0.069941
H    -0.208948   -1.684198   -0.043233   -0.065150    0.016848    0.147651
H    -1.166241    1.279312   -0.037668    0.001837    0.007151   -0.000896
H     1.124557    1.743563    0.989634   -0.001249   -0.001768   -0.000598
H     3.123682   -0.142924   -0.236952    0.001959   -0.002705    0.000648
17
* Frequency(6) -1773.2255
C    -3.382058   -0.115413   -0.431330    0.000145   -0.006539   -0.001250
C    -2.309391   -1.188349   -0.446768   -0.101369   -0.003654    0.133838
C    -0.883168   -0.853043   -0.197383   -0.041507   -0.046423   -0.157554
C    -0.415598    0.500782   -0.112580    0.012384    0.018300   -0.004072
C     0.900413    0.820064    0.465199   -0.003741   -0.002452    0.004333
O     3.006471    0.077387    0.696799   -0.000649    0.000185    0.000025
O     0.731777    0.923461   -0.915925   -0.010269   -0.004419    0.005206
O     1.640261   -0.257657    0.900666    0.000320   -0.000412   -0.000121
H    -2.097247   -1.329014   -1.417709    1.898296    0.521926    0.161904
H    -3.126028    0.680685   -1.124171    0.013883    0.000586   -0.017684
H    -4.342187   -0.522522   -0.740236   -0.008775    0.008287    0.004510
H    -3.503421    0.332226    0.556447   -0.019860    0.052735   -0.012329
H    -2.607286   -2.192225   -0.151552   -0.054962   -0.043541   -0.069941
H    -0.209568   -1.684038   -0.041828   -0.065150    0.016848    0.147651
H    -1.166224    1.279380   -0.037676    0.001837    0.007151   -0.000896
H     1.124545    1.743546    0.989628   -0.001249   -0.001768   -0.000598
H     3.123701   -0.142950   -0.236946    0.001959   -0.002705    0.000648
17
* Frequency(6) -1773.2255
C    -3.382051   -0.115715   -0.431388    0.000145   -0.006539   -0.001250
C    -2.314082   -1.188518   -0.440573   -0.101369   -0.003654    0.133838
C    -0.885089   -0.855192   -0.204675   -0.041507   -0.046423   -0.157554
C    -0.415025    0.501629   -0.112768    0.012384    0.018300   -0.004072
C     0.900239    0.819950    0.465400   -0.003741   -0.002452    0.004333
O     3.006441    0.077395    0.696800   -0.000649    0.000185    0.000025
O     0.731301    0.923256   -0.915684   -0.010269   -0.004419    0.005206
O     1.640276   -0.257676    0.900661    0.000320   -0.000412   -0.000121
H    -2.009391   -1.304859   -1.410216    1.898296    0.521926    0.161904
H    -3.125386    0.680712   -1.124989    0.013883    0.000586   -0.017684
H    -4.342594   -0.522138   -0.740027   -0.008775    0.008287    0.004510
H    -3.504340    0.334667    0.555877   -0.019860    0.052735   -0.012329
H    -2.609830   -2.194240   -0.154789   -0.054962   -0.043541   -0.069941
H    -0.212583   -1.683258   -0.034995   -0.065150    0.016848    0.147651
H    -1.166139    1.279711   -0.037718    0.001837    0.007151   -0.000896
H     1.124487    1.743464    0.989600   -0.001249   -0.001768   -0.000598
H     3.123792   -0.143075   -0.236916    0.001959   -0.002705    0.000648
17
* Frequency(6) -1773.2255
C    -3.382040   -0.116226   -0.431486    0.000145   -0.006539   -0.001250
C    -2.321993   -1.188803   -0.430129   -0.101369   -0.003654    0.133838
C    -0.888328   -0.858815   -0.216969   -0.041507   -0.046423   -0.157554
C    -0.414058    0.503057   -0.113086    0.012384    0.018300   -0.004072
C     0.899947    0.819759    0.465738   -0.003741   -0.002452    0.004333
O     3.006390    0.077410    0.696802   -0.000649    0.000185    0.000025
O     0.730500    0.922911   -0.915278   -0.010269   -0.004419    0.005206
O     1.640300   -0.257709    0.900651    0.000320   -0.000412   -0.000121
H    -1.861259   -1.264131   -1.397582    1.898296    0.521926    0.161904
H    -3.124302    0.680758   -1.126369    0.013883    0.000586   -0.017684
H    -4.343278   -0.521492   -0.739675   -0.008775    0.008287    0.004510
H    -3.505890    0.338782    0.554915   -0.019860    0.052735   -0.012329
H    -2.614118   -2.197637   -0.160246   -0.054962   -0.043541   -0.069941
H    -0.217667   -1.681944   -0.023473   -0.065150    0.016848    0.147651
H    -1.165996    1.280269   -0.037788    0.001837    0.007151   -0.000896
H     1.124389    1.743326    0.989554   -0.001249   -0.001768   -0.000598
H     3.123945   -0.143286   -0.236865    0.001959   -0.002705    0.000648
17
* Frequency(6) -1773.2255
C    -3.382025   -0.116888   -0.431612    0.000145   -0.006539   -0.001250
C    -2.332264   -1.189174   -0.416568   -0.101369   -0.003654    0.133838
C    -0.892534   -0.863519   -0.232934   -0.041507   -0.046423   -0.157554
C    -0.412803    0.504911   -0.113498    0.012384    0.018300   -0.004072
C     0.899568    0.819510    0.466177   -0.003741   -0.002452    0.004333
O     3.006324    0.077429    0.696804   -0.000649    0.000185    0.000025
O     0.729459    0.922464   -0.914751   -0.010269   -0.004419    0.005206
O     1.640333   -0.257750    0.900639    0.000320   -0.000412   -0.000121
H    -1.668906   -1.211244   -1.381176    1.898296    0.521926    0.161904
H    -3.122895    0.680817   -1.128161    0.013883    0.000586   -0.017684
H    -4.344167   -0.520652   -0.739218   -0.008775    0.008287    0.004510
H    -3.507902    0.344126    0.553665   -0.019860    0.052735   -0.012329
H    -2.619688   -2.202049   -0.167334   -0.054962   -0.043541   -0.069941
H    -0.224268   -1.680237   -0.008511   -0.065150    0.016848    0.147651
H    -1.165809    1.280994   -0.037879    0.001837    0.007151   -0.000896
H     1.124263    1.743147    0.989493   -0.001249   -0.001768   -0.000598
H     3.124143   -0.143560   -0.236800    0.001959   -0.002705    0.000648
17
* Frequency(6) -1773.2255
C    -3.382008   -0.117631   -0.431754    0.000145   -0.006539   -0.001250
C    -2.343784   -1.189589   -0.401358   -0.101369   -0.003654    0.133838
C    -0.897251   -0.868794   -0.250839   -0.041507   -0.046423   -0.157554
C    -0.411396    0.506991   -0.113961    0.012384    0.018300   -0.004072
C     0.899143    0.819232    0.466669   -0.003741   -0.002452    0.004333
O     3.006251    0.077450    0.696807   -0.000649    0.000185    0.000025
O     0.728292    0.921961   -0.914159   -0.010269   -0.004419    0.005206
O     1.640369   -0.257797    0.900626    0.000320   -0.000412   -0.000121
H    -1.453174   -1.151930   -1.362776    1.898296    0.521926    0.161904
H    -3.121318    0.680884   -1.130171    0.013883    0.000586   -0.017684
H    -4.345165   -0.519710   -0.738706   -0.008775    0.008287    0.004510
H    -3.510159    0.350119    0.552264   -0.019860    0.052735   -0.012329
H    -2.625934   -2.206998   -0.175282   -0.054962   -0.043541   -0.069941
H    -0.231672   -1.678322    0.008268   -0.065150    0.016848    0.147651
H    -1.165601    1.281806   -0.037980    0.001837    0.007151   -0.000896
H     1.124121    1.742946    0.989425   -0.001249   -0.001768   -0.000598
H     3.124366   -0.143868   -0.236726    0.001959   -0.002705    0.000648
