17
Coordinates from ORCA-job freq E -421.354200034862
  C          -2.61967411196616     -0.21690675043624     -0.29761260423501
  C          -1.58145002787316     -1.28886424377734     -0.26721587252863
  C          -0.13491693325142     -0.96806986907933     -0.11669769425036
  C           0.35093852772112      0.40771576831088      0.02018056707296
  C           1.66147765438023      0.71995648007018      0.60081111939973
  O           3.76858509274778     -0.02182564744334      0.83094881606499
  O           1.49062675108056      0.82268593130970     -0.78001721317321
  O           2.40270359008122     -0.35707243031587      1.03476728907018
  H          -0.69083990946509     -1.25120521624204     -1.22863477837141
  H          -2.35898323681133      0.58160831348328     -0.99602893753206
  H          -3.58283036079647     -0.61898572604839     -0.60456411661711
  H          -2.74782477329178      0.25084351303113      0.68640578380305
  H          -1.86359944488616     -2.30627306387355     -0.04114032200272
  H           0.53066194856964     -1.77759725997480      0.14241010353972
  H          -0.40326622078628      1.18253077829030      0.09616131125147
  H           1.88645530388814      1.64367053683304      1.12356701834762
  H           3.88670015065919     -0.24314311413763     -0.10258446983924
