17
Coordinates from ORCA-job freq E -421.366727970674
  C      -2.404277     -0.189984     -0.073364
  C      -1.411889     -1.314475     -0.390733
  C      -0.044740     -0.839268     -0.628845
  C       0.339666      0.537234     -0.478496
  C       1.530179      0.669737      0.534195
  O       3.482673     -0.389067      1.419841
  O       1.588064      1.008846     -0.804261
  O       2.091899     -0.452008      0.933384
  H      -1.753325     -1.594289     -1.600971
  H      -2.474355      0.466863     -0.921456
  H      -3.361320     -0.625927      0.193975
  H      -2.048703      0.355503      0.802998
  H      -1.460047     -2.242618      0.157351
  H       0.739509     -1.517379     -0.268182
  H      -0.387985      1.355669     -0.590604
  H       1.630121      1.537867      1.221773
  H       3.939293     -0.207635      0.594151
17
Coordinates from ORCA-job freq E -421.366843599104
  C      -2.409784     -0.182593     -0.075768
  C      -1.409070     -1.311797     -0.343143
  C      -0.042620     -0.870698     -0.613575
  C       0.361159      0.511110     -0.443368
  C       1.517959      0.669550      0.551655
  O       3.488626     -0.327750      1.388900
  O       1.607205      0.983458     -0.805821
  O       2.104220     -0.450065      0.963916
  H      -1.735867     -1.527337     -1.602750
  H      -2.459126      0.447140     -0.946787
  H      -3.374934     -0.617689      0.162473
  H      -2.090663      0.393877      0.794728
  H      -1.500984     -2.282569      0.117915
  H       0.733869     -1.564303     -0.274118
  H      -0.378806      1.317596     -0.529517
  H       1.666901      1.544513      1.214739
  H       3.916679     -0.173374      0.541276
17
Coordinates from ORCA-job freq E -421.365216566703
  C      -2.421885     -0.180192     -0.091378
  C      -1.412492     -1.314423     -0.318354
  C      -0.038867     -0.893172     -0.615884
  C       0.384092      0.490860     -0.427801
  C       1.506128      0.659982      0.574861
  O       3.500625     -0.272775      1.356256
  O       1.622438      0.959669     -0.803390
  O       2.115430     -0.455838      0.984904
  H      -1.700986     -1.464183     -1.594785
  H      -2.459570      0.438341     -0.972095
  H      -3.392998     -0.616061      0.123629
  H      -2.140674      0.414185      0.780906
  H      -1.527119     -2.294074      0.114309
  H       0.722023     -1.593831     -0.256231
  H      -0.373770      1.279059     -0.444320
  H       1.713778      1.544561      1.201250
  H       3.898610     -0.143042      0.488879
17
Coordinates from ORCA-job freq E -421.364597083348
  C      -2.426574     -0.182276     -0.082319
  C      -1.411724     -1.308897     -0.323806
  C      -0.034074     -0.889035     -0.661776
  C       0.393118      0.493294     -0.465968
  C       1.521619      0.658782      0.555387
  O       3.487671     -0.281652      1.389700
  O       1.624340      0.969286     -0.825840
  O       2.108548     -0.462395      0.976598
  H      -1.686589     -1.446241     -1.582103
  H      -2.493045      0.436382     -0.962335
  H      -3.390384     -0.633218      0.140200
  H      -2.153620      0.411883      0.792447
  H      -1.509809     -2.278553      0.134798
  H       0.718971     -1.582787     -0.274100
  H      -0.371407      1.269325     -0.424716
  H       1.701660      1.547093      1.179320
  H       3.916062     -0.161924      0.535269
17
Coordinates from ORCA-job freq E -421.363510101647
  C      -2.432459     -0.184157     -0.080902
  C      -1.411693     -1.308140     -0.316646
  C      -0.033272     -0.891421     -0.680530
  C       0.402681      0.490707     -0.475755
  C       1.523847      0.653176      0.546360
  O       3.484392     -0.268007      1.398356
  O       1.634405      0.958472     -0.838485
  O       2.109225     -0.463698      0.983672
  H      -1.667875     -1.414597     -1.565494
  H      -2.501733      0.433451     -0.962032
  H      -3.394279     -0.640517      0.140770
  H      -2.171045      0.414829      0.794654
  H      -1.509596     -2.279983      0.136661
  H       0.718839     -1.583160     -0.288592
  H      -0.363552      1.262277     -0.394881
  H       1.690132      1.548999      1.160738
  H       3.916749     -0.169162      0.542862
17
Coordinates from ORCA-job freq E -421.360956101479
  C      -2.443956     -0.189917     -0.083985
  C      -1.413216     -1.308785     -0.302501
  C      -0.036972     -0.890614     -0.671878
  C       0.403559      0.490310     -0.459316
  C       1.531933      0.656126      0.553557
  O       3.496439     -0.251272      1.389707
  O       1.638996      0.938521     -0.839978
  O       2.115803     -0.458685      1.001858
  H      -1.652712     -1.385128     -1.562808
  H      -2.506498      0.425415     -0.967394
  H      -3.406330     -0.651819      0.123844
  H      -2.200984      0.415769      0.792689
  H      -1.519375     -2.293215      0.120132
  H       0.714244     -1.584733     -0.283365
  H      -0.359956      1.265976     -0.382997
  H       1.718566      1.559716      1.148636
  H       3.915223     -0.178597      0.524555
17
Coordinates from ORCA-job freq E -421.357974789692
  C      -2.452690     -0.188583     -0.087458
  C      -1.410257     -1.303206     -0.282840
  C      -0.033783     -0.897356     -0.661652
  C       0.409265      0.482802     -0.445201
  C       1.537263      0.658814      0.556975
  O       3.507146     -0.239729      1.376634
  O       1.643601      0.934584     -0.837559
  O       2.124708     -0.455117      1.010087
  H      -1.632720     -1.360650     -1.560978
  H      -2.516969      0.420947     -0.974908
  H      -3.412103     -0.658628      0.116185
  H      -2.226050      0.427903      0.786381
  H      -1.532342     -2.299316      0.108261
  H       0.713206     -1.599684     -0.282134
  H      -0.357319      1.256123     -0.379662
  H       1.717724      1.561553      1.153155
  H       3.916082     -0.181390      0.505471
17
Coordinates from ORCA-job freq E -421.355259259824
  C      -2.465446     -0.193672     -0.087495
  C      -1.407945     -1.296431     -0.265700
  C      -0.031646     -0.898770     -0.653654
  C       0.413752      0.480744     -0.433266
  C       1.545596      0.663743      0.556075
  O       3.511773     -0.230331      1.373392
  O       1.650515      0.921280     -0.841721
  O       2.128603     -0.450663      1.020832
  H      -1.609118     -1.330230     -1.557316
  H      -2.532271      0.417553     -0.973693
  H      -3.420698     -0.674856      0.109300
  H      -2.256749      0.429029      0.787242
  H      -1.542888     -2.303443      0.092074
  H       0.713541     -1.608135     -0.285758
  H      -0.353140      1.254673     -0.381164
  H       1.734254      1.570313      1.142588
  H       3.916629     -0.191737      0.499021
17
Coordinates from ORCA-job freq E -421.353865643414
  C      -2.477944     -0.202392     -0.083370
  C      -1.406177     -1.291279     -0.255891
  C      -0.030565     -0.894199     -0.650521
  C       0.418517      0.483708     -0.425306
  C       1.557048      0.674143      0.548143
  O       3.508762     -0.227206      1.380998
  O       1.658711      0.905886     -0.853599
  O       2.122545     -0.439838      1.039696
  H      -1.585469     -1.302707     -1.552095
  H      -2.549710      0.415560     -0.964785
  H      -3.428399     -0.695451      0.107312
  H      -2.282878      0.419801      0.795506
  H      -1.548101     -2.307767      0.071641
  H       0.714679     -1.609833     -0.297502
  H      -0.348539      1.257777     -0.380227
  H       1.760485      1.588962      1.115916
  H       3.911798     -0.216097      0.504839
17
Coordinates from ORCA-job freq E -421.355521099929
  C      -2.492142     -0.214592     -0.079504
  C      -1.410710     -1.289917     -0.259054
  C      -0.035043     -0.880240     -0.649088
  C       0.423150      0.494018     -0.419034
  C       1.573984      0.686309      0.535720
  O       3.504491     -0.234111      1.393362
  O       1.670105      0.892401     -0.865691
  O       2.114079     -0.428103      1.055425
  H      -1.568673     -1.294693     -1.546536
  H      -2.566697      0.414865     -0.952947
  H      -3.440073     -0.715855      0.103013
  H      -2.303921      0.398542      0.807492
  H      -1.547199     -2.311225      0.056887
  H       0.711255     -1.597627     -0.304607
  H      -0.339529      1.271972     -0.375797
  H       1.792701      1.610413      1.083347
  H       3.908985     -0.243091      0.517769
17
Coordinates from ORCA-job freq E -421.357361782533
  C      -2.485772     -0.203977     -0.085587
  C      -1.404883     -1.283999     -0.258889
  C      -0.026351     -0.893579     -0.646690
  C       0.428349      0.482328     -0.418731
  C       1.564862      0.674581      0.547172
  O       3.512274     -0.216025      1.379857
  O       1.669574      0.900396     -0.853892
  O       2.128720     -0.440203      1.046861
  H      -1.587339     -1.300721     -1.541452
  H      -2.569071      0.417293     -0.964399
  H      -3.431407     -0.705749      0.106945
  H      -2.296761      0.420946      0.792996
  H      -1.554667     -2.301680      0.063491
  H       0.713064     -1.619173     -0.305657
  H      -0.339518      1.255796     -0.378388
  H       1.759485      1.589875      1.114271
  H       3.914206     -0.217040      0.502846
17
Coordinates from ORCA-job freq E -421.358458151668
  C      -2.491515     -0.211378     -0.079235
  C      -1.405662     -1.281346     -0.265887
  C      -0.026824     -0.885612     -0.657516
  C       0.432120      0.488701     -0.415165
  C       1.575387      0.680063      0.534984
  O       3.503536     -0.220169      1.394420
  O       1.678475      0.890446     -0.865739
  O       2.119778     -0.434711      1.060265
  H      -1.583828     -1.296590     -1.541672
  H      -2.585368      0.418760     -0.951075
  H      -3.433844     -0.719078      0.115159
  H      -2.301530      0.407407      0.803647
  H      -1.550131     -2.303119      0.047491
  H       0.710834     -1.607720     -0.304609
  H      -0.333793      1.263799     -0.383621
  H       1.777593      1.601024      1.090114
  H       3.909536     -0.231409      0.519197
17
Coordinates from ORCA-job freq E -421.356378077626
  C      -2.504948     -0.219332     -0.078749
  C      -1.403675     -1.276827     -0.254958
  C      -0.025657     -0.879137     -0.646091
  C       0.435654      0.493875     -0.402057
  C       1.589061      0.691855      0.529840
  O       3.506947     -0.220678      1.394228
  O       1.684477      0.875872     -0.873416
  O       2.116638     -0.419789      1.081935
  H      -1.563216     -1.275752     -1.540183
  H      -2.603614      0.412973     -0.948684
  H      -3.441556     -0.739645      0.109884
  H      -2.329522      0.400871      0.806415
  H      -1.554860     -2.307831      0.025784
  H       0.712255     -1.606653     -0.309038
  H      -0.329584      1.269507     -0.375681
  H       1.803181      1.620892      1.066249
  H       3.903184     -0.261134      0.515277
17
Coordinates from ORCA-job freq E -421.354642248492
  C      -2.503467     -0.220673     -0.072246
  C      -1.399374     -1.275601     -0.251873
  C      -0.018407     -0.884689     -0.657813
  C       0.436897      0.490723     -0.401238
  C       1.586204      0.698664      0.528413
  O       3.503414     -0.211023      1.390271
  O       1.689670      0.873745     -0.873203
  O       2.110539     -0.408726      1.096179
  H      -1.547175     -1.259140     -1.533319
  H      -2.606352      0.416950     -0.938268
  H      -3.438867     -0.744030      0.113923
  H      -2.330854      0.397293      0.815140
  H      -1.559002     -2.311542      0.005352
  H       0.714622     -1.609093     -0.300711
  H      -0.329349      1.265133     -0.390670
  H       1.793343      1.631163      1.059936
  H       3.892922     -0.290086      0.510884
17
Coordinates from ORCA-job freq E -421.351105316589
  C      -2.510398     -0.225428     -0.065164
  C      -1.395417     -1.270472     -0.239250
  C      -0.014744     -0.885782     -0.666855
  C       0.440245      0.489588     -0.402596
  C       1.588960      0.701578      0.522944
  O       3.498876     -0.203730      1.396378
  O       1.698051      0.864504     -0.878226
  O       2.108189     -0.405137      1.101476
  H      -1.527761     -1.229363     -1.519952
  H      -2.622155      0.412649     -0.930205
  H      -3.440484     -0.758730      0.119629
  H      -2.347700      0.396363      0.821623
  H      -1.564062     -2.312552     -0.013817
  H       0.715908     -1.611475     -0.308324
  H      -0.323599      1.266241     -0.407276
  H       1.797702      1.636082      1.049027
  H       3.893152     -0.305268      0.521344
17
Coordinates from ORCA-job freq E -421.348646403873
  C      -2.513872     -0.225702     -0.050876
  C      -1.395265     -1.265681     -0.231681
  C      -0.014392     -0.893845     -0.681413
  C       0.445234      0.480200     -0.414165
  C       1.591501      0.694268      0.509319
  O       3.485142     -0.199237      1.424413
  O       1.707839      0.848446     -0.891793
  O       2.105880     -0.413322      1.095094
  H      -1.517394     -1.199359     -1.506846
  H      -2.633359      0.419287     -0.910283
  H      -3.441209     -0.764178      0.132257
  H      -2.353679      0.393271      0.838557
  H      -1.576395     -2.311936     -0.035878
  H       0.714143     -1.625950     -0.332838
  H      -0.315427      1.259538     -0.432792
  H       1.803118      1.628642      1.033179
  H       3.902901     -0.265374      0.556502
17
Coordinates from ORCA-job freq E -421.347779353235
  C      -2.523941     -0.222739     -0.049707
  C      -1.402685     -1.260956     -0.232667
  C      -0.011234     -0.911613     -0.669156
  C       0.450394      0.463585     -0.409638
  C       1.599631      0.687260      0.503883
  O       3.498101     -0.187514      1.424633
  O       1.711937      0.833726     -0.898235
  O       2.123787     -0.416668      1.091286
  H      -1.506394     -1.171628     -1.506307
  H      -2.640431      0.435253     -0.900074
  H      -3.451537     -0.765482      0.117703
  H      -2.373217      0.385795      0.848589
  H      -1.602245     -2.310000     -0.065415
  H       0.706499     -1.646217     -0.303167
  H      -0.310985      1.241805     -0.432856
  H       1.807840      1.622684      1.026202
  H       3.919245     -0.218222      0.555681
17
Coordinates from ORCA-job freq E -421.346956442457
  C      -2.516283     -0.221812     -0.031269
  C      -1.399310     -1.259151     -0.228332
  C      -0.007026     -0.919118     -0.685695
  C       0.456792      0.456262     -0.430472
  C       1.591058      0.686296      0.499052
  O       3.479068     -0.184420      1.438169
  O       1.729699      0.816177     -0.901511
  O       2.105262     -0.413360      1.105602
  H      -1.497304     -1.156874     -1.494564
  H      -2.629986      0.452180     -0.870003
  H      -3.446827     -0.763209      0.123628
  H      -2.366390      0.372258      0.876913
  H      -1.605566     -2.310660     -0.082782
  H       0.711315     -1.656360     -0.328281
  H      -0.299445      1.238246     -0.474831
  H       1.789757      1.625737      1.016812
  H       3.899950     -0.203123      0.568317
17
Coordinates from ORCA-job freq E -421.347813366332
  C      -2.524091     -0.221109     -0.034033
  C      -1.403376     -1.258474     -0.218777
  C      -0.008242     -0.923038     -0.675865
  C       0.460535      0.451101     -0.424096
  C       1.597821      0.684265      0.498146
  O       3.489878     -0.179308      1.430667
  O       1.733518      0.809917     -0.903116
  O       2.117735     -0.415863      1.102163
  H      -1.495622     -1.154987     -1.473615
  H      -2.610135      0.468295     -0.864482
  H      -3.459336     -0.763172      0.081855
  H      -2.401224      0.358145      0.887757
  H      -1.619021     -2.308823     -0.079862
  H       0.707685     -1.667189     -0.330335
  H      -0.293870      1.234440     -0.471654
  H       1.795583      1.622325      1.017420
  H       3.906927     -0.177456      0.558584
17
Coordinates from ORCA-job freq E -421.348204965154
  C      -2.529987     -0.224197     -0.025718
  C      -1.405052     -1.254823     -0.213171
  C      -0.006939     -0.926747     -0.672722
  C       0.467880      0.446327     -0.429195
  C       1.602499      0.687510      0.492447
  O       3.490766     -0.167839      1.434070
  O       1.746273      0.794551     -0.908741
  O       2.118696     -0.407799      1.111273
  H      -1.493836     -1.141348     -1.460701
  H      -2.596319      0.489261     -0.838309
  H      -3.466933     -0.770176      0.050307
  H      -2.432101      0.330425      0.914182
  H      -1.628558     -2.305712     -0.090469
  H       0.705924     -1.677952     -0.337004
  H      -0.281578      1.233194     -0.491139
  H       1.797685      1.629645      1.004344
  H       3.906343     -0.175251      0.561303
17
Coordinates from ORCA-job freq E -421.347934933801
  C      -2.532667     -0.222982     -0.020512
  C      -1.405302     -1.253011     -0.203905
  C      -0.006223     -0.932111     -0.674769
  C       0.473377      0.439631     -0.433775
  C       1.604584      0.684741      0.489076
  O       3.491067     -0.161957      1.437594
  O       1.755150      0.785759     -0.911850
  O       2.122216     -0.409594      1.110959
  H      -1.497278     -1.135376     -1.443530
  H      -2.580511      0.505323     -0.822028
  H      -3.471473     -0.769093      0.024551
  H      -2.455318      0.316399      0.929946
  H      -1.637680     -2.303117     -0.091699
  H       0.704581     -1.690295     -0.351767
  H      -0.272920      1.228574     -0.504067
  H       1.795478      1.626845      1.001367
  H       3.907683     -0.150666      0.565164
17
Coordinates from ORCA-job freq E -421.348378536971
  C      -2.530287     -0.222921     -0.024114
  C      -1.404025     -1.256948     -0.195020
  C      -0.011372     -0.921450     -0.685318
  C       0.469389      0.447545     -0.431848
  C       1.601565      0.684736      0.491009
  O       3.485219     -0.167399      1.436673
  O       1.752556      0.796926     -0.908615
  O       2.119497     -0.416891      1.102393
  H      -1.488878     -1.156045     -1.424244
  H      -2.573161      0.494481     -0.836592
  H      -3.472114     -0.763797      0.025172
  H      -2.452356      0.330702      0.917749
  H      -1.628258     -2.305642     -0.062910
  H       0.703961     -1.683737     -0.388065
  H      -0.276036      1.237541     -0.496212
  H       1.791579      1.620535      1.013752
  H       3.907485     -0.158569      0.566947
17
Coordinates from ORCA-job freq E -421.347841618523
  C      -2.534804     -0.227101     -0.021589
  C      -1.403276     -1.253908     -0.186948
  C      -0.017887     -0.909135     -0.696653
  C       0.470665      0.455047     -0.434975
  C       1.602519      0.685905      0.488516
  O       3.477053     -0.170856      1.444023
  O       1.757740      0.797882     -0.910148
  O       2.114359     -0.419786      1.099982
  H      -1.470964     -1.163693     -1.412954
  H      -2.580489      0.485362     -0.839065
  H      -3.475306     -0.770252      0.030507
  H      -2.459007      0.334791      0.915438
  H      -1.617084     -2.303225     -0.041839
  H       0.699803     -1.678026     -0.425498
  H      -0.270330      1.249071     -0.500779
  H       1.794366      1.619121      1.014496
  H       3.907405     -0.172130      0.578243
17
Coordinates from ORCA-job freq E -421.347149452446
  C      -2.539966     -0.229466     -0.025540
  C      -1.403881     -1.251935     -0.175944
  C      -0.025626     -0.898468     -0.701449
  C       0.468901      0.461709     -0.431355
  C       1.603457      0.685442      0.489124
  O       3.475887     -0.175164      1.441817
  O       1.756646      0.804581     -0.908895
  O       2.115885     -0.426065      1.091821
  H      -1.447959     -1.175294     -1.398918
  H      -2.582317      0.474949     -0.850969
  H      -3.480360     -0.772969      0.026051
  H      -2.469803      0.343797      0.904863
  H      -1.608733     -2.300437     -0.013887
  H       0.694687     -1.672388     -0.455071
  H      -0.270007      1.258037     -0.491924
  H       1.796892      1.613525      1.022602
  H       3.911062     -0.180787      0.578430
17
Coordinates from ORCA-job freq E -421.346284193467
  C      -2.546232     -0.233442     -0.028982
  C      -1.404917     -1.248187     -0.164778
  C      -0.033630     -0.886996     -0.704157
  C       0.467560      0.469217     -0.427817
  C       1.604822      0.686221      0.489808
  O       3.475011     -0.179817      1.438275
  O       1.756726      0.809138     -0.907489
  O       2.115961     -0.430226      1.086702
  H      -1.420333     -1.184683     -1.387261
  H      -2.585508      0.464594     -0.860764
  H      -3.486065     -0.778328      0.020256
  H      -2.483309      0.349301      0.895962
  H      -1.598923     -2.296132      0.013326
  H       0.688698     -1.665442     -0.482243
  H      -0.268239      1.268583     -0.485072
  H       1.800395      1.610319      1.028677
  H       3.912747     -0.195053      0.576313
17
Coordinates from ORCA-job freq E -421.345396687942
  C      -2.553309     -0.237539     -0.035485
  C      -1.406880     -1.244318     -0.152297
  C      -0.042357     -0.875826     -0.701906
  C       0.464835      0.476952     -0.420527
  C       1.606407      0.687191      0.492336
  O       3.477976     -0.184980      1.428806
  O       1.754172      0.815375     -0.904422
  O       2.118445     -0.434479      1.080838
  H      -1.388143     -1.195065     -1.375278
  H      -2.586573      0.453132     -0.874470
  H      -3.492991     -0.783260      0.009110
  H      -2.499829      0.355600      0.883367
  H      -1.590371     -2.291071      0.042581
  H       0.682112     -1.657605     -0.503491
  H      -0.268345      1.278922     -0.472395
  H       1.804629      1.606764      1.037243
  H       3.914986     -0.210725      0.566745
17
Coordinates from ORCA-job freq E -421.344133277853
  C      -2.559293     -0.243510     -0.039345
  C      -1.410064     -1.242807     -0.138910
  C      -0.051092     -0.866937     -0.689827
  C       0.459687      0.484839     -0.411798
  C       1.607324      0.692495      0.493318
  O       3.480942     -0.187663      1.416125
  O       1.749120      0.817321     -0.903711
  O       2.118076     -0.431929      1.080319
  H      -1.339209     -1.196729     -1.367085
  H      -2.581110      0.445888     -0.880815
  H      -3.500860     -0.786918     -0.007956
  H      -2.516707      0.353932      0.877273
  H      -1.587891     -2.289262      0.060659
  H       0.673191     -1.653318     -0.516840
  H      -0.270002      1.289618     -0.462470
  H       1.809455      1.610327      1.039017
  H       3.913197     -0.236277      0.552801
17
Coordinates from ORCA-job freq E -421.344291129284
  C      -2.563706     -0.245910     -0.045239
  C      -1.419480     -1.243320     -0.133002
  C      -0.060380     -0.865444     -0.671565
  C       0.453148      0.485779     -0.398232
  C       1.607266      0.696311      0.497174
  O       3.490960     -0.180797      1.397473
  O       1.740973      0.816394     -0.900178
  O       2.124214     -0.427544      1.082245
  H      -1.285519     -1.200711     -1.361419
  H      -2.567647      0.448744     -0.883666
  H      -3.510568     -0.781044     -0.033693
  H      -2.530341      0.348202      0.873955
  H      -1.594513     -2.288188      0.075537
  H       0.662048     -1.657647     -0.523748
  H      -0.274894      1.291704     -0.448042
  H       1.809823      1.613984      1.042302
  H       3.913380     -0.251446      0.530853
17
Coordinates from ORCA-job freq E -421.345573848220
  C      -2.564229     -0.245961     -0.050013
  C      -1.431565     -1.247744     -0.135885
  C      -0.068775     -0.868670     -0.650339
  C       0.445170      0.483263     -0.384213
  C       1.604980      0.700545      0.501543
  O       3.501183     -0.168257      1.377291
  O       1.731539      0.812520     -0.895984
  O       2.130342     -0.420347      1.087331
  H      -1.235680     -1.207913     -1.362332
  H      -2.546031      0.460879     -0.878949
  H      -3.519199     -0.766762     -0.062985
  H      -2.536096      0.336222      0.877035
  H      -1.604622     -2.289575      0.087189
  H       0.652571     -1.664679     -0.524198
  H      -0.281705      1.289600     -0.436073
  H       1.805572      1.619750      1.044143
  H       3.911308     -0.263802      0.507193
17
Coordinates from ORCA-job freq E -421.347124357469
  C      -2.562843     -0.244296     -0.053225
  C      -1.444525     -1.254233     -0.144612
  C      -0.075427     -0.875436     -0.629185
  C       0.437613      0.477936     -0.371546
  C       1.601695      0.704540      0.505620
  O       3.510926     -0.152062      1.358312
  O       1.722720      0.806613     -0.891976
  O       2.136647     -0.411483      1.094292
  H      -1.192615     -1.214853     -1.367923
  H      -2.522658      0.477780     -0.868922
  H      -3.526432     -0.748074     -0.090803
  H      -2.536720      0.321341      0.884203
  H      -1.617113     -2.292390      0.094201
  H       0.645298     -1.673866     -0.520511
  H      -0.288686      1.284047     -0.427272
  H       1.798172      1.626509      1.044442
  H       3.908712     -0.273006      0.485662
17
Coordinates from ORCA-job freq E -421.349109895791
  C      -2.561776     -0.241273     -0.058006
  C      -1.463897     -1.264028     -0.161750
  C      -0.083040     -0.887521     -0.596835
  C       0.427957      0.468387     -0.353191
  C       1.597748      0.710403      0.511374
  O       3.526334     -0.126606      1.329908
  O       1.710876      0.796622     -0.886312
  O       2.147597     -0.396929      1.105620
  H      -1.134015     -1.221656     -1.377354
  H      -2.492088      0.503552     -0.851822
  H      -3.536273     -0.720184     -0.129481
  H      -2.537552      0.297814      0.895237
  H      -1.638492     -2.296653      0.097954
  H       0.636801     -1.688415     -0.507656
  H      -0.298089      1.273577     -0.415250
  H       1.787290      1.637408      1.043315
  H       3.905384     -0.285430      0.455006
17
Coordinates from ORCA-job freq E -421.351168639411
  C      -2.569149     -0.242155     -0.061602
  C      -1.488037     -1.271299     -0.192055
  C      -0.090149     -0.901310     -0.547964
  C       0.420868      0.458151     -0.332329
  C       1.598663      0.721699      0.513464
  O       3.546640     -0.096172      1.295072
  O       1.701924      0.777776     -0.884456
  O       2.162152     -0.372251      1.123220
  H      -1.052494     -1.214854     -1.392149
  H      -2.473273      0.537900     -0.818964
  H      -3.550857     -0.697477     -0.176227
  H      -2.550992      0.254482      0.915108
  H      -1.669892     -2.297905      0.086126
  H       0.627758     -1.704452     -0.471823
  H      -0.303178      1.263178     -0.407869
  H       1.782818      1.657983      1.030077
  H       3.901963     -0.314226      0.423127
17
Coordinates from ORCA-job freq E -421.352825105054
  C      -2.576876     -0.231473     -0.091976
  C      -1.523382     -1.283675     -0.231348
  C      -0.096871     -0.930367     -0.466591
  C       0.406514      0.434109     -0.275900
  C       1.603411      0.726114      0.531557
  O       3.597047     -0.055737      1.216967
  O       1.671278      0.767438     -0.866940
  O       2.208666     -0.351533      1.132906
  H      -0.961750     -1.218681     -1.391911
  H      -2.445721      0.568883     -0.822655
  H      -3.568252     -0.653999     -0.243791
  H      -2.563238      0.234442      0.900218
  H      -1.729552     -2.304473      0.052759
  H       0.615143     -1.736816     -0.372175
  H      -0.326201      1.231041     -0.343958
  H       1.779301      1.669261      1.038051
  H       3.905247     -0.305466      0.335543
17
Coordinates from ORCA-job freq E -421.353885879650
  C      -2.606311     -0.226320     -0.152834
  C      -1.557692     -1.284526     -0.273507
  C      -0.107606     -0.951389     -0.333666
  C       0.392666      0.416580     -0.178425
  C       1.628817      0.731265      0.555153
  O       3.673235     -0.027891      1.092222
  O       1.624402      0.763428     -0.842676
  O       2.285105     -0.334048      1.127422
  H      -0.840379     -1.212220     -1.358256
  H      -2.453416      0.585066     -0.867191
  H      -3.594595     -0.640919     -0.340681
  H      -2.615385      0.224989      0.846686
  H      -1.797651     -2.306726     -0.019976
  H       0.588034     -1.763212     -0.181358
  H      -0.349327      1.205905     -0.218034
  H       1.813912      1.678728      1.050318
  H       3.910957     -0.299641      0.195557
17
Coordinates from ORCA-job freq E -421.354145385874
  C      -2.617883     -0.219743     -0.219151
  C      -1.573347     -1.286420     -0.286747
  C      -0.120860     -0.963231     -0.222599
  C       0.372688      0.408677     -0.083576
  C       1.645564      0.727220      0.577173
  O       3.725798     -0.020101      0.973377
  O       1.563652      0.784584     -0.815831
  O       2.346056     -0.340508      1.092057
  H      -0.754761     -1.227798     -1.303982
  H      -2.431475      0.582093     -0.937045
  H      -3.601569     -0.629642     -0.437607
  H      -2.657388      0.244645      0.773858
  H      -1.836810     -2.308206     -0.057461
  H       0.559601     -1.776033     -0.017316
  H      -0.378670      1.190003     -0.074019
  H       1.846885      1.666591      1.081374
  H       3.907284     -0.273064      0.058251
17
Coordinates from ORCA-job freq E -421.354177305879
  C      -2.622813     -0.219173     -0.259950
  C      -1.578437     -1.286829     -0.279174
  C      -0.129096     -0.964879     -0.161380
  C       0.361597      0.408781     -0.028074
  C       1.656060      0.724488      0.587589
  O       3.751225     -0.021763      0.899356
  O       1.525921      0.801904     -0.799984
  O       2.377675     -0.347844      1.063256
  H      -0.715892     -1.235329     -1.261626
  H      -2.399980      0.583258     -0.966897
  H      -3.596040     -0.626485     -0.525100
  H      -2.708477      0.244250      0.730625
  H      -1.850495     -2.308585     -0.060590
  H       0.543198     -1.776239      0.074020
  H      -0.390832      1.187816      0.014860
  H       1.871106      1.656878      1.099069
  H       3.900043     -0.261181     -0.025243
17
Coordinates from ORCA-job freq E -421.354192737032
  C      -2.620030     -0.217289     -0.289490
  C      -1.580787     -1.288523     -0.269542
  C      -0.133431     -0.967458     -0.127698
  C       0.352976      0.408052      0.009213
  C       1.659912      0.720712      0.598067
  O       3.764827     -0.021838      0.846373
  O       1.498130      0.819377     -0.784302
  O       2.397138     -0.355614      1.040234
  H      -0.696835     -1.248715     -1.236711
  H      -2.367858      0.581334     -0.990920
  H      -3.585935     -0.620478     -0.586134
  H      -2.738135      0.250635      0.695698
  H      -1.860711     -2.306508     -0.043293
  H       0.533762     -1.777265      0.126353
  H      -0.401059      1.183627      0.078787
  H       1.882247      1.645880      1.119378
  H       3.890553     -0.246860     -0.085257
17
Coordinates from ORCA-job freq E -421.354194706213
  C      -2.619637     -0.216892     -0.297853
  C      -1.581478     -1.288879     -0.267058
  C      -0.134946     -0.968071     -0.116525
  C       0.350843      0.407722      0.020444
  C       1.661485      0.719915      0.600875
  O       3.768710     -0.021727      0.830615
  O       1.490340      0.823003     -0.779883
  O       2.402880     -0.357190      1.034382
  H      -0.690855     -1.251299     -1.228455
  H      -2.358813      0.581432     -0.996448
  H      -3.582752     -0.619028     -0.604855
  H      -2.747960      0.251139      0.686009
  H      -1.863700     -2.306227     -0.040811
  H       0.530649     -1.777602      0.142539
  H      -0.403418      1.182441      0.096786
  H       1.886484      1.643504      1.123865
  H       3.886934     -0.243172     -0.102872
17
Coordinates from ORCA-job freq E -421.354200034862
  C      -2.619674     -0.216907     -0.297613
  C      -1.581450     -1.288864     -0.267216
  C      -0.134917     -0.968070     -0.116698
  C       0.350939      0.407716      0.020181
  C       1.661478      0.719956      0.600811
  O       3.768585     -0.021826      0.830949
  O       1.490627      0.822686     -0.780017
  O       2.402704     -0.357072      1.034767
  H      -0.690840     -1.251205     -1.228635
  H      -2.358983      0.581608     -0.996029
  H      -3.582830     -0.618986     -0.604564
  H      -2.747825      0.250844      0.686406
  H      -1.863599     -2.306273     -0.041140
  H       0.530662     -1.777597      0.142410
  H      -0.403266      1.182531      0.096161
  H       1.886455      1.643671      1.123567
  H       3.886700     -0.243143     -0.102584
