15
* (null), Energy   -1000.0000000
C     2.155525    0.346261    0.488344   -0.001948    0.002913    0.004148
C    -1.937558    0.687294   -0.358417   -0.004231    0.004087    0.001988
C     1.163677   -0.635486   -0.056090   -0.012346   -0.124748    0.070553
C    -0.112358   -0.842784    0.619711   -0.104871    0.060112    0.003392
C    -1.505792   -0.423732    0.549208   -0.015379    0.011775   -0.006905
O    -0.622036   -0.041478    1.625134    0.001144    0.005026    0.000939
H     0.843900   -1.724704    0.667148    1.763931    0.376853   -0.831925
H     3.167817    0.114128    0.163011   -0.008195   -0.011091    0.000644
H     1.919867    1.365291    0.165333   -0.022505   -0.029045   -0.022718
H     2.132875    0.348305    1.578179    0.006236    0.004550   -0.004874
H    -2.370311    0.279862   -1.272654    0.000745   -0.000527    0.000241
H    -2.689713    1.310724    0.125922   -0.008729    0.015553   -0.015448
H    -1.082893    1.309505   -0.620987   -0.003136    0.003382    0.000445
H     1.202477   -0.957425   -1.089076   -0.081658    0.093783   -0.010127
H    -2.265478   -1.135760    0.852024   -0.011251    0.013239   -0.003072
15
* Frequency(6) -2029.1382
C     2.155304    0.346592    0.488815   -0.001948    0.002913    0.004148
C    -1.938038    0.687758   -0.358191   -0.004231    0.004087    0.001988
C     1.162274   -0.649663   -0.048072   -0.012346   -0.124748    0.070553
C    -0.124276   -0.835953    0.620097   -0.104871    0.060112    0.003392
C    -1.507540   -0.422394    0.548424   -0.015379    0.011775   -0.006905
O    -0.621906   -0.040907    1.625241    0.001144    0.005026    0.000939
H     1.044362   -1.681877    0.572605    1.763931    0.376853   -0.831925
H     3.166886    0.112868    0.163084   -0.008195   -0.011091    0.000644
H     1.917310    1.361990    0.162751   -0.022505   -0.029045   -0.022718
H     2.133584    0.348822    1.577625    0.006236    0.004550   -0.004874
H    -2.370226    0.279802   -1.272627    0.000745   -0.000527    0.000241
H    -2.690705    1.312491    0.124166   -0.008729    0.015553   -0.015448
H    -1.083249    1.309890   -0.620936   -0.003136    0.003382    0.000445
H     1.193197   -0.946767   -1.090227   -0.081658    0.093783   -0.010127
H    -2.266757   -1.134256    0.851675   -0.011251    0.013239   -0.003072
15
* Frequency(6) -2029.1382
C     2.155106    0.346888    0.489235   -0.001948    0.002913    0.004148
C    -1.938467    0.688172   -0.357990   -0.004231    0.004087    0.001988
C     1.161023   -0.662303   -0.040923   -0.012346   -0.124748    0.070553
C    -0.134902   -0.829862    0.620441   -0.104871    0.060112    0.003392
C    -1.509098   -0.421201    0.547724   -0.015379    0.011775   -0.006905
O    -0.621790   -0.040397    1.625336    0.001144    0.005026    0.000939
H     1.223100   -1.643690    0.488306    1.763931    0.376853   -0.831925
H     3.166056    0.111744    0.163149   -0.008195   -0.011091    0.000644
H     1.915029    1.359047    0.160449   -0.022505   -0.029045   -0.022718
H     2.134216    0.349283    1.577131    0.006236    0.004550   -0.004874
H    -2.370151    0.279749   -1.272602    0.000745   -0.000527    0.000241
H    -2.691589    1.314067    0.122601   -0.008729    0.015553   -0.015448
H    -1.083567    1.310232   -0.620891   -0.003136    0.003382    0.000445
H     1.184923   -0.937264   -1.091253   -0.081658    0.093783   -0.010127
H    -2.267897   -1.132915    0.851364   -0.011251    0.013239   -0.003072
15
* Frequency(6) -2029.1382
C     2.154954    0.347115    0.489559   -0.001948    0.002913    0.004148
C    -1.938797    0.688491   -0.357835   -0.004231    0.004087    0.001988
C     1.160060   -0.672038   -0.035417   -0.012346   -0.124748    0.070553
C    -0.143086   -0.825171    0.620705   -0.104871    0.060112    0.003392
C    -1.510298   -0.420282    0.547185   -0.015379    0.011775   -0.006905
O    -0.621701   -0.040005    1.625409    0.001144    0.005026    0.000939
H     1.360747   -1.614283    0.423388    1.763931    0.376853   -0.831925
H     3.165416    0.110878    0.163199   -0.008195   -0.011091    0.000644
H     1.913273    1.356781    0.158677   -0.022505   -0.029045   -0.022718
H     2.134702    0.349638    1.576751    0.006236    0.004550   -0.004874
H    -2.370092    0.279708   -1.272583    0.000745   -0.000527    0.000241
H    -2.692270    1.315281    0.121395   -0.008729    0.015553   -0.015448
H    -1.083812    1.310496   -0.620856   -0.003136    0.003382    0.000445
H     1.178551   -0.929946   -1.092043   -0.081658    0.093783   -0.010127
H    -2.268775   -1.131881    0.851124   -0.011251    0.013239   -0.003072
15
* Frequency(6) -2029.1382
C     2.154864    0.347250    0.489751   -0.001948    0.002913    0.004148
C    -1.938993    0.688680   -0.357743   -0.004231    0.004087    0.001988
C     1.159488   -0.677812   -0.032152   -0.012346   -0.124748    0.070553
C    -0.147939   -0.822389    0.620862   -0.104871    0.060112    0.003392
C    -1.511010   -0.419737    0.546866   -0.015379    0.011775   -0.006905
O    -0.621648   -0.039773    1.625453    0.001144    0.005026    0.000939
H     1.442385   -1.596842    0.384885    1.763931    0.376853   -0.831925
H     3.165037    0.110365    0.163229   -0.008195   -0.011091    0.000644
H     1.912231    1.355436    0.157625   -0.022505   -0.029045   -0.022718
H     2.134991    0.349848    1.576525    0.006236    0.004550   -0.004874
H    -2.370058    0.279683   -1.272572    0.000745   -0.000527    0.000241
H    -2.692674    1.316001    0.120680   -0.008729    0.015553   -0.015448
H    -1.083957    1.310653   -0.620836   -0.003136    0.003382    0.000445
H     1.174771   -0.925606   -1.092512   -0.081658    0.093783   -0.010127
H    -2.269295   -1.131269    0.850982   -0.011251    0.013239   -0.003072
15
* Frequency(6) -2029.1382
C     2.154845    0.347277    0.489791   -0.001948    0.002913    0.004148
C    -1.939033    0.688719   -0.357724   -0.004231    0.004087    0.001988
C     1.159371   -0.678998   -0.031481   -0.012346   -0.124748    0.070553
C    -0.148937   -0.821817    0.620894   -0.104871    0.060112    0.003392
C    -1.511156   -0.419625    0.546800   -0.015379    0.011775   -0.006905
O    -0.621637   -0.039725    1.625462    0.001144    0.005026    0.000939
H     1.459167   -1.593256    0.376969    1.763931    0.376853   -0.831925
H     3.164959    0.110260    0.163235   -0.008195   -0.011091    0.000644
H     1.912017    1.355160    0.157409   -0.022505   -0.029045   -0.022718
H     2.135050    0.349892    1.576479    0.006236    0.004550   -0.004874
H    -2.370051    0.279678   -1.272570    0.000745   -0.000527    0.000241
H    -2.692757    1.316149    0.120533   -0.008729    0.015553   -0.015448
H    -1.083987    1.310685   -0.620832   -0.003136    0.003382    0.000445
H     1.173995   -0.924713   -1.092608   -0.081658    0.093783   -0.010127
H    -2.269402   -1.131143    0.850953   -0.011251    0.013239   -0.003072
15
* Frequency(6) -2029.1382
C     2.154900    0.347195    0.489673   -0.001948    0.002913    0.004148
C    -1.938914    0.688603   -0.357780   -0.004231    0.004087    0.001988
C     1.159720   -0.675470   -0.033476   -0.012346   -0.124748    0.070553
C    -0.145971   -0.823517    0.620799   -0.104871    0.060112    0.003392
C    -1.510721   -0.419958    0.546995   -0.015379    0.011775   -0.006905
O    -0.621670   -0.039867    1.625435    0.001144    0.005026    0.000939
H     1.409277   -1.603915    0.400499    1.763931    0.376853   -0.831925
H     3.165191    0.110573    0.163217   -0.008195   -0.011091    0.000644
H     1.912654    1.355982    0.158052   -0.022505   -0.029045   -0.022718
H     2.134874    0.349763    1.576616    0.006236    0.004550   -0.004874
H    -2.370072    0.279693   -1.272577    0.000745   -0.000527    0.000241
H    -2.692511    1.315709    0.120970   -0.008729    0.015553   -0.015448
H    -1.083898    1.310589   -0.620844   -0.003136    0.003382    0.000445
H     1.176304   -0.927366   -1.092322   -0.081658    0.093783   -0.010127
H    -2.269084   -1.131517    0.851040   -0.011251    0.013239   -0.003072
15
* Frequency(6) -2029.1382
C     2.155023    0.347011    0.489412   -0.001948    0.002913    0.004148
C    -1.938647    0.688346   -0.357905   -0.004231    0.004087    0.001988
C     1.160498   -0.667609   -0.037922   -0.012346   -0.124748    0.070553
C    -0.139362   -0.827305    0.620585   -0.104871    0.060112    0.003392
C    -1.509752   -0.420700    0.547430   -0.015379    0.011775   -0.006905
O    -0.621742   -0.040184    1.625376    0.001144    0.005026    0.000939
H     1.298118   -1.627663    0.452925    1.763931    0.376853   -0.831925
H     3.165707    0.111272    0.163177   -0.008195   -0.011091    0.000644
H     1.914072    1.357812    0.159483   -0.022505   -0.029045   -0.022718
H     2.134481    0.349476    1.576924    0.006236    0.004550   -0.004874
H    -2.370119    0.279726   -1.272592    0.000745   -0.000527    0.000241
H    -2.691960    1.314729    0.121944   -0.008729    0.015553   -0.015448
H    -1.083700    1.310376   -0.620872   -0.003136    0.003382    0.000445
H     1.181450   -0.933276   -1.091683   -0.081658    0.093783   -0.010127
H    -2.268375   -1.132352    0.851233   -0.011251    0.013239   -0.003072
15
* Frequency(6) -2029.1382
C     2.155200    0.346747    0.489035   -0.001948    0.002913    0.004148
C    -1.938262    0.687974   -0.358086   -0.004231    0.004087    0.001988
C     1.161620   -0.656267   -0.044337   -0.012346   -0.124748    0.070553
C    -0.129827   -0.832771    0.620276   -0.104871    0.060112    0.003392
C    -1.508354   -0.421770    0.548058   -0.015379    0.011775   -0.006905
O    -0.621846   -0.040641    1.625291    0.001144    0.005026    0.000939
H     1.137739   -1.661927    0.528565    1.763931    0.376853   -0.831925
H     3.166452    0.112281    0.163118   -0.008195   -0.011091    0.000644
H     1.916118    1.360453    0.161549   -0.022505   -0.029045   -0.022718
H     2.133914    0.349063    1.577367    0.006236    0.004550   -0.004874
H    -2.370187    0.279774   -1.272614    0.000745   -0.000527    0.000241
H    -2.691167    1.313314    0.123349   -0.008729    0.015553   -0.015448
H    -1.083415    1.310069   -0.620913   -0.003136    0.003382    0.000445
H     1.188874   -0.941803   -1.090763   -0.081658    0.093783   -0.010127
H    -2.267352   -1.133555    0.851513   -0.011251    0.013239   -0.003072
15
* Frequency(6) -2029.1382
C     2.155413    0.346429    0.488583   -0.001948    0.002913    0.004148
C    -1.937801    0.687529   -0.358302   -0.004231    0.004087    0.001988
C     1.162966   -0.642672   -0.052025   -0.012346   -0.124748    0.070553
C    -0.118399   -0.839321    0.619907   -0.104871    0.060112    0.003392
C    -1.506678   -0.423054    0.548811   -0.015379    0.011775   -0.006905
O    -0.621970   -0.041188    1.625189    0.001144    0.005026    0.000939
H     0.945517   -1.702994    0.619223    1.763931    0.376853   -0.831925
H     3.167345    0.113489    0.163048   -0.008195   -0.011091    0.000644
H     1.918571    1.363618    0.164024   -0.022505   -0.029045   -0.022718
H     2.133234    0.348567    1.577898    0.006236    0.004550   -0.004874
H    -2.370268    0.279832   -1.272640    0.000745   -0.000527    0.000241
H    -2.690215    1.311620    0.125032   -0.008729    0.015553   -0.015448
H    -1.083073    1.309700   -0.620961   -0.003136    0.003382    0.000445
H     1.197773   -0.952023   -1.089659   -0.081658    0.093783   -0.010127
H    -2.266126   -1.134998    0.851847   -0.011251    0.013239   -0.003072
15
* Frequency(6) -2029.1382
C     2.155637    0.346094    0.488105   -0.001948    0.002913    0.004148
C    -1.937314    0.687058   -0.358531   -0.004231    0.004087    0.001988
C     1.164388   -0.628299   -0.060154   -0.012346   -0.124748    0.070553
C    -0.106316   -0.846247    0.619516   -0.104871    0.060112    0.003392
C    -1.504906   -0.424410    0.549606   -0.015379    0.011775   -0.006905
O    -0.622102   -0.041767    1.625080    0.001144    0.005026    0.000939
H     0.742283   -1.746414    0.715074    1.763931    0.376853   -0.831925
H     3.168290    0.114767    0.162974   -0.008195   -0.011091    0.000644
H     1.921163    1.366964    0.166642   -0.022505   -0.029045   -0.022718
H     2.132516    0.348043    1.578460    0.006236    0.004550   -0.004874
H    -2.370354    0.279892   -1.272668    0.000745   -0.000527    0.000241
H    -2.689210    1.309828    0.126812   -0.008729    0.015553   -0.015448
H    -1.082712    1.309310   -0.621013   -0.003136    0.003382    0.000445
H     1.207181   -0.962828   -1.088492   -0.081658    0.093783   -0.010127
H    -2.264830   -1.136523    0.852201   -0.011251    0.013239   -0.003072
15
* Frequency(6) -2029.1382
C     2.155849    0.345776    0.487653   -0.001948    0.002913    0.004148
C    -1.936853    0.686613   -0.358748   -0.004231    0.004087    0.001988
C     1.165734   -0.614705   -0.067843   -0.012346   -0.124748    0.070553
C    -0.094888   -0.852798    0.619146   -0.104871    0.060112    0.003392
C    -1.503230   -0.425694    0.550359   -0.015379    0.011775   -0.006905
O    -0.622227   -0.042315    1.624978    0.001144    0.005026    0.000939
H     0.550062   -1.787481    0.805732    1.763931    0.376853   -0.831925
H     3.169183    0.115976    0.162903   -0.008195   -0.011091    0.000644
H     1.923616    1.370129    0.169118   -0.022505   -0.029045   -0.022718
H     2.131836    0.347547    1.578991    0.006236    0.004550   -0.004874
H    -2.370435    0.279950   -1.272694    0.000745   -0.000527    0.000241
H    -2.688258    1.308133    0.128495   -0.008729    0.015553   -0.015448
H    -1.082370    1.308942   -0.621061   -0.003136    0.003382    0.000445
H     1.216080   -0.973048   -1.087389   -0.081658    0.093783   -0.010127
H    -2.263604   -1.137966    0.852536   -0.011251    0.013239   -0.003072
15
* Frequency(6) -2029.1382
C     2.156027    0.345511    0.487275   -0.001948    0.002913    0.004148
C    -1.936468    0.686241   -0.358929   -0.004231    0.004087    0.001988
C     1.166856   -0.603363   -0.074257   -0.012346   -0.124748    0.070553
C    -0.085353   -0.858263    0.618838   -0.104871    0.060112    0.003392
C    -1.501832   -0.426764    0.550987   -0.015379    0.011775   -0.006905
O    -0.622331   -0.042772    1.624893    0.001144    0.005026    0.000939
H     0.389682   -1.821745    0.881372    1.763931    0.376853   -0.831925
H     3.169928    0.116984    0.162845   -0.008195   -0.011091    0.000644
H     1.925662    1.372770    0.171183   -0.022505   -0.029045   -0.022718
H     2.131269    0.347133    1.579434    0.006236    0.004550   -0.004874
H    -2.370503    0.279998   -1.272716    0.000745   -0.000527    0.000241
H    -2.687465    1.306719    0.129900   -0.008729    0.015553   -0.015448
H    -1.082085    1.308634   -0.621102   -0.003136    0.003382    0.000445
H     1.223504   -0.981575   -1.086468   -0.081658    0.093783   -0.010127
H    -2.262581   -1.139169    0.852815   -0.011251    0.013239   -0.003072
15
* Frequency(6) -2029.1382
C     2.156149    0.345328    0.487014   -0.001948    0.002913    0.004148
C    -1.936202    0.685984   -0.359054   -0.004231    0.004087    0.001988
C     1.167634   -0.595502   -0.078703   -0.012346   -0.124748    0.070553
C    -0.078744   -0.862051    0.618624   -0.104871    0.060112    0.003392
C    -1.500863   -0.427506    0.551422   -0.015379    0.011775   -0.006905
O    -0.622403   -0.043089    1.624834    0.001144    0.005026    0.000939
H     0.278524   -1.845493    0.933798    1.763931    0.376853   -0.831925
H     3.170444    0.117683    0.162804   -0.008195   -0.011091    0.000644
H     1.927080    1.374600    0.172615   -0.022505   -0.029045   -0.022718
H     2.130876    0.346846    1.579741    0.006236    0.004550   -0.004874
H    -2.370550    0.280031   -1.272731    0.000745   -0.000527    0.000241
H    -2.686915    1.305739    0.130874   -0.008729    0.015553   -0.015448
H    -1.081888    1.308421   -0.621130   -0.003136    0.003382    0.000445
H     1.228650   -0.987485   -1.085830   -0.081658    0.093783   -0.010127
H    -2.261872   -1.140004    0.853009   -0.011251    0.013239   -0.003072
15
* Frequency(6) -2029.1382
C     2.156204    0.345245    0.486897   -0.001948    0.002913    0.004148
C    -1.936082    0.685868   -0.359110   -0.004231    0.004087    0.001988
C     1.167983   -0.591973   -0.080699   -0.012346   -0.124748    0.070553
C    -0.075778   -0.863751    0.618528   -0.104871    0.060112    0.003392
C    -1.500428   -0.427839    0.551617   -0.015379    0.011775   -0.006905
O    -0.622435   -0.043231    1.624807    0.001144    0.005026    0.000939
H     0.228633   -1.856152    0.957328    1.763931    0.376853   -0.831925
H     3.170676    0.117997    0.162786   -0.008195   -0.011091    0.000644
H     1.927717    1.375422    0.173257   -0.022505   -0.029045   -0.022718
H     2.130700    0.346718    1.579879    0.006236    0.004550   -0.004874
H    -2.370571    0.280046   -1.272738    0.000745   -0.000527    0.000241
H    -2.686668    1.305299    0.131310   -0.008729    0.015553   -0.015448
H    -1.081799    1.308325   -0.621142   -0.003136    0.003382    0.000445
H     1.230960   -0.990137   -1.085543   -0.081658    0.093783   -0.010127
H    -2.261554   -1.140378    0.853096   -0.011251    0.013239   -0.003072
15
* Frequency(6) -2029.1382
C     2.156186    0.345273    0.486936   -0.001948    0.002913    0.004148
C    -1.936122    0.685907   -0.359091   -0.004231    0.004087    0.001988
C     1.167866   -0.593160   -0.080028   -0.012346   -0.124748    0.070553
C    -0.076776   -0.863179    0.618561   -0.104871    0.060112    0.003392
C    -1.500574   -0.427727    0.551551   -0.015379    0.011775   -0.006905
O    -0.622424   -0.043183    1.624816    0.001144    0.005026    0.000939
H     0.245416   -1.852567    0.949412    1.763931    0.376853   -0.831925
H     3.170598    0.117891    0.162792   -0.008195   -0.011091    0.000644
H     1.927503    1.375146    0.173041   -0.022505   -0.029045   -0.022718
H     2.130759    0.346761    1.579833    0.006236    0.004550   -0.004874
H    -2.370564    0.280041   -1.272736    0.000745   -0.000527    0.000241
H    -2.686751    1.305447    0.131163   -0.008729    0.015553   -0.015448
H    -1.081829    1.308358   -0.621138   -0.003136    0.003382    0.000445
H     1.230183   -0.989245   -1.085640   -0.081658    0.093783   -0.010127
H    -2.261661   -1.140252    0.853067   -0.011251    0.013239   -0.003072
15
* Frequency(6) -2029.1382
C     2.156096    0.345408    0.487128   -0.001948    0.002913    0.004148
C    -1.936318    0.686096   -0.358999   -0.004231    0.004087    0.001988
C     1.167294   -0.598934   -0.076762   -0.012346   -0.124748    0.070553
C    -0.081629   -0.860397    0.618718   -0.104871    0.060112    0.003392
C    -1.501286   -0.427182    0.551232   -0.015379    0.011775   -0.006905
O    -0.622371   -0.042950    1.624859    0.001144    0.005026    0.000939
H     0.327054   -1.835125    0.910909    1.763931    0.376853   -0.831925
H     3.170219    0.117378    0.162822   -0.008195   -0.011091    0.000644
H     1.926461    1.373801    0.171990   -0.022505   -0.029045   -0.022718
H     2.131048    0.346971    1.579607    0.006236    0.004550   -0.004874
H    -2.370529    0.280017   -1.272725    0.000745   -0.000527    0.000241
H    -2.687155    1.306167    0.130448   -0.008729    0.015553   -0.015448
H    -1.081974    1.308514   -0.621117   -0.003136    0.003382    0.000445
H     1.226404   -0.984905   -1.086108   -0.081658    0.093783   -0.010127
H    -2.262181   -1.139639    0.852924   -0.011251    0.013239   -0.003072
15
* Frequency(6) -2029.1382
C     2.155944    0.345635    0.487452   -0.001948    0.002913    0.004148
C    -1.936648    0.686415   -0.358844   -0.004231    0.004087    0.001988
C     1.166331   -0.608668   -0.071257   -0.012346   -0.124748    0.070553
C    -0.089813   -0.855707    0.618982   -0.104871    0.060112    0.003392
C    -1.502486   -0.426263    0.550693   -0.015379    0.011775   -0.006905
O    -0.622282   -0.042558    1.624933    0.001144    0.005026    0.000939
H     0.464700   -1.805718    0.845991    1.763931    0.376853   -0.831925
H     3.169579    0.116512    0.162872   -0.008195   -0.011091    0.000644
H     1.924705    1.371535    0.170217   -0.022505   -0.029045   -0.022718
H     2.131534    0.347327    1.579227    0.006236    0.004550   -0.004874
H    -2.370471    0.279975   -1.272706    0.000745   -0.000527    0.000241
H    -2.687836    1.307380    0.129243   -0.008729    0.015553   -0.015448
H    -1.082219    1.308778   -0.621083   -0.003136    0.003382    0.000445
H     1.220031   -0.977586   -1.086899   -0.081658    0.093783   -0.010127
H    -2.263059   -1.138606    0.852685   -0.011251    0.013239   -0.003072
15
* Frequency(6) -2029.1382
C     2.155746    0.345930    0.487872   -0.001948    0.002913    0.004148
C    -1.937077    0.686829   -0.358643   -0.004231    0.004087    0.001988
C     1.165080   -0.621309   -0.064108   -0.012346   -0.124748    0.070553
C    -0.100439   -0.849616    0.619326   -0.104871    0.060112    0.003392
C    -1.504044   -0.425070    0.549993   -0.015379    0.011775   -0.006905
O    -0.622166   -0.042049    1.625028    0.001144    0.005026    0.000939
H     0.643439   -1.767532    0.761692    1.763931    0.376853   -0.831925
H     3.168749    0.115389    0.162938   -0.008195   -0.011091    0.000644
H     1.922425    1.368592    0.167915   -0.022505   -0.029045   -0.022718
H     2.132166    0.347788    1.578733    0.006236    0.004550   -0.004874
H    -2.370395    0.279922   -1.272681    0.000745   -0.000527    0.000241
H    -2.688721    1.308956    0.127678   -0.008729    0.015553   -0.015448
H    -1.082536    1.309121   -0.621038   -0.003136    0.003382    0.000445
H     1.211757   -0.968083   -1.087925   -0.081658    0.093783   -0.010127
H    -2.264199   -1.137265    0.852373   -0.011251    0.013239   -0.003072
15
* Frequency(6) -2029.1382
C     2.155525    0.346261    0.488344   -0.001948    0.002913    0.004148
C    -1.937558    0.687294   -0.358417   -0.004231    0.004087    0.001988
C     1.163677   -0.635486   -0.056090   -0.012346   -0.124748    0.070553
C    -0.112358   -0.842784    0.619711   -0.104871    0.060112    0.003392
C    -1.505792   -0.423732    0.549208   -0.015379    0.011775   -0.006905
O    -0.622036   -0.041478    1.625134    0.001144    0.005026    0.000939
H     0.843900   -1.724704    0.667148    1.763931    0.376853   -0.831925
H     3.167817    0.114128    0.163011   -0.008195   -0.011091    0.000644
H     1.919867    1.365291    0.165333   -0.022505   -0.029045   -0.022718
H     2.132875    0.348305    1.578179    0.006236    0.004550   -0.004874
H    -2.370311    0.279862   -1.272654    0.000745   -0.000527    0.000241
H    -2.689713    1.310724    0.125922   -0.008729    0.015553   -0.015448
H    -1.082893    1.309505   -0.620987   -0.003136    0.003382    0.000445
H     1.202477   -0.957425   -1.089076   -0.081658    0.093783   -0.010127
H    -2.265478   -1.135760    0.852024   -0.011251    0.013239   -0.003072
