15
Coordinates from ORCA-job freq E -270.972838218123
  C           2.15552491662539      0.34626133782174      0.48834359950956
  C          -1.93755759313009      0.68729361907080     -0.35841696146508
  C           1.16367705097873     -0.63548585929634     -0.05608975073594
  C          -0.11235752422428     -0.84278415036237      0.61971140605962
  C          -1.50579217123093     -0.42373199067508      0.54920841638402
  O          -0.62203628984710     -0.04147769923375      1.62513443590504
  H           0.84390019123035     -1.72470421290305      0.66714846916308
  H           3.16781742620610      0.11412811457998      0.16301072293795
  H           1.91986702476698      1.36529095410747      0.16533317080420
  H           2.13287486792754      0.34830466708031      1.57817886437839
  H          -2.37031074098552      0.27986210198449     -1.27265403575396
  H          -2.68971259336213      1.31072367940520      0.12592195389454
  H          -1.08289272185405      1.30950523636956     -0.62098689669747
  H           1.20247713624697     -0.95742530708074     -1.08907569278431
  H          -2.26547797934793     -1.13576049086820      0.85202429840035
