17
Coordinates from ORCA-job freq E -421.375079048850
  C          -1.51906961402293      1.22590433753591     -0.15640963928784
  C          -1.41594043742301     -0.29162770353191     -0.05662641963616
  C           1.89338404026222      0.73143552022401     -0.53053922815018
  C           1.15780430276112     -0.47474278969004     -0.19826642803180
  C          -0.12817494527061     -0.74026688123385      0.59755903160588
  O           1.17555157897540     -2.49762083540703      0.98558243768778
  O           1.17131557175426     -0.06500659842254     -1.49511301513340
  O          -0.13612261433713     -2.15000639979764      0.70881747089001
  H           1.66121522821393     -1.63500353527543      0.23385273214877
  H          -2.50208482951003      1.51870898675723     -0.52077175105952
  H          -0.78136194030451      1.62466189657448     -0.85220232765505
  H          -1.37071279296163      1.69846646399112      0.81586708190402
  H          -1.47530368057886     -0.74427346918630     -1.04669132468376
  H          -2.24088765915308     -0.69064440635472      0.53573477364387
  H           2.97030541904707      0.69080271932114     -0.62677113995018
  H           1.45809830573997      1.70551490008672     -0.34200806208926
  H           0.01532506680782     -0.29007420559114      1.58655380779682
