17
Coordinates from ORCA-job freq E -421.467711122966
  C          -2.58399457105141      0.44547714840117     -0.05496256565626
  C           1.87014640944640     -0.91851362199234      0.51896636545833
  C          -1.08095544642498      0.59529051125303      0.13326622908633
  C          -0.30418359454552     -0.42004713654736     -0.71751358851752
  C           1.16392101107457     -0.28573024535056     -0.53787340356775
  O           1.27400443254602     -1.64469907008802      1.31943300714656
  O           3.08131216907259      0.78051847746968     -1.17016144545550
  O           1.71004404559362      0.54429078569690     -1.44135825165670
  H          -2.86592828585686      0.60552931353467     -1.09672621191280
  H          -3.13062595613939      1.16373855586617      0.55471047806997
  H          -2.91129324433685     -0.55502508170241      0.23025963385163
  H           2.94667061756378     -0.74192994018906      0.59880325393699
  H          -0.76475972537581      1.60469450545974     -0.13751668611917
  H          -0.81356597962016      0.44161933542350      1.17959284515731
  H          -0.55384324150495     -0.29030340068367     -1.77263998392498
  H          -0.58144784747553     -1.42969763891393     -0.41364189348310
  H           3.43270720703443      0.78794050236247     -2.06824678241332
