15
Coordinates from ORCA-job freq E -271.011776804084
  C           1.35578845959567     -0.91040661825270     -0.59909737202204
  C          -1.81868100115098     -0.35633520218696      0.46334384207484
  C          -0.43860726322923      0.07900845344525      0.87651921194246
  C           1.22042603923984      0.55362978180855     -0.85396140759273
  C           0.18286601758740      1.13891752516045      0.02133776799717
  O           1.55983633252014      1.34510179557484      0.27347449209727
  H           0.43553211752121     -0.85984083280567      0.44534056498993
  H           2.30734843906916     -1.24968110263676     -0.20396176855554
  H           0.92425707507326     -1.56576157272233     -1.35019646644868
  H          -1.83954281477107     -0.63061478490159     -0.59330463702706
  H          -2.54494900990935      0.44982314077803      0.60470413450697
  H          -2.15801397553759     -1.21218662929141      1.04437504828079
  H          -0.28215149395419      0.20388956712320      1.94510570904047
  H           1.47342526777787      0.98936477871391     -1.81371782500865
  H          -0.37753418983215      2.02509170019321     -0.25995829427521
