15
Coordinates from ORCA-job freq E -271.036919238934
  C           2.30188522771574      0.33740927756166     -0.13514726225196
  C           0.45160544363029     -2.76265785271957      2.59905313674874
  C           1.17798305168816     -0.59146628239372      0.18125219994169
  C          -0.20571536867175     -1.43907100536021      2.49253919031539
  C           0.21423921131499     -0.29629443534032      1.08657695080274
  O          -0.87335357003704     -1.14125939678794      1.31533723805603
  H           2.20172102568753      1.27595008397795      0.40955211993195
  H           2.33733155205845      0.56832500870238     -1.20192029586876
  H           3.26862547150641     -0.10004275073180      0.12598603709925
  H           1.00933910923813     -2.84028400337202      3.53075175914821
  H           1.13805023731639     -2.92080726911608      1.76523392424962
  H          -0.28934082690653     -3.56863835848775      2.57365357900746
  H           1.13637243365053     -1.55334802353146     -0.31506677460655
  H          -0.56136444008140     -0.90980746910454      3.36985411954197
  H           0.12299044188992      0.69457447670360      1.52036807788401
