17
Coordinates from ORCA-job freq E -421.393601481976
  C          -1.85642267446553      0.81586325102826      0.64860099769763
  C          -1.08692916492309     -0.45283938603474      0.41307170789725
  C           1.97526037728148      0.31558841397396     -0.21466358961897
  C          -0.43402394938528     -0.56640284282827     -0.92012838627823
  C           0.97262011039242     -0.21917659407692     -1.21469455598853
  O           0.95410661394389     -0.11083776962632      1.77003450647785
  O           1.40381447298167      0.89724167556309      0.94261460745238
  O           0.54549518194376     -1.56623808204373     -1.09421615296576
  H          -0.07125757988308     -0.40299856026270      1.27102556212834
  H          -2.65262579292804      0.93250907044612     -0.09388985212144
  H          -2.31516152894624      0.82278130404133      1.63492066886869
  H          -1.19566996143407      1.68010312222891      0.56600365426646
  H          -1.58330315805738     -1.37493461168807      0.71400519619245
  H           2.53378405002897      1.13078591240840     -0.67479042741773
  H           2.66668607667373     -0.47569192840310      0.08150333827242
  H          -1.12563349342715     -0.47586846808526     -1.75976311355434
  H           1.18759042020398      0.06380049335906     -2.24126316130849
