17
Coordinates from ORCA-job freq E -421.372201166255
  C      -2.137027     -0.673545      0.121248
  C      -0.820695     -0.065778     -0.330682
  O      -1.034402      1.352004     -0.343041
  O      -2.352956      1.546831     -0.716919
  C       0.324531     -0.339011      0.616339
  O       1.173135     -1.409046      0.327226
  C       1.728046     -0.127238      0.220452
  C       2.117540      0.399109     -1.136342
  H      -2.745726      0.504030     -0.272207
  H      -2.269393     -0.781237      1.189160
  H      -2.542301     -1.481071     -0.467722
  H      -0.577930     -0.420622     -1.342057
  H       0.067974     -0.221496      1.667438
  H       2.418875      0.123731      1.023219
  H       1.815492      1.440342     -1.224819
  H       3.194847      0.330365     -1.264268
  H       1.639991     -0.177368     -1.923488
17
Coordinates from ORCA-job freq E -421.373689698039
  C      -2.139672     -0.667161      0.122086
  C      -0.813519     -0.057481     -0.305173
  O      -1.044627      1.353890     -0.285636
  O      -2.331060      1.513097     -0.780057
  C       0.333141     -0.337712      0.631546
  O       1.172034     -1.416631      0.309366
  C       1.729895     -0.125977      0.219347
  C       2.106724      0.406961     -1.136753
  H      -2.744366      0.466733     -0.335242
  H      -2.319135     -0.723581      1.189364
  H      -2.507487     -1.512074     -0.442570
  H      -0.568537     -0.387495     -1.320770
  H       0.087823     -0.241255      1.686362
  H       2.432142      0.101527      1.017418
  H       1.849122      1.462712     -1.203869
  H       3.176332      0.296014     -1.300931
  H       1.581191     -0.131565     -1.920952
17
Coordinates from ORCA-job freq E -421.374293378317
  C      -2.144559     -0.667394      0.130953
  C      -0.818525     -0.063748     -0.307298
  O      -1.056058      1.344594     -0.284957
  O      -2.334667      1.486526     -0.810623
  C       0.333025     -0.339929      0.622779
  O       1.176325     -1.417955      0.289694
  C       1.728463     -0.119375      0.215984
  C       2.117099      0.421779     -1.130710
  H      -2.752210      0.435377     -0.363798
  H      -2.336733     -0.665631      1.198866
  H      -2.496219     -1.547988     -0.389619
  H      -0.581810     -0.391798     -1.323707
  H       0.088554     -0.257386      1.678640
  H       2.426393      0.097896      1.020239
  H       1.954884      1.498575     -1.155804
  H       3.169168      0.223605     -1.327587
  H       1.526871     -0.037146     -1.919515
17
Coordinates from ORCA-job freq E -421.374774522102
  C      -2.147794     -0.673749      0.135681
  C      -0.821306     -0.064185     -0.296661
  O      -1.079415      1.337693     -0.266023
  O      -2.334296      1.447791     -0.858071
  C       0.335207     -0.332452      0.625656
  O       1.178820     -1.412607      0.276131
  C       1.727133     -0.105732      0.214678
  C       2.121353      0.436412     -1.126564
  H      -2.758150      0.387318     -0.413909
  H      -2.367075     -0.618660      1.198686
  H      -2.468643     -1.589886     -0.344685
  H      -0.586805     -0.383895     -1.314141
  H       0.096511     -0.263468      1.683303
  H       2.426191      0.100425      1.020241
  H       2.120729      1.525820     -1.097307
  H       3.122988      0.098481     -1.390073
  H       1.434551      0.110696     -1.903404
17
Coordinates from ORCA-job freq E -421.374728459358
  C      -2.151819     -0.683984      0.144698
  C      -0.829078     -0.081580     -0.308974
  O      -1.086569      1.321354     -0.312710
  O      -2.359926      1.421681     -0.868587
  C       0.330000     -0.328839      0.615657
  O       1.190714     -1.398408      0.267453
  C       1.721856     -0.082650      0.215622
  C       2.136832      0.457044     -1.118268
  H      -2.771516      0.357570     -0.415478
  H      -2.364914     -0.597527      1.207083
  H      -2.475058     -1.613795     -0.307475
  H      -0.596885     -0.426235     -1.318378
  H       0.087338     -0.265522      1.672758
  H       2.410862      0.127618      1.028958
  H       2.328910      1.526491     -1.036478
  H       3.054387     -0.032218     -1.445750
  H       1.374869      0.299000     -1.876594
17
Coordinates from ORCA-job freq E -421.374815604756
  C      -2.156103     -0.666262      0.150575
  C      -0.820866     -0.089079     -0.296002
  O      -1.065624      1.315285     -0.287384
  O      -2.308406      1.423923     -0.908412
  C       0.337239     -0.359796      0.623861
  O       1.200243     -1.416967      0.247393
  C       1.724391     -0.097960      0.215478
  C       2.113321      0.468828     -1.117880
  H      -2.746727      0.366154     -0.461702
  H      -2.393646     -0.527092      1.202322
  H      -2.472464     -1.615698     -0.264113
  H      -0.592878     -0.427613     -1.308717
  H       0.099631     -0.319478      1.682971
  H       2.421068      0.100654      1.024679
  H       2.214927      1.551236     -1.045266
  H       3.070852      0.053528     -1.431793
  H       1.375042      0.240338     -1.882473
17
Coordinates from ORCA-job freq E -421.374845053863
  C      -2.152661     -0.672124      0.144532
  C      -0.822318     -0.078946     -0.297699
  O      -1.074122      1.324101     -0.285141
  O      -2.326184      1.429955     -0.886001
  C       0.335309     -0.343877      0.623912
  O       1.190385     -1.411965      0.260664
  C       1.724700     -0.097137      0.215346
  C       2.120154      0.456171     -1.121147
  H      -2.756264      0.371006     -0.437545
  H      -2.379912     -0.571582      1.202859
  H      -2.471776     -1.607117     -0.299901
  H      -0.590517     -0.413016     -1.310942
  H       0.096533     -0.290584      1.682292
  H       2.421386      0.104623      1.023844
  H       2.209418      1.540506     -1.060275
  H       3.084938      0.048165     -1.421955
  H       1.390932      0.211822     -1.889306
17
Coordinates from ORCA-job freq E -421.374845920217
  C      -2.150536     -0.675701      0.140874
  C      -0.823035     -0.073023     -0.297366
  O      -1.081468      1.328674     -0.277574
  O      -2.334859      1.432072     -0.876005
  C       0.334476     -0.336853      0.624493
  O       1.186040     -1.409132      0.265433
  C       1.724732     -0.096162      0.215456
  C       2.123010      0.450467     -1.122943
  H      -2.759563      0.368697     -0.432865
  H      -2.377638     -0.585601      1.200168
  H      -2.465643     -1.608161     -0.311658
  H      -0.588874     -0.400749     -1.312104
  H       0.095554     -0.278708      1.682614
  H       2.421683      0.106277      1.023564
  H       2.213467      1.534987     -1.067176
  H       3.087789      0.039954     -1.420279
  H       1.394867      0.202965     -1.891094
17
Coordinates from ORCA-job freq E -421.374844735391
  C      -2.149094     -0.678281      0.138394
  C      -0.823666     -0.068766     -0.296754
  O      -1.087294      1.331807     -0.271405
  O      -2.340865      1.432984     -0.869892
  C       0.333968     -0.332098      0.625002
  O       1.182954     -1.407181      0.268204
  C       1.724762     -0.095567      0.215373
  C       2.125010      0.446742     -1.124180
  H      -2.761766      0.366165     -0.431262
  H      -2.377072     -0.593373      1.197931
  H      -2.460419     -1.610043     -0.318160
  H      -0.587855     -0.391553     -1.312676
  H       0.095267     -0.271032      1.683036
  H       2.422069      0.106991      1.023153
  H       2.218005      1.531193     -1.071226
  H       3.089058      0.033253     -1.419768
  H       1.396939      0.198761     -1.892229
17
Coordinates from ORCA-job freq E -421.374838982134
  C      -2.148840     -0.678709      0.138046
  C      -0.823840     -0.068020     -0.296769
  O      -1.088402      1.332357     -0.270358
  O      -2.342020      1.433116     -0.868787
  C       0.333832     -0.331314      0.624929
  O       1.182407     -1.406850      0.268543
  C       1.724744     -0.095457      0.215346
  C       2.125502      0.446108     -1.124354
  H      -2.762216      0.365735     -0.430899
  H      -2.376761     -0.594630      1.197666
  H      -2.459577     -1.610406     -0.319047
  H      -0.587892     -0.389881     -1.312957
  H       0.095106     -0.269790      1.682930
  H       2.422047      0.107097      1.023137
  H       2.218806      1.530562     -1.071949
  H       3.089513      0.032194     -1.419463
  H       1.397592      0.197889     -1.892479
17
Coordinates from ORCA-job freq E -421.374846081708
  C      -2.148383     -0.679460      0.137362
  C      -0.824014     -0.066813     -0.296639
  O      -1.090058      1.333243     -0.268696
  O      -2.343734      1.433347     -0.867081
  C       0.333673     -0.329907      0.625057
  O       1.181523     -1.406252      0.269389
  C       1.724742     -0.095248      0.215361
  C       2.126058      0.445045     -1.124680
  H      -2.762806      0.365048     -0.430338
  H      -2.376427     -0.597069      1.197086
  H      -2.458122     -1.610856     -0.321020
  H      -0.587634     -0.387302     -1.313144
  H       0.094934     -0.267529      1.683011
  H       2.422146      0.107357      1.023053
  H       2.220286      1.529459     -1.073081
  H       3.089758      0.030109     -1.419376
  H       1.398058      0.196831     -1.892727
17
Coordinates from ORCA-job freq E -421.374845643410
  C      -2.149293     -0.677919      0.138766
  C      -0.823607     -0.069352     -0.296889
  O      -1.086534      1.331391     -0.272224
  O      -2.340060      1.432851     -0.870715
  C       0.334025     -0.332787      0.624856
  O       1.183412     -1.407456      0.267770
  C       1.724753     -0.095632      0.215393
  C       2.124800      0.447248     -1.123995
  H      -2.761484      0.366545     -0.431424
  H      -2.377046     -0.592313      1.198299
  H      -2.461209     -1.609778     -0.317199
  H      -0.588110     -0.392721     -1.312699
  H       0.095249     -0.272147      1.682889
  H       2.421971      0.106928      1.023254
  H       2.217322      1.531726     -1.070748
  H       3.089020      0.034256     -1.419723
  H       1.396792      0.199161     -1.892073
17
Coordinates from ORCA-job freq E -421.374839696934
  C      -2.149015     -0.678360      0.138316
  C      -0.823715     -0.068566     -0.296778
  O      -1.087646      1.331950     -0.271114
  O      -2.341188      1.432948     -0.869708
  C       0.333936     -0.331913      0.624941
  O       1.182834     -1.407089      0.268210
  C       1.724773     -0.095525      0.215386
  C       2.125161      0.446619     -1.124192
  H      -2.761894      0.365886     -0.431256
  H      -2.376999     -0.593476      1.197855
  H      -2.460122     -1.610224     -0.318183
  H      -0.587893     -0.391043     -1.312788
  H       0.095200     -0.270824      1.682959
  H       2.422055      0.106986      1.023200
  H       2.218457      1.531048     -1.071337
  H       3.089072      0.032821     -1.419794
  H       1.396986      0.198762     -1.892180
