17
Coordinates from ORCA-job freq E -421.374839696934
  C          -2.14901535405536     -0.67835977582344      0.13831583811248
  C          -0.82371479079522     -0.06856600563514     -0.29677802815137
  O          -1.08764616894505      1.33195034132378     -0.27111395700671
  O          -2.34118796407034      1.43294831796551     -0.86970762609913
  C           0.33393574092448     -0.33191270616429      0.62494099258129
  O           1.18283381819297     -1.40708877884885      0.26820997693687
  C           1.72477305267634     -0.09552525633443      0.21538615381137
  C           2.12516146781270      0.44661931131962     -1.12419215793402
  H          -2.76189426398596      0.36588557810259     -0.43125599242130
  H          -2.37699930195378     -0.59347601281500      1.19785491756201
  H          -2.46012231041223     -1.61022412421102     -0.31818277665369
  H          -0.58789293533823     -0.39104321828581     -1.31278798553299
  H           0.09519997134687     -0.27082383081387      1.68295856148083
  H           2.42205508523296      0.10698587676148      1.02319950028608
  H           2.21845688180638      1.53104841902416     -1.07133686748343
  H           3.08907222205160      0.03282132023425     -1.41979402999606
  H           1.39698584951184      0.19876154420046     -1.89217951949221
