17
Coordinates from ORCA-job freq E -421.393413540266
  C          -2.44392926057463      1.00855298577448     -0.13541727282715
  C           0.82654152322645     -1.25223852913577      0.18610248986505
  C           2.22156088888300     -0.73278902483519     -0.18359203518462
  C          -0.13933677156366     -0.10695884984135      0.23408030208970
  C          -1.57154084092740     -0.04007800514391      0.48212420172345
  O           1.45883983158926      1.20758293207636     -1.06307422307871
  O           2.11332917741028      0.02593381356023     -1.37107016056020
  O          -0.58190667235755      0.41965693273976      1.42800489166821
  H           0.45213426117894      0.78887939034508     -0.56579651777667
  H          -1.85049402992854      1.88007143800773     -0.40602992626818
  H          -3.22429770527208      1.31475794245403      0.56074140451338
  H          -2.92088817797590      0.61626213440830     -1.03359609300640
  H           0.50855534981517     -1.96485173938051     -0.57432574663531
  H           0.84916355677685     -1.74846675569236      1.15861696552732
  H           2.90371593022581     -1.54943311160652     -0.41339704913993
  H           2.63711340616466     -0.11019431632281      0.61097484733538
  H          -2.06661246667068     -0.95022823740754      0.81090392175468
