17
Coordinates from ORCA-job freq E -421.387077163653
  C           1.98928715539097     -0.62872294872060      0.74254645268696
  C          -1.92355565139841      1.18456709006634      0.50268598769729
  C           1.03826163213067      0.10545480194137     -0.15580279984710
  C          -1.62028522962612     -0.10211119723611     -0.19987093878889
  C          -0.26717082752646     -0.60607850859782     -0.42205465460125
  O           0.83771800391391     -0.81135959933828     -2.30944342702847
  O          -1.01490797078920     -1.14449658323199      0.59967027579396
  O          -0.00764255597616     -1.52524956791019     -1.45527743946047
  H           1.36154889729780     -0.11723055900036     -1.41231631039005
  H           1.59838256295283     -0.63464930104043      1.76428576662130
  H           2.09498800389794     -1.66595798288342      0.42531197349490
  H           2.96909553959962     -0.15562934148039      0.75673427549417
  H          -2.82928265511095      1.08569577631953      1.10055363995603
  H          -1.10575977959498      1.46465458710556      1.16503094786961
  H          -2.07981057730686      1.98201161984930     -0.22388533386239
  H           0.97444242534650      1.18043837897797     -0.01444078132368
  H          -2.37758097320108     -0.48661466482048     -0.87505663431190
