17
Coordinates from ORCA-job freq E -421.383294035301
  C       1.813277     -0.456617      0.869478
  C      -1.775616      1.077799      0.673400
  C       1.033994      0.054487     -0.295198
  C      -1.597688     -0.141494     -0.189702
  C      -0.270101     -0.635563     -0.604618
  O       0.953249     -0.892279     -2.478253
  O      -0.985903     -1.286077      0.377886
  O      -0.156214     -1.363683     -1.797357
  H       1.488148     -0.377170     -1.489813
  H       1.356601     -0.136158      1.810373
  H       1.833148     -1.544245      0.872398
  H       2.829085     -0.066304      0.847611
  H      -2.689554      0.984479      1.255565
  H      -0.938738      1.190845      1.357364
  H      -1.850832      1.962869      0.045462
  H       1.022123      1.133908     -0.416068
  H      -2.427251     -0.380075     -0.849858
17
Coordinates from ORCA-job freq E -421.385181855779
  C       1.841960     -0.490370      0.851717
  C      -1.801639      1.095435      0.642529
  C       1.036596      0.065032     -0.278841
  C      -1.603494     -0.136752     -0.192547
  C      -0.272724     -0.625469     -0.579154
  O       0.915583     -0.843258     -2.458157
  O      -0.976232     -1.262721      0.420910
  O      -0.115611     -1.419526     -1.726576
  H       1.468503     -0.319851     -1.482711
  H       1.392308     -0.214943      1.810272
  H       1.870099     -1.577855      0.807778
  H       2.856777     -0.097304      0.835145
  H      -2.715454      1.010840      1.227866
  H      -0.965685      1.235231      1.324849
  H      -1.885086      1.968991     -0.002535
  H       1.014306      1.148243     -0.361194
  H      -2.422478     -0.411000     -0.850678
17
Coordinates from ORCA-job freq E -421.386041651457
  C       1.882495     -0.526827      0.828031
  C      -1.833330      1.118762      0.607450
  C       1.037426      0.074007     -0.251102
  C      -1.610058     -0.127737     -0.196620
  C      -0.273151     -0.621221     -0.542705
  O       0.884175     -0.820254     -2.427130
  O      -0.985186     -1.233869      0.466014
  O      -0.083247     -1.459233     -1.655199
  H       1.444534     -0.268072     -1.470237
  H       1.444234     -0.316635      1.808222
  H       1.934466     -1.609462      0.720929
  H       2.888593     -0.111887      0.814259
  H      -2.748457      1.034081      1.191545
  H      -1.002581      1.287947      1.290388
  H      -1.928009      1.977387     -0.056580
  H       1.000547      1.159596     -0.279869
  H      -2.414721     -0.431863     -0.858723
17
Coordinates from ORCA-job freq E -421.386788049944
  C       1.938850     -0.581035      0.784420
  C      -1.881472      1.153529      0.553504
  C       1.037326      0.092929     -0.204419
  C      -1.617889     -0.115612     -0.198156
  C      -0.271656     -0.611700     -0.483867
  O       0.860219     -0.810926     -2.368489
  O      -0.996672     -1.186696      0.536465
  O      -0.042343     -1.496791     -1.552099
  H       1.407560     -0.190625     -1.438711
  H       1.523436     -0.480146      1.791504
  H       2.018690     -1.646469      0.569805
  H       2.932548     -0.137404      0.781310
  H      -2.793339      1.063948      1.142748
  H      -1.056647      1.377758      1.228261
  H      -2.004919      1.982313     -0.143559
  H       0.984322      1.176456     -0.145904
  H      -2.400285     -0.464806     -0.864144
17
Coordinates from ORCA-job freq E -421.387034816534
  C       1.999287     -0.636657      0.732287
  C      -1.931524      1.189369      0.492140
  C       1.037626      0.109871     -0.144569
  C      -1.621666     -0.102437     -0.197869
  C      -0.265686     -0.604648     -0.409266
  O       0.826737     -0.805380     -2.299889
  O      -1.017804     -1.135594      0.613494
  O       0.007143     -1.533648     -1.430200
  H       1.348912     -0.101306     -1.407089
  H       1.617449     -0.659432      1.757179
  H       2.102867     -1.668647      0.396803
  H       2.979028     -0.163399      0.744244
  H      -2.846610      1.097244      1.076636
  H      -1.122567      1.469312      1.165279
  H      -2.073720      1.983170     -0.241358
  H       0.972783      1.182290      0.013938
  H      -2.374528     -0.495387     -0.873090
17
Coordinates from ORCA-job freq E -421.387014135056
  C       1.986134     -0.632292      0.744660
  C      -1.924016      1.187692      0.502501
  C       1.040216      0.104735     -0.156938
  C      -1.618453     -0.096349     -0.202926
  C      -0.267196     -0.603068     -0.425475
  O       0.857568     -0.824781     -2.305393
  O      -1.015844     -1.140721      0.596550
  O      -0.017340     -1.518028     -1.464531
  H       1.369384     -0.122047     -1.406482
  H       1.583068     -0.651054      1.761543
  H       2.101955     -1.665715      0.418858
  H       2.962438     -0.152916      0.774578
  H      -2.798701      1.067368      1.141613
  H      -1.086332      1.498583      1.124870
  H      -2.137350      1.972981     -0.222669
  H       0.978784      1.179662     -0.013911
  H      -2.376587     -0.479328     -0.878176
17
Coordinates from ORCA-job freq E -421.387078775353
  C       1.989228     -0.629331      0.742945
  C      -1.924018      1.184802      0.502608
  C       1.038985      0.105282     -0.155856
  C      -1.619986     -0.101378     -0.200308
  C      -0.266855     -0.605550     -0.422197
  O       0.837740     -0.811265     -2.309578
  O      -1.014916     -1.143776      0.599393
  O      -0.007398     -1.524999     -1.455187
  H       1.362285     -0.117963     -1.412473
  H       1.597294     -0.635799      1.764295
  H       2.095202     -1.666435      0.425330
  H       2.969001     -0.156220      0.758326
  H      -2.827063      1.083442      1.104157
  H      -1.104626      1.468124      1.161571
  H      -2.085898      1.981281     -0.223794
  H       0.975911      1.180360     -0.014898
  H      -2.377159     -0.485853     -0.875663
17
Coordinates from ORCA-job freq E -421.387074093475
  C       1.989215     -0.628529      0.742530
  C      -1.923430      1.184424      0.502813
  C       1.038197      0.105499     -0.155966
  C      -1.620335     -0.102269     -0.199748
  C      -0.267225     -0.606124     -0.422138
  O       0.837733     -0.811440     -2.309551
  O      -1.014812     -1.144670      0.599651
  O      -0.007783     -1.525221     -1.455446
  H       1.361536     -0.117193     -1.412348
  H       1.598382     -0.634139      1.764297
  H       2.094781     -1.665862      0.425558
  H       2.969069     -0.155525      0.756542
  H      -2.829758      1.086106      1.099855
  H      -1.106010      1.463764      1.165929
  H      -2.078457      1.982140     -0.223729
  H       0.974324      1.180505     -0.014711
  H      -2.377699     -0.486742     -0.874868
17
Coordinates from ORCA-job freq E -421.387079990137
  C       1.989281     -0.628709      0.742547
  C      -1.923572      1.184530      0.502711
  C       1.038284      0.105474     -0.155828
  C      -1.620283     -0.102153     -0.199833
  C      -0.267159     -0.606063     -0.422063
  O       0.837697     -0.811298     -2.309481
  O      -1.014854     -1.144541      0.599666
  O      -0.007644     -1.525204     -1.455318
  H       1.361553     -0.117187     -1.412316
  H       1.598474     -0.634425      1.764325
  H       2.094787     -1.666016      0.425456
  H       2.969168     -0.155773      0.756586
  H      -2.829429      1.085745      1.100400
  H      -1.105874      1.464528      1.165209
  H      -2.079618      1.982007     -0.223878
  H       0.974489      1.180470     -0.014496
  H      -2.377573     -0.486664     -0.875017
17
Coordinates from ORCA-job freq E -421.387077163653
  C       1.989287     -0.628723      0.742546
  C      -1.923556      1.184567      0.502686
  C       1.038262      0.105455     -0.155803
  C      -1.620285     -0.102111     -0.199871
  C      -0.267171     -0.606079     -0.422055
  O       0.837718     -0.811360     -2.309443
  O      -1.014908     -1.144497      0.599670
  O      -0.007643     -1.525250     -1.455277
  H       1.361549     -0.117231     -1.412316
  H       1.598383     -0.634649      1.764286
  H       2.094988     -1.665958      0.425312
  H       2.969096     -0.155629      0.756734
  H      -2.829283      1.085696      1.100554
  H      -1.105760      1.464655      1.165031
  H      -2.079811      1.982012     -0.223885
  H       0.974442      1.180438     -0.014441
  H      -2.377581     -0.486615     -0.875057
