17
Coordinates from ORCA-job freq E -421.385539005139
  C          -2.09472294397392      0.89964284772544     -0.85970495731669
  C           1.44630066311319     -0.82359624854560      1.02477259289681
  C           0.08597061906692     -0.38136392172163     -1.05529553625674
  C          -0.65897616353246      0.78206259553369     -0.40069050936356
  C           1.45794810266730     -0.53723862650197     -0.44672150077227
  O           0.54652333359852      0.67467656499161      1.52604643504844
  O           2.01200019678412     -1.77046542237116     -0.31291739897616
  O          -0.70344161925324      0.54502395400442      1.00903116016448
  H           0.71411215237311     -1.50928521800020      1.41623109314439
  H          -2.59133534809795      1.72787979437963     -0.35801596870041
  H          -2.63638812208442     -0.01984361909754     -0.63851818306782
  H          -2.12694134473357      1.07047146053155     -1.93487891447019
  H           2.34370061507338     -0.64638408685849      1.59350910357135
  H          -0.47518988510614     -1.30626846569538     -0.90456276455333
  H           0.16607300934808     -0.19905769760695     -2.12886036669115
  H          -0.11453925229695      1.71765375235693     -0.55779146873122
  H           2.15254698705405      0.26628133687565     -0.70760781592596
