17
* (null), Energy   -1000.0000000
C    -2.094723    0.899643   -0.859705   -0.012455    0.011046    0.004878
C     1.446301   -0.823596    1.024773    0.784921   -1.278702   -0.775249
C     0.085971   -0.381364   -1.055296   -0.011632    0.004231   -0.002022
C    -0.658976    0.782063   -0.400691   -0.021787    0.035740   -0.045238
C     1.457948   -0.537239   -0.446722   -0.110344    0.257975    0.000161
O     0.546523    0.674677    1.526046   -0.457936    0.524887    0.095915
O     2.012000   -1.770465   -0.312917   -0.092707    0.144538    0.474184
O    -0.703442    0.545024    1.009031    0.109667    0.019514    0.049071
H     0.714112   -1.509285    1.416231   -0.236596    0.325216    0.049862
H    -2.591335    1.727880   -0.358016   -0.027523    0.013291   -0.013422
H    -2.636388   -0.019844   -0.638518   -0.003017    0.007146    0.004037
H    -2.126941    1.070471   -1.934879   -0.012257   -0.003205    0.004744
H     2.343701   -0.646384    1.593509    0.065231    0.030908   -0.080268
H    -0.475190   -1.306268   -0.904563    0.027492   -0.013038    0.042874
H     0.166073   -0.199058   -2.128860   -0.164769    0.023992   -0.008456
H    -0.114539    1.717654   -0.557791    0.021876    0.001878    0.020800
H     2.152547    0.266281   -0.707608   -0.162672    0.233718   -0.106972
17
* Frequency(6) -1048.5709
C    -2.096138    0.900898   -0.859151   -0.012455    0.011046    0.004878
C     1.535503   -0.968914    0.936670    0.784921   -1.278702   -0.775249
C     0.084649   -0.380883   -1.055525   -0.011632    0.004231   -0.002022
C    -0.661452    0.786124   -0.405832   -0.021787    0.035740   -0.045238
C     1.445408   -0.507921   -0.446703   -0.110344    0.257975    0.000161
O     0.494481    0.734327    1.536947   -0.457936    0.524887    0.095915
O     2.001465   -1.754039   -0.259029   -0.092707    0.144538    0.474184
O    -0.690979    0.547242    1.014608    0.109667    0.019514    0.049071
H     0.687224   -1.472326    1.421898   -0.236596    0.325216    0.049862
H    -2.594463    1.729390   -0.359541   -0.027523    0.013291   -0.013422
H    -2.636731   -0.019032   -0.638059   -0.003017    0.007146    0.004037
H    -2.128334    1.070107   -1.934340   -0.012257   -0.003205    0.004744
H     2.351114   -0.642872    1.584387    0.065231    0.030908   -0.080268
H    -0.472066   -1.307750   -0.899690    0.027492   -0.013038    0.042874
H     0.147348   -0.196331   -2.129821   -0.164769    0.023992   -0.008456
H    -0.112053    1.717867   -0.555428    0.021876    0.001878    0.020800
H     2.134060    0.292842   -0.719765   -0.162672    0.233718   -0.106972
17
* Frequency(6) -1048.5709
C    -2.097400    0.902017   -0.858656   -0.012455    0.011046    0.004878
C     1.615039   -1.098485    0.858114    0.784921   -1.278702   -0.775249
C     0.083470   -0.380454   -1.055730   -0.011632    0.004231   -0.002022
C    -0.663660    0.789746   -0.410416   -0.021787    0.035740   -0.045238
C     1.434227   -0.481781   -0.446687   -0.110344    0.257975    0.000161
O     0.448079    0.787514    1.546666   -0.457936    0.524887    0.095915
O     1.992071   -1.739394   -0.210980   -0.092707    0.144538    0.474184
O    -0.679866    0.549219    1.019580    0.109667    0.019514    0.049071
H     0.663250   -1.439372    1.426950   -0.236596    0.325216    0.049862
H    -2.597252    1.730737   -0.360901   -0.027523    0.013291   -0.013422
H    -2.637037   -0.018308   -0.637650   -0.003017    0.007146    0.004037
H    -2.129576    1.069783   -1.933859   -0.012257   -0.003205    0.004744
H     2.357724   -0.639740    1.576254    0.065231    0.030908   -0.080268
H    -0.469280   -1.309071   -0.895346    0.027492   -0.013038    0.042874
H     0.130652   -0.193900   -2.130678   -0.164769    0.023992   -0.008456
H    -0.109837    1.718058   -0.553320    0.021876    0.001878    0.020800
H     2.117577    0.316525   -0.730604   -0.162672    0.233718   -0.106972
17
* Frequency(6) -1048.5709
C    -2.098372    0.902879   -0.858276   -0.012455    0.011046    0.004878
C     1.676289   -1.198267    0.797618    0.784921   -1.278702   -0.775249
C     0.082562   -0.380124   -1.055888   -0.011632    0.004231   -0.002022
C    -0.665360    0.792535   -0.413946   -0.021787    0.035740   -0.045238
C     1.425616   -0.461650   -0.446674   -0.110344    0.257975    0.000161
O     0.412344    0.828473    1.554150   -0.457936    0.524887    0.095915
O     1.984836   -1.728115   -0.173977   -0.092707    0.144538    0.474184
O    -0.671308    0.550742    1.023410    0.109667    0.019514    0.049071
H     0.644788   -1.413994    1.430841   -0.236596    0.325216    0.049862
H    -2.599400    1.731774   -0.361949   -0.027523    0.013291   -0.013422
H    -2.637272   -0.017750   -0.637335   -0.003017    0.007146    0.004037
H    -2.130533    1.069532   -1.933489   -0.012257   -0.003205    0.004744
H     2.362814   -0.637328    1.569990    0.065231    0.030908   -0.080268
H    -0.467135   -1.310089   -0.892000    0.027492   -0.013038    0.042874
H     0.117794   -0.192028   -2.131338   -0.164769    0.023992   -0.008456
H    -0.108129    1.718204   -0.551697    0.021876    0.001878    0.020800
H     2.104883    0.334763   -0.738952   -0.162672    0.233718   -0.106972
17
* Frequency(6) -1048.5709
C    -2.098949    0.903391   -0.858050   -0.012455    0.011046    0.004878
C     1.712617   -1.257447    0.761738    0.784921   -1.278702   -0.775249
C     0.082024   -0.379928   -1.055981   -0.011632    0.004231   -0.002022
C    -0.666368    0.794189   -0.416039   -0.021787    0.035740   -0.045238
C     1.420509   -0.449710   -0.446667   -0.110344    0.257975    0.000161
O     0.391150    0.852765    1.558590   -0.457936    0.524887    0.095915
O     1.980546   -1.721425   -0.152031   -0.092707    0.144538    0.474184
O    -0.666233    0.551645    1.025681    0.109667    0.019514    0.049071
H     0.633838   -1.398943    1.433149   -0.236596    0.325216    0.049862
H    -2.600674    1.732389   -0.362570   -0.027523    0.013291   -0.013422
H    -2.637412   -0.017419   -0.637148   -0.003017    0.007146    0.004037
H    -2.131100    1.069384   -1.933269   -0.012257   -0.003205    0.004744
H     2.365833   -0.635897    1.566275    0.065231    0.030908   -0.080268
H    -0.465862   -1.310692   -0.890016    0.027492   -0.013038    0.042874
H     0.110168   -0.190917   -2.131729   -0.164769    0.023992   -0.008456
H    -0.107117    1.718291   -0.550734    0.021876    0.001878    0.020800
H     2.097354    0.345579   -0.743902   -0.162672    0.233718   -0.106972
17
* Frequency(6) -1048.5709
C    -2.099067    0.903496   -0.858003   -0.012455    0.011046    0.004878
C     1.720085   -1.269613    0.754362    0.784921   -1.278702   -0.775249
C     0.081913   -0.379888   -1.056001   -0.011632    0.004231   -0.002022
C    -0.666576    0.794529   -0.416470   -0.021787    0.035740   -0.045238
C     1.419460   -0.447256   -0.446665   -0.110344    0.257975    0.000161
O     0.386793    0.857759    1.559502   -0.457936    0.524887    0.095915
O     1.979664   -1.720050   -0.147520   -0.092707    0.144538    0.474184
O    -0.665189    0.551830    1.026148    0.109667    0.019514    0.049071
H     0.631586   -1.395848    1.433623   -0.236596    0.325216    0.049862
H    -2.600935    1.732516   -0.362697   -0.027523    0.013291   -0.013422
H    -2.637441   -0.017351   -0.637110   -0.003017    0.007146    0.004037
H    -2.131217    1.069354   -1.933224   -0.012257   -0.003205    0.004744
H     2.366454   -0.635603    1.565511    0.065231    0.030908   -0.080268
H    -0.465601   -1.310816   -0.889608    0.027492   -0.013038    0.042874
H     0.108601   -0.190689   -2.131810   -0.164769    0.023992   -0.008456
H    -0.106909    1.718309   -0.550536    0.021876    0.001878    0.020800
H     2.095806    0.347803   -0.744920   -0.162672    0.233718   -0.106972
17
* Frequency(6) -1048.5709
C    -2.098715    0.903183   -0.858141   -0.012455    0.011046    0.004878
C     1.697884   -1.233447    0.776289    0.784921   -1.278702   -0.775249
C     0.082242   -0.380008   -1.055944   -0.011632    0.004231   -0.002022
C    -0.665959    0.793518   -0.415190   -0.021787    0.035740   -0.045238
C     1.422581   -0.454552   -0.446670   -0.110344    0.257975    0.000161
O     0.399745    0.842914    1.556789   -0.457936    0.524887    0.095915
O     1.982286   -1.724138   -0.160932   -0.092707    0.144538    0.474184
O    -0.668291    0.551278    1.024760    0.109667    0.019514    0.049071
H     0.638278   -1.405047    1.432213   -0.236596    0.325216    0.049862
H    -2.600157    1.732140   -0.362318   -0.027523    0.013291   -0.013422
H    -2.637355   -0.017553   -0.637224   -0.003017    0.007146    0.004037
H    -2.130870    1.069444   -1.933358   -0.012257   -0.003205    0.004744
H     2.364609   -0.636477    1.567782    0.065231    0.030908   -0.080268
H    -0.466378   -1.310447   -0.890821    0.027492   -0.013038    0.042874
H     0.113261   -0.191368   -2.131571   -0.164769    0.023992   -0.008456
H    -0.107528    1.718256   -0.551125    0.021876    0.001878    0.020800
H     2.100407    0.341193   -0.741895   -0.162672    0.233718   -0.106972
17
* Frequency(6) -1048.5709
C    -2.097930    0.902487   -0.858449   -0.012455    0.011046    0.004878
C     1.648421   -1.152866    0.825143    0.784921   -1.278702   -0.775249
C     0.082975   -0.380274   -1.055816   -0.011632    0.004231   -0.002022
C    -0.664586    0.791266   -0.412339   -0.021787    0.035740   -0.045238
C     1.429534   -0.470809   -0.446680   -0.110344    0.257975    0.000161
O     0.428603    0.809837    1.550745   -0.457936    0.524887    0.095915
O     1.988128   -1.733247   -0.190813   -0.092707    0.144538    0.474184
O    -0.675202    0.550049    1.021667    0.109667    0.019514    0.049071
H     0.653188   -1.425541    1.429071   -0.236596    0.325216    0.049862
H    -2.598423    1.731302   -0.361472   -0.027523    0.013291   -0.013422
H    -2.637165   -0.018004   -0.637479   -0.003017    0.007146    0.004037
H    -2.130098    1.069646   -1.933657   -0.012257   -0.003205    0.004744
H     2.360498   -0.638425    1.572840    0.065231    0.030908   -0.080268
H    -0.468111   -1.309626   -0.893523    0.027492   -0.013038    0.042874
H     0.123644   -0.192880   -2.131038   -0.164769    0.023992   -0.008456
H    -0.108906    1.718137   -0.552435    0.021876    0.001878    0.020800
H     2.110658    0.326464   -0.735153   -0.162672    0.233718   -0.106972
17
* Frequency(6) -1048.5709
C    -2.096798    0.901483   -0.858892   -0.012455    0.011046    0.004878
C     1.577054   -1.036605    0.895630    0.784921   -1.278702   -0.775249
C     0.084033   -0.380659   -1.055632   -0.011632    0.004231   -0.002022
C    -0.662605    0.788016   -0.408226   -0.021787    0.035740   -0.045238
C     1.439567   -0.494265   -0.446695   -0.110344    0.257975    0.000161
O     0.470240    0.762113    1.542024   -0.457936    0.524887    0.095915
O     1.996557   -1.746388   -0.233927   -0.092707    0.144538    0.474184
O    -0.685173    0.548275    1.017206    0.109667    0.019514    0.049071
H     0.674700   -1.455110    1.424537   -0.236596    0.325216    0.049862
H    -2.595920    1.730094   -0.360252   -0.027523    0.013291   -0.013422
H    -2.636891   -0.018653   -0.637846   -0.003017    0.007146    0.004037
H    -2.128983    1.069938   -1.934089   -0.012257   -0.003205    0.004744
H     2.354567   -0.641235    1.580138    0.065231    0.030908   -0.080268
H    -0.470610   -1.308440   -0.897421    0.027492   -0.013038    0.042874
H     0.138625   -0.195061   -2.130269   -0.164769    0.023992   -0.008456
H    -0.110895    1.717967   -0.554327    0.021876    0.001878    0.020800
H     2.125449    0.305214   -0.725427   -0.162672    0.233718   -0.106972
17
* Frequency(6) -1048.5709
C    -2.095440    0.900279   -0.859424   -0.012455    0.011046    0.004878
C     1.491518   -0.897260    0.980112    0.784921   -1.278702   -0.775249
C     0.085301   -0.381120   -1.055412   -0.011632    0.004231   -0.002022
C    -0.660231    0.784122   -0.403297   -0.021787    0.035740   -0.045238
C     1.451591   -0.522377   -0.446712   -0.110344    0.257975    0.000161
O     0.520142    0.704914    1.531572   -0.457936    0.524887    0.095915
O     2.006660   -1.762139   -0.285601   -0.092707    0.144538    0.474184
O    -0.697124    0.546148    1.011858    0.109667    0.019514    0.049071
H     0.700482   -1.490550    1.419104   -0.236596    0.325216    0.049862
H    -2.592921    1.728645   -0.358789   -0.027523    0.013291   -0.013422
H    -2.636562   -0.019432   -0.638286   -0.003017    0.007146    0.004037
H    -2.127647    1.070287   -1.934606   -0.012257   -0.003205    0.004744
H     2.347458   -0.644604    1.588885    0.065231    0.030908   -0.080268
H    -0.473606   -1.307020   -0.902093    0.027492   -0.013038    0.042874
H     0.156581   -0.197676   -2.129348   -0.164769    0.023992   -0.008456
H    -0.113279    1.717762   -0.556593    0.021876    0.001878    0.020800
H     2.143176    0.279745   -0.713770   -0.162672    0.233718   -0.106972
17
* Frequency(6) -1048.5709
C    -2.094005    0.899007   -0.859986   -0.012455    0.011046    0.004878
C     1.401083   -0.749933    1.069433    0.784921   -1.278702   -0.775249
C     0.086641   -0.381608   -1.055179   -0.011632    0.004231   -0.002022
C    -0.657721    0.780004   -0.398084   -0.021787    0.035740   -0.045238
C     1.464305   -0.552100   -0.446731   -0.110344    0.257975    0.000161
O     0.572904    0.644439    1.520521   -0.457936    0.524887    0.095915
O     2.017341   -1.778792   -0.340234   -0.092707    0.144538    0.474184
O    -0.709759    0.543900    1.006204    0.109667    0.019514    0.049071
H     0.727742   -1.528020    1.413359   -0.236596    0.325216    0.049862
H    -2.589750    1.727114   -0.357243   -0.027523    0.013291   -0.013422
H    -2.636214   -0.020255   -0.638751   -0.003017    0.007146    0.004037
H    -2.126235    1.070656   -1.935152   -0.012257   -0.003205    0.004744
H     2.339943   -0.648165    1.598133    0.065231    0.030908   -0.080268
H    -0.476774   -1.305517   -0.907033    0.027492   -0.013038    0.042874
H     0.175565   -0.200440   -2.128373   -0.164769    0.023992   -0.008456
H    -0.115799    1.717546   -0.558990    0.021876    0.001878    0.020800
H     2.161918    0.252817   -0.701445   -0.162672    0.233718   -0.106972
17
* Frequency(6) -1048.5709
C    -2.092648    0.897803   -0.860518   -0.012455    0.011046    0.004878
C     1.315547   -0.610588    1.153915    0.784921   -1.278702   -0.775249
C     0.087908   -0.382069   -1.054959   -0.011632    0.004231   -0.002022
C    -0.655347    0.776109   -0.393155   -0.021787    0.035740   -0.045238
C     1.476329   -0.580213   -0.446748   -0.110344    0.257975    0.000161
O     0.622807    0.587240    1.510069   -0.457936    0.524887    0.095915
O     2.027443   -1.794543   -0.391908   -0.092707    0.144538    0.474184
O    -0.721710    0.541773    1.000857    0.109667    0.019514    0.049071
H     0.753525   -1.563460    1.407925   -0.236596    0.325216    0.049862
H    -2.586751    1.725666   -0.355780   -0.027523    0.013291   -0.013422
H    -2.635886   -0.021034   -0.639191   -0.003017    0.007146    0.004037
H    -2.124900    1.071005   -1.935669   -0.012257   -0.003205    0.004744
H     2.332834   -0.651533    1.606880    0.065231    0.030908   -0.080268
H    -0.479770   -1.304097   -0.911705    0.027492   -0.013038    0.042874
H     0.193521   -0.203054   -2.127452   -0.164769    0.023992   -0.008456
H    -0.118183    1.717341   -0.561256    0.021876    0.001878    0.020800
H     2.179645    0.227348   -0.689788   -0.162672    0.233718   -0.106972
17
* Frequency(6) -1048.5709
C    -2.091516    0.896799   -0.860961   -0.012455    0.011046    0.004878
C     1.244181   -0.494326    1.224402    0.784921   -1.278702   -0.775249
C     0.088966   -0.382454   -1.054775   -0.011632    0.004231   -0.002022
C    -0.653366    0.772859   -0.389042   -0.021787    0.035740   -0.045238
C     1.486362   -0.603668   -0.446763   -0.110344    0.257975    0.000161
O     0.664444    0.539516    1.501348   -0.457936    0.524887    0.095915
O     2.035873   -1.807684   -0.435021   -0.092707    0.144538    0.474184
O    -0.731681    0.539999    0.996395    0.109667    0.019514    0.049071
H     0.775036   -1.593029    1.403391   -0.236596    0.325216    0.049862
H    -2.584248    1.724457   -0.354560   -0.027523    0.013291   -0.013422
H    -2.635611   -0.021684   -0.639558   -0.003017    0.007146    0.004037
H    -2.123785    1.071297   -1.936101   -0.012257   -0.003205    0.004744
H     2.326903   -0.654343    1.614178    0.065231    0.030908   -0.080268
H    -0.482269   -1.302911   -0.915603    0.027492   -0.013038    0.042874
H     0.208502   -0.205236   -2.126683   -0.164769    0.023992   -0.008456
H    -0.120172    1.717170   -0.563147    0.021876    0.001878    0.020800
H     2.194436    0.206098   -0.680062   -0.162672    0.233718   -0.106972
17
* Frequency(6) -1048.5709
C    -2.090731    0.896102   -0.861269   -0.012455    0.011046    0.004878
C     1.194717   -0.413746    1.273256    0.784921   -1.278702   -0.775249
C     0.089699   -0.382720   -1.054648   -0.011632    0.004231   -0.002022
C    -0.651993    0.770607   -0.386191   -0.021787    0.035740   -0.045238
C     1.493316   -0.619925   -0.446773   -0.110344    0.257975    0.000161
O     0.693301    0.506439    1.495304   -0.457936    0.524887    0.095915
O     2.041715   -1.816793   -0.464903   -0.092707    0.144538    0.474184
O    -0.738592    0.538769    0.993303    0.109667    0.019514    0.049071
H     0.789946   -1.613524    1.400249   -0.236596    0.325216    0.049862
H    -2.582514    1.723620   -0.353714   -0.027523    0.013291   -0.013422
H    -2.635421   -0.022134   -0.639812   -0.003017    0.007146    0.004037
H    -2.123013    1.071499   -1.936400   -0.012257   -0.003205    0.004744
H     2.322793   -0.656291    1.619237    0.065231    0.030908   -0.080268
H    -0.484002   -1.302090   -0.918305    0.027492   -0.013038    0.042874
H     0.218885   -0.206748   -2.126150   -0.164769    0.023992   -0.008456
H    -0.121551    1.717052   -0.564458    0.021876    0.001878    0.020800
H     2.204687    0.191370   -0.673321   -0.162672    0.233718   -0.106972
17
* Frequency(6) -1048.5709
C    -2.090379    0.895790   -0.861406   -0.012455    0.011046    0.004878
C     1.172517   -0.377579    1.295183    0.784921   -1.278702   -0.775249
C     0.090028   -0.382840   -1.054590   -0.011632    0.004231   -0.002022
C    -0.651377    0.769596   -0.384911   -0.021787    0.035740   -0.045238
C     1.496437   -0.627222   -0.446778   -0.110344    0.257975    0.000161
O     0.706254    0.491594    1.492591   -0.457936    0.524887    0.095915
O     2.044337   -1.820881   -0.478315   -0.092707    0.144538    0.474184
O    -0.741694    0.538218    0.991915    0.109667    0.019514    0.049071
H     0.796638   -1.622722    1.398839   -0.236596    0.325216    0.049862
H    -2.581735    1.723244   -0.353334   -0.027523    0.013291   -0.013422
H    -2.635336   -0.022336   -0.639926   -0.003017    0.007146    0.004037
H    -2.122666    1.071589   -1.936534   -0.012257   -0.003205    0.004744
H     2.320948   -0.657165    1.621507    0.065231    0.030908   -0.080268
H    -0.484779   -1.301721   -0.919517    0.027492   -0.013038    0.042874
H     0.223545   -0.207426   -2.125911   -0.164769    0.023992   -0.008456
H    -0.122170    1.716999   -0.565046    0.021876    0.001878    0.020800
H     2.209288    0.184759   -0.670295   -0.162672    0.233718   -0.106972
17
* Frequency(6) -1048.5709
C    -2.090497    0.895895   -0.861360   -0.012455    0.011046    0.004878
C     1.179985   -0.389745    1.287807    0.784921   -1.278702   -0.775249
C     0.089917   -0.382800   -1.054610   -0.011632    0.004231   -0.002022
C    -0.651584    0.769936   -0.385342   -0.021787    0.035740   -0.045238
C     1.495387   -0.624767   -0.446776   -0.110344    0.257975    0.000161
O     0.701897    0.496588    1.493503   -0.457936    0.524887    0.095915
O     2.043455   -1.819506   -0.473803   -0.092707    0.144538    0.474184
O    -0.740651    0.538403    0.992382    0.109667    0.019514    0.049071
H     0.794387   -1.619628    1.399313   -0.236596    0.325216    0.049862
H    -2.581997    1.723370   -0.353462   -0.027523    0.013291   -0.013422
H    -2.635364   -0.022268   -0.639888   -0.003017    0.007146    0.004037
H    -2.122783    1.071559   -1.936489   -0.012257   -0.003205    0.004744
H     2.321568   -0.656871    1.620743    0.065231    0.030908   -0.080268
H    -0.484518   -1.301845   -0.919110    0.027492   -0.013038    0.042874
H     0.221978   -0.207198   -2.125991   -0.164769    0.023992   -0.008456
H    -0.121961    1.717017   -0.564849    0.021876    0.001878    0.020800
H     2.207740    0.186983   -0.671313   -0.162672    0.233718   -0.106972
17
* Frequency(6) -1048.5709
C    -2.091073    0.896406   -0.861134   -0.012455    0.011046    0.004878
C     1.216312   -0.448926    1.251927    0.784921   -1.278702   -0.775249
C     0.089379   -0.382604   -1.054703   -0.011632    0.004231   -0.002022
C    -0.652592    0.771590   -0.387435   -0.021787    0.035740   -0.045238
C     1.490280   -0.612828   -0.446769   -0.110344    0.257975    0.000161
O     0.680702    0.520880    1.497942   -0.457936    0.524887    0.095915
O     2.039164   -1.812816   -0.451857   -0.092707    0.144538    0.474184
O    -0.735575    0.539306    0.994653    0.109667    0.019514    0.049071
H     0.783437   -1.604576    1.401621   -0.236596    0.325216    0.049862
H    -2.583271    1.723985   -0.354083   -0.027523    0.013291   -0.013422
H    -2.635504   -0.021937   -0.639701   -0.003017    0.007146    0.004037
H    -2.123350    1.071410   -1.936269   -0.012257   -0.003205    0.004744
H     2.324587   -0.655440    1.617028    0.065231    0.030908   -0.080268
H    -0.483245   -1.302448   -0.917125    0.027492   -0.013038    0.042874
H     0.214352   -0.206088   -2.126383   -0.164769    0.023992   -0.008456
H    -0.120949    1.717103   -0.563886    0.021876    0.001878    0.020800
H     2.200211    0.197800   -0.676264   -0.162672    0.233718   -0.106972
17
* Frequency(6) -1048.5709
C    -2.092045    0.897268   -0.860754   -0.012455    0.011046    0.004878
C     1.277563   -0.548708    1.191431    0.784921   -1.278702   -0.775249
C     0.088471   -0.382274   -1.054861   -0.011632    0.004231   -0.002022
C    -0.654293    0.774379   -0.390966   -0.021787    0.035740   -0.045238
C     1.481669   -0.592697   -0.446756   -0.110344    0.257975    0.000161
O     0.644968    0.561839    1.505427   -0.457936    0.524887    0.095915
O     2.031930   -1.801537   -0.414855   -0.092707    0.144538    0.474184
O    -0.727017    0.540829    0.998482    0.109667    0.019514    0.049071
H     0.764974   -1.579198    1.405512   -0.236596    0.325216    0.049862
H    -2.585419    1.725023   -0.355131   -0.027523    0.013291   -0.013422
H    -2.635740   -0.021380   -0.639386   -0.003017    0.007146    0.004037
H    -2.124306    1.071160   -1.935899   -0.012257   -0.003205    0.004744
H     2.329678   -0.653028    1.610765    0.065231    0.030908   -0.080268
H    -0.481100   -1.303466   -0.913780    0.027492   -0.013038    0.042874
H     0.201494   -0.204215   -2.127042   -0.164769    0.023992   -0.008456
H    -0.119242    1.717250   -0.562263    0.021876    0.001878    0.020800
H     2.187517    0.216038   -0.684612   -0.162672    0.233718   -0.106972
17
* Frequency(6) -1048.5709
C    -2.093307    0.898388   -0.860259   -0.012455    0.011046    0.004878
C     1.357098   -0.678278    1.112876    0.784921   -1.278702   -0.775249
C     0.087293   -0.381845   -1.055066   -0.011632    0.004231   -0.002022
C    -0.656500    0.778001   -0.395549   -0.021787    0.035740   -0.045238
C     1.470488   -0.566556   -0.446740   -0.110344    0.257975    0.000161
O     0.598565    0.615026    1.515146   -0.457936    0.524887    0.095915
O     2.022536   -1.786891   -0.366806   -0.092707    0.144538    0.474184
O    -0.715905    0.542806    1.003454    0.109667    0.019514    0.049071
H     0.741000   -1.546244    1.410565   -0.236596    0.325216    0.049862
H    -2.588208    1.726369   -0.356491   -0.027523    0.013291   -0.013422
H    -2.636045   -0.020656   -0.638977   -0.003017    0.007146    0.004037
H    -2.125548    1.070836   -1.935418   -0.012257   -0.003205    0.004744
H     2.336287   -0.649897    1.602631    0.065231    0.030908   -0.080268
H    -0.478314   -1.304787   -0.909435    0.027492   -0.013038    0.042874
H     0.184798   -0.201784   -2.127899   -0.164769    0.023992   -0.008456
H    -0.117025    1.717440   -0.560155    0.021876    0.001878    0.020800
H     2.171034    0.239721   -0.695451   -0.162672    0.233718   -0.106972
17
* Frequency(6) -1048.5709
C    -2.094723    0.899643   -0.859705   -0.012455    0.011046    0.004878
C     1.446301   -0.823596    1.024773    0.784921   -1.278702   -0.775249
C     0.085971   -0.381364   -1.055296   -0.011632    0.004231   -0.002022
C    -0.658976    0.782063   -0.400691   -0.021787    0.035740   -0.045238
C     1.457948   -0.537239   -0.446722   -0.110344    0.257975    0.000161
O     0.546523    0.674677    1.526046   -0.457936    0.524887    0.095915
O     2.012000   -1.770465   -0.312917   -0.092707    0.144538    0.474184
O    -0.703442    0.545024    1.009031    0.109667    0.019514    0.049071
H     0.714112   -1.509285    1.416231   -0.236596    0.325216    0.049862
H    -2.591335    1.727880   -0.358016   -0.027523    0.013291   -0.013422
H    -2.636388   -0.019844   -0.638518   -0.003017    0.007146    0.004037
H    -2.126941    1.070471   -1.934879   -0.012257   -0.003205    0.004744
H     2.343701   -0.646384    1.593509    0.065231    0.030908   -0.080268
H    -0.475190   -1.306268   -0.904563    0.027492   -0.013038    0.042874
H     0.166073   -0.199058   -2.128860   -0.164769    0.023992   -0.008456
H    -0.114539    1.717654   -0.557791    0.021876    0.001878    0.020800
H     2.152547    0.266281   -0.707608   -0.162672    0.233718   -0.106972
