15
Coordinates from ORCA-job freq E -271.052328584947
  C           2.34342938982472     -0.51627810797974      0.28008078432499
  C          -1.77703469550516     -0.51884124641675     -0.45173843175277
  C           1.07628382498800     -0.67903948373022      0.62248188603507
  C          -0.91265526352265      0.69813361964735     -0.15674604630600
  C           0.15961674998182      0.46674601414021      0.95384627351905
  O          -0.55926886617251      0.24014732774941      2.09624179121678
  H           2.97849205203332     -1.35582330835428      0.03305785604973
  H           2.79047714357359      0.47038675497827      0.23711125964950
  H          -2.52441497762196     -0.27038768418387     -1.20446360514808
  H          -2.29558859358570     -0.86003915903900      0.44260750769894
  H          -1.18155099963148     -1.34502932297754     -0.83862148280621
  H           0.63639097912886     -1.66801732622875      0.69065230657634
  H          -0.35679081913408      1.00494769078277     -1.04366266955815
  H          -1.52871339643411      1.53974245453360      0.16031800108267
  H           0.73267647207732      1.40120177707853      1.02867156941812
