15
* (null), Energy   -1000.0000000
C     0.772305   -1.990349    1.408462   -0.001382    0.001016    0.005501
C     1.086317    0.550767    1.097938    0.121060    0.047991    0.095157
C     1.168270   -0.826366    0.560514   -0.122245    0.097065   -0.044692
C     3.343970    1.404568    0.182816    0.003757    0.001073   -0.005818
C     1.934817    1.628226    0.562455   -0.014739   -0.002231    0.013342
O     2.328820    1.500783   -0.798604    0.001983   -0.001258   -0.004651
H     0.237449    0.048922    0.276842    0.119325   -1.846067   -0.695921
H     1.553726   -2.234258    2.137586    0.024471    0.027966   -0.041867
H    -0.132463   -1.769337    1.978834    0.013451   -0.010753    0.007187
H     0.581536   -2.879358    0.810092   -0.003773    0.013457   -0.009477
H     0.635211    0.683987    2.071546   -0.123616    0.065427   -0.036762
H     1.784995   -0.961202   -0.317198    0.082284    0.034449    0.087882
H     4.045961    2.229818    0.205131    0.005004    0.001330   -0.003508
H     3.762922    0.412910    0.314392    0.003760    0.002227    0.001062
H     1.653937    2.637008    0.846193    0.009068    0.005181    0.008703
15
* Frequency(6) -1786.0623
C     0.772148   -1.990234    1.409087   -0.001382    0.001016    0.005501
C     1.100074    0.556221    1.108752    0.121060    0.047991    0.095157
C     1.154377   -0.815335    0.555435   -0.122245    0.097065   -0.044692
C     3.344397    1.404690    0.182155    0.003757    0.001073   -0.005818
C     1.933143    1.627972    0.563971   -0.014739   -0.002231    0.013342
O     2.329045    1.500640   -0.799133    0.001983   -0.001258   -0.004651
H     0.251009   -0.160874    0.197754    0.119325   -1.846067   -0.695921
H     1.556507   -2.231080    2.132828    0.024471    0.027966   -0.041867
H    -0.130934   -1.770559    1.979651    0.013451   -0.010753    0.007187
H     0.581107   -2.877828    0.809015   -0.003773    0.013457   -0.009477
H     0.621163    0.691423    2.067368   -0.123616    0.065427   -0.036762
H     1.794346   -0.957287   -0.307211    0.082284    0.034449    0.087882
H     4.046530    2.229970    0.204732    0.005004    0.001330   -0.003508
H     3.763349    0.413163    0.314512    0.003760    0.002227    0.001062
H     1.654967    2.637597    0.847182    0.009068    0.005181    0.008703
15
* Frequency(6) -1786.0623
C     0.772008   -1.990131    1.409644   -0.001382    0.001016    0.005501
C     1.112341    0.561084    1.118394    0.121060    0.047991    0.095157
C     1.141990   -0.805500    0.550907   -0.122245    0.097065   -0.044692
C     3.344778    1.404799    0.181565    0.003757    0.001073   -0.005818
C     1.931649    1.627746    0.565323   -0.014739   -0.002231    0.013342
O     2.329246    1.500513   -0.799604    0.001983   -0.001258   -0.004651
H     0.263100   -0.347935    0.127236    0.119325   -1.846067   -0.695921
H     1.558987   -2.228246    2.128585    0.024471    0.027966   -0.041867
H    -0.129571   -1.771649    1.980379    0.013451   -0.010753    0.007187
H     0.580725   -2.876465    0.808055   -0.003773    0.013457   -0.009477
H     0.608637    0.698052    2.063643   -0.123616    0.065427   -0.036762
H     1.802684   -0.953796   -0.298306    0.082284    0.034449    0.087882
H     4.047037    2.230104    0.204377    0.005004    0.001330   -0.003508
H     3.763730    0.413388    0.314620    0.003760    0.002227    0.001062
H     1.655886    2.638122    0.848063    0.009068    0.005181    0.008703
15
* Frequency(6) -1786.0623
C     0.771900   -1.990051    1.410074   -0.001382    0.001016    0.005501
C     1.121788    0.564829    1.125820    0.121060    0.047991    0.095157
C     1.132451   -0.797925    0.547419   -0.122245    0.097065   -0.044692
C     3.345071    1.404882    0.181111    0.003757    0.001073   -0.005818
C     1.930499    1.627572    0.566364   -0.014739   -0.002231    0.013342
O     2.329401    1.500414   -0.799967    0.001983   -0.001258   -0.004651
H     0.272412   -0.491991    0.072931    0.119325   -1.846067   -0.695921
H     1.560896   -2.226064    2.125318    0.024471    0.027966   -0.041867
H    -0.128522   -1.772488    1.980940    0.013451   -0.010753    0.007187
H     0.580430   -2.875415    0.807315   -0.003773    0.013457   -0.009477
H     0.598991    0.703158    2.060775   -0.123616    0.065427   -0.036762
H     1.809105   -0.951108   -0.291448    0.082284    0.034449    0.087882
H     4.047428    2.230208    0.204103    0.005004    0.001330   -0.003508
H     3.764024    0.413562    0.314703    0.003760    0.002227    0.001062
H     1.656594    2.638526    0.848743    0.009068    0.005181    0.008703
15
* Frequency(6) -1786.0623
C     0.771836   -1.990004    1.410328   -0.001382    0.001016    0.005501
C     1.127391    0.567050    1.130224    0.121060    0.047991    0.095157
C     1.126793   -0.793433    0.545351   -0.122245    0.097065   -0.044692
C     3.345245    1.404932    0.180842    0.003757    0.001073   -0.005818
C     1.929817    1.627468    0.566982   -0.014739   -0.002231    0.013342
O     2.329493    1.500356   -0.800182    0.001983   -0.001258   -0.004651
H     0.277934   -0.577430    0.040723    0.119325   -1.846067   -0.695921
H     1.562029   -2.224769    2.123381    0.024471    0.027966   -0.041867
H    -0.127899   -1.772985    1.981273    0.013451   -0.010753    0.007187
H     0.580256   -2.874792    0.806877   -0.003773    0.013457   -0.009477
H     0.593270    0.706186    2.059073   -0.123616    0.065427   -0.036762
H     1.812913   -0.949513   -0.287380    0.082284    0.034449    0.087882
H     4.047659    2.230270    0.203940    0.005004    0.001330   -0.003508
H     3.764198    0.413665    0.314752    0.003760    0.002227    0.001062
H     1.657014    2.638766    0.849145    0.009068    0.005181    0.008703
15
* Frequency(6) -1786.0623
C     0.771823   -1.989995    1.410381   -0.001382    0.001016    0.005501
C     1.128543    0.567507    1.131129    0.121060    0.047991    0.095157
C     1.125630   -0.792509    0.544926   -0.122245    0.097065   -0.044692
C     3.345281    1.404942    0.180787    0.003757    0.001073   -0.005818
C     1.929677    1.627447    0.567109   -0.014739   -0.002231    0.013342
O     2.329512    1.500344   -0.800226    0.001983   -0.001258   -0.004651
H     0.279070   -0.594995    0.034101    0.119325   -1.846067   -0.695921
H     1.562261   -2.224503    2.122982    0.024471    0.027966   -0.041867
H    -0.127771   -1.773088    1.981341    0.013451   -0.010753    0.007187
H     0.580220   -2.874664    0.806786   -0.003773    0.013457   -0.009477
H     0.592094    0.706808    2.058723   -0.123616    0.065427   -0.036762
H     1.813696   -0.949186   -0.286544    0.082284    0.034449    0.087882
H     4.047707    2.230282    0.203907    0.005004    0.001330   -0.003508
H     3.764233    0.413686    0.314762    0.003760    0.002227    0.001062
H     1.657100    2.638815    0.849228    0.009068    0.005181    0.008703
15
* Frequency(6) -1786.0623
C     0.771862   -1.990023    1.410225   -0.001382    0.001016    0.005501
C     1.125119    0.566149    1.128438    0.121060    0.047991    0.095157
C     1.129088   -0.795255    0.546190   -0.122245    0.097065   -0.044692
C     3.345174    1.404912    0.180951    0.003757    0.001073   -0.005818
C     1.930093    1.627510    0.566731   -0.014739   -0.002231    0.013342
O     2.329455    1.500380   -0.800095    0.001983   -0.001258   -0.004651
H     0.275695   -0.542781    0.053785    0.119325   -1.846067   -0.695921
H     1.561569   -2.225294    2.124167    0.024471    0.027966   -0.041867
H    -0.128152   -1.772784    1.981138    0.013451   -0.010753    0.007187
H     0.580327   -2.875044    0.807055   -0.003773    0.013457   -0.009477
H     0.595590    0.704958    2.059763   -0.123616    0.065427   -0.036762
H     1.811369   -0.950160   -0.289030    0.082284    0.034449    0.087882
H     4.047565    2.230245    0.204006    0.005004    0.001330   -0.003508
H     3.764127    0.413623    0.314732    0.003760    0.002227    0.001062
H     1.656843    2.638669    0.848982    0.009068    0.005181    0.008703
15
* Frequency(6) -1786.0623
C     0.771949   -1.990088    1.409878   -0.001382    0.001016    0.005501
C     1.117490    0.563125    1.122441    0.121060    0.047991    0.095157
C     1.136791   -0.801371    0.549006   -0.122245    0.097065   -0.044692
C     3.344938    1.404844    0.181318    0.003757    0.001073   -0.005818
C     1.931022    1.627651    0.565891   -0.014739   -0.002231    0.013342
O     2.329331    1.500459   -0.799802    0.001983   -0.001258   -0.004651
H     0.268175   -0.426447    0.097640    0.119325   -1.846067   -0.695921
H     1.560027   -2.227057    2.126805    0.024471    0.027966   -0.041867
H    -0.128999   -1.772106    1.980685    0.013451   -0.010753    0.007187
H     0.580564   -2.875892    0.807652   -0.003773    0.013457   -0.009477
H     0.603380    0.700835    2.062080   -0.123616    0.065427   -0.036762
H     1.806184   -0.952331   -0.294568    0.082284    0.034449    0.087882
H     4.047250    2.230161    0.204227    0.005004    0.001330   -0.003508
H     3.763890    0.413483    0.314665    0.003760    0.002227    0.001062
H     1.656272    2.638342    0.848434    0.009068    0.005181    0.008703
15
* Frequency(6) -1786.0623
C     0.772074   -1.990180    1.409378   -0.001382    0.001016    0.005501
C     1.106483    0.558762    1.113789    0.121060    0.047991    0.095157
C     1.147906   -0.810197    0.553070   -0.122245    0.097065   -0.044692
C     3.344596    1.404747    0.181847    0.003757    0.001073   -0.005818
C     1.932362    1.627854    0.564677   -0.014739   -0.002231    0.013342
O     2.329150    1.500573   -0.799379    0.001983   -0.001258   -0.004651
H     0.257326   -0.258599    0.160914    0.119325   -1.846067   -0.695921
H     1.557802   -2.229599    2.130612    0.024471    0.027966   -0.041867
H    -0.130222   -1.771128    1.980032    0.013451   -0.010753    0.007187
H     0.580907   -2.877116    0.808513   -0.003773    0.013457   -0.009477
H     0.614619    0.694886    2.065422   -0.123616    0.065427   -0.036762
H     1.798702   -0.955463   -0.302558    0.082284    0.034449    0.087882
H     4.046795    2.230040    0.204546    0.005004    0.001330   -0.003508
H     3.763548    0.413280    0.314569    0.003760    0.002227    0.001062
H     1.655447    2.637871    0.847642    0.009068    0.005181    0.008703
15
* Frequency(6) -1786.0623
C     0.772225   -1.990291    1.408779   -0.001382    0.001016    0.005501
C     1.093291    0.553532    1.103420    0.121060    0.047991    0.095157
C     1.161228   -0.820774    0.557940   -0.122245    0.097065   -0.044692
C     3.344187    1.404630    0.182481    0.003757    0.001073   -0.005818
C     1.933968    1.628097    0.563224   -0.014739   -0.002231    0.013342
O     2.328934    1.500711   -0.798872    0.001983   -0.001258   -0.004651
H     0.244323   -0.057426    0.236751    0.119325   -1.846067   -0.695921
H     1.555136   -2.232647    2.135174    0.024471    0.027966   -0.041867
H    -0.131688   -1.769956    1.979248    0.013451   -0.010753    0.007187
H     0.581319   -2.878582    0.809546   -0.003773    0.013457   -0.009477
H     0.628090    0.687756    2.069428   -0.123616    0.065427   -0.036762
H     1.789735   -0.959217   -0.312135    0.082284    0.034449    0.087882
H     4.046250    2.229895    0.204929    0.005004    0.001330   -0.003508
H     3.763139    0.413038    0.314453    0.003760    0.002227    0.001062
H     1.654459    2.637307    0.846694    0.009068    0.005181    0.008703
15
* Frequency(6) -1786.0623
C     0.772384   -1.990408    1.408145   -0.001382    0.001016    0.005501
C     1.079343    0.548003    1.092456    0.121060    0.047991    0.095157
C     1.175312   -0.831958    0.563089   -0.122245    0.097065   -0.044692
C     3.343754    1.404506    0.183151    0.003757    0.001073   -0.005818
C     1.935667    1.628354    0.561686   -0.014739   -0.002231    0.013342
O     2.328706    1.500855   -0.798336    0.001983   -0.001258   -0.004651
H     0.230575    0.155270    0.316932    0.119325   -1.846067   -0.695921
H     1.552316   -2.235869    2.139998    0.024471    0.027966   -0.041867
H    -0.133238   -1.768718    1.978420    0.013451   -0.010753    0.007187
H     0.581753   -2.880133    0.810638   -0.003773    0.013457   -0.009477
H     0.642333    0.680218    2.073664   -0.123616    0.065427   -0.036762
H     1.780255   -0.963186   -0.322261    0.082284    0.034449    0.087882
H     4.045673    2.229742    0.205333    0.005004    0.001330   -0.003508
H     3.762705    0.412781    0.314330    0.003760    0.002227    0.001062
H     1.653414    2.636710    0.845691    0.009068    0.005181    0.008703
15
* Frequency(6) -1786.0623
C     0.772535   -1.990519    1.407546   -0.001382    0.001016    0.005501
C     1.066150    0.542773    1.082086    0.121060    0.047991    0.095157
C     1.188634   -0.842535    0.567959   -0.122245    0.097065   -0.044692
C     3.343344    1.404389    0.183785    0.003757    0.001073   -0.005818
C     1.937273    1.628597    0.560232   -0.014739   -0.002231    0.013342
O     2.328490    1.500992   -0.797829    0.001983   -0.001258   -0.004651
H     0.217571    0.356443    0.392769    0.119325   -1.846067   -0.695921
H     1.549650   -2.238916    2.144560    0.024471    0.027966   -0.041867
H    -0.134704   -1.767546    1.977637    0.013451   -0.010753    0.007187
H     0.582165   -2.881599    0.811671   -0.003773    0.013457   -0.009477
H     0.655803    0.673088    2.077670   -0.123616    0.065427   -0.036762
H     1.771288   -0.966940   -0.331838    0.082284    0.034449    0.087882
H     4.045128    2.229597    0.205715    0.005004    0.001330   -0.003508
H     3.762296    0.412539    0.314215    0.003760    0.002227    0.001062
H     1.652426    2.636145    0.844743    0.009068    0.005181    0.008703
15
* Frequency(6) -1786.0623
C     0.772660   -1.990611    1.407045   -0.001382    0.001016    0.005501
C     1.055143    0.538409    1.073435    0.121060    0.047991    0.095157
C     1.199748   -0.851361    0.572023   -0.122245    0.097065   -0.044692
C     3.343003    1.404292    0.184314    0.003757    0.001073   -0.005818
C     1.938613    1.628800    0.559019   -0.014739   -0.002231    0.013342
O     2.328309    1.501107   -0.797407    0.001983   -0.001258   -0.004651
H     0.206722    0.524291    0.456044    0.119325   -1.846067   -0.695921
H     1.547425   -2.241459    2.148367    0.024471    0.027966   -0.041867
H    -0.135927   -1.766568    1.976984    0.013451   -0.010753    0.007187
H     0.582508   -2.882823    0.812532   -0.003773    0.013457   -0.009477
H     0.667043    0.667140    2.081012   -0.123616    0.065427   -0.036762
H     1.763807   -0.970072   -0.339828    0.082284    0.034449    0.087882
H     4.044673    2.229476    0.206034    0.005004    0.001330   -0.003508
H     3.761954    0.412336    0.314118    0.003760    0.002227    0.001062
H     1.651602    2.635674    0.843952    0.009068    0.005181    0.008703
15
* Frequency(6) -1786.0623
C     0.772747   -1.990675    1.406699   -0.001382    0.001016    0.005501
C     1.047515    0.535385    1.067438    0.121060    0.047991    0.095157
C     1.207452   -0.857477    0.574839   -0.122245    0.097065   -0.044692
C     3.342766    1.404224    0.184681    0.003757    0.001073   -0.005818
C     1.939542    1.628941    0.558178   -0.014739   -0.002231    0.013342
O     2.328184    1.501186   -0.797114    0.001983   -0.001258   -0.004651
H     0.199202    0.640625    0.499899    0.119325   -1.846067   -0.695921
H     1.545883   -2.243222    2.151005    0.024471    0.027966   -0.041867
H    -0.136774   -1.765890    1.976531    0.013451   -0.010753    0.007187
H     0.582745   -2.883671    0.813130   -0.003773    0.013457   -0.009477
H     0.674833    0.663017    2.083329   -0.123616    0.065427   -0.036762
H     1.758621   -0.972243   -0.345366    0.082284    0.034449    0.087882
H     4.044358    2.229392    0.206255    0.005004    0.001330   -0.003508
H     3.761717    0.412196    0.314051    0.003760    0.002227    0.001062
H     1.651030    2.635348    0.843403    0.009068    0.005181    0.008703
15
* Frequency(6) -1786.0623
C     0.772787   -1.990704    1.406543   -0.001382    0.001016    0.005501
C     1.044091    0.534028    1.064747    0.121060    0.047991    0.095157
C     1.210909   -0.860223    0.576103   -0.122245    0.097065   -0.044692
C     3.342660    1.404194    0.184846    0.003757    0.001073   -0.005818
C     1.939958    1.629004    0.557801   -0.014739   -0.002231    0.013342
O     2.328128    1.501222   -0.796982    0.001983   -0.001258   -0.004651
H     0.195827    0.692839    0.519582    0.119325   -1.846067   -0.695921
H     1.545191   -2.244012    2.152189    0.024471    0.027966   -0.041867
H    -0.137155   -1.765586    1.976327    0.013451   -0.010753    0.007187
H     0.582852   -2.884051    0.813398   -0.003773    0.013457   -0.009477
H     0.678329    0.661166    2.084369   -0.123616    0.065427   -0.036762
H     1.756294   -0.973218   -0.347852    0.082284    0.034449    0.087882
H     4.044216    2.229354    0.206355    0.005004    0.001330   -0.003508
H     3.761611    0.412133    0.314021    0.003760    0.002227    0.001062
H     1.650774    2.635201    0.843157    0.009068    0.005181    0.008703
15
* Frequency(6) -1786.0623
C     0.772773   -1.990694    1.406596   -0.001382    0.001016    0.005501
C     1.045242    0.534484    1.065652    0.121060    0.047991    0.095157
C     1.209746   -0.859299    0.575678   -0.122245    0.097065   -0.044692
C     3.342696    1.404204    0.184790    0.003757    0.001073   -0.005818
C     1.939818    1.628983    0.557928   -0.014739   -0.002231    0.013342
O     2.328147    1.501210   -0.797026    0.001983   -0.001258   -0.004651
H     0.196963    0.675274    0.512961    0.119325   -1.846067   -0.695921
H     1.545423   -2.243746    2.151791    0.024471    0.027966   -0.041867
H    -0.137027   -1.765689    1.976396    0.013451   -0.010753    0.007187
H     0.582816   -2.883923    0.813307   -0.003773    0.013457   -0.009477
H     0.677153    0.661789    2.084019   -0.123616    0.065427   -0.036762
H     1.757077   -0.972890   -0.347016    0.082284    0.034449    0.087882
H     4.044264    2.229367    0.206321    0.005004    0.001330   -0.003508
H     3.761646    0.412154    0.314031    0.003760    0.002227    0.001062
H     1.650860    2.635251    0.843240    0.009068    0.005181    0.008703
15
* Frequency(6) -1786.0623
C     0.772709   -1.990647    1.406850   -0.001382    0.001016    0.005501
C     1.050845    0.536706    1.070056    0.121060    0.047991    0.095157
C     1.204089   -0.854807    0.573610   -0.122245    0.097065   -0.044692
C     3.342869    1.404254    0.184521    0.003757    0.001073   -0.005818
C     1.939136    1.628879    0.558546   -0.014739   -0.002231    0.013342
O     2.328239    1.501151   -0.797241    0.001983   -0.001258   -0.004651
H     0.202485    0.589835    0.480752    0.119325   -1.846067   -0.695921
H     1.546556   -2.242452    2.149853    0.024471    0.027966   -0.041867
H    -0.136404   -1.766186    1.976729    0.013451   -0.010753    0.007187
H     0.582642   -2.883301    0.812869   -0.003773    0.013457   -0.009477
H     0.671432    0.664817    2.082318   -0.123616    0.065427   -0.036762
H     1.760885   -0.971295   -0.342948    0.082284    0.034449    0.087882
H     4.044495    2.229429    0.206159    0.005004    0.001330   -0.003508
H     3.761820    0.412257    0.314081    0.003760    0.002227    0.001062
H     1.651280    2.635491    0.843643    0.009068    0.005181    0.008703
15
* Frequency(6) -1786.0623
C     0.772602   -1.990568    1.407279   -0.001382    0.001016    0.005501
C     1.060292    0.540450    1.077481    0.121060    0.047991    0.095157
C     1.194549   -0.847233    0.570122   -0.122245    0.097065   -0.044692
C     3.343163    1.404337    0.184067    0.003757    0.001073   -0.005818
C     1.937986    1.628705    0.559587   -0.014739   -0.002231    0.013342
O     2.328394    1.501053   -0.797604    0.001983   -0.001258   -0.004651
H     0.211797    0.445779    0.426447    0.119325   -1.846067   -0.695921
H     1.548465   -2.240270    2.146586    0.024471    0.027966   -0.041867
H    -0.135355   -1.767025    1.977289    0.013451   -0.010753    0.007187
H     0.582347   -2.882251    0.812129   -0.003773    0.013457   -0.009477
H     0.661786    0.669922    2.079449   -0.123616    0.065427   -0.036762
H     1.767306   -0.968607   -0.336090    0.082284    0.034449    0.087882
H     4.044886    2.229532    0.205885    0.005004    0.001330   -0.003508
H     3.762114    0.412431    0.314163    0.003760    0.002227    0.001062
H     1.651987    2.635895    0.844322    0.009068    0.005181    0.008703
15
* Frequency(6) -1786.0623
C     0.772462   -1.990465    1.407837   -0.001382    0.001016    0.005501
C     1.072559    0.545313    1.087124    0.121060    0.047991    0.095157
C     1.182162   -0.837397    0.565594   -0.122245    0.097065   -0.044692
C     3.343543    1.404446    0.183477    0.003757    0.001073   -0.005818
C     1.936492    1.628479    0.560939   -0.014739   -0.002231    0.013342
O     2.328595    1.500926   -0.798076    0.001983   -0.001258   -0.004651
H     0.223888    0.258718    0.355929    0.119325   -1.846067   -0.695921
H     1.550945   -2.237436    2.142344    0.024471    0.027966   -0.041867
H    -0.133992   -1.768115    1.978018    0.013451   -0.010753    0.007187
H     0.581965   -2.880887    0.811169   -0.003773    0.013457   -0.009477
H     0.649260    0.676552    2.075724   -0.123616    0.065427   -0.036762
H     1.775644   -0.965117   -0.327185    0.082284    0.034449    0.087882
H     4.045393    2.229667    0.205530    0.005004    0.001330   -0.003508
H     3.762495    0.412656    0.314271    0.003760    0.002227    0.001062
H     1.652906    2.636420    0.845204    0.009068    0.005181    0.008703
15
* Frequency(6) -1786.0623
C     0.772305   -1.990349    1.408462   -0.001382    0.001016    0.005501
C     1.086317    0.550767    1.097938    0.121060    0.047991    0.095157
C     1.168270   -0.826366    0.560514   -0.122245    0.097065   -0.044692
C     3.343970    1.404568    0.182816    0.003757    0.001073   -0.005818
C     1.934817    1.628226    0.562455   -0.014739   -0.002231    0.013342
O     2.328820    1.500783   -0.798604    0.001983   -0.001258   -0.004651
H     0.237449    0.048922    0.276842    0.119325   -1.846067   -0.695921
H     1.553726   -2.234258    2.137586    0.024471    0.027966   -0.041867
H    -0.132463   -1.769337    1.978834    0.013451   -0.010753    0.007187
H     0.581536   -2.879358    0.810092   -0.003773    0.013457   -0.009477
H     0.635211    0.683987    2.071546   -0.123616    0.065427   -0.036762
H     1.784995   -0.961202   -0.317198    0.082284    0.034449    0.087882
H     4.045961    2.229818    0.205131    0.005004    0.001330   -0.003508
H     3.762922    0.412910    0.314392    0.003760    0.002227    0.001062
H     1.653937    2.637008    0.846193    0.009068    0.005181    0.008703
