17
Coordinates from ORCA-job freq E -421.372215792413
  C           2.70350424151261      1.08555937818894     -0.64650094073177
  C          -0.94951070478791     -0.11102903809393     -1.35370815194297
  C           0.16305048675380      0.88061831169030     -1.69471388462180
  C          -1.38863940736470      0.01607459517897      0.09185946452351
  C           1.41181330415875      0.58989813568673     -0.95388941285235
  O           2.02493017327470     -0.54114625122347     -0.81727112890859
  O          -2.90044457193180     -0.76399046541242      1.61003714482238
  O          -2.44965663196147     -0.90134011424149      0.27261802021192
  H           3.51943228138387      0.94053319654906     -1.34314562166568
  H           2.93641313332845      1.55198399558112      0.30540121188206
  H          -1.80647858126032      0.06304076558966     -2.00463122830552
  H          -0.59747506524810     -1.12731468719275     -1.53646839441750
  H           0.37084463933797      0.82853608781994     -2.77090785484195
  H          -0.14134934502308      1.90695033212743     -1.48144865724644
  H          -1.74219230354423      1.02839551574227      0.30928126159576
  H          -0.56738609314860     -0.22262101588419      0.77435201924819
  H          -2.56485255547998     -1.57246874210618      2.01394315325076
