15
Coordinates from ORCA-job freq E -270.968510034872
  C      -1.610418     -0.109569      1.483777
  C       0.280458     -0.626946     -0.073624
  C       1.956010      0.408842     -1.078498
  C      -1.153334     -0.183010      0.024288
  C       1.367190      0.379538      0.257979
  O       1.240089      1.490263     -0.601755
  H       0.874133     -0.479182     -1.262236
  H      -0.999828      0.601619      2.034526
  H      -2.647935      0.211706      1.536095
  H      -1.524217     -1.083542      1.961043
  H       0.478690     -1.620770      0.315827
  H       2.980855      0.546065     -1.389776
  H      -1.249069      0.804909     -0.431630
  H      -1.792425     -0.879808     -0.522575
  H       1.838097      0.547778      1.212892
15
Coordinates from ORCA-job freq E -270.967778818712
  C      -1.616600     -0.105243      1.483130
  C       0.287762     -0.620824     -0.069595
  C       1.944266      0.401236     -1.072216
  C      -1.150524     -0.183670      0.024123
  C       1.372386      0.371982      0.267212
  O       1.230511      1.489717     -0.594794
  H       0.888519     -0.460369     -1.252245
  H      -1.012213      0.612020      2.038883
  H      -2.657573      0.212524      1.535511
  H      -1.529043     -1.077036      1.969668
  H       0.493459     -1.626991      0.292877
  H       2.967377      0.538652     -1.410489
  H      -1.251471      0.798174     -0.440640
  H      -1.783655     -0.881902     -0.524590
  H       1.855094      0.539622      1.219498
15
Coordinates from ORCA-job freq E -270.969171838395
  C      -1.618448     -0.130521      1.484676
  C       0.288655     -0.615239     -0.069325
  C       1.955202      0.397039     -1.094015
  C      -1.145634     -0.164754      0.026055
  C       1.368168      0.398507      0.239610
  O       1.245702      1.489430     -0.641282
  H       0.852060     -0.505933     -1.228334
  H      -1.014101      0.569108      2.060095
  H      -2.658722      0.186768      1.532551
  H      -1.534483     -1.118251      1.936455
  H       0.479589     -1.593036      0.366896
  H       2.990352      0.517526     -1.394065
  H      -1.228469      0.836628     -0.399940
  H      -1.783304     -0.840259     -0.546571
  H       1.841728      0.580878      1.193529
15
Coordinates from ORCA-job freq E -270.968425648679
  C      -1.616979     -0.112804      1.484548
  C       0.285777     -0.621200     -0.068276
  C       1.950571      0.403234     -1.080447
  C      -1.149712     -0.178391      0.025484
  C       1.370366      0.380331      0.257018
  O       1.236190      1.490613     -0.607952
  H       0.877528     -0.480001     -1.255388
  H      -1.012208      0.599453      2.045002
  H      -2.657611      0.204796      1.534731
  H      -1.530319     -1.089393      1.960495
  H       0.486238     -1.617995      0.319622
  H       2.978228      0.536003     -1.401955
  H      -1.243636      0.810489     -0.426334
  H      -1.785087     -0.869256     -0.530607
  H       1.848949      0.552015      1.210394
15
Coordinates from ORCA-job freq E -270.968791451169
  C      -1.613158     -0.097941      1.483956
  C       0.282273     -0.629240     -0.070212
  C       1.949943      0.413098     -1.068964
  C      -1.152705     -0.189505      0.023996
  C       1.370350      0.364897      0.268169
  O       1.227465      1.491456     -0.579348
  H       0.888314     -0.470556     -1.277960
  H      -1.006267      0.624080      2.030388
  H      -2.653735      0.220965      1.536266
  H      -1.524320     -1.065330      1.978773
  H       0.489923     -1.636993      0.285615
  H       2.972324      0.559386     -1.402517
  H      -1.254138      0.789209     -0.447641
  H      -1.788326     -0.891563     -0.517119
  H       1.850354      0.525932      1.222931
15
Coordinates from ORCA-job freq E -270.969115519206
  C      -1.610426     -0.086770      1.483500
  C       0.280035     -0.634823     -0.071311
  C       1.949754      0.421130     -1.059913
  C      -1.154816     -0.198042      0.023504
  C       1.369914      0.353097      0.275861
  O       1.222039      1.493044     -0.557901
  H       0.894800     -0.463644     -1.295944
  H      -1.003049      0.643362      2.018936
  H      -2.651177      0.231928      1.537346
  H      -1.518798     -1.046470      1.992876
  H       0.493139     -1.650328      0.258877
  H       2.968282      0.575613     -1.401544
  H      -1.262053      0.772732     -0.462986
  H      -1.790390     -0.908428     -0.506468
  H       1.851043      0.505492      1.231499
15
Coordinates from ORCA-job freq E -270.969413383781
  C      -1.607871     -0.075602      1.483105
  C       0.278063     -0.640182     -0.072340
  C       1.950186      0.430141     -1.050567
  C      -1.156961     -0.206714      0.023552
  C       1.369316      0.340961      0.282658
  O       1.217537      1.495232     -0.536622
  H       0.899432     -0.457465     -1.314752
  H      -1.000835      0.663361      2.007105
  H      -2.649076      0.241872      1.538473
  H      -1.512421     -1.027054      2.007305
  H       0.496584     -1.662911      0.231258
  H       2.965368      0.591112     -1.399096
  H      -1.270141      0.755921     -0.477628
  H      -1.792325     -0.925291     -0.495312
  H       1.851439      0.484513      1.239195
15
Coordinates from ORCA-job freq E -270.969618446468
  C      -1.604414     -0.060847      1.482604
  C       0.275620     -0.646892     -0.074241
  C       1.951660      0.443636     -1.037247
  C      -1.160109     -0.218540      0.024247
  C       1.367872      0.324422      0.290339
  O       1.213226      1.499205     -0.508886
  H       0.902696     -0.449830     -1.340451
  H      -0.998778      0.690779      1.990436
  H      -2.646560      0.253611      1.540541
  H      -1.502224     -1.000461      2.026818
  H       0.501690     -1.678159      0.192761
  H       2.963473      0.609484     -1.392999
  H      -1.281638      0.733006     -0.496081
  H      -1.794914     -0.947964     -0.479716
  H       1.850695      0.456441      1.248207
15
Coordinates from ORCA-job freq E -270.969628882412
  C      -1.604080     -0.060611      1.482710
  C       0.275419     -0.646716     -0.075188
  C       1.952293      0.445273     -1.036406
  C      -1.160647     -0.219060      0.024383
  C       1.367132      0.323907      0.289765
  O       1.214467      1.500464     -0.508907
  H       0.901081     -0.449752     -1.340909
  H      -0.998831      0.691989      1.989492
  H      -2.646435      0.252883      1.541299
  H      -1.500634     -0.999657      2.027652
  H       0.502242     -1.677992      0.190720
  H       2.965049      0.607619     -1.390878
  H      -1.282715      0.732364     -0.496197
  H      -1.795337     -0.948899     -0.479132
  H       1.849290      0.456083      1.247929
15
Coordinates from ORCA-job freq E -270.969630664932
  C      -1.603789     -0.060878      1.482689
  C       0.275334     -0.646304     -0.076024
  C       1.952234      0.445830     -1.036045
  C      -1.160912     -0.219095      0.024308
  C       1.366493      0.323922      0.289448
  O       1.215287      1.501181     -0.509491
  H       0.900484     -0.449219     -1.339915
  H      -0.998735      0.692020      1.989173
  H      -2.646249      0.252066      1.541760
  H      -1.499665     -0.999841      2.027605
  H       0.502666     -1.677300      0.190363
  H       2.965576      0.605144     -1.390003
  H      -1.283136      0.732557     -0.495894
  H      -1.795525     -0.948935     -0.479331
  H       1.848231      0.456744      1.247690
15
Coordinates from ORCA-job freq E -270.969630526021
  C      -1.603484     -0.060750      1.482647
  C       0.275155     -0.646162     -0.076760
  C       1.952106      0.446436     -1.035410
  C      -1.161232     -0.219430      0.024231
  C       1.365979      0.323544      0.289575
  O       1.215755      1.501724     -0.509200
  H       0.900613     -0.448192     -1.339634
  H      -0.998533      0.692642      1.988492
  H      -2.646026      0.251788      1.542147
  H      -1.498744     -0.999375      2.028024
  H       0.503096     -1.677141      0.189146
  H       2.965703      0.603478     -1.389529
  H      -1.283789      0.732117     -0.496133
  H      -1.795779     -0.949523     -0.479125
  H       1.847477      0.456738      1.247863
15
Coordinates from ORCA-job freq E -270.969622162922
  C      -1.603246     -0.060512      1.482629
  C       0.274948     -0.646148     -0.077343
  C       1.952055      0.447001     -1.034793
  C      -1.161555     -0.219821      0.024176
  C       1.365609      0.323105      0.289834
  O       1.216049      1.502106     -0.508679
  H       0.901067     -0.447171     -1.339730
  H      -0.998316      0.693335      1.987820
  H      -2.645847      0.251767      1.542481
  H      -1.498035     -0.998780      2.028537
  H       0.503411     -1.677207      0.187826
  H       2.965756      0.602367     -1.389292
  H      -1.284485      0.731522     -0.496516
  H      -1.796060     -0.950226     -0.478774
  H       1.846945      0.456555      1.248156
15
Coordinates from ORCA-job freq E -270.969623507811
  C      -1.603063     -0.060293      1.482637
  C       0.274741     -0.646175     -0.077792
  C       1.952082      0.447474     -1.034275
  C      -1.161843     -0.220155      0.024137
  C       1.365332      0.322739      0.290083
  O       1.216261      1.502372     -0.508208
  H       0.901575     -0.446337     -1.339968
  H      -0.998114      0.693912      1.987273
  H      -2.645704      0.251816      1.542759
  H      -1.497486     -0.998268      2.028978
  H       0.503583     -1.677329      0.186723
  H       2.965825      0.601591     -1.389147
  H      -1.285109      0.730992     -0.496872
  H      -1.796324     -0.950842     -0.478427
  H       1.846540      0.456398      1.248433
15
Coordinates from ORCA-job freq E -270.969630337038
  C      -1.602980     -0.060216      1.482678
  C       0.274575     -0.646147     -0.078077
  C       1.952179      0.447759     -1.033941
  C      -1.162052     -0.220328      0.024130
  C       1.365152      0.322561      0.290243
  O       1.216447      1.502531     -0.508043
  H       0.902060     -0.445784     -1.340146
  H      -0.997991      0.694160      1.987018
  H      -2.645643      0.251809      1.542980
  H      -1.497204     -0.998058      2.029221
  H       0.503635     -1.677360      0.186068
  H       2.965940      0.600920     -1.389142
  H      -1.285558      0.730710     -0.497039
  H      -1.796504     -0.951173     -0.478222
  H       1.846240      0.456510      1.248605
15
Coordinates from ORCA-job freq E -270.969634890339
  C      -1.602948     -0.060220      1.482725
  C       0.274450     -0.646099     -0.078248
  C       1.952300      0.447942     -1.033723
  C      -1.162205     -0.220409      0.024138
  C       1.365025      0.322499      0.290338
  O       1.216584      1.502632     -0.508053
  H       0.902468     -0.445461     -1.340281
  H      -0.997893      0.694198      1.986928
  H      -2.645607      0.251800      1.543151
  H      -1.497095     -0.998026      2.029324
  H       0.503629     -1.677342      0.185718
  H       2.966071      0.600371     -1.389189
  H      -1.285868      0.730586     -0.497082
  H      -1.796636     -0.951329     -0.478116
  H       1.846021      0.456751      1.248704
15
Coordinates from ORCA-job freq E -270.969643250924
  C      -1.602955     -0.060290      1.482776
  C       0.274365     -0.646035     -0.078340
  C       1.952418      0.448039     -1.033601
  C      -1.162301     -0.220409      0.024153
  C       1.364935      0.322517      0.290375
  O       1.216691      1.502694     -0.508188
  H       0.902801     -0.445320     -1.340351
  H      -0.997850      0.694100      1.986957
  H      -2.645607      0.251744      1.543279
  H      -1.497078     -0.998119      2.029330
  H       0.503589     -1.677273      0.185619
  H       2.966194      0.599905     -1.389282
  H      -1.286035      0.730601     -0.497022
  H      -1.796726     -0.951331     -0.478107
  H       1.845854      0.457068      1.248736
15
Coordinates from ORCA-job freq E -270.969632486611
  C      -1.603045     -0.060449      1.482853
  C       0.274325     -0.645902     -0.078353
  C       1.952571      0.448019     -1.033580
  C      -1.162359     -0.220322      0.024204
  C       1.364912      0.322654      0.290344
  O       1.216865      1.502746     -0.508524
  H       0.903063     -0.445282     -1.340359
  H      -0.997928      0.693834      1.987193
  H      -2.645689      0.251607      1.543368
  H      -1.497216     -0.998387      2.029233
  H       0.503559     -1.677116      0.185723
  H       2.966350      0.599372     -1.389447
  H      -1.286127      0.730758     -0.496840
  H      -1.796754     -0.951185     -0.478173
  H       1.845768      0.457546      1.248691
15
Coordinates from ORCA-job freq E -270.969636038844
  C      -1.603120     -0.060624      1.482910
  C       0.274298     -0.645770     -0.078320
  C       1.952680      0.447966     -1.033589
  C      -1.162384     -0.220207      0.024243
  C       1.364881      0.322814      0.290302
  O       1.216977      1.502777     -0.508876
  H       0.903275     -0.445342     -1.340321
  H      -0.997968      0.693499      1.987434
  H      -2.645748      0.251490      1.543440
  H      -1.497379     -0.998696      2.029080
  H       0.503521     -1.676939      0.185947
  H       2.966463      0.598907     -1.389609
  H      -1.286132      0.730969     -0.496636
  H      -1.796757     -0.950980     -0.478295
  H       1.845689      0.458029      1.248623
15
Coordinates from ORCA-job freq E -270.969639103240
  C      -1.603216     -0.060755      1.482958
  C       0.274288     -0.645673     -0.078273
  C       1.952779      0.447954     -1.033611
  C      -1.162398     -0.220115      0.024287
  C       1.364895      0.322919      0.290260
  O       1.217081      1.502814     -0.509116
  H       0.903434     -0.445426     -1.340330
  H      -0.998074      0.693274      1.987646
  H      -2.645840      0.251375      1.543476
  H      -1.497527     -0.998923      2.028971
  H       0.503504     -1.676809      0.186140
  H       2.966550      0.598577     -1.389784
  H      -1.286124      0.731133     -0.496462
  H      -1.796753     -0.950816     -0.478382
  H       1.845697      0.458364      1.248553
15
Coordinates from ORCA-job freq E -270.969645113666
  C      -1.603311     -0.060929      1.483007
  C       0.274283     -0.645550     -0.078216
  C       1.952877      0.447881     -1.033661
  C      -1.162404     -0.219996      0.024330
  C       1.364902      0.323086      0.290195
  O       1.217212      1.502849     -0.509449
  H       0.903545     -0.445523     -1.340293
  H      -0.998183      0.692979      1.987894
  H      -2.645932      0.251215      1.543511
  H      -1.497682     -0.999214      2.028826
  H       0.503479     -1.676638      0.186412
  H       2.966655      0.598189     -1.389938
  H      -1.286080      0.731355     -0.496236
  H      -1.796745     -0.950591     -0.478514
  H       1.845679      0.458780      1.248466
15
Coordinates from ORCA-job freq E -270.969631564521
  C      -1.603389     -0.061097      1.483049
  C       0.274277     -0.645430     -0.078160
  C       1.952959      0.447794     -1.033711
  C      -1.162402     -0.219867      0.024360
  C       1.364894      0.323244      0.290127
  O       1.217312      1.502872     -0.509777
  H       0.903634     -0.445639     -1.340243
  H      -0.998277      0.692697      1.988120
  H      -2.646012      0.251044      1.543556
  H      -1.497796     -0.999497      2.028677
  H       0.503450     -1.676463      0.186702
  H       2.966749      0.597832     -1.390061
  H      -1.286020      0.731586     -0.496020
  H      -1.796723     -0.950352     -0.478666
  H       1.845641      0.459167      1.248378
15
Coordinates from ORCA-job freq E -270.969635171787
  C      -1.603519     -0.061319      1.483119
  C       0.274294     -0.645275     -0.078071
  C       1.953074      0.447637     -1.033807
  C      -1.162387     -0.219700      0.024419
  C       1.364919      0.323471      0.290028
  O       1.217456      1.502881     -0.510250
  H       0.903740     -0.445783     -1.340168
  H      -0.998416      0.692291      1.988480
  H      -2.646131      0.250865      1.543599
  H      -1.498042     -0.999888      2.028481
  H       0.503437     -1.676250      0.187055
  H       2.966874      0.597407     -1.390230
  H      -1.285936      0.731894     -0.495730
  H      -1.796682     -0.950045     -0.478851
  H       1.845614      0.459706      1.248261
15
Coordinates from ORCA-job freq E -270.969638603542
  C      -1.603597     -0.061431      1.483145
  C       0.274296     -0.645194     -0.078005
  C       1.953132      0.447603     -1.033855
  C      -1.162382     -0.219606      0.024452
  C       1.364940      0.323558      0.289972
  O       1.217520      1.502902     -0.510446
  H       0.903813     -0.445918     -1.340161
  H      -0.998526      0.692106      1.988649
  H      -2.646214      0.250740      1.543609
  H      -1.498145     -1.000075      2.028379
  H       0.503434     -1.676129      0.187286
  H       2.966928      0.597201     -1.390355
  H      -1.285874      0.732063     -0.495565
  H      -1.796667     -0.949865     -0.478952
  H       1.845638      0.459939      1.248181
15
Coordinates from ORCA-job freq E -270.969647371225
  C      -1.603691     -0.061583      1.483186
  C       0.274305     -0.645086     -0.077930
  C       1.953199      0.447515     -1.033933
  C      -1.162368     -0.219482      0.024491
  C       1.364969      0.323698      0.289898
  O       1.217625      1.502920     -0.510734
  H       0.903859     -0.446038     -1.340115
  H      -0.998656      0.691859      1.988879
  H      -2.646315      0.250573      1.543624
  H      -1.498287     -1.000332      2.028247
  H       0.503423     -1.675970      0.187570
  H       2.967004      0.596918     -1.390489
  H      -1.285795      0.732287     -0.495366
  H      -1.796627     -0.949648     -0.479084
  H       1.845650      0.460261      1.248087
15
Coordinates from ORCA-job freq E -270.969631779631
  C      -1.603783     -0.061741      1.483220
  C       0.274312     -0.644969     -0.077856
  C       1.953273      0.447410     -1.034006
  C      -1.162362     -0.219357      0.024527
  C       1.364990      0.323858      0.289822
  O       1.217730      1.502942     -0.511053
  H       0.903906     -0.446156     -1.340059
  H      -0.998774      0.691594      1.989106
  H      -2.646407      0.250409      1.543655
  H      -1.498421     -1.000600      2.028096
  H       0.503415     -1.675807      0.187858
  H       2.967090      0.596618     -1.390595
  H      -1.285737      0.732511     -0.495154
  H      -1.796602     -0.949421     -0.479220
  H       1.845666      0.460601      1.247992
15
Coordinates from ORCA-job freq E -270.969635850811
  C      -1.603900     -0.061946      1.483276
  C       0.274329     -0.644818     -0.077757
  C       1.953364      0.447239     -1.034108
  C      -1.162339     -0.219191      0.024580
  C       1.365019      0.324074      0.289729
  O       1.217859      1.502945     -0.511494
  H       0.903967     -0.446299     -1.339977
  H      -0.998915      0.691222      1.989437
  H      -2.646520      0.250226      1.543688
  H      -1.498626     -1.000962      2.027904
  H       0.503399     -1.675605      0.188199
  H       2.967196      0.596246     -1.390738
  H      -1.285643      0.732801     -0.494894
  H      -1.796549     -0.949122     -0.479396
  H       1.845657      0.461083      1.247884
15
Coordinates from ORCA-job freq E -270.969639817868
  C      -1.603970     -0.062032      1.483296
  C       0.274341     -0.644758     -0.077702
  C       1.953402      0.447213     -1.034160
  C      -1.162328     -0.219119      0.024608
  C       1.365050      0.324137      0.289676
  O       1.217910      1.502962     -0.511635
  H       0.904008     -0.446421     -1.339976
  H      -0.999036      0.691095      1.989574
  H      -2.646596      0.250123      1.543679
  H      -1.498714     -1.001099      2.027840
  H       0.503409     -1.675510      0.188392
  H       2.967231      0.596114     -1.390832
  H      -1.285584      0.732939     -0.494752
  H      -1.796532     -0.948980     -0.479481
  H       1.845706      0.461231      1.247806
15
Coordinates from ORCA-job freq E -270.969645547240
  C      -1.604051     -0.062149      1.483323
  C       0.274356     -0.644673     -0.077635
  C       1.953446      0.447147     -1.034227
  C      -1.162315     -0.219029      0.024640
  C       1.365079      0.324250      0.289617
  O       1.217990      1.502981     -0.511851
  H       0.904030     -0.446528     -1.339942
  H      -0.999135      0.690894      1.989748
  H      -2.646678      0.250015      1.543681
  H      -1.498841     -1.001297      2.027733
  H       0.503413     -1.675385      0.188623
  H       2.967282      0.595914     -1.390930
  H      -1.285526      0.733105     -0.494591
  H      -1.796502     -0.948815     -0.479582
  H       1.845746      0.461463      1.247726
15
Coordinates from ORCA-job freq E -270.969635090782
  C      -1.604120     -0.062256      1.483353
  C       0.274368     -0.644597     -0.077580
  C       1.953497      0.447082     -1.034287
  C      -1.162303     -0.218949      0.024670
  C       1.365101      0.324355      0.289557
  O       1.218061      1.502997     -0.512064
  H       0.904054     -0.446623     -1.339920
  H      -0.999220      0.690700      1.989929
  H      -2.646744      0.249927      1.543692
  H      -1.498977     -1.001484      2.027636
  H       0.503427     -1.675273      0.188829
  H       2.967342      0.595730     -1.391015
  H      -1.285466      0.733257     -0.494444
  H      -1.796477     -0.948663     -0.479674
  H       1.845753      0.461690      1.247651
15
Coordinates from ORCA-job freq E -270.969648592466
  C      -1.604218     -0.062414      1.483392
  C       0.274388     -0.644480     -0.077493
  C       1.953555      0.446958     -1.034380
  C      -1.162284     -0.218827      0.024711
  C       1.365133      0.324526      0.289481
  O       1.218160      1.503007     -0.512393
  H       0.904090     -0.446739     -1.339842
  H      -0.999313      0.690384      1.990198
  H      -2.646825      0.249825      1.543701
  H      -1.499195     -1.001771      2.027472
  H       0.503434     -1.675107      0.189119
  H       2.967409      0.595463     -1.391141
  H      -1.285384      0.733470     -0.494246
  H      -1.796429     -0.948447     -0.479804
  H       1.845776      0.462045      1.247555
15
Coordinates from ORCA-job freq E -270.969634584650
  C      -1.604279     -0.062507      1.483418
  C       0.274391     -0.644416     -0.077446
  C       1.953608      0.446893     -1.034426
  C      -1.162276     -0.218746      0.024740
  C       1.365143      0.324611      0.289426
  O       1.218218      1.503015     -0.512592
  H       0.904125     -0.446835     -1.339832
  H      -0.999402      0.690236      1.990343
  H      -2.646891      0.249713      1.543728
  H      -1.499265     -1.001926      2.027391
  H       0.503437     -1.675015      0.189280
  H       2.967472      0.595299     -1.391196
  H      -1.285333      0.733617     -0.494112
  H      -1.796411     -0.948296     -0.479883
  H       1.845761      0.462249      1.247494
15
Coordinates from ORCA-job freq E -270.969641586683
  C      -1.604336     -0.062598      1.483438
  C       0.274395     -0.644345     -0.077393
  C       1.953645      0.446835     -1.034475
  C      -1.162270     -0.218673      0.024762
  C       1.365159      0.324701      0.289378
  O       1.218278      1.503026     -0.512767
  H       0.904141     -0.446925     -1.339809
  H      -0.999465      0.690071      1.990475
  H      -2.646944      0.249632      1.543743
  H      -1.499360     -1.002082      2.027305
  H       0.503438     -1.674912      0.189455
  H       2.967517      0.595143     -1.391259
  H      -1.285288      0.733746     -0.493991
  H      -1.796387     -0.948168     -0.479966
  H       1.845774      0.462440      1.247435
15
Coordinates from ORCA-job freq E -270.969639812822
  C      -1.604374     -0.062673      1.483448
  C       0.274393     -0.644285     -0.077357
  C       1.953672      0.446789     -1.034515
  C      -1.162267     -0.218610      0.024775
  C       1.365167      0.324773      0.289338
  O       1.218335      1.503041     -0.512900
  H       0.904146     -0.446993     -1.339784
  H      -0.999531      0.689958      1.990563
  H      -2.646989      0.249530      1.543755
  H      -1.499394     -1.002204      2.027230
  H       0.503432     -1.674820      0.189619
  H       2.967554      0.595002     -1.391303
  H      -1.285250      0.733859     -0.493887
  H      -1.796379     -0.948055     -0.480035
  H       1.845780      0.462581      1.247385
15
Coordinates from ORCA-job freq E -270.969645700480
  C      -1.604446     -0.062758      1.483472
  C       0.274407     -0.644220     -0.077302
  C       1.953708      0.446730     -1.034572
  C      -1.162253     -0.218537      0.024803
  C       1.365204      0.324851      0.289293
  O       1.218399      1.503047     -0.513062
  H       0.904164     -0.447069     -1.339753
  H      -0.999650      0.689832      1.990712
  H      -2.647071      0.249418      1.543751
  H      -1.499484     -1.002345      2.027164
  H       0.503442     -1.674731      0.189782
  H       2.967590      0.594859     -1.391395
  H      -1.285196      0.733989     -0.493765
  H      -1.796352     -0.947919     -0.480116
  H       1.845833      0.462745      1.247322
15
Coordinates from ORCA-job freq E -270.969634794296
  C      -1.604506     -0.062872      1.483502
  C       0.274416     -0.644136     -0.077253
  C       1.953756      0.446636     -1.034629
  C      -1.162244     -0.218456      0.024830
  C       1.365212      0.324977      0.289236
  O       1.218469      1.503056     -0.513309
  H       0.904186     -0.447144     -1.339712
  H      -0.999690      0.689601      1.990889
  H      -2.647117      0.249357      1.543775
  H      -1.499632     -1.002549      2.027058
  H       0.503450     -1.674613      0.189968
  H       2.967655      0.594657     -1.391450
  H      -1.285151      0.734140     -0.493622
  H      -1.796320     -0.947773     -0.480208
  H       1.845813      0.463013      1.247259
15
Coordinates from ORCA-job freq E -270.969648826727
  C      -1.604573     -0.062990      1.483533
  C       0.274426     -0.644057     -0.077187
  C       1.953804      0.446541     -1.034690
  C      -1.162235     -0.218371      0.024861
  C       1.365226      0.325106      0.289180
  O       1.218524      1.503057     -0.513566
  H       0.904226     -0.447242     -1.339666
  H      -0.999720      0.689343      1.991084
  H      -2.647158      0.249320      1.543796
  H      -1.499813     -1.002766      2.026935
  H       0.503461     -1.674504      0.190163
  H       2.967712      0.594473     -1.391526
  H      -1.285090      0.734292     -0.493471
  H      -1.796292     -0.947614     -0.480309
  H       1.845797      0.463304      1.247195
15
Coordinates from ORCA-job freq E -270.969635613366
  C      -1.604631     -0.063083      1.483551
  C       0.274438     -0.643991     -0.077124
  C       1.953836      0.446477     -1.034739
  C      -1.162223     -0.218308      0.024889
  C       1.365242      0.325201      0.289137
  O       1.218564      1.503066     -0.513752
  H       0.904248     -0.447330     -1.339633
  H      -0.999752      0.689143      1.991226
  H      -2.647197      0.249294      1.543798
  H      -1.499961     -1.002936      2.026841
  H       0.503473     -1.674404      0.190332
  H       2.967748      0.594337     -1.391595
  H      -1.285035      0.734409     -0.493346
  H      -1.796267     -0.947491     -0.480386
  H       1.845813      0.463508      1.247134
15
Coordinates from ORCA-job freq E -270.969643902578
  C      -1.604669     -0.063139      1.483564
  C       0.274439     -0.643949     -0.077087
  C       1.953860      0.446444     -1.034773
  C      -1.162218     -0.218257      0.024905
  C       1.365253      0.325251      0.289104
  O       1.218597      1.503069     -0.513857
  H       0.904263     -0.447405     -1.339625
  H      -0.999812      0.689057      1.991305
  H      -2.647241      0.249219      1.543806
  H      -1.499996     -1.003028      2.026787
  H       0.503471     -1.674342      0.190452
  H       2.967778      0.594250     -1.391637
  H      -1.284998      0.734502     -0.493262
  H      -1.796256     -0.947395     -0.480443
  H       1.845825      0.463617      1.247093
15
Coordinates from ORCA-job freq E -270.969638174838
  C      -1.604722     -0.063204      1.483587
  C       0.274450     -0.643901     -0.077055
  C       1.953889      0.446399     -1.034820
  C      -1.162207     -0.218199      0.024928
  C       1.365277      0.325308      0.289063
  O       1.218655      1.503078     -0.513979
  H       0.904268     -0.447465     -1.339605
  H      -0.999921      0.688981      1.991409
  H      -2.647307      0.249110      1.543808
  H      -1.500035     -1.003127      2.026745
  H       0.503478     -1.674273      0.190572
  H       2.967810      0.594134     -1.391692
  H      -1.284947      0.734604     -0.493164
  H      -1.796240     -0.947285     -0.480508
  H       1.845848      0.463733      1.247043
