15
Coordinates from ORCA-job freq E -270.972497264134
  C           0.14337540766520     -3.08327567521908      0.12996901879693
  C          -1.38815113896547     -0.02665479382537     -0.58425478201733
  C          -0.11739310628482     -2.38110989477677      1.43000916468094
  C          -1.21209391038264     -1.43345975997647      1.56460665473669
  C          -1.94684671393522     -0.51788623132018      0.71871515372696
  O          -1.23491799008884     -0.08988493894805      1.90312664501237
  H          -1.26533297365820     -2.62069315386011      2.09597369209856
  H           0.77187129951145     -2.47645135698277     -0.53004773094030
  H           0.64398541321613     -4.03763527678122      0.28298894464506
  H          -0.79201003842777     -3.27198306445347     -0.39913642977468
  H          -1.77290955549489     -0.62628547953534     -1.41012539480278
  H          -1.67206858325346      1.01164410044143     -0.75714699890625
  H          -0.30151320786253     -0.09541289208726     -0.57555927980065
  H           0.65648674690299     -2.30868058485873      2.18344635445674
  H          -3.02532464894185     -0.47038799781648      0.82980698808768
