17
Coordinates from ORCA-job freq E -421.455380249670
  C          -0.77473944969573     -1.50858642312815      0.64451115024894
  C           1.19694018894737      0.10201670619500     -1.09074020612298
  C           2.30293728343364     -0.34607232503072     -0.30356053102567
  C          -1.13366287300438     -0.40916116942801     -0.34653296157602
  C          -0.03737850632711      0.65267153435487     -0.47641848294169
  O           2.32280019201919     -0.28599698385939      0.91833022409803
  O          -1.52413031562825      2.38248332771998     -0.75173162686691
  O          -0.43753772317579      1.70293487270715     -1.35625852041092
  H           0.08262415822871     -2.09159556428802      0.30797399904427
  H          -0.52084824357627     -1.09023696841965      1.61868376581718
  H          -1.61265420217633     -2.19164831039829      0.77461186024904
  H           1.24105031808028      0.02924548482416     -2.17018387069109
  H           3.16088396067883     -0.76182582213499     -0.85407212134342
  H          -2.03778112208684      0.10999476678709     -0.02889346850114
  H          -1.32734723682729     -0.82375842796854     -1.33835933943010
  H           0.19547821674209      1.06548183909366      0.50963195538861
  H          -1.10603964563211      3.20639246297384     -0.47591582593612
