17
Coordinates from ORCA-job freq E -421.425237511679
  C          -2.01527628342775      0.53746770255022     -0.26927948231082
  C           1.59408115327733     -1.61045937004058     -0.37074552695143
  C           0.47235079296904      0.79994976559514     -0.72829466123696
  C          -0.63579140745894      0.70541741136764      0.33589849651539
  C           1.59764585561492     -0.20878452052798     -0.79979691993381
  O          -1.09749990687828     -0.31111549561464      2.30881347930902
  O           2.26583022643323     -0.60507154598119      0.37447995784471
  O          -0.39624874229342     -0.41611517222997      1.22747978948114
  H           0.72520617459349     -2.03618844902175      0.10894522709508
  H          -2.76423638161974      0.46194442752853      0.51627318030054
  H          -2.04590187654296     -0.36205967647624     -0.88568203408265
  H          -2.24851290199627      1.39625579109282     -0.89820171862909
  H           2.24861350656514     -2.30599093315231     -0.88361833833888
  H           0.00135046387116      0.79631670254806     -1.71402176065963
  H           0.94815392965682      1.77739064313744     -0.62858816077931
  H          -0.61233159611708      1.58071494088963      0.98294791596472
  H           2.27533099335331      0.03025477833513     -1.61682344358798
