
                                 *****************
                                 * O   R   C   A *
                                 *****************

                                            #,                                       
                                            ###                                      
                                            ####                                     
                                            #####                                    
                                            ######                                   
                                           ########,                                 
                                     ,,################,,,,,                         
                               ,,#################################,,                 
                          ,,##########################################,,             
                       ,#########################################, ''#####,          
                    ,#############################################,,   '####,        
                  ,##################################################,,,,####,       
                ,###########''''           ''''###############################       
              ,#####''   ,,,,##########,,,,          '''####'''          '####       
            ,##' ,,,,###########################,,,                        '##       
           ' ,,###''''                  '''############,,,                           
         ,,##''                                '''############,,,,        ,,,,,,###''
      ,#''                                            '''#######################'''  
     '                                                          ''''####''''         
             ,#######,   #######,   ,#######,      ##                                
            ,#'     '#,  ##    ##  ,#'     '#,    #''#        ,####,    ,#,          
            ##       ##  ##   ,#'  ##            #'  '#       #'       ,# #          
            ##       ##  #######   ##           ,######,      #####,      #          
            '#,     ,#'  ##    ##  '#,     ,#' ,#      #,     #,   #      #          
             '#######'   ##     ##  '#######'  #'      '#     '####' #    #          



                #########################################################
                #                        -***-                          #
                #          Department of theory and spectroscopy        #
                #                                                       #
                #                      Frank Neese                      #
                #                                                       #
                #     Directorship, Architecture, Infrastructure        #
                #                    SHARK, DRIVERS                     #
                #        Core code/Algorithms in most modules           #
                #                                                       #
                #        Max Planck Institute fuer Kohlenforschung      #
                #                Kaiser Wilhelm Platz 1                 #
                #                 D-45470 Muelheim/Ruhr                 #
                #                      Germany                          #
                #                                                       #
                #                  All rights reserved                  #
                #                        -***-                          #
                #########################################################


                         Program Version 6.1.1  -  RELEASE   -
                                (GIT: $487d211c$)
                          ($2025-11-21 10:33:24 +0100$)


 With contributions from (in alphabetic order):
[Max-Planck-Institut fuer Kohlenforschung]                               
  Daniel Aravena         : Magnetic Suceptibility                        
  Michael Atanasov       : Ab Initio Ligand Field Theory (pilot matlab implementation)
  Alexander A. Auer      : GIAO ZORA, VPT2 properties, NMR spectrum      
  Ute Becker             : All parallelization in ORCA, NUMFREQ, NUMCALC 
  Giovanni Bistoni       : ED, misc. LED, open-shell LED, HFLD           
  Dmytro Bykov           : pre 5.0 version of the SCF Hessian            
  Marcos Casanova-Páez   : Triplet and SCS-CIS(D). UHF-(DLPNO)-IP/EA/STEOM-CCSD. UHF-CVS-IP/STEOM-CCSD   
  Vijay G. Chilkuri      : MRCI spin determinant printing, contributions to CSF-ICE 
  Pauline Colinet        : FMM embedding                                 
  Dipayan Datta          : RHF DLPNO-CCSD density                        
  Achintya Kumar Dutta   : EOM-CC, STEOM-CC                              
  Nicolas Foglia         : Exact transition moments, OPA infrastructure, MCD improvements    
  Dmitry Ganyushin       : Spin-Orbit,Spin-Spin,Magnetic field MRCI      
  Miquel Garcia-Rates    : C-PCM and meta-GGA Hessian, CCSD/C-PCM, Gaussian charge scheme 
  Tiago L. C. Gouveia    : GS-ROHF, GS-ROCIS                             
  Yang Guo               : DLPNO-NEVPT2, F12-NEVPT2, CIM, IAO-localization        
  Andreas Hansen         : Spin unrestricted coupled pair/coupled cluster methods 
  Ingolf Harden          : AUTO-CI MPn and infrastructure                
  Benjamin Helmich-Paris : MC-RPA, TRAH-(SCF,CASSCF), AVAS, COSX integrals, SCF dyn. polar., MC-PDFT, srDFT 
  Lee Huntington         : MR-EOM, pCC                                   
  Robert Izsak           : Overlap fitted RIJCOSX, COSX-SCS-MP3, EOM     
  Riya Kayal             : Wick's Theorem for AUTO-CI, AUTO-CI UHF-CCSDT 
  Emily Kempfer          : AUTO-CI RHF CISDT and CCSDT, approximate NEVPT4
  Christian Kollmar      : KDIIS, OOCD, Brueckner-CCSD(T), CCSD density, CASPT2, CASPT2-K, improved NEVPT2 
  Axel Koslowski         : Symmetry handling                             
  Simone Kossmann        : meta-GGA functionals, TD-DFT gradient, OOMP2, (MP2 Hessian; deprecated post 5.0) 
  Lucas Lang             : DCDCAS, Hyperfine gauge corrections, ICE-SOC+SSC
  Marvin Lechner         : AUTO-CI (C++ implementation), FIC-MRCC        
  Spencer Leger          : CASSCF response                               
  Dagmar Lenk            : GEPOL surface, SMD, ORCA-2-JSON               
  Dimitrios Liakos       : Extrapolation schemes; Compound Job, Property file
  Dimitrios Manganas     : Further ROCIS development; embedding schemes. LFT, Crystal Embedding 
  Dimitrios Pantazis     : SARC Basis sets                               
  Anastasios Papadopoulos: AUTO-CI, single reference methods and gradients 
  Taras Petrenko         : pre 6.0 DFT Hessian and TD-DFT gradient,  ECA, NRVS 
  Petra Pikulova         : Analytic Raman intensities                    
  Peter Pinski           : DLPNO-MP2, DLPNO-MP2 Gradient                 
  Shashank Vittal Rao    : ES-AILFT, MagRelax                            
  Christoph Reimann      : Effective Core Potentials                     
  Marius Retegan         : Local ZFS, SOC                                
  Christoph Riplinger    : Optimizer, TS searches, QM/MM, DLPNO-CCSD(T), (RO)-DLPNO pert. Triples 
  Michael Roemelt        : Original ROCIS implementation, recursive CI coupling coefficients
  Masaaki Saitow         : Open-shell DLPNO-CCSD energy and density      
  Barbara Sandhoefer     : DKH picture change effects                    
  Yorick L. A. Schmerwitz: GMF and freeze-and-release deltaSCF, NEB S-IDPP initial path                    
  Kantharuban Sivalingam : CASSCF convergence/infrastructure, NEVPT2, NEVPT3, NEVPT4(SD), FIC-MRCI and CEPA variants
  Bernardo de Souza      : ESD, SOC TD-DFT                               
  Georgi L. Stoychev     : AutoAux, RI-MP2 NMR, DLPNO-MP2 response, X2C  
  Van Anh Tran           : RI-MP2 g-tensors                              
  Willem Van den Heuvel  : Paramagnetic NMR                              
  Zikuan Wang            : NOTCH, Electric field optimization            
  Frank Wennmohs         : Technical directorship and infrastructure     
  Hang Xu                : AUTO-CI-Response properties                   
                                                                         
[FACCTs GmbH]                                                            
  Markus Bursch, Nicolas Foglia, Miquel Garcia-Rates, Ingolf Harden, Hagen Neugebauer, Anastasios Papadopoulos, 
  Christoph Riplinger, Bernardo de Souza, Georgi L. Stoychev                                                    
                                                                 
  APM, various basis sets, CI-OPT, improved COSX, DLPNO-Multilevel,           
  DOCKER, DRACO, updates on ESD, Fragmentator, GOAT, IRC, LR-CPCM, L-BFGS, MBIS, meta-GGA TD-DFT gradient, ML-optimized integration grids, 
  MM, NACMEs, nearIR, NEB, NEB-TS, NL-DFT gradient (VV10), 2- and 3-layer-ONIOM, interface openCOSMO-RS, QMMM,   
  Crystal-QMMM, RESP, rigid body optimization, SF, symmetry and pop. for TD-DFT, various functionals, SOLVATOR                                   
                                                                         
[Other institutions]                                                     
  V. Asgeirsson          : NEB                                           
  Christoph Bannwarth    : sTDA-DFT, sTD-DFT, PBEh-3c, B97-3c, D3        
  Giovanni Bistoni       : ETS/NOCV, ADLD/ADEX, COVALED                  
  Martin Brehm           : Molecular dynamics                            
  Ronald Cardenas        : ETS/NOCV                                      
  Martina Colucci        : COVALED                                       
  Sebastian Ehlert       : rSCAN, r2SCAN, r2SCAN-3c, D4, dhf basis sets  
  Marvin Friede          : D4 for Fr, Ra, Ac-Lr                          
  Lars Goerigk           : TD-DFT with DH, B97 family of functionals     
  Stefan Grimme          : VdW corrections, initial TS optimization, DFT functionals, gCP, sTDA/sTD-DF 
  Waldemar Hujo          : DFT-NL                                        
  H. Jonsson             : NEB                                           
  Holger Kruse           : gCP                                           
  Marcel Mueller         : wB97X-3c, vDZP basis set                      
  Hagen Neugebauer       : wr2SCAN, Native XTB                           
  Gianluca Regni         : ADLD/ADEX                                     
  Tobias Risthaus        : pre 6.0 range-separated hybrid DFT and stability analysis
  Lukas Wittmann         : regularized MP2, r2SCAN double-hybrids, wr2SCAN        
                                                                         
We gratefully acknowledge several colleagues who have allowed us to      
interface, adapt or use parts of their codes:                            
  Ed Valeev, F. Pavosevic, A. Kumar             : LibInt (2-el integral package), F12 methods 
  Garnet Chan, S. Sharma, J. Yang, R. Olivares  : DMRG                   
  Ulf Ekstrom                                   : XCFun DFT Library      
  Mihaly Kallay                                 : mrcc  (arbitrary order and MRCC methods)
  Frank Weinhold                                : gennbo (NPA and NBO analysis)           
  Simon Mueller                                 : openCOSMO-RS                            
  Christopher J. Cramer and Donald G. Truhlar   : smd solvation model                     
  S Lehtola, MJT Oliveira, MAL Marques          : LibXC Library                           
  Liviu Ungur et al                             : ANISO software                          


 Your calculation uses the libint2 library for the computation of 2-el integrals
 For citations please refer to: http://libint.valeyev.net

 Your ORCA version has been built with support for libXC version: 7.0.0
 For citations please refer to: https://libxc.gitlab.io

 This ORCA versions uses:
   CBLAS   interface :  Fast vector & matrix operations
   LAPACKE interface :  Fast linear algebra routines
   SCALAPACK package :  Parallel linear algebra routines
   Shared memory     :  Shared parallel matrices
   BLAS/LAPACK       :  OpenBLAS 0.3.29  USE64BITINT DYNAMIC_ARCH NO_AFFINITY Cooperlake SINGLE_THREADED
        Core in use  :  Cooperlake
   Copyright (c) 2011-2014, The OpenBLAS Project


  ***********************************
  * Starting time: Fri Mar  6 18:05:56 2026
  * Host name:     ra8-10
  * Process ID:    664670
  * Working dir.:  /tmp/lscratch/tns97255/orca_43281841
  ***********************************

NOTE: MaxCore=4000 MB was set to SCF,MP2,MDCI,CIPSI,MRCI,RASCI and CIS
      => If you want to overwrite this, your respective input block should be placed after the MaxCore statement


***************************************
The coordinates will be read from file: guess.xyz
***************************************


Your calculation utilizes the semiempirical GFN2-xTB method
Please cite in your paper:
Bannwarth, C.; Ehlert S.; Grimme, S. J. Chem. Theory Comput. 2019, 15, 1652.
   

================================================================================

================================================================================
                                        WARNINGS
                       Please study these warnings very carefully!
================================================================================


================================================================================
 STARTING AUTOMATIC FRAGMENTATION: 
================================================================================

WARNING: Geometry Optimization
  ===> : Switching off AutoStart
         For restart on a previous wavefunction, please use MOREAD

WARNING: Found dipole moment calculation with XTB calculation
  ===> : Switching off dipole moment calculation


================================================================================
                                       INPUT FILE
================================================================================
NAME = goat.inp
|  1> %PAL NPROCS 8 END
|  2> %MAXCORE 4000
|  3> %base "goat"
|  4> ! XTB GOAT
|  5> 
|  6> *xyzfile 0 1 guess.xyz
|  7> 
|  8>                          ****END OF INPUT****
================================================================================

                       *****************************
                       * Geometry Optimization Run *
                       *****************************


                       *********************************
                       *              GOAT             *
                       * Global Optimization Algorithm *
                       *********************************

Geometry optimization settings:
Update method            Update   .... BFGS
Choice of coordinates    CoordSys .... (2022) Redundant Internals
Initial Hessian          InHess   .... Almloef's Model
Max. no of cycles        MaxIter  .... 50

Convergence Tolerances:
Energy Change            TolE     ....  5.0000e-06 Eh
Max. Gradient            TolMAXG  ....  3.0000e-04 Eh/bohr
RMS Gradient             TolRMSG  ....  1.0000e-04 Eh/bohr
Max. Displacement        TolMAXD  ....  4.0000e-03 bohr
RMS Displacement         TolRMSD  ....  2.0000e-03 bohr
Strict Convergence                .... True

------------------------------------------------------------------------------
                        ORCA OPTIMIZATION COORDINATE SETUP
------------------------------------------------------------------------------

The optimization will be done in redundant internal coordinates (2022)
Making redundant internal coordinates   ...  (2022 redundants) done
Evaluating the initial hessian          ...  (Almloef) done
Evaluating the coordinates              ...  done
Calculating the B-matrix                .... done
Calculating the G-matrix                .... done
The number of degrees of freedom        ....   17

    -----------------------------------------------------------------
                    Redundant Internal Coordinates


    -----------------------------------------------------------------
         Definition                    Initial Value    Approx d2E/dq
    -----------------------------------------------------------------
      1. B(C   1,C   0)                  1.3168         0.817646   
      2. B(O   2,C   1)                  1.3981         0.543290   
      3. B(O   2,C   0)                  1.3537         0.639361   
      4. B(H   3,C   0)                  1.0966         0.351495   
      5. B(H   4,C   1)                  1.0917         0.357813   
      6. A(C   1,C   0,O   2)           63.1189         0.455890   
      7. A(O   2,C   0,H   3)          149.8217         0.351127   
      8. A(C   1,C   0,H   3)          147.0594         0.368432   
      9. A(C   0,C   1,H   4)          157.0908         0.369561   
     10. A(C   0,C   1,O   2)           59.7311         0.442615   
     11. A(O   2,C   1,H   4)          143.1781         0.342663   
     12. A(C   0,O   2,C   1)           57.1500         0.420715   
     13. D(O   2,C   1,C   0,H   3)    179.9999         0.048541   
     14. D(H   4,C   1,C   0,H   3)      0.0001         0.048541   
     15. D(H   4,C   1,C   0,O   2)   -179.9998         0.048541   
     16. D(C   0,O   2,C   1,H   4)    179.9998         0.021324   
     17. D(C   1,O   2,C   0,H   3)   -179.9999         0.030131   
    -----------------------------------------------------------------

Number of atoms                         .... 5
Number of degrees of freedom            .... 17


         *************************************************************
         *                GEOMETRY OPTIMIZATION CYCLE   1            *
         *************************************************************
---------------------------------
CARTESIAN COORDINATES (ANGSTROEM)
---------------------------------
  C    -0.666884   -0.011518   -0.110164
  C     0.648739   -0.061269   -0.086596
  O    -0.013979    1.155036    0.103013
  H    -1.606798   -0.564259   -0.226502
  H     1.638922   -0.517990   -0.139774

----------------------------
CARTESIAN COORDINATES (A.U.)
----------------------------
  NO LB    ZA    FRAG    MASS        X           Y           Z
   0 C   6.0000    1    12.011   -1.260228   -0.021766   -0.208180
   1 C   6.0000    1    12.011    1.225939   -0.115782   -0.163643
   2 O   8.0000    1    15.999   -0.026416    2.182702    0.194666
   3 H   1.0000    1     1.008   -3.036408   -1.066295   -0.428027
   4 H   1.0000    1     1.008    3.097114   -0.978859   -0.264135

      -----------------------------------------------------------      
     |                   =====================                   |     
     |                           x T B                           |     
     |                   =====================                   |     
     |                         S. Grimme                         |     
     |          Mulliken Center for Theoretical Chemistry        |     
     |                    University of Bonn                     |     
      -----------------------------------------------------------      

   * xtb version 6.7.1 (edcfbbe) compiled by 'albert@albert-system' on 2024-07-22

   xtb is free software: you can redistribute it and/or modify it under
   the terms of the GNU Lesser General Public License as published by
   the Free Software Foundation, either version 3 of the License, or
   (at your option) any later version.
   
   xtb is distributed in the hope that it will be useful,
   but WITHOUT ANY WARRANTY; without even the implied warranty of
   MERCHANTABILITY or FITNESS FOR A PARTICULAR PURPOSE.  See the
   GNU Lesser General Public License for more details.
   
   Cite this work as:
   * C. Bannwarth, E. Caldeweyher, S. Ehlert, A. Hansen, P. Pracht,
     J. Seibert, S. Spicher, S. Grimme, WIREs Comput. Mol. Sci., 2020, 11,
     e01493. DOI: 10.1002/wcms.1493
   
   for GFN2-xTB:
   * C. Bannwarth, S. Ehlert and S. Grimme., J. Chem. Theory Comput., 2019,
     15, 1652-1671. DOI: 10.1021/acs.jctc.8b01176
   for GFN1-xTB:
   * S. Grimme, C. Bannwarth, P. Shushkov, J. Chem. Theory Comput., 2017,
     13, 1989-2009. DOI: 10.1021/acs.jctc.7b00118
   for GFN0-xTB:
   * P. Pracht, E. Caldeweyher, S. Ehlert, S. Grimme, ChemRxiv, 2019, preprint.
     DOI: 10.26434/chemrxiv.8326202.v1
   for GFN-FF:
   * S. Spicher and S. Grimme, Angew. Chem. Int. Ed., 2020, 59, 15665-15673.
     DOI: 10.1002/anie.202004239
   
   for ALPB and GBSA implicit solvation:
   * S. Ehlert, M. Stahn, S. Spicher, S. Grimme, J. Chem. Theory Comput.,
     2021, 17, 4250-4261. DOI: 10.1021/acs.jctc.1c00471
   
   for ddCOSMO and CPCM-X implicit solvation:
   * M. Stahn, S. Ehlert, S. Grimme, J. Phys. Chem. A,
     2023, XX, XXXX-XXXX. DOI: 10.1021/acs.jpca.3c04382
   
   for DFT-D4:
   * E. Caldeweyher, C. Bannwarth and S. Grimme, J. Chem. Phys., 2017,
     147, 034112. DOI: 10.1063/1.4993215
   * E. Caldeweyher, S. Ehlert, A. Hansen, H. Neugebauer, S. Spicher,
     C. Bannwarth and S. Grimme, J. Chem. Phys., 2019, 150, 154122.
     DOI: 10.1063/1.5090222
   * E. Caldeweyher, J.-M. Mewes, S. Ehlert and S. Grimme, Phys. Chem. Chem. Phys.
     2020, 22, 8499-8512. DOI: 10.1039/D0CP00502A
   
   for sTDA-xTB:
   * S. Grimme and C. Bannwarth, J. Chem. Phys., 2016, 145, 054103.
     DOI: 10.1063/1.4959605
   
   in the mass-spec context:
   * V. Asgeirsson, C. Bauer and S. Grimme, Chem. Sci., 2017, 8, 4879.
     DOI: 10.1039/c7sc00601b
   * J. Koopman and S. Grimme, ACS Omega 2019, 4, 12, 15120-15133.
     DOI: 10.1021/acsomega.9b02011
   
   for metadynamics refer to:
   * S. Grimme, J. Chem. Theory Comput., 2019, 155, 2847-2862
     DOI: 10.1021/acs.jctc.9b00143
   
   for SPH calculations refer to:
   * S. Spicher and S. Grimme, J. Chem. Theory Comput., 2021, 17, 1701-1714
     DOI: 10.1021/acs.jctc.0c01306
   
   for ONIOM refer to:
   * C. Plett, A. Katbashev, S. Ehlert, S. Grimme, M. Bursch,
     Phys. Chem. Chem. Phys., 2023, 25, 17860-17868. DOI: 10.1039/D3CP02178E
   
   for DIPRO refer to:
   * J. Kohn, N. Gildemeister, S. Grimme, D. Fazzi, A. Hansen,
     J. Chem. Phys., 2023, just accepted.
   
   for PTB refer to:
   * S. Grimme, M. Mueller, A. Hansen, J. Chem. Phys., 2023, 158, 124111.
     DOI: 10.1063/5.0137838
   
   with help from (in alphabetical order)
   P. Atkinson, C. Bannwarth, F. Bohle, G. Brandenburg, E. Caldeweyher
   M. Checinski, S. Dohm, S. Ehlert, S. Ehrlich, I. Gerasimov, C. Hölzer
   A. Katbashev, J. Kohn, J. Koopman, C. Lavigne, S. Lehtola, F. März, M. Müller,
   F. Musil, H. Neugebauer, J. Pisarek, C. Plett, P. Pracht, F. Pultar,
   J. Seibert, P. Shushkov, S. Spicher, M. Stahn, M. Steiner, T. Strunk,
   J. Stückrath, T. Rose, and J. Unsleber
   
 * started run on 2026/03/06 at 18:05:58.522     
   ID    Z sym.   atoms
    1    6 C      1, 2
    2    8 O      3
    3    1 H      4, 5

           -------------------------------------------------
          |                Calculation Setup                |
           -------------------------------------------------

          program call               : /apps/eb/ORCA/6.1.1-gompi-2024a-avx2/bin/otool_xtb goat_XTB.xyz --grad -c 0 -u 0 -P 8 --namespace goat --input goat_XTB.input.tmp --acc 0.200000
          hostname                   : ra8-10
          calculation namespace      : goat
          coordinate file            : goat_XTB.xyz
          omp threads                :                     8


           -------------------------------------------------
          |                 G F N 2 - x T B                 |
           -------------------------------------------------

        Reference                      10.1021/acs.jctc.8b01176
      * Hamiltonian:
        H0-scaling (s, p, d)           1.850000    2.230000    2.230000
        zeta-weighting                 0.500000
      * Dispersion:
        s8                             2.700000
        a1                             0.520000
        a2                             5.000000
        s9                             5.000000
      * Repulsion:
        kExp                           1.500000    1.000000
        rExp                           1.000000
      * Coulomb:
        alpha                          2.000000
        third order                    shell-resolved
        anisotropic                    true
        a3                             3.000000
        a5                             4.000000
        cn-shift                       1.200000
        cn-exp                         4.000000
        max-rad                        5.000000


          ...................................................
          :                      SETUP                      :
          :.................................................:
          :  # basis functions                  14          :
          :  # atomic orbitals                  14          :
          :  # shells                            8          :
          :  # electrons                        16          :
          :  max. iterations                   250          :
          :  Hamiltonian                  GFN2-xTB          :
          :  restarted?                      false          :
          :  GBSA solvation                  false          :
          :  PC potential                    false          :
          :  electronic temp.          300.0000000     K    :
          :  accuracy                    0.2000000          :
          :  -> integral cutoff          0.3198970E+02      :
          :  -> integral neglect         0.2000000E-08      :
          :  -> SCF convergence          0.2000000E-06 Eh   :
          :  -> wf. convergence          0.2000000E-04 e    :
          :  Broyden damping             0.4000000          :
          :  net charge                          0          :
          :  unpaired electrons                  0          :
          ...................................................

 iter      E             dE          RMSdq      gap      omega  full diag
   1     -9.2818247 -0.928182E+01  0.763E+00    2.96       0.0  T
   2     -9.2986901 -0.168654E-01  0.417E+00    2.32       1.0  T
   3     -9.2691936  0.294965E-01  0.307E+00    2.40       1.0  T
   4     -9.2987294 -0.295358E-01  0.113E+00    2.35       1.0  T
   5     -9.3017304 -0.300099E-02  0.156E-01    2.41       1.0  T
   6     -9.3017330 -0.257453E-05  0.705E-02    2.41       1.0  T
   7     -9.3017375 -0.452930E-05  0.940E-03    2.42       4.8  T
   8     -9.3017376 -0.106692E-06  0.355E-03    2.42      12.6  T
   9     -9.3017377 -0.104251E-07  0.188E-03    2.42      23.8  T
  10     -9.3017377 -0.102508E-07  0.601E-05    2.42     743.9  T
  11     -9.3017377 -0.493827E-11  0.301E-05    2.42    1485.3  T

   *** convergence criteria satisfied after 11 iterations ***

         #    Occupation            Energy/Eh            Energy/eV
      -------------------------------------------------------------
         1        2.0000           -0.7245313             -19.7155
         2        2.0000           -0.6338398             -17.2477
         3        2.0000           -0.6007930             -16.3484
         4        2.0000           -0.5469140             -14.8823
         5        2.0000           -0.5428028             -14.7704
         6        2.0000           -0.5199561             -14.1487
         7        2.0000           -0.4782922             -13.0150
         8        2.0000           -0.3455471              -9.4028 (HOMO)
         9                         -0.2565616              -6.9814 (LUMO)
        10                         -0.0598952              -1.6298
        11                          0.0207688               0.5651
        12                          0.0360477               0.9809
        13                          0.2999980               8.1634
        14                          0.8028281              21.8461
      -------------------------------------------------------------
                  HL-Gap            0.0889855 Eh            2.4214 eV
             Fermi-level           -0.3010543 Eh           -8.1921 eV

 SCC (total)                   0 d,  0 h,  0 min,  0.014 sec
 SCC setup                      ...        0 min,  0.002 sec ( 12.831%)
 Dispersion                     ...        0 min,  0.000 sec (  2.564%)
 classical contributions        ...        0 min,  0.000 sec (  0.545%)
 integral evaluation            ...        0 min,  0.001 sec (  6.941%)
 iterations                     ...        0 min,  0.009 sec ( 64.941%)
 molecular gradient             ...        0 min,  0.001 sec (  9.053%)
 printout                       ...        0 min,  0.000 sec (  2.908%)

         :::::::::::::::::::::::::::::::::::::::::::::::::::::
         ::                     SUMMARY                     ::
         :::::::::::::::::::::::::::::::::::::::::::::::::::::
         :: total energy              -9.196243476460 Eh    ::
         :: gradient norm              0.176511252551 Eh/a0 ::
         :: HOMO-LUMO gap              2.421418065139 eV    ::
         ::.................................................::
         :: SCC energy                -9.301737645649 Eh    ::
         :: -> isotropic ES            0.020458039655 Eh    ::
         :: -> anisotropic ES          0.000126155130 Eh    ::
         :: -> anisotropic XC          0.000871912059 Eh    ::
         :: -> dispersion             -0.001356958495 Eh    ::
         :: repulsion energy           0.105494169189 Eh    ::
         :: add. restraining           0.000000000000 Eh    ::
         :: total charge               0.000000000000 e     ::
         :::::::::::::::::::::::::::::::::::::::::::::::::::::


Property printout bound to 'properties.out'

           -------------------------------------------------
          | TOTAL ENERGY               -9.196243476460 Eh   |
          | GRADIENT NORM               0.176511252551 Eh/α |
          | HOMO-LUMO GAP               2.421418065139 eV   |
           -------------------------------------------------

------------------------------------------------------------------------
 * finished run on 2026/03/06 at 18:05:58.574     
------------------------------------------------------------------------
 total:
 * wall-time:     0 d,  0 h,  0 min,  0.051 sec
 *  cpu-time:     0 d,  0 h,  0 min,  0.273 sec
 * ratio c/w:     5.368 speedup
 SCF:
 * wall-time:     0 d,  0 h,  0 min,  0.015 sec
 *  cpu-time:     0 d,  0 h,  0 min,  0.092 sec
 * ratio c/w:     6.189 speedup


-------------------------   --------------------
FINAL SINGLE POINT ENERGY        -9.196243476460
-------------------------   --------------------


-------------
DIPOLE MOMENT
-------------
                                X             Y             Z
Total Dipole Moment    :     -0.03300      -0.96300      -0.16400
                        -----------------------------------------
Magnitude (a.u.)       :      0.97742
Magnitude (Debye)      :      2.48441


------------------
CARTESIAN GRADIENT
------------------

   1   C   :   -0.020675133    0.090812999    0.014857095
   2   C   :    0.017468648    0.071727183    0.012556284
   3   O   :   -0.000546655   -0.121091728   -0.020494124
   4   H   :   -0.016257581   -0.023912152   -0.004439651
   5   H   :    0.020010721   -0.017536302   -0.002479603

Difference to translation invariance:
           :    0.0000000000    0.0000000000   -0.0000000000

Difference to rotation invariance:
           :   -0.0000000008   -0.0000000054    0.0000000320

Norm of the Cartesian gradient     ...    0.1765112526
RMS gradient                       ...    0.0455750094
MAX gradient                       ...    0.1210917281
------------------------------------------------------------------------------
                         ORCA GEOMETRY RELAXATION STEP
------------------------------------------------------------------------------

Reading the OPT-File                    .... done
Getting information on internals        .... done
Copying old internal coords+grads       .... done
Making the new internal coordinates     .... (2022 redundants) done
Validating the new internal coordinates .... (2022 redundants) done
Calculating the B-matrix                .... done
Calculating the G,G- and P matrices     .... done
Transforming gradient to internals      .... done
Projecting the internal gradient        .... done
Number of atoms                         ....   5
Number of internal coordinates          ....  17
Current Energy                          ....    -9.196243476 Eh
Current gradient norm                   ....     0.176511253 Eh/bohr
Maximum allowed component of the step   ....  0.300
Current trust radius                    ....  0.300
Evaluating the initial hessian          ....  (Almloef) done
Projecting the Hessian                  .... done
Forming the augmented Hessian           .... done
Diagonalizing the augmented Hessian     .... done
Last element of RFO vector              ....  0.980367042
Lowest eigenvalues of augmented Hessian:
 -0.021134855  0.039274498  0.044543926  0.352634488  0.356197005
Length of the computed step             ....  0.201130072
The final length of the internal step   ....  0.201130072
Converting the step to Cartesian space:
 Initial RMS(Int)=    0.0487812078
Transforming coordinates:
 Iter   0:  RMS(Cart)=    0.0392996635 RMS(Int)=    0.0487328229
done
Storing new coordinates                 .... done

                                .--------------------.
          ----------------------|Geometry convergence|-------------------------
          Item                value                   Tolerance       Converged
          ---------------------------------------------------------------------
          RMS gradient        0.0260262015            0.0001000000      NO
          MAX gradient        0.0555776991            0.0003000000      NO
          RMS step            0.0487812078            0.0020000000      NO
          MAX step            0.0956610213            0.0040000000      NO
          -------------------------------------------------------------------------
          ........................................................
          Max(Bonds)      0.0506      Max(Angles)    3.61
          Max(Dihed)        0.00      Max(Improp)    0.00
          ---------------------------------------------------------------------

    ---------------------------------------------------------------------------
                         Redundant Internal Coordinates
                            (Angstroem and degrees)

        Definition                    Value    dE/dq     Step     New-Value
    ----------------------------------------------------------------------------
     1. B(C   1,C   0)                1.3168  0.036699 -0.0284    1.2884   
     2. B(O   2,C   1)                1.3981 -0.051660  0.0506    1.4487   
     3. B(O   2,C   0)                1.3537 -0.055578  0.0490    1.4028   
     4. B(H   3,C   0)                1.0966  0.026459 -0.0376    1.0590   
     5. B(H   4,C   1)                1.0917  0.025606 -0.0358    1.0560   
     6. A(C   1,C   0,O   2)           63.12 -0.018617    1.93     65.05   
     7. A(O   2,C   0,H   3)          149.82  0.022239   -2.93    146.89   
     8. A(C   1,C   0,H   3)          147.06 -0.003622    1.00    148.06   
     9. A(C   0,C   1,H   4)          157.09  0.002062    0.39    157.48   
    10. A(C   0,C   1,O   2)           59.73 -0.019891    1.68     61.41   
    11. A(O   2,C   1,H   4)          143.18  0.017830   -2.07    141.11   
    12. A(C   0,O   2,C   1)           57.15  0.038509   -3.61     53.54   
    13. D(O   2,C   1,C   0,H   3)    180.00  0.000000    0.00    180.00   
    14. D(H   4,C   1,C   0,H   3)      0.00  0.000000    0.00      0.00   
    15. D(H   4,C   1,C   0,O   2)   -180.00 -0.000000   -0.00   -180.00   
    16. D(C   0,O   2,C   1,H   4)    180.00 -0.000000    0.00    180.00   
    17. D(C   1,O   2,C   0,H   3)   -180.00  0.000000   -0.00   -180.00   
    ----------------------------------------------------------------------------

Geometry step timings:
Preparation and reading OPT file:      0.000 s ( 2.031 %)
Internal coordinates            :      0.000 s ( 2.031 %)
B/P matrices and projection     :      0.000 s ( 8.607 %)
Hessian update/contruction      :      0.000 s ( 9.091 %)
Making the step                 :      0.001 s (49.613 %)
Converting the step to Cartesian:      0.000 s ( 3.288 %)
Storing new data                :      0.000 s ( 2.515 %)
Checking convergence            :      0.000 s ( 2.515 %)
Final printing                  :      0.000 s (20.116 %)
Total time                      :      0.001 s

Time for energy+gradient        :      0.063 s
Time for complete geometry iter :      0.065 s

         *************************************************************
         *                GEOMETRY OPTIMIZATION CYCLE   2            *
         *************************************************************
---------------------------------
CARTESIAN COORDINATES (ANGSTROEM)
---------------------------------
  C    -0.650452   -0.037668   -0.114187
  C     0.636182   -0.083295   -0.090627
  O    -0.017383    1.194374    0.109584
  H    -1.566515   -0.557463   -0.224373
  H     1.598169   -0.515947   -0.140419

----------------------------
CARTESIAN COORDINATES (A.U.)
----------------------------
  NO LB    ZA    FRAG    MASS        X           Y           Z
   0 C   6.0000    1    12.011   -1.229177   -0.071182   -0.215783
   1 C   6.0000    1    12.011    1.202209   -0.157405   -0.171260
   2 O   8.0000    1    15.999   -0.032849    2.257039    0.207083
   3 H   1.0000    1     1.008   -2.960285   -1.053453   -0.424004
   4 H   1.0000    1     1.008    3.020102   -0.974999   -0.265354

      -----------------------------------------------------------      
     |                   =====================                   |     
     |                           x T B                           |     
     |                   =====================                   |     
     |                         S. Grimme                         |     
     |          Mulliken Center for Theoretical Chemistry        |     
     |                    University of Bonn                     |     
      -----------------------------------------------------------      

   * xtb version 6.7.1 (edcfbbe) compiled by 'albert@albert-system' on 2024-07-22

   xtb is free software: you can redistribute it and/or modify it under
   the terms of the GNU Lesser General Public License as published by
   the Free Software Foundation, either version 3 of the License, or
   (at your option) any later version.
   
   xtb is distributed in the hope that it will be useful,
   but WITHOUT ANY WARRANTY; without even the implied warranty of
   MERCHANTABILITY or FITNESS FOR A PARTICULAR PURPOSE.  See the
   GNU Lesser General Public License for more details.
   
   Cite this work as:
   * C. Bannwarth, E. Caldeweyher, S. Ehlert, A. Hansen, P. Pracht,
     J. Seibert, S. Spicher, S. Grimme, WIREs Comput. Mol. Sci., 2020, 11,
     e01493. DOI: 10.1002/wcms.1493
   
   for GFN2-xTB:
   * C. Bannwarth, S. Ehlert and S. Grimme., J. Chem. Theory Comput., 2019,
     15, 1652-1671. DOI: 10.1021/acs.jctc.8b01176
   for GFN1-xTB:
   * S. Grimme, C. Bannwarth, P. Shushkov, J. Chem. Theory Comput., 2017,
     13, 1989-2009. DOI: 10.1021/acs.jctc.7b00118
   for GFN0-xTB:
   * P. Pracht, E. Caldeweyher, S. Ehlert, S. Grimme, ChemRxiv, 2019, preprint.
     DOI: 10.26434/chemrxiv.8326202.v1
   for GFN-FF:
   * S. Spicher and S. Grimme, Angew. Chem. Int. Ed., 2020, 59, 15665-15673.
     DOI: 10.1002/anie.202004239
   
   for ALPB and GBSA implicit solvation:
   * S. Ehlert, M. Stahn, S. Spicher, S. Grimme, J. Chem. Theory Comput.,
     2021, 17, 4250-4261. DOI: 10.1021/acs.jctc.1c00471
   
   for ddCOSMO and CPCM-X implicit solvation:
   * M. Stahn, S. Ehlert, S. Grimme, J. Phys. Chem. A,
     2023, XX, XXXX-XXXX. DOI: 10.1021/acs.jpca.3c04382
   
   for DFT-D4:
   * E. Caldeweyher, C. Bannwarth and S. Grimme, J. Chem. Phys., 2017,
     147, 034112. DOI: 10.1063/1.4993215
   * E. Caldeweyher, S. Ehlert, A. Hansen, H. Neugebauer, S. Spicher,
     C. Bannwarth and S. Grimme, J. Chem. Phys., 2019, 150, 154122.
     DOI: 10.1063/1.5090222
   * E. Caldeweyher, J.-M. Mewes, S. Ehlert and S. Grimme, Phys. Chem. Chem. Phys.
     2020, 22, 8499-8512. DOI: 10.1039/D0CP00502A
   
   for sTDA-xTB:
   * S. Grimme and C. Bannwarth, J. Chem. Phys., 2016, 145, 054103.
     DOI: 10.1063/1.4959605
   
   in the mass-spec context:
   * V. Asgeirsson, C. Bauer and S. Grimme, Chem. Sci., 2017, 8, 4879.
     DOI: 10.1039/c7sc00601b
   * J. Koopman and S. Grimme, ACS Omega 2019, 4, 12, 15120-15133.
     DOI: 10.1021/acsomega.9b02011
   
   for metadynamics refer to:
   * S. Grimme, J. Chem. Theory Comput., 2019, 155, 2847-2862
     DOI: 10.1021/acs.jctc.9b00143
   
   for SPH calculations refer to:
   * S. Spicher and S. Grimme, J. Chem. Theory Comput., 2021, 17, 1701-1714
     DOI: 10.1021/acs.jctc.0c01306
   
   for ONIOM refer to:
   * C. Plett, A. Katbashev, S. Ehlert, S. Grimme, M. Bursch,
     Phys. Chem. Chem. Phys., 2023, 25, 17860-17868. DOI: 10.1039/D3CP02178E
   
   for DIPRO refer to:
   * J. Kohn, N. Gildemeister, S. Grimme, D. Fazzi, A. Hansen,
     J. Chem. Phys., 2023, just accepted.
   
   for PTB refer to:
   * S. Grimme, M. Mueller, A. Hansen, J. Chem. Phys., 2023, 158, 124111.
     DOI: 10.1063/5.0137838
   
   with help from (in alphabetical order)
   P. Atkinson, C. Bannwarth, F. Bohle, G. Brandenburg, E. Caldeweyher
   M. Checinski, S. Dohm, S. Ehlert, S. Ehrlich, I. Gerasimov, C. Hölzer
   A. Katbashev, J. Kohn, J. Koopman, C. Lavigne, S. Lehtola, F. März, M. Müller,
   F. Musil, H. Neugebauer, J. Pisarek, C. Plett, P. Pracht, F. Pultar,
   J. Seibert, P. Shushkov, S. Spicher, M. Stahn, M. Steiner, T. Strunk,
   J. Stückrath, T. Rose, and J. Unsleber
   
 * started run on 2026/03/06 at 18:05:58.586     
   ID    Z sym.   atoms
    1    6 C      1, 2
    2    8 O      3
    3    1 H      4, 5

           -------------------------------------------------
          |                Calculation Setup                |
           -------------------------------------------------

          program call               : /apps/eb/ORCA/6.1.1-gompi-2024a-avx2/bin/otool_xtb goat_XTB.xyz --grad -c 0 -u 0 -P 8 --namespace goat --input goat_XTB.input.tmp --acc 0.200000
          hostname                   : ra8-10
          calculation namespace      : goat
          coordinate file            : goat_XTB.xyz
          omp threads                :                     8


           -------------------------------------------------
          |                 G F N 2 - x T B                 |
           -------------------------------------------------

        Reference                      10.1021/acs.jctc.8b01176
      * Hamiltonian:
        H0-scaling (s, p, d)           1.850000    2.230000    2.230000
        zeta-weighting                 0.500000
      * Dispersion:
        s8                             2.700000
        a1                             0.520000
        a2                             5.000000
        s9                             5.000000
      * Repulsion:
        kExp                           1.500000    1.000000
        rExp                           1.000000
      * Coulomb:
        alpha                          2.000000
        third order                    shell-resolved
        anisotropic                    true
        a3                             3.000000
        a5                             4.000000
        cn-shift                       1.200000
        cn-exp                         4.000000
        max-rad                        5.000000

q/qsh data taken from xtbrestart
CAMM data taken from xtbrestart

          ...................................................
          :                      SETUP                      :
          :.................................................:
          :  # basis functions                  14          :
          :  # atomic orbitals                  14          :
          :  # shells                            8          :
          :  # electrons                        16          :
          :  max. iterations                   250          :
          :  Hamiltonian                  GFN2-xTB          :
          :  restarted?                       true          :
          :  GBSA solvation                  false          :
          :  PC potential                    false          :
          :  electronic temp.          300.0000000     K    :
          :  accuracy                    0.2000000          :
          :  -> integral cutoff          0.3198970E+02      :
          :  -> integral neglect         0.2000000E-08      :
          :  -> SCF convergence          0.2000000E-06 Eh   :
          :  -> wf. convergence          0.2000000E-04 e    :
          :  Broyden damping             0.4000000          :
          :  net charge                          0          :
          :  unpaired electrons                  0          :
          ...................................................

 iter      E             dE          RMSdq      gap      omega  full diag
   1     -9.3301077 -0.933011E+01  0.463E-01    3.12       0.0  T
   2     -9.3300595  0.482838E-04  0.358E-01    3.05       1.0  T
   3     -9.3302095 -0.150081E-03  0.255E-01    3.04       1.0  T
   4     -9.3303247 -0.115170E-03  0.505E-02    3.03       1.0  T
   5     -9.3303277 -0.299403E-05  0.154E-02    3.03       2.9  T
   6     -9.3303278 -0.929054E-07  0.514E-03    3.03       8.7  T
   7     -9.3303278 -0.118174E-07  0.256E-04    3.03     174.6  T
   8     -9.3303278 -0.412967E-10  0.133E-04    3.03     336.7  T
   9     -9.3303278 -0.692957E-11  0.231E-05    3.03    1935.2  T

   *** convergence criteria satisfied after 9 iterations ***

         #    Occupation            Energy/Eh            Energy/eV
      -------------------------------------------------------------
         1        2.0000           -0.7196871             -19.5837
         2        2.0000           -0.6361802             -17.3113
         3        2.0000           -0.6007428             -16.3470
         4        2.0000           -0.5481575             -14.9161
         5        2.0000           -0.5411273             -14.7248
         6        2.0000           -0.5145708             -14.0022
         7        2.0000           -0.4889781             -13.3058
         8        2.0000           -0.3632803              -9.8854 (HOMO)
         9                         -0.2520970              -6.8599 (LUMO)
        10                         -0.0894993              -2.4354
        11                         -0.0058729              -0.1598
        12                          0.0793721               2.1598
        13                          0.3045500               8.2872
        14                          0.9063948              24.6643
      -------------------------------------------------------------
                  HL-Gap            0.1111833 Eh            3.0255 eV
             Fermi-level           -0.3076886 Eh           -8.3726 eV

 SCC (total)                   0 d,  0 h,  0 min,  0.012 sec
 SCC setup                      ...        0 min,  0.000 sec (  1.205%)
 Dispersion                     ...        0 min,  0.000 sec (  0.289%)
 classical contributions        ...        0 min,  0.000 sec (  0.138%)
 integral evaluation            ...        0 min,  0.000 sec (  1.100%)
 iterations                     ...        0 min,  0.011 sec ( 89.340%)
 molecular gradient             ...        0 min,  0.001 sec (  7.264%)
 printout                       ...        0 min,  0.000 sec (  0.466%)

         :::::::::::::::::::::::::::::::::::::::::::::::::::::
         ::                     SUMMARY                     ::
         :::::::::::::::::::::::::::::::::::::::::::::::::::::
         :: total energy              -9.210128609641 Eh    ::
         :: gradient norm              0.068594202746 Eh/a0 ::
         :: HOMO-LUMO gap              3.025452449220 eV    ::
         ::.................................................::
         :: SCC energy                -9.330327773728 Eh    ::
         :: -> isotropic ES            0.023014871368 Eh    ::
         :: -> anisotropic ES         -0.000418895836 Eh    ::
         :: -> anisotropic XC          0.001949443118 Eh    ::
         :: -> dispersion             -0.001352000426 Eh    ::
         :: repulsion energy           0.120199164087 Eh    ::
         :: add. restraining           0.000000000000 Eh    ::
         :: total charge               0.000000000000 e     ::
         :::::::::::::::::::::::::::::::::::::::::::::::::::::


Property printout bound to 'properties.out'

           -------------------------------------------------
          | TOTAL ENERGY               -9.210128609641 Eh   |
          | GRADIENT NORM               0.068594202746 Eh/α |
          | HOMO-LUMO GAP               3.025452449220 eV   |
           -------------------------------------------------

------------------------------------------------------------------------
 * finished run on 2026/03/06 at 18:05:58.606     
------------------------------------------------------------------------
 total:
 * wall-time:     0 d,  0 h,  0 min,  0.019 sec
 *  cpu-time:     0 d,  0 h,  0 min,  0.128 sec
 * ratio c/w:     6.704 speedup
 SCF:
 * wall-time:     0 d,  0 h,  0 min,  0.013 sec
 *  cpu-time:     0 d,  0 h,  0 min,  0.088 sec
 * ratio c/w:     7.009 speedup


-------------------------   --------------------
FINAL SINGLE POINT ENERGY        -9.210128609640
-------------------------   --------------------


-------------
DIPOLE MOMENT
-------------
                                X             Y             Z
Total Dipole Moment    :     -0.01600      -1.05100      -0.17800
                        -----------------------------------------
Magnitude (a.u.)       :      1.06609
Magnitude (Debye)      :      2.70978


------------------
CARTESIAN GRADIENT
------------------

   1   C   :   -0.016996989    0.037370088    0.005907431
   2   C   :    0.013664543    0.025549263    0.004653494
   3   O   :    0.000502813   -0.042755964   -0.007219312
   4   H   :    0.004799555   -0.012000615   -0.001913081
   5   H   :   -0.001969922   -0.008162772   -0.001428532

Difference to translation invariance:
           :   -0.0000000000   -0.0000000000    0.0000000000

Difference to rotation invariance:
           :    0.0000000004    0.0000000031   -0.0000000184

Norm of the Cartesian gradient     ...    0.0685942027
RMS gradient                       ...    0.0177109470
MAX gradient                       ...    0.0427559637
------------------------------------------------------------------------------
                         ORCA GEOMETRY RELAXATION STEP
------------------------------------------------------------------------------

Reading the OPT-File                    .... done
Getting information on internals        .... done
Copying old internal coords+grads       .... done
Making the new internal coordinates     .... (2022 redundants) done
Validating the new internal coordinates .... (2022 redundants) done
Calculating the B-matrix                .... done
Calculating the G,G- and P matrices     .... done
Transforming gradient to internals      .... done
Projecting the internal gradient        .... done
Number of atoms                         ....   5
Number of internal coordinates          ....  17
Current Energy                          ....    -9.210128610 Eh
Current gradient norm                   ....     0.068594203 Eh/bohr
Maximum allowed component of the step   ....  0.300
Current trust radius                    ....  0.300
Updating the Hessian (BFGS)             .... done
Forming the augmented Hessian           .... done
Diagonalizing the augmented Hessian     .... done
Last element of RFO vector              ....  0.991423815
Lowest eigenvalues of augmented Hessian:
 -0.005016216  0.039274498  0.044543926  0.271781530  0.354435904
Length of the computed step             ....  0.131816441
The final length of the internal step   ....  0.131816441
Converting the step to Cartesian space:
 Initial RMS(Int)=    0.0319701829
Transforming coordinates:
 Iter   0:  RMS(Cart)=    0.0209650307 RMS(Int)=    0.0319294928
done
Storing new coordinates                 .... done
The predicted energy change is          ....    -0.002551688
Previously predicted energy change      ....    -0.010994915
Actually observed energy change         ....    -0.013885133
Ratio of predicted to observed change   ....     1.262868661
New trust radius                        ....     0.300000000

                                .--------------------.
          ----------------------|Geometry convergence|-------------------------
          Item                value                   Tolerance       Converged
          ---------------------------------------------------------------------
          Energy change      -0.0138851332            0.0000050000      NO
          RMS gradient        0.0094038613            0.0001000000      NO
          MAX gradient        0.0195491637            0.0003000000      NO
          RMS step            0.0319701829            0.0020000000      NO
          MAX step            0.0627926775            0.0040000000      NO
          -------------------------------------------------------------------------
          ........................................................
          Max(Bonds)      0.0292      Max(Angles)    3.60
          Max(Dihed)        0.00      Max(Improp)    0.00
          ---------------------------------------------------------------------

    ---------------------------------------------------------------------------
                         Redundant Internal Coordinates
                            (Angstroem and degrees)

        Definition                    Value    dE/dq     Step     New-Value
    ----------------------------------------------------------------------------
     1. B(C   1,C   0)                1.2877  0.010360 -0.0142    1.2734   
     2. B(O   2,C   1)                1.4490 -0.017636  0.0291    1.4782   
     3. B(O   2,C   0)                1.4031 -0.019549  0.0292    1.4323   
     4. B(H   3,C   0)                1.0590  0.001938 -0.0064    1.0526   
     5. B(H   4,C   1)                1.0560  0.001617 -0.0056    1.0504   
     6. A(C   1,C   0,O   2)           65.00 -0.005158    0.99     65.99   
     7. A(O   2,C   0,H   3)          146.91  0.015508   -3.60    143.32   
     8. A(C   1,C   0,H   3)          148.09 -0.010350    2.61    150.70   
     9. A(C   0,C   1,H   4)          157.51 -0.005289    1.57    159.07   
    10. A(C   0,C   1,O   2)           61.35 -0.006110    0.92     62.28   
    11. A(O   2,C   1,H   4)          141.14  0.011399   -2.49    138.65   
    12. A(C   0,O   2,C   1)           53.65  0.011268   -1.91     51.74   
    13. D(O   2,C   1,C   0,H   3)    180.00  0.000000    0.00    180.00   
    14. D(H   4,C   1,C   0,H   3)      0.00 -0.000000    0.00      0.00   
    15. D(H   4,C   1,C   0,O   2)   -180.00 -0.000000   -0.00   -180.00   
    16. D(C   0,O   2,C   1,H   4)    180.00 -0.000000    0.00    180.00   
    17. D(C   1,O   2,C   0,H   3)   -180.00  0.000000   -0.00   -180.00   
    ----------------------------------------------------------------------------

Geometry step timings:
Preparation and reading OPT file:      0.000 s ( 2.610 %)
Internal coordinates            :      0.000 s ( 2.936 %)
B/P matrices and projection     :      0.000 s (12.235 %)
Hessian update/contruction      :      0.000 s (36.868 %)
Making the step                 :      0.000 s (11.256 %)
Converting the step to Cartesian:      0.000 s ( 3.100 %)
Storing new data                :      0.000 s ( 3.589 %)
Checking convergence            :      0.000 s ( 6.036 %)
Final printing                  :      0.000 s (21.370 %)
Total time                      :      0.001 s

Time for energy+gradient        :      0.030 s
Time for complete geometry iter :      0.031 s

         *************************************************************
         *                GEOMETRY OPTIMIZATION CYCLE   3            *
         *************************************************************
---------------------------------
CARTESIAN COORDINATES (ANGSTROEM)
---------------------------------
  C    -0.640479   -0.062317   -0.118114
  C     0.631492   -0.102548   -0.093997
  O    -0.020256    1.208407    0.111887
  H    -1.572340   -0.540650   -0.221671
  H     1.601583   -0.502891   -0.138128

----------------------------
CARTESIAN COORDINATES (A.U.)
----------------------------
  NO LB    ZA    FRAG    MASS        X           Y           Z
   0 C   6.0000    1    12.011   -1.210330   -0.117762   -0.223204
   1 C   6.0000    1    12.011    1.193346   -0.193788   -0.177629
   2 O   8.0000    1    15.999   -0.038279    2.283559    0.211437
   3 H   1.0000    1     1.008   -2.971291   -1.021681   -0.418898
   4 H   1.0000    1     1.008    3.026553   -0.950327   -0.261024

      -----------------------------------------------------------      
     |                   =====================                   |     
     |                           x T B                           |     
     |                   =====================                   |     
     |                         S. Grimme                         |     
     |          Mulliken Center for Theoretical Chemistry        |     
     |                    University of Bonn                     |     
      -----------------------------------------------------------      

   * xtb version 6.7.1 (edcfbbe) compiled by 'albert@albert-system' on 2024-07-22

   xtb is free software: you can redistribute it and/or modify it under
   the terms of the GNU Lesser General Public License as published by
   the Free Software Foundation, either version 3 of the License, or
   (at your option) any later version.
   
   xtb is distributed in the hope that it will be useful,
   but WITHOUT ANY WARRANTY; without even the implied warranty of
   MERCHANTABILITY or FITNESS FOR A PARTICULAR PURPOSE.  See the
   GNU Lesser General Public License for more details.
   
   Cite this work as:
   * C. Bannwarth, E. Caldeweyher, S. Ehlert, A. Hansen, P. Pracht,
     J. Seibert, S. Spicher, S. Grimme, WIREs Comput. Mol. Sci., 2020, 11,
     e01493. DOI: 10.1002/wcms.1493
   
   for GFN2-xTB:
   * C. Bannwarth, S. Ehlert and S. Grimme., J. Chem. Theory Comput., 2019,
     15, 1652-1671. DOI: 10.1021/acs.jctc.8b01176
   for GFN1-xTB:
   * S. Grimme, C. Bannwarth, P. Shushkov, J. Chem. Theory Comput., 2017,
     13, 1989-2009. DOI: 10.1021/acs.jctc.7b00118
   for GFN0-xTB:
   * P. Pracht, E. Caldeweyher, S. Ehlert, S. Grimme, ChemRxiv, 2019, preprint.
     DOI: 10.26434/chemrxiv.8326202.v1
   for GFN-FF:
   * S. Spicher and S. Grimme, Angew. Chem. Int. Ed., 2020, 59, 15665-15673.
     DOI: 10.1002/anie.202004239
   
   for ALPB and GBSA implicit solvation:
   * S. Ehlert, M. Stahn, S. Spicher, S. Grimme, J. Chem. Theory Comput.,
     2021, 17, 4250-4261. DOI: 10.1021/acs.jctc.1c00471
   
   for ddCOSMO and CPCM-X implicit solvation:
   * M. Stahn, S. Ehlert, S. Grimme, J. Phys. Chem. A,
     2023, XX, XXXX-XXXX. DOI: 10.1021/acs.jpca.3c04382
   
   for DFT-D4:
   * E. Caldeweyher, C. Bannwarth and S. Grimme, J. Chem. Phys., 2017,
     147, 034112. DOI: 10.1063/1.4993215
   * E. Caldeweyher, S. Ehlert, A. Hansen, H. Neugebauer, S. Spicher,
     C. Bannwarth and S. Grimme, J. Chem. Phys., 2019, 150, 154122.
     DOI: 10.1063/1.5090222
   * E. Caldeweyher, J.-M. Mewes, S. Ehlert and S. Grimme, Phys. Chem. Chem. Phys.
     2020, 22, 8499-8512. DOI: 10.1039/D0CP00502A
   
   for sTDA-xTB:
   * S. Grimme and C. Bannwarth, J. Chem. Phys., 2016, 145, 054103.
     DOI: 10.1063/1.4959605
   
   in the mass-spec context:
   * V. Asgeirsson, C. Bauer and S. Grimme, Chem. Sci., 2017, 8, 4879.
     DOI: 10.1039/c7sc00601b
   * J. Koopman and S. Grimme, ACS Omega 2019, 4, 12, 15120-15133.
     DOI: 10.1021/acsomega.9b02011
   
   for metadynamics refer to:
   * S. Grimme, J. Chem. Theory Comput., 2019, 155, 2847-2862
     DOI: 10.1021/acs.jctc.9b00143
   
   for SPH calculations refer to:
   * S. Spicher and S. Grimme, J. Chem. Theory Comput., 2021, 17, 1701-1714
     DOI: 10.1021/acs.jctc.0c01306
   
   for ONIOM refer to:
   * C. Plett, A. Katbashev, S. Ehlert, S. Grimme, M. Bursch,
     Phys. Chem. Chem. Phys., 2023, 25, 17860-17868. DOI: 10.1039/D3CP02178E
   
   for DIPRO refer to:
   * J. Kohn, N. Gildemeister, S. Grimme, D. Fazzi, A. Hansen,
     J. Chem. Phys., 2023, just accepted.
   
   for PTB refer to:
   * S. Grimme, M. Mueller, A. Hansen, J. Chem. Phys., 2023, 158, 124111.
     DOI: 10.1063/5.0137838
   
   with help from (in alphabetical order)
   P. Atkinson, C. Bannwarth, F. Bohle, G. Brandenburg, E. Caldeweyher
   M. Checinski, S. Dohm, S. Ehlert, S. Ehrlich, I. Gerasimov, C. Hölzer
   A. Katbashev, J. Kohn, J. Koopman, C. Lavigne, S. Lehtola, F. März, M. Müller,
   F. Musil, H. Neugebauer, J. Pisarek, C. Plett, P. Pracht, F. Pultar,
   J. Seibert, P. Shushkov, S. Spicher, M. Stahn, M. Steiner, T. Strunk,
   J. Stückrath, T. Rose, and J. Unsleber
   
 * started run on 2026/03/06 at 18:05:58.617     
   ID    Z sym.   atoms
    1    6 C      1, 2
    2    8 O      3
    3    1 H      4, 5

           -------------------------------------------------
          |                Calculation Setup                |
           -------------------------------------------------

          program call               : /apps/eb/ORCA/6.1.1-gompi-2024a-avx2/bin/otool_xtb goat_XTB.xyz --grad -c 0 -u 0 -P 8 --namespace goat --input goat_XTB.input.tmp --acc 0.200000
          hostname                   : ra8-10
          calculation namespace      : goat
          coordinate file            : goat_XTB.xyz
          omp threads                :                     8


           -------------------------------------------------
          |                 G F N 2 - x T B                 |
           -------------------------------------------------

        Reference                      10.1021/acs.jctc.8b01176
      * Hamiltonian:
        H0-scaling (s, p, d)           1.850000    2.230000    2.230000
        zeta-weighting                 0.500000
      * Dispersion:
        s8                             2.700000
        a1                             0.520000
        a2                             5.000000
        s9                             5.000000
      * Repulsion:
        kExp                           1.500000    1.000000
        rExp                           1.000000
      * Coulomb:
        alpha                          2.000000
        third order                    shell-resolved
        anisotropic                    true
        a3                             3.000000
        a5                             4.000000
        cn-shift                       1.200000
        cn-exp                         4.000000
        max-rad                        5.000000

q/qsh data taken from xtbrestart
CAMM data taken from xtbrestart

          ...................................................
          :                      SETUP                      :
          :.................................................:
          :  # basis functions                  14          :
          :  # atomic orbitals                  14          :
          :  # shells                            8          :
          :  # electrons                        16          :
          :  max. iterations                   250          :
          :  Hamiltonian                  GFN2-xTB          :
          :  restarted?                       true          :
          :  GBSA solvation                  false          :
          :  PC potential                    false          :
          :  electronic temp.          300.0000000     K    :
          :  accuracy                    0.2000000          :
          :  -> integral cutoff          0.3198970E+02      :
          :  -> integral neglect         0.2000000E-08      :
          :  -> SCF convergence          0.2000000E-06 Eh   :
          :  -> wf. convergence          0.2000000E-04 e    :
          :  Broyden damping             0.4000000          :
          :  net charge                          0          :
          :  unpaired electrons                  0          :
          ...................................................

 iter      E             dE          RMSdq      gap      omega  full diag
   1     -9.3390757 -0.933908E+01  0.343E-01    3.38       0.0  T
   2     -9.3390986 -0.228927E-04  0.214E-01    3.33       1.0  T
   3     -9.3390898  0.881240E-05  0.181E-01    3.32       1.0  T
   4     -9.3391714 -0.815706E-04  0.399E-02    3.32       1.1  T
   5     -9.3391731 -0.173314E-05  0.781E-03    3.32       5.7  T
   6     -9.3391731 -0.283487E-07  0.278E-03    3.32      16.1  T
   7     -9.3391731 -0.299996E-08  0.223E-04    3.32     200.1  T
   8     -9.3391731 -0.230163E-10  0.103E-04    3.32     433.7  T
   9     -9.3391731 -0.407674E-11  0.139E-05    3.32    3216.0  T

   *** convergence criteria satisfied after 9 iterations ***

         #    Occupation            Energy/Eh            Energy/eV
      -------------------------------------------------------------
         1        2.0000           -0.7165193             -19.4975
         2        2.0000           -0.6366656             -17.3246
         3        2.0000           -0.6007851             -16.3482
         4        2.0000           -0.5490939             -14.9416
         5        2.0000           -0.5377312             -14.6324
         6        2.0000           -0.5091282             -13.8541
         7        2.0000           -0.4947959             -13.4641
         8        2.0000           -0.3715449             -10.1103 (HOMO)
         9                         -0.2496453              -6.7932 (LUMO)
        10                         -0.1028758              -2.7994
        11                         -0.0288167              -0.7841
        12                          0.0801490               2.1810
        13                          0.2959528               8.0533
        14                          0.9657201              26.2786
      -------------------------------------------------------------
                  HL-Gap            0.1218995 Eh            3.3171 eV
             Fermi-level           -0.3105951 Eh           -8.4517 eV

 SCC (total)                   0 d,  0 h,  0 min,  0.010 sec
 SCC setup                      ...        0 min,  0.000 sec (  1.582%)
 Dispersion                     ...        0 min,  0.000 sec (  1.291%)
 classical contributions        ...        0 min,  0.000 sec (  0.809%)
 integral evaluation            ...        0 min,  0.000 sec (  1.861%)
 iterations                     ...        0 min,  0.009 sec ( 87.122%)
 molecular gradient             ...        0 min,  0.001 sec (  6.494%)
 printout                       ...        0 min,  0.000 sec (  0.589%)

         :::::::::::::::::::::::::::::::::::::::::::::::::::::
         ::                     SUMMARY                     ::
         :::::::::::::::::::::::::::::::::::::::::::::::::::::
         :: total energy              -9.213477015129 Eh    ::
         :: gradient norm              0.022640194304 Eh/a0 ::
         :: HOMO-LUMO gap              3.317055203325 eV    ::
         ::.................................................::
         :: SCC energy                -9.339173102799 Eh    ::
         :: -> isotropic ES            0.024909083568 Eh    ::
         :: -> anisotropic ES         -0.001006702198 Eh    ::
         :: -> anisotropic XC          0.002768942514 Eh    ::
         :: -> dispersion             -0.001347681103 Eh    ::
         :: repulsion energy           0.125696087670 Eh    ::
         :: add. restraining           0.000000000000 Eh    ::
         :: total charge              -0.000000000000 e     ::
         :::::::::::::::::::::::::::::::::::::::::::::::::::::


Property printout bound to 'properties.out'

           -------------------------------------------------
          | TOTAL ENERGY               -9.213477015129 Eh   |
          | GRADIENT NORM               0.022640194304 Eh/α |
          | HOMO-LUMO GAP               3.317055203325 eV   |
           -------------------------------------------------

------------------------------------------------------------------------
 * finished run on 2026/03/06 at 18:05:58.633     
------------------------------------------------------------------------
 total:
 * wall-time:     0 d,  0 h,  0 min,  0.015 sec
 *  cpu-time:     0 d,  0 h,  0 min,  0.092 sec
 * ratio c/w:     6.118 speedup
 SCF:
 * wall-time:     0 d,  0 h,  0 min,  0.010 sec
 *  cpu-time:     0 d,  0 h,  0 min,  0.066 sec
 * ratio c/w:     6.499 speedup


-------------------------   --------------------
FINAL SINGLE POINT ENERGY        -9.213477015130
-------------------------   --------------------


-------------
DIPOLE MOMENT
-------------
                                X             Y             Z
Total Dipole Moment    :     -0.00600      -1.09800      -0.18600
                        -----------------------------------------
Magnitude (a.u.)       :      1.11366
Magnitude (Debye)      :      2.83070


------------------
CARTESIAN GRADIENT
------------------

   1   C   :   -0.005070694    0.013839293    0.002217467
   2   C   :    0.002088729    0.006697584    0.001183605
   3   O   :    0.000686392   -0.007076909   -0.001180276
   4   H   :    0.007807733   -0.008043738   -0.001170697
   5   H   :   -0.005512160   -0.005416230   -0.001050099

Difference to translation invariance:
           :    0.0000000000    0.0000000000    0.0000000000

Difference to rotation invariance:
           :    0.0000000003    0.0000000020   -0.0000000119

Norm of the Cartesian gradient     ...    0.0226401943
RMS gradient                       ...    0.0058456730
MAX gradient                       ...    0.0138392931
------------------------------------------------------------------------------
                         ORCA GEOMETRY RELAXATION STEP
------------------------------------------------------------------------------

Reading the OPT-File                    .... done
Getting information on internals        .... done
Copying old internal coords+grads       .... done
Making the new internal coordinates     .... (2022 redundants) done
Validating the new internal coordinates .... (2022 redundants) done
Calculating the B-matrix                .... done
Calculating the G,G- and P matrices     .... done
Transforming gradient to internals      .... done
Projecting the internal gradient        .... done
Number of atoms                         ....   5
Number of internal coordinates          ....  17
Current Energy                          ....    -9.213477015 Eh
Current gradient norm                   ....     0.022640194 Eh/bohr
Maximum allowed component of the step   ....  0.300
Current trust radius                    ....  0.300
Updating the Hessian (BFGS)             .... done
Forming the augmented Hessian           .... done
Diagonalizing the augmented Hessian     .... done
Last element of RFO vector              ....  0.993014587
Lowest eigenvalues of augmented Hessian:
 -0.002132711  0.039274498  0.044543926  0.141938396  0.354332549
Length of the computed step             ....  0.118821669
The final length of the internal step   ....  0.118821669
Converting the step to Cartesian space:
 Initial RMS(Int)=    0.0288184878
Transforming coordinates:
 Iter   0:  RMS(Cart)=    0.0280066941 RMS(Int)=    0.0287939081
 Iter   5:  RMS(Cart)=    0.0000000062 RMS(Int)=    0.0000000063
done
Storing new coordinates                 .... done
The predicted energy change is          ....    -0.001081411
Previously predicted energy change      ....    -0.002551688
Actually observed energy change         ....    -0.003348405
Ratio of predicted to observed change   ....     1.312231611
New trust radius                        ....     0.300000000

                                .--------------------.
          ----------------------|Geometry convergence|-------------------------
          Item                value                   Tolerance       Converged
          ---------------------------------------------------------------------
          Energy change      -0.0033484055            0.0000050000      NO
          RMS gradient        0.0047741610            0.0001000000      NO
          MAX gradient        0.0111288650            0.0003000000      NO
          RMS step            0.0288184878            0.0020000000      NO
          MAX step            0.0670117942            0.0040000000      NO
          -------------------------------------------------------------------------
          ........................................................
          Max(Bonds)      0.0170      Max(Angles)    3.84
          Max(Dihed)        0.00      Max(Improp)    0.00
          ---------------------------------------------------------------------

    ---------------------------------------------------------------------------
                         Redundant Internal Coordinates
                            (Angstroem and degrees)

        Definition                    Value    dE/dq     Step     New-Value
    ----------------------------------------------------------------------------
     1. B(C   1,C   0)                1.2728 -0.004337 -0.0028    1.2700   
     2. B(O   2,C   1)                1.4784 -0.002322  0.0164    1.4948   
     3. B(O   2,C   0)                1.4326 -0.002994  0.0170    1.4496   
     4. B(H   3,C   0)                1.0526 -0.003142  0.0019    1.0545   
     5. B(H   4,C   1)                1.0504 -0.002982  0.0019    1.0522   
     6. A(C   1,C   0,O   2)           65.94  0.000728    0.35     66.30   
     7. A(O   2,C   0,H   3)          143.34  0.010401   -3.84    139.50   
     8. A(C   1,C   0,H   3)          150.72 -0.011129    3.49    154.20   
     9. A(C   0,C   1,H   4)          159.10 -0.007199    2.24    161.34   
    10. A(C   0,C   1,O   2)           62.23  0.000095    0.39     62.61   
    11. A(O   2,C   1,H   4)          138.67  0.007104   -2.63    136.05   
    12. A(C   0,O   2,C   1)           51.83 -0.000823   -0.74     51.09   
    13. D(O   2,C   1,C   0,H   3)    180.00  0.000000    0.00    180.00   
    14. D(H   4,C   1,C   0,H   3)      0.00 -0.000000    0.00      0.00   
    15. D(H   4,C   1,C   0,O   2)   -180.00 -0.000000   -0.00   -180.00   
    16. D(C   0,O   2,C   1,H   4)    180.00 -0.000000    0.00    180.00   
    17. D(C   1,O   2,C   0,H   3)   -180.00  0.000000   -0.00   -180.00   
    ----------------------------------------------------------------------------

Geometry step timings:
Preparation and reading OPT file:      0.000 s ( 3.036 %)
Internal coordinates            :      0.000 s ( 3.644 %)
B/P matrices and projection     :      0.000 s (14.170 %)
Hessian update/contruction      :      0.000 s (26.113 %)
Making the step                 :      0.000 s (11.943 %)
Converting the step to Cartesian:      0.000 s ( 4.858 %)
Storing new data                :      0.000 s ( 3.846 %)
Checking convergence            :      0.000 s ( 6.680 %)
Final printing                  :      0.000 s (25.709 %)
Total time                      :      0.000 s

Time for energy+gradient        :      0.025 s
Time for complete geometry iter :      0.026 s

         *************************************************************
         *                GEOMETRY OPTIMIZATION CYCLE   4            *
         *************************************************************
---------------------------------
CARTESIAN COORDINATES (ANGSTROEM)
---------------------------------
  C    -0.636188   -0.087755   -0.122312
  C     0.633198   -0.121917   -0.097232
  O    -0.023018    1.204842    0.111217
  H    -1.595711   -0.514539   -0.217823
  H     1.621718   -0.480630   -0.133873

----------------------------
CARTESIAN COORDINATES (A.U.)
----------------------------
  NO LB    ZA    FRAG    MASS        X           Y           Z
   0 C   6.0000    1    12.011   -1.202220   -0.165832   -0.231137
   1 C   6.0000    1    12.011    1.196570   -0.230391   -0.183742
   2 O   8.0000    1    15.999   -0.043497    2.276821    0.210170
   3 H   1.0000    1     1.008   -3.015456   -0.972338   -0.411625
   4 H   1.0000    1     1.008    3.064603   -0.908260   -0.252983

      -----------------------------------------------------------      
     |                   =====================                   |     
     |                           x T B                           |     
     |                   =====================                   |     
     |                         S. Grimme                         |     
     |          Mulliken Center for Theoretical Chemistry        |     
     |                    University of Bonn                     |     
      -----------------------------------------------------------      

   * xtb version 6.7.1 (edcfbbe) compiled by 'albert@albert-system' on 2024-07-22

   xtb is free software: you can redistribute it and/or modify it under
   the terms of the GNU Lesser General Public License as published by
   the Free Software Foundation, either version 3 of the License, or
   (at your option) any later version.
   
   xtb is distributed in the hope that it will be useful,
   but WITHOUT ANY WARRANTY; without even the implied warranty of
   MERCHANTABILITY or FITNESS FOR A PARTICULAR PURPOSE.  See the
   GNU Lesser General Public License for more details.
   
   Cite this work as:
   * C. Bannwarth, E. Caldeweyher, S. Ehlert, A. Hansen, P. Pracht,
     J. Seibert, S. Spicher, S. Grimme, WIREs Comput. Mol. Sci., 2020, 11,
     e01493. DOI: 10.1002/wcms.1493
   
   for GFN2-xTB:
   * C. Bannwarth, S. Ehlert and S. Grimme., J. Chem. Theory Comput., 2019,
     15, 1652-1671. DOI: 10.1021/acs.jctc.8b01176
   for GFN1-xTB:
   * S. Grimme, C. Bannwarth, P. Shushkov, J. Chem. Theory Comput., 2017,
     13, 1989-2009. DOI: 10.1021/acs.jctc.7b00118
   for GFN0-xTB:
   * P. Pracht, E. Caldeweyher, S. Ehlert, S. Grimme, ChemRxiv, 2019, preprint.
     DOI: 10.26434/chemrxiv.8326202.v1
   for GFN-FF:
   * S. Spicher and S. Grimme, Angew. Chem. Int. Ed., 2020, 59, 15665-15673.
     DOI: 10.1002/anie.202004239
   
   for ALPB and GBSA implicit solvation:
   * S. Ehlert, M. Stahn, S. Spicher, S. Grimme, J. Chem. Theory Comput.,
     2021, 17, 4250-4261. DOI: 10.1021/acs.jctc.1c00471
   
   for ddCOSMO and CPCM-X implicit solvation:
   * M. Stahn, S. Ehlert, S. Grimme, J. Phys. Chem. A,
     2023, XX, XXXX-XXXX. DOI: 10.1021/acs.jpca.3c04382
   
   for DFT-D4:
   * E. Caldeweyher, C. Bannwarth and S. Grimme, J. Chem. Phys., 2017,
     147, 034112. DOI: 10.1063/1.4993215
   * E. Caldeweyher, S. Ehlert, A. Hansen, H. Neugebauer, S. Spicher,
     C. Bannwarth and S. Grimme, J. Chem. Phys., 2019, 150, 154122.
     DOI: 10.1063/1.5090222
   * E. Caldeweyher, J.-M. Mewes, S. Ehlert and S. Grimme, Phys. Chem. Chem. Phys.
     2020, 22, 8499-8512. DOI: 10.1039/D0CP00502A
   
   for sTDA-xTB:
   * S. Grimme and C. Bannwarth, J. Chem. Phys., 2016, 145, 054103.
     DOI: 10.1063/1.4959605
   
   in the mass-spec context:
   * V. Asgeirsson, C. Bauer and S. Grimme, Chem. Sci., 2017, 8, 4879.
     DOI: 10.1039/c7sc00601b
   * J. Koopman and S. Grimme, ACS Omega 2019, 4, 12, 15120-15133.
     DOI: 10.1021/acsomega.9b02011
   
   for metadynamics refer to:
   * S. Grimme, J. Chem. Theory Comput., 2019, 155, 2847-2862
     DOI: 10.1021/acs.jctc.9b00143
   
   for SPH calculations refer to:
   * S. Spicher and S. Grimme, J. Chem. Theory Comput., 2021, 17, 1701-1714
     DOI: 10.1021/acs.jctc.0c01306
   
   for ONIOM refer to:
   * C. Plett, A. Katbashev, S. Ehlert, S. Grimme, M. Bursch,
     Phys. Chem. Chem. Phys., 2023, 25, 17860-17868. DOI: 10.1039/D3CP02178E
   
   for DIPRO refer to:
   * J. Kohn, N. Gildemeister, S. Grimme, D. Fazzi, A. Hansen,
     J. Chem. Phys., 2023, just accepted.
   
   for PTB refer to:
   * S. Grimme, M. Mueller, A. Hansen, J. Chem. Phys., 2023, 158, 124111.
     DOI: 10.1063/5.0137838
   
   with help from (in alphabetical order)
   P. Atkinson, C. Bannwarth, F. Bohle, G. Brandenburg, E. Caldeweyher
   M. Checinski, S. Dohm, S. Ehlert, S. Ehrlich, I. Gerasimov, C. Hölzer
   A. Katbashev, J. Kohn, J. Koopman, C. Lavigne, S. Lehtola, F. März, M. Müller,
   F. Musil, H. Neugebauer, J. Pisarek, C. Plett, P. Pracht, F. Pultar,
   J. Seibert, P. Shushkov, S. Spicher, M. Stahn, M. Steiner, T. Strunk,
   J. Stückrath, T. Rose, and J. Unsleber
   
 * started run on 2026/03/06 at 18:05:58.644     
   ID    Z sym.   atoms
    1    6 C      1, 2
    2    8 O      3
    3    1 H      4, 5

           -------------------------------------------------
          |                Calculation Setup                |
           -------------------------------------------------

          program call               : /apps/eb/ORCA/6.1.1-gompi-2024a-avx2/bin/otool_xtb goat_XTB.xyz --grad -c 0 -u 0 -P 8 --namespace goat --input goat_XTB.input.tmp --acc 0.200000
          hostname                   : ra8-10
          calculation namespace      : goat
          coordinate file            : goat_XTB.xyz
          omp threads                :                     8


           -------------------------------------------------
          |                 G F N 2 - x T B                 |
           -------------------------------------------------

        Reference                      10.1021/acs.jctc.8b01176
      * Hamiltonian:
        H0-scaling (s, p, d)           1.850000    2.230000    2.230000
        zeta-weighting                 0.500000
      * Dispersion:
        s8                             2.700000
        a1                             0.520000
        a2                             5.000000
        s9                             5.000000
      * Repulsion:
        kExp                           1.500000    1.000000
        rExp                           1.000000
      * Coulomb:
        alpha                          2.000000
        third order                    shell-resolved
        anisotropic                    true
        a3                             3.000000
        a5                             4.000000
        cn-shift                       1.200000
        cn-exp                         4.000000
        max-rad                        5.000000

q/qsh data taken from xtbrestart
CAMM data taken from xtbrestart

          ...................................................
          :                      SETUP                      :
          :.................................................:
          :  # basis functions                  14          :
          :  # atomic orbitals                  14          :
          :  # shells                            8          :
          :  # electrons                        16          :
          :  max. iterations                   250          :
          :  Hamiltonian                  GFN2-xTB          :
          :  restarted?                       true          :
          :  GBSA solvation                  false          :
          :  PC potential                    false          :
          :  electronic temp.          300.0000000     K    :
          :  accuracy                    0.2000000          :
          :  -> integral cutoff          0.3198970E+02      :
          :  -> integral neglect         0.2000000E-08      :
          :  -> SCF convergence          0.2000000E-06 Eh   :
          :  -> wf. convergence          0.2000000E-04 e    :
          :  Broyden damping             0.4000000          :
          :  net charge                          0          :
          :  unpaired electrons                  0          :
          ...................................................

 iter      E             dE          RMSdq      gap      omega  full diag
   1     -9.3399326 -0.933993E+01  0.385E-01    3.45       0.0  T
   2     -9.3399501 -0.174554E-04  0.219E-01    3.40       1.0  T
   3     -9.3398527  0.974409E-04  0.193E-01    3.40       1.0  T
   4     -9.3399745 -0.121836E-03  0.311E-02    3.40       1.4  T
   5     -9.3399764 -0.191346E-05  0.411E-03    3.40      10.9  T
   6     -9.3399764 -0.108038E-07  0.113E-03    3.40      39.7  T
   7     -9.3399764 -0.323197E-09  0.147E-04    3.40     305.2  T
   8     -9.3399764 -0.829914E-11  0.779E-05    3.40     574.2  T

   *** convergence criteria satisfied after 8 iterations ***

         #    Occupation            Energy/Eh            Energy/eV
      -------------------------------------------------------------
         1        2.0000           -0.7140956             -19.4315
         2        2.0000           -0.6358725             -17.3030
         3        2.0000           -0.6005906             -16.3429
         4        2.0000           -0.5483972             -14.9226
         5        2.0000           -0.5351947             -14.5634
         6        2.0000           -0.5060949             -13.7715
         7        2.0000           -0.4971108             -13.5271
         8        2.0000           -0.3747979             -10.1988 (HOMO)
         9                         -0.2498498              -6.7988 (LUMO)
        10                         -0.1071206              -2.9149
        11                         -0.0389360              -1.0595
        12                          0.0625638               1.7024
        13                          0.2818608               7.6698
        14                          0.9860302              26.8312
      -------------------------------------------------------------
                  HL-Gap            0.1249482 Eh            3.4000 eV
             Fermi-level           -0.3123238 Eh           -8.4988 eV

 SCC (total)                   0 d,  0 h,  0 min,  0.009 sec
 SCC setup                      ...        0 min,  0.000 sec (  1.669%)
 Dispersion                     ...        0 min,  0.000 sec (  0.393%)
 classical contributions        ...        0 min,  0.000 sec (  0.203%)
 integral evaluation            ...        0 min,  0.000 sec (  1.466%)
 iterations                     ...        0 min,  0.008 sec ( 88.331%)
 molecular gradient             ...        0 min,  0.001 sec (  6.977%)
 printout                       ...        0 min,  0.000 sec (  0.705%)

         :::::::::::::::::::::::::::::::::::::::::::::::::::::
         ::                     SUMMARY                     ::
         :::::::::::::::::::::::::::::::::::::::::::::::::::::
         :: total energy              -9.215009015874 Eh    ::
         :: gradient norm              0.013957492448 Eh/a0 ::
         :: HOMO-LUMO gap              3.400012472684 eV    ::
         ::.................................................::
         :: SCC energy                -9.339976385985 Eh    ::
         :: -> isotropic ES            0.026345053851 Eh    ::
         :: -> anisotropic ES         -0.001686324697 Eh    ::
         :: -> anisotropic XC          0.003444241559 Eh    ::
         :: -> dispersion             -0.001343649367 Eh    ::
         :: repulsion energy           0.124967370112 Eh    ::
         :: add. restraining           0.000000000000 Eh    ::
         :: total charge               0.000000000000 e     ::
         :::::::::::::::::::::::::::::::::::::::::::::::::::::


Property printout bound to 'properties.out'

           -------------------------------------------------
          | TOTAL ENERGY               -9.215009015874 Eh   |
          | GRADIENT NORM               0.013957492448 Eh/α |
          | HOMO-LUMO GAP               3.400012472684 eV   |
           -------------------------------------------------

------------------------------------------------------------------------
 * finished run on 2026/03/06 at 18:05:58.659     
------------------------------------------------------------------------
 total:
 * wall-time:     0 d,  0 h,  0 min,  0.015 sec
 *  cpu-time:     0 d,  0 h,  0 min,  0.100 sec
 * ratio c/w:     6.671 speedup
 SCF:
 * wall-time:     0 d,  0 h,  0 min,  0.009 sec
 *  cpu-time:     0 d,  0 h,  0 min,  0.064 sec
 * ratio c/w:     7.030 speedup


-------------------------   --------------------
FINAL SINGLE POINT ENERGY        -9.215009015870
-------------------------   --------------------


-------------
DIPOLE MOMENT
-------------
                                X             Y             Z
Total Dipole Moment    :      0.00100      -1.11700      -0.18900
                        -----------------------------------------
Magnitude (a.u.)       :      1.13288
Magnitude (Debye)      :      2.87955


------------------
CARTESIAN GRADIENT
------------------

   1   C   :   -0.001982249    0.002533828    0.000380383
   2   C   :    0.000168384   -0.001904919   -0.000318071
   3   O   :    0.000461109    0.009540469    0.001624834
   4   H   :    0.004601075   -0.006039741   -0.000909695
   5   H   :   -0.003248319   -0.004129637   -0.000777451

Difference to translation invariance:
           :   -0.0000000000   -0.0000000000    0.0000000000

Difference to rotation invariance:
           :    0.0000000000    0.0000000003   -0.0000000015

Norm of the Cartesian gradient     ...    0.0139574924
RMS gradient                       ...    0.0036038091
MAX gradient                       ...    0.0095404690
------------------------------------------------------------------------------
                         ORCA GEOMETRY RELAXATION STEP
------------------------------------------------------------------------------

Reading the OPT-File                    .... done
Getting information on internals        .... done
Copying old internal coords+grads       .... done
Making the new internal coordinates     .... (2022 redundants) done
Validating the new internal coordinates .... (2022 redundants) done
Calculating the B-matrix                .... done
Calculating the G,G- and P matrices     .... done
Transforming gradient to internals      .... done
Projecting the internal gradient        .... done
Number of atoms                         ....   5
Number of internal coordinates          ....  17
Current Energy                          ....    -9.215009016 Eh
Current gradient norm                   ....     0.013957492 Eh/bohr
Maximum allowed component of the step   ....  0.300
Current trust radius                    ....  0.300
Updating the Hessian (BFGS)             .... done
Forming the augmented Hessian           .... done
Diagonalizing the augmented Hessian     .... done
Last element of RFO vector              ....  0.992027966
Lowest eigenvalues of augmented Hessian:
 -0.001456281  0.039274498  0.044543926  0.075138157  0.354400384
Length of the computed step             ....  0.127030608
The final length of the internal step   ....  0.127030608
Converting the step to Cartesian space:
 Initial RMS(Int)=    0.0308094478
Transforming coordinates:
 Iter   0:  RMS(Cart)=    0.0354017526 RMS(Int)=    2.1553345506
 Iter   5:  RMS(Cart)=    0.0000000200 RMS(Int)=    0.0000000199
done
Storing new coordinates                 .... done
The predicted energy change is          ....    -0.000739890
Previously predicted energy change      ....    -0.001081411
Actually observed energy change         ....    -0.001532001
Ratio of predicted to observed change   ....     1.416668762
New trust radius                        ....     0.300000000

                                .--------------------.
          ----------------------|Geometry convergence|-------------------------
          Item                value                   Tolerance       Converged
          ---------------------------------------------------------------------
          Energy change      -0.0015320007            0.0000050000      NO
          RMS gradient        0.0040053530            0.0001000000      NO
          MAX gradient        0.0084682200            0.0003000000      NO
          RMS step            0.0308094478            0.0020000000      NO
          MAX step            0.0740446414            0.0040000000      NO
          -------------------------------------------------------------------------
          ........................................................
          Max(Bonds)      0.0074      Max(Angles)    4.24
          Max(Dihed)        0.00      Max(Improp)    0.00
          ---------------------------------------------------------------------

    ---------------------------------------------------------------------------
                         Redundant Internal Coordinates
                            (Angstroem and degrees)

        Definition                    Value    dE/dq     Step     New-Value
    ----------------------------------------------------------------------------
     1. B(C   1,C   0)                1.2701 -0.004975  0.0005    1.2706   
     2. B(O   2,C   1)                1.4948  0.005376  0.0059    1.5007   
     3. B(O   2,C   0)                1.4496  0.005205  0.0074    1.4570   
     4. B(H   3,C   0)                1.0545 -0.001660  0.0012    1.0557   
     5. B(H   4,C   1)                1.0522 -0.001617  0.0013    1.0535   
     6. A(C   1,C   0,O   2)           66.30  0.002062    0.03     66.33   
     7. A(O   2,C   0,H   3)          139.50  0.006407   -4.24    135.26   
     8. A(C   1,C   0,H   3)          154.20 -0.008468    4.21    158.42   
     9. A(C   0,C   1,H   4)          161.34 -0.005901    2.76    164.10   
    10. A(C   0,C   1,O   2)           62.62  0.001741    0.14     62.76   
    11. A(O   2,C   1,H   4)          136.04  0.004159   -2.91    133.14   
    12. A(C   0,O   2,C   1)           51.08 -0.003803   -0.17     50.91   
    13. D(O   2,C   1,C   0,H   3)    180.00 -0.000000    0.00    180.00   
    14. D(H   4,C   1,C   0,H   3)      0.00 -0.000000    0.00      0.00   
    15. D(H   4,C   1,C   0,O   2)   -180.00 -0.000000   -0.00   -180.00   
    16. D(C   0,O   2,C   1,H   4)    180.00 -0.000000    0.00    180.00   
    17. D(C   1,O   2,C   0,H   3)   -180.00  0.000000   -0.00   -180.00   
    ----------------------------------------------------------------------------

Geometry step timings:
Preparation and reading OPT file:      0.000 s ( 3.065 %)
Internal coordinates            :      0.000 s ( 3.448 %)
B/P matrices and projection     :      0.000 s (14.176 %)
Hessian update/contruction      :      0.000 s (26.245 %)
Making the step                 :      0.000 s (12.261 %)
Converting the step to Cartesian:      0.000 s ( 4.789 %)
Storing new data                :      0.000 s ( 3.831 %)
Checking convergence            :      0.000 s ( 6.322 %)
Final printing                  :      0.000 s (25.862 %)
Total time                      :      0.001 s

Time for energy+gradient        :      0.025 s
Time for complete geometry iter :      0.026 s

         *************************************************************
         *                GEOMETRY OPTIMIZATION CYCLE   5            *
         *************************************************************
---------------------------------
CARTESIAN COORDINATES (ANGSTROEM)
---------------------------------
  C    -0.633573   -0.116172   -0.127055
  C     0.636725   -0.143113   -0.100731
  O    -0.026011    1.186894    0.108109
  H    -1.621524   -0.478326   -0.212325
  H     1.644382   -0.449282   -0.128020

----------------------------
CARTESIAN COORDINATES (A.U.)
----------------------------
  NO LB    ZA    FRAG    MASS        X           Y           Z
   0 C   6.0000    1    12.011   -1.197279   -0.219534   -0.240100
   1 C   6.0000    1    12.011    1.203236   -0.270445   -0.190355
   2 O   8.0000    1    15.999   -0.049153    2.242905    0.204297
   3 H   1.0000    1     1.008   -3.064236   -0.903906   -0.401237
   4 H   1.0000    1     1.008    3.107432   -0.849021   -0.241923

      -----------------------------------------------------------      
     |                   =====================                   |     
     |                           x T B                           |     
     |                   =====================                   |     
     |                         S. Grimme                         |     
     |          Mulliken Center for Theoretical Chemistry        |     
     |                    University of Bonn                     |     
      -----------------------------------------------------------      

   * xtb version 6.7.1 (edcfbbe) compiled by 'albert@albert-system' on 2024-07-22

   xtb is free software: you can redistribute it and/or modify it under
   the terms of the GNU Lesser General Public License as published by
   the Free Software Foundation, either version 3 of the License, or
   (at your option) any later version.
   
   xtb is distributed in the hope that it will be useful,
   but WITHOUT ANY WARRANTY; without even the implied warranty of
   MERCHANTABILITY or FITNESS FOR A PARTICULAR PURPOSE.  See the
   GNU Lesser General Public License for more details.
   
   Cite this work as:
   * C. Bannwarth, E. Caldeweyher, S. Ehlert, A. Hansen, P. Pracht,
     J. Seibert, S. Spicher, S. Grimme, WIREs Comput. Mol. Sci., 2020, 11,
     e01493. DOI: 10.1002/wcms.1493
   
   for GFN2-xTB:
   * C. Bannwarth, S. Ehlert and S. Grimme., J. Chem. Theory Comput., 2019,
     15, 1652-1671. DOI: 10.1021/acs.jctc.8b01176
   for GFN1-xTB:
   * S. Grimme, C. Bannwarth, P. Shushkov, J. Chem. Theory Comput., 2017,
     13, 1989-2009. DOI: 10.1021/acs.jctc.7b00118
   for GFN0-xTB:
   * P. Pracht, E. Caldeweyher, S. Ehlert, S. Grimme, ChemRxiv, 2019, preprint.
     DOI: 10.26434/chemrxiv.8326202.v1
   for GFN-FF:
   * S. Spicher and S. Grimme, Angew. Chem. Int. Ed., 2020, 59, 15665-15673.
     DOI: 10.1002/anie.202004239
   
   for ALPB and GBSA implicit solvation:
   * S. Ehlert, M. Stahn, S. Spicher, S. Grimme, J. Chem. Theory Comput.,
     2021, 17, 4250-4261. DOI: 10.1021/acs.jctc.1c00471
   
   for ddCOSMO and CPCM-X implicit solvation:
   * M. Stahn, S. Ehlert, S. Grimme, J. Phys. Chem. A,
     2023, XX, XXXX-XXXX. DOI: 10.1021/acs.jpca.3c04382
   
   for DFT-D4:
   * E. Caldeweyher, C. Bannwarth and S. Grimme, J. Chem. Phys., 2017,
     147, 034112. DOI: 10.1063/1.4993215
   * E. Caldeweyher, S. Ehlert, A. Hansen, H. Neugebauer, S. Spicher,
     C. Bannwarth and S. Grimme, J. Chem. Phys., 2019, 150, 154122.
     DOI: 10.1063/1.5090222
   * E. Caldeweyher, J.-M. Mewes, S. Ehlert and S. Grimme, Phys. Chem. Chem. Phys.
     2020, 22, 8499-8512. DOI: 10.1039/D0CP00502A
   
   for sTDA-xTB:
   * S. Grimme and C. Bannwarth, J. Chem. Phys., 2016, 145, 054103.
     DOI: 10.1063/1.4959605
   
   in the mass-spec context:
   * V. Asgeirsson, C. Bauer and S. Grimme, Chem. Sci., 2017, 8, 4879.
     DOI: 10.1039/c7sc00601b
   * J. Koopman and S. Grimme, ACS Omega 2019, 4, 12, 15120-15133.
     DOI: 10.1021/acsomega.9b02011
   
   for metadynamics refer to:
   * S. Grimme, J. Chem. Theory Comput., 2019, 155, 2847-2862
     DOI: 10.1021/acs.jctc.9b00143
   
   for SPH calculations refer to:
   * S. Spicher and S. Grimme, J. Chem. Theory Comput., 2021, 17, 1701-1714
     DOI: 10.1021/acs.jctc.0c01306
   
   for ONIOM refer to:
   * C. Plett, A. Katbashev, S. Ehlert, S. Grimme, M. Bursch,
     Phys. Chem. Chem. Phys., 2023, 25, 17860-17868. DOI: 10.1039/D3CP02178E
   
   for DIPRO refer to:
   * J. Kohn, N. Gildemeister, S. Grimme, D. Fazzi, A. Hansen,
     J. Chem. Phys., 2023, just accepted.
   
   for PTB refer to:
   * S. Grimme, M. Mueller, A. Hansen, J. Chem. Phys., 2023, 158, 124111.
     DOI: 10.1063/5.0137838
   
   with help from (in alphabetical order)
   P. Atkinson, C. Bannwarth, F. Bohle, G. Brandenburg, E. Caldeweyher
   M. Checinski, S. Dohm, S. Ehlert, S. Ehrlich, I. Gerasimov, C. Hölzer
   A. Katbashev, J. Kohn, J. Koopman, C. Lavigne, S. Lehtola, F. März, M. Müller,
   F. Musil, H. Neugebauer, J. Pisarek, C. Plett, P. Pracht, F. Pultar,
   J. Seibert, P. Shushkov, S. Spicher, M. Stahn, M. Steiner, T. Strunk,
   J. Stückrath, T. Rose, and J. Unsleber
   
 * started run on 2026/03/06 at 18:05:58.670     
   ID    Z sym.   atoms
    1    6 C      1, 2
    2    8 O      3
    3    1 H      4, 5

           -------------------------------------------------
          |                Calculation Setup                |
           -------------------------------------------------

          program call               : /apps/eb/ORCA/6.1.1-gompi-2024a-avx2/bin/otool_xtb goat_XTB.xyz --grad -c 0 -u 0 -P 8 --namespace goat --input goat_XTB.input.tmp --acc 0.200000
          hostname                   : ra8-10
          calculation namespace      : goat
          coordinate file            : goat_XTB.xyz
          omp threads                :                     8


           -------------------------------------------------
          |                 G F N 2 - x T B                 |
           -------------------------------------------------

        Reference                      10.1021/acs.jctc.8b01176
      * Hamiltonian:
        H0-scaling (s, p, d)           1.850000    2.230000    2.230000
        zeta-weighting                 0.500000
      * Dispersion:
        s8                             2.700000
        a1                             0.520000
        a2                             5.000000
        s9                             5.000000
      * Repulsion:
        kExp                           1.500000    1.000000
        rExp                           1.000000
      * Coulomb:
        alpha                          2.000000
        third order                    shell-resolved
        anisotropic                    true
        a3                             3.000000
        a5                             4.000000
        cn-shift                       1.200000
        cn-exp                         4.000000
        max-rad                        5.000000

q/qsh data taken from xtbrestart
CAMM data taken from xtbrestart

          ...................................................
          :                      SETUP                      :
          :.................................................:
          :  # basis functions                  14          :
          :  # atomic orbitals                  14          :
          :  # shells                            8          :
          :  # electrons                        16          :
          :  max. iterations                   250          :
          :  Hamiltonian                  GFN2-xTB          :
          :  restarted?                       true          :
          :  GBSA solvation                  false          :
          :  PC potential                    false          :
          :  electronic temp.          300.0000000     K    :
          :  accuracy                    0.2000000          :
          :  -> integral cutoff          0.3198970E+02      :
          :  -> integral neglect         0.2000000E-08      :
          :  -> SCF convergence          0.2000000E-06 Eh   :
          :  -> wf. convergence          0.2000000E-04 e    :
          :  Broyden damping             0.4000000          :
          :  net charge                          0          :
          :  unpaired electrons                  0          :
          ...................................................

 iter      E             dE          RMSdq      gap      omega  full diag
   1     -9.3397016 -0.933970E+01  0.428E-01    3.43       0.0  T
   2     -9.3397140 -0.123425E-04  0.243E-01    3.39       1.0  T
   3     -9.3396056  0.108328E-03  0.183E-01    3.40       1.0  T
   4     -9.3397262 -0.120604E-03  0.267E-02    3.40       1.7  T
   5     -9.3397280 -0.178247E-05  0.364E-03    3.39      12.3  T
   6     -9.3397280 -0.892011E-08  0.982E-04    3.39      45.6  T
   7     -9.3397280 -0.364981E-09  0.179E-04    3.39     250.5  T
   8     -9.3397280 -0.110507E-10  0.938E-05    3.39     476.6  T

   *** convergence criteria satisfied after 8 iterations ***

         #    Occupation            Energy/Eh            Energy/eV
      -------------------------------------------------------------
         1        2.0000           -0.7127418             -19.3947
         2        2.0000           -0.6349020             -17.2766
         3        2.0000           -0.6008319             -16.3495
         4        2.0000           -0.5472538             -14.8915
         5        2.0000           -0.5337919             -14.5252
         6        2.0000           -0.5060667             -13.7708
         7        2.0000           -0.4965056             -13.5106
         8        2.0000           -0.3754016             -10.2152 (HOMO)
         9                         -0.2506490              -6.8205 (LUMO)
        10                         -0.1048780              -2.8539
        11                         -0.0379357              -1.0323
        12                          0.0431412               1.1739
        13                          0.2728118               7.4236
        14                          0.9987712              27.1779
      -------------------------------------------------------------
                  HL-Gap            0.1247526 Eh            3.3947 eV
             Fermi-level           -0.3130253 Eh           -8.5179 eV

 SCC (total)                   0 d,  0 h,  0 min,  0.010 sec
 SCC setup                      ...        0 min,  0.000 sec (  1.339%)
 Dispersion                     ...        0 min,  0.000 sec (  0.807%)
 classical contributions        ...        0 min,  0.000 sec (  0.471%)
 integral evaluation            ...        0 min,  0.000 sec (  1.522%)
 iterations                     ...        0 min,  0.009 sec ( 88.819%)
 molecular gradient             ...        0 min,  0.001 sec (  6.200%)
 printout                       ...        0 min,  0.000 sec (  0.602%)

         :::::::::::::::::::::::::::::::::::::::::::::::::::::
         ::                     SUMMARY                     ::
         :::::::::::::::::::::::::::::::::::::::::::::::::::::
         :: total energy              -9.215993133576 Eh    ::
         :: gradient norm              0.017159487610 Eh/a0 ::
         :: HOMO-LUMO gap              3.394690446698 eV    ::
         ::.................................................::
         :: SCC energy                -9.339728007475 Eh    ::
         :: -> isotropic ES            0.027547711551 Eh    ::
         :: -> anisotropic ES         -0.002472484518 Eh    ::
         :: -> anisotropic XC          0.003885046977 Eh    ::
         :: -> dispersion             -0.001340141434 Eh    ::
         :: repulsion energy           0.123734873900 Eh    ::
         :: add. restraining           0.000000000000 Eh    ::
         :: total charge              -0.000000000000 e     ::
         :::::::::::::::::::::::::::::::::::::::::::::::::::::


Property printout bound to 'properties.out'

           -------------------------------------------------
          | TOTAL ENERGY               -9.215993133576 Eh   |
          | GRADIENT NORM               0.017159487610 Eh/α |
          | HOMO-LUMO GAP               3.394690446698 eV   |
           -------------------------------------------------

------------------------------------------------------------------------
 * finished run on 2026/03/06 at 18:05:58.686     
------------------------------------------------------------------------
 total:
 * wall-time:     0 d,  0 h,  0 min,  0.015 sec
 *  cpu-time:     0 d,  0 h,  0 min,  0.087 sec
 * ratio c/w:     5.699 speedup
 SCF:
 * wall-time:     0 d,  0 h,  0 min,  0.010 sec
 *  cpu-time:     0 d,  0 h,  0 min,  0.060 sec
 * ratio c/w:     6.043 speedup


-------------------------   --------------------
FINAL SINGLE POINT ENERGY        -9.215993133580
-------------------------   --------------------


-------------
DIPOLE MOMENT
-------------
                                X             Y             Z
Total Dipole Moment    :      0.00500      -1.11600      -0.18900
                        -----------------------------------------
Magnitude (a.u.)       :      1.13190
Magnitude (Debye)      :      2.87707


------------------
CARTESIAN GRADIENT
------------------

   1   C   :   -0.002413131   -0.003673514   -0.000679987
   2   C   :    0.001964435   -0.005934267   -0.000955926
   3   O   :   -0.000092769    0.014540748    0.002457099
   4   H   :    0.001708441   -0.002920225   -0.000452384
   5   H   :   -0.001166976   -0.002012741   -0.000368802

Difference to translation invariance:
           :   -0.0000000000   -0.0000000000    0.0000000000

Difference to rotation invariance:
           :   -0.0000000011   -0.0000000078    0.0000000462

Norm of the Cartesian gradient     ...    0.0171594876
RMS gradient                       ...    0.0044305606
MAX gradient                       ...    0.0145407476
------------------------------------------------------------------------------
                         ORCA GEOMETRY RELAXATION STEP
------------------------------------------------------------------------------

Reading the OPT-File                    .... done
Getting information on internals        .... done
Copying old internal coords+grads       .... done
Making the new internal coordinates     .... (2022 redundants) done
Validating the new internal coordinates .... (2022 redundants) done
Calculating the B-matrix                .... done
Calculating the G,G- and P matrices     .... done
Transforming gradient to internals      .... done
Projecting the internal gradient        .... done
Number of atoms                         ....   5
Number of internal coordinates          ....  17
Current Energy                          ....    -9.215993134 Eh
Current gradient norm                   ....     0.017159488 Eh/bohr
Maximum allowed component of the step   ....  0.300
Current trust radius                    ....  0.300
Updating the Hessian (BFGS)             .... done
Forming the augmented Hessian           .... done
Diagonalizing the augmented Hessian     .... done
Last element of RFO vector              ....  0.996892651
Lowest eigenvalues of augmented Hessian:
 -0.000602205  0.039274498  0.044543926  0.056624208  0.354401371
Length of the computed step             ....  0.079017624
The final length of the internal step   ....  0.079017624
Converting the step to Cartesian space:
 Initial RMS(Int)=    0.0191645889
Transforming coordinates:
 Iter   0:  RMS(Cart)=    0.0240418780 RMS(Int)=    0.0191595068
done
Storing new coordinates                 .... done
The predicted energy change is          ....    -0.000302982
Previously predicted energy change      ....    -0.000739890
Actually observed energy change         ....    -0.000984118
Ratio of predicted to observed change   ....     1.330086053
New trust radius                        ....     0.300000000

                                .--------------------.
          ----------------------|Geometry convergence|-------------------------
          Item                value                   Tolerance       Converged
          ---------------------------------------------------------------------
          Energy change      -0.0009841177            0.0000050000      NO
          RMS gradient        0.0031869529            0.0001000000      NO
          MAX gradient        0.0077818986            0.0003000000      NO
          RMS step            0.0191645889            0.0020000000      NO
          MAX step            0.0473459727            0.0040000000      NO
          -------------------------------------------------------------------------
          ........................................................
          Max(Bonds)      0.0054      Max(Angles)    2.71
          Max(Dihed)        0.00      Max(Improp)    0.00
          ---------------------------------------------------------------------

    ---------------------------------------------------------------------------
                         Redundant Internal Coordinates
                            (Angstroem and degrees)

        Definition                    Value    dE/dq     Step     New-Value
    ----------------------------------------------------------------------------
     1. B(C   1,C   0)                1.2709 -0.001610  0.0007    1.2715   
     2. B(O   2,C   1)                1.5006  0.007782 -0.0054    1.4952   
     3. B(O   2,C   0)                1.4569  0.007571 -0.0035    1.4534   
     4. B(H   3,C   0)                1.0557 -0.000560  0.0005    1.0562   
     5. B(H   4,C   1)                1.0535 -0.000522  0.0005    1.0540   
     6. A(C   1,C   0,O   2)           66.34  0.001751   -0.19     66.15   
     7. A(O   2,C   0,H   3)          135.25  0.002483   -2.52    132.73   
     8. A(C   1,C   0,H   3)          158.41 -0.004234    2.71    161.12   
     9. A(C   0,C   1,H   4)          164.09 -0.003038    1.78    165.87   
    10. A(C   0,C   1,O   2)           62.78  0.001503   -0.03     62.75   
    11. A(O   2,C   1,H   4)          133.13  0.001535   -1.74    131.38   
    12. A(C   0,O   2,C   1)           50.87 -0.003255    0.23     51.10   
    13. D(O   2,C   1,C   0,H   3)   -180.00 -0.000000    0.00   -180.00   
    14. D(H   4,C   1,C   0,H   3)      0.00 -0.000000   -0.00      0.00   
    15. D(H   4,C   1,C   0,O   2)   -180.00  0.000000   -0.00   -180.00   
    16. D(C   0,O   2,C   1,H   4)    180.00 -0.000000    0.00    180.00   
    17. D(C   1,O   2,C   0,H   3)    180.00 -0.000000   -0.00    180.00   
    ----------------------------------------------------------------------------

Geometry step timings:
Preparation and reading OPT file:      0.000 s ( 3.386 %)
Internal coordinates            :      0.000 s ( 3.586 %)
B/P matrices and projection     :      0.000 s (13.944 %)
Hessian update/contruction      :      0.000 s (26.693 %)
Making the step                 :      0.000 s (12.351 %)
Converting the step to Cartesian:      0.000 s ( 3.785 %)
Storing new data                :      0.000 s ( 3.785 %)
Checking convergence            :      0.000 s ( 6.773 %)
Final printing                  :      0.000 s (25.697 %)
Total time                      :      0.001 s

Time for energy+gradient        :      0.026 s
Time for complete geometry iter :      0.027 s

         *************************************************************
         *                GEOMETRY OPTIMIZATION CYCLE   6            *
         *************************************************************
---------------------------------
CARTESIAN COORDINATES (ANGSTROEM)
---------------------------------
  C    -0.632414   -0.133003   -0.129874
  C     0.638780   -0.155056   -0.102701
  O    -0.027329    1.167346    0.104771
  H    -1.636014   -0.452683   -0.208340
  H     1.656978   -0.426604   -0.123878

----------------------------
CARTESIAN COORDINATES (A.U.)
----------------------------
  NO LB    ZA    FRAG    MASS        X           Y           Z
   0 C   6.0000    1    12.011   -1.195089   -0.251338   -0.245426
   1 C   6.0000    1    12.011    1.207119   -0.293014   -0.194078
   2 O   8.0000    1    15.999   -0.051645    2.205964    0.197988
   3 H   1.0000    1     1.008   -3.091619   -0.855447   -0.393706
   4 H   1.0000    1     1.008    3.131235   -0.806164   -0.234095

      -----------------------------------------------------------      
     |                   =====================                   |     
     |                           x T B                           |     
     |                   =====================                   |     
     |                         S. Grimme                         |     
     |          Mulliken Center for Theoretical Chemistry        |     
     |                    University of Bonn                     |     
      -----------------------------------------------------------      

   * xtb version 6.7.1 (edcfbbe) compiled by 'albert@albert-system' on 2024-07-22

   xtb is free software: you can redistribute it and/or modify it under
   the terms of the GNU Lesser General Public License as published by
   the Free Software Foundation, either version 3 of the License, or
   (at your option) any later version.
   
   xtb is distributed in the hope that it will be useful,
   but WITHOUT ANY WARRANTY; without even the implied warranty of
   MERCHANTABILITY or FITNESS FOR A PARTICULAR PURPOSE.  See the
   GNU Lesser General Public License for more details.
   
   Cite this work as:
   * C. Bannwarth, E. Caldeweyher, S. Ehlert, A. Hansen, P. Pracht,
     J. Seibert, S. Spicher, S. Grimme, WIREs Comput. Mol. Sci., 2020, 11,
     e01493. DOI: 10.1002/wcms.1493
   
   for GFN2-xTB:
   * C. Bannwarth, S. Ehlert and S. Grimme., J. Chem. Theory Comput., 2019,
     15, 1652-1671. DOI: 10.1021/acs.jctc.8b01176
   for GFN1-xTB:
   * S. Grimme, C. Bannwarth, P. Shushkov, J. Chem. Theory Comput., 2017,
     13, 1989-2009. DOI: 10.1021/acs.jctc.7b00118
   for GFN0-xTB:
   * P. Pracht, E. Caldeweyher, S. Ehlert, S. Grimme, ChemRxiv, 2019, preprint.
     DOI: 10.26434/chemrxiv.8326202.v1
   for GFN-FF:
   * S. Spicher and S. Grimme, Angew. Chem. Int. Ed., 2020, 59, 15665-15673.
     DOI: 10.1002/anie.202004239
   
   for ALPB and GBSA implicit solvation:
   * S. Ehlert, M. Stahn, S. Spicher, S. Grimme, J. Chem. Theory Comput.,
     2021, 17, 4250-4261. DOI: 10.1021/acs.jctc.1c00471
   
   for ddCOSMO and CPCM-X implicit solvation:
   * M. Stahn, S. Ehlert, S. Grimme, J. Phys. Chem. A,
     2023, XX, XXXX-XXXX. DOI: 10.1021/acs.jpca.3c04382
   
   for DFT-D4:
   * E. Caldeweyher, C. Bannwarth and S. Grimme, J. Chem. Phys., 2017,
     147, 034112. DOI: 10.1063/1.4993215
   * E. Caldeweyher, S. Ehlert, A. Hansen, H. Neugebauer, S. Spicher,
     C. Bannwarth and S. Grimme, J. Chem. Phys., 2019, 150, 154122.
     DOI: 10.1063/1.5090222
   * E. Caldeweyher, J.-M. Mewes, S. Ehlert and S. Grimme, Phys. Chem. Chem. Phys.
     2020, 22, 8499-8512. DOI: 10.1039/D0CP00502A
   
   for sTDA-xTB:
   * S. Grimme and C. Bannwarth, J. Chem. Phys., 2016, 145, 054103.
     DOI: 10.1063/1.4959605
   
   in the mass-spec context:
   * V. Asgeirsson, C. Bauer and S. Grimme, Chem. Sci., 2017, 8, 4879.
     DOI: 10.1039/c7sc00601b
   * J. Koopman and S. Grimme, ACS Omega 2019, 4, 12, 15120-15133.
     DOI: 10.1021/acsomega.9b02011
   
   for metadynamics refer to:
   * S. Grimme, J. Chem. Theory Comput., 2019, 155, 2847-2862
     DOI: 10.1021/acs.jctc.9b00143
   
   for SPH calculations refer to:
   * S. Spicher and S. Grimme, J. Chem. Theory Comput., 2021, 17, 1701-1714
     DOI: 10.1021/acs.jctc.0c01306
   
   for ONIOM refer to:
   * C. Plett, A. Katbashev, S. Ehlert, S. Grimme, M. Bursch,
     Phys. Chem. Chem. Phys., 2023, 25, 17860-17868. DOI: 10.1039/D3CP02178E
   
   for DIPRO refer to:
   * J. Kohn, N. Gildemeister, S. Grimme, D. Fazzi, A. Hansen,
     J. Chem. Phys., 2023, just accepted.
   
   for PTB refer to:
   * S. Grimme, M. Mueller, A. Hansen, J. Chem. Phys., 2023, 158, 124111.
     DOI: 10.1063/5.0137838
   
   with help from (in alphabetical order)
   P. Atkinson, C. Bannwarth, F. Bohle, G. Brandenburg, E. Caldeweyher
   M. Checinski, S. Dohm, S. Ehlert, S. Ehrlich, I. Gerasimov, C. Hölzer
   A. Katbashev, J. Kohn, J. Koopman, C. Lavigne, S. Lehtola, F. März, M. Müller,
   F. Musil, H. Neugebauer, J. Pisarek, C. Plett, P. Pracht, F. Pultar,
   J. Seibert, P. Shushkov, S. Spicher, M. Stahn, M. Steiner, T. Strunk,
   J. Stückrath, T. Rose, and J. Unsleber
   
 * started run on 2026/03/06 at 18:05:58.697     
   ID    Z sym.   atoms
    1    6 C      1, 2
    2    8 O      3
    3    1 H      4, 5

           -------------------------------------------------
          |                Calculation Setup                |
           -------------------------------------------------

          program call               : /apps/eb/ORCA/6.1.1-gompi-2024a-avx2/bin/otool_xtb goat_XTB.xyz --grad -c 0 -u 0 -P 8 --namespace goat --input goat_XTB.input.tmp --acc 0.200000
          hostname                   : ra8-10
          calculation namespace      : goat
          coordinate file            : goat_XTB.xyz
          omp threads                :                     8


           -------------------------------------------------
          |                 G F N 2 - x T B                 |
           -------------------------------------------------

        Reference                      10.1021/acs.jctc.8b01176
      * Hamiltonian:
        H0-scaling (s, p, d)           1.850000    2.230000    2.230000
        zeta-weighting                 0.500000
      * Dispersion:
        s8                             2.700000
        a1                             0.520000
        a2                             5.000000
        s9                             5.000000
      * Repulsion:
        kExp                           1.500000    1.000000
        rExp                           1.000000
      * Coulomb:
        alpha                          2.000000
        third order                    shell-resolved
        anisotropic                    true
        a3                             3.000000
        a5                             4.000000
        cn-shift                       1.200000
        cn-exp                         4.000000
        max-rad                        5.000000

q/qsh data taken from xtbrestart
CAMM data taken from xtbrestart

          ...................................................
          :                      SETUP                      :
          :.................................................:
          :  # basis functions                  14          :
          :  # atomic orbitals                  14          :
          :  # shells                            8          :
          :  # electrons                        16          :
          :  max. iterations                   250          :
          :  Hamiltonian                  GFN2-xTB          :
          :  restarted?                       true          :
          :  GBSA solvation                  false          :
          :  PC potential                    false          :
          :  electronic temp.          300.0000000     K    :
          :  accuracy                    0.2000000          :
          :  -> integral cutoff          0.3198970E+02      :
          :  -> integral neglect         0.2000000E-08      :
          :  -> SCF convergence          0.2000000E-06 Eh   :
          :  -> wf. convergence          0.2000000E-04 e    :
          :  Broyden damping             0.4000000          :
          :  net charge                          0          :
          :  unpaired electrons                  0          :
          ...................................................

 iter      E             dE          RMSdq      gap      omega  full diag
   1     -9.3398844 -0.933988E+01  0.270E-01    3.36       0.0  T
   2     -9.3398865 -0.208827E-05  0.156E-01    3.35       1.0  T
   3     -9.3398541  0.324191E-04  0.947E-02    3.35       1.0  T
   4     -9.3398892 -0.351157E-04  0.111E-02    3.35       4.0  T
   5     -9.3398895 -0.273824E-06  0.374E-03    3.35      11.9  T
   6     -9.3398895 -0.576841E-08  0.104E-03    3.35      42.8  T
   7     -9.3398895 -0.641014E-09  0.105E-04    3.35     425.6  T
   8     -9.3398895 -0.249223E-11  0.503E-05    3.35     889.8  T

   *** convergence criteria satisfied after 8 iterations ***

         #    Occupation            Energy/Eh            Energy/eV
      -------------------------------------------------------------
         1        2.0000           -0.7130112             -19.4020
         2        2.0000           -0.6344730             -17.2649
         3        2.0000           -0.6013047             -16.3623
         4        2.0000           -0.5463915             -14.8681
         5        2.0000           -0.5340901             -14.5333
         6        2.0000           -0.5065665             -13.7844
         7        2.0000           -0.4959319             -13.4950
         8        2.0000           -0.3740727             -10.1790 (HOMO)
         9                         -0.2508517              -6.8260 (LUMO)
        10                         -0.0988429              -2.6897
        11                         -0.0290004              -0.7891
        12                          0.0333796               0.9083
        13                          0.2696829               7.3384
        14                          1.0062994              27.3828
      -------------------------------------------------------------
                  HL-Gap            0.1232210 Eh            3.3530 eV
             Fermi-level           -0.3124622 Eh           -8.5025 eV

 SCC (total)                   0 d,  0 h,  0 min,  0.007 sec
 SCC setup                      ...        0 min,  0.001 sec (  8.930%)
 Dispersion                     ...        0 min,  0.000 sec (  0.520%)
 classical contributions        ...        0 min,  0.000 sec (  0.268%)
 integral evaluation            ...        0 min,  0.000 sec (  2.223%)
 iterations                     ...        0 min,  0.006 sec ( 77.455%)
 molecular gradient             ...        0 min,  0.001 sec (  9.383%)
 printout                       ...        0 min,  0.000 sec (  0.855%)

         :::::::::::::::::::::::::::::::::::::::::::::::::::::
         ::                     SUMMARY                     ::
         :::::::::::::::::::::::::::::::::::::::::::::::::::::
         :: total energy              -9.216384520230 Eh    ::
         :: gradient norm              0.011429089962 Eh/a0 ::
         :: HOMO-LUMO gap              3.353013069735 eV    ::
         ::.................................................::
         :: SCC energy                -9.339889474807 Eh    ::
         :: -> isotropic ES            0.028002086289 Eh    ::
         :: -> anisotropic ES         -0.002949061271 Eh    ::
         :: -> anisotropic XC          0.003919903301 Eh    ::
         :: -> dispersion             -0.001338842717 Eh    ::
         :: repulsion energy           0.123504954577 Eh    ::
         :: add. restraining           0.000000000000 Eh    ::
         :: total charge               0.000000000000 e     ::
         :::::::::::::::::::::::::::::::::::::::::::::::::::::


Property printout bound to 'properties.out'

           -------------------------------------------------
          | TOTAL ENERGY               -9.216384520230 Eh   |
          | GRADIENT NORM               0.011429089962 Eh/α |
          | HOMO-LUMO GAP               3.353013069735 eV   |
           -------------------------------------------------

------------------------------------------------------------------------
 * finished run on 2026/03/06 at 18:05:58.712     
------------------------------------------------------------------------
 total:
 * wall-time:     0 d,  0 h,  0 min,  0.015 sec
 *  cpu-time:     0 d,  0 h,  0 min,  0.096 sec
 * ratio c/w:     6.514 speedup
 SCF:
 * wall-time:     0 d,  0 h,  0 min,  0.007 sec
 *  cpu-time:     0 d,  0 h,  0 min,  0.051 sec
 * ratio c/w:     7.117 speedup


-------------------------   --------------------
FINAL SINGLE POINT ENERGY        -9.216384520230
-------------------------   --------------------


-------------
DIPOLE MOMENT
-------------
                                X             Y             Z
Total Dipole Moment    :      0.00700      -1.10200      -0.18600
                        -----------------------------------------
Magnitude (a.u.)       :      1.11761
Magnitude (Debye)      :      2.84074


------------------
CARTESIAN GRADIENT
------------------

   1   C   :   -0.001780899   -0.003381089   -0.000615164
   2   C   :    0.002156776   -0.004779232   -0.000755900
   3   O   :   -0.000483879    0.009182104    0.001541257
   4   H   :    0.000247932   -0.000650988   -0.000104075
   5   H   :   -0.000139929   -0.000370795   -0.000066119

Difference to translation invariance:
           :   -0.0000000000    0.0000000000    0.0000000000

Difference to rotation invariance:
           :   -0.0000000004   -0.0000000027    0.0000000159

Norm of the Cartesian gradient     ...    0.0114290900
RMS gradient                       ...    0.0029509783
MAX gradient                       ...    0.0091821042
------------------------------------------------------------------------------
                         ORCA GEOMETRY RELAXATION STEP
------------------------------------------------------------------------------

Reading the OPT-File                    .... done
Getting information on internals        .... done
Copying old internal coords+grads       .... done
Making the new internal coordinates     .... (2022 redundants) done
Validating the new internal coordinates .... (2022 redundants) done
Calculating the B-matrix                .... done
Calculating the G,G- and P matrices     .... done
Transforming gradient to internals      .... done
Projecting the internal gradient        .... done
Number of atoms                         ....   5
Number of internal coordinates          ....  17
Current Energy                          ....    -9.216384520 Eh
Current gradient norm                   ....     0.011429090 Eh/bohr
Maximum allowed component of the step   ....  0.300
Current trust radius                    ....  0.300
Updating the Hessian (BFGS)             .... done
Forming the augmented Hessian           .... done
Diagonalizing the augmented Hessian     .... done
Last element of RFO vector              ....  0.999608314
Lowest eigenvalues of augmented Hessian:
 -0.000157375  0.039274498  0.044543926  0.058465923  0.354388985
Length of the computed step             ....  0.027996997
The final length of the internal step   ....  0.027996997
Converting the step to Cartesian space:
 Initial RMS(Int)=    0.0067902691
Transforming coordinates:
 Iter   0:  RMS(Cart)=    0.0083204792 RMS(Int)=    0.0067881598
done
Storing new coordinates                 .... done
The predicted energy change is          ....    -0.000078749
Previously predicted energy change      ....    -0.000302982
Actually observed energy change         ....    -0.000391387
Ratio of predicted to observed change   ....     1.291780488
New trust radius                        ....     0.300000000

                                .--------------------.
          ----------------------|Geometry convergence|-------------------------
          Item                value                   Tolerance       Converged
          ---------------------------------------------------------------------
          Energy change      -0.0003913866            0.0000050000      NO
          RMS gradient        0.0017463329            0.0001000000      NO
          MAX gradient        0.0050614578            0.0003000000      NO
          RMS step            0.0067902691            0.0020000000      NO
          MAX step            0.0141439033            0.0040000000      NO
          -------------------------------------------------------------------------
          ........................................................
          Max(Bonds)      0.0075      Max(Angles)    0.80
          Max(Dihed)        0.00      Max(Improp)    0.00
          ---------------------------------------------------------------------

    ---------------------------------------------------------------------------
                         Redundant Internal Coordinates
                            (Angstroem and degrees)

        Definition                    Value    dE/dq     Step     New-Value
    ----------------------------------------------------------------------------
     1. B(C   1,C   0)                1.2717  0.000380  0.0001    1.2718   
     2. B(O   2,C   1)                1.4952  0.005061 -0.0075    1.4877   
     3. B(O   2,C   0)                1.4533  0.004550 -0.0058    1.4475   
     4. B(H   3,C   0)                1.0562 -0.000031  0.0001    1.0563   
     5. B(H   4,C   1)                1.0540 -0.000038  0.0001    1.0541   
     6. A(C   1,C   0,O   2)           66.16  0.000949   -0.20     65.96   
     7. A(O   2,C   0,H   3)          132.72  0.000227   -0.60    132.12   
     8. A(C   1,C   0,H   3)          161.12 -0.001177    0.80    161.92   
     9. A(C   0,C   1,H   4)          165.86 -0.000675    0.48    166.35   
    10. A(C   0,C   1,O   2)           62.76  0.000554   -0.06     62.70   
    11. A(O   2,C   1,H   4)          131.38  0.000122   -0.42    130.96   
    12. A(C   0,O   2,C   1)           51.08 -0.001503    0.26     51.34   
    13. D(O   2,C   1,C   0,H   3)   -180.00  0.000000    0.00   -180.00   
    14. D(H   4,C   1,C   0,H   3)      0.00  0.000000   -0.00      0.00   
    15. D(H   4,C   1,C   0,O   2)   -180.00  0.000000   -0.00   -180.00   
    16. D(C   0,O   2,C   1,H   4)    180.00 -0.000000    0.00    180.00   
    17. D(C   1,O   2,C   0,H   3)    180.00 -0.000000    0.00    180.00   
    ----------------------------------------------------------------------------

Geometry step timings:
Preparation and reading OPT file:      0.000 s ( 4.724 %)
Internal coordinates            :      0.000 s ( 3.740 %)
B/P matrices and projection     :      0.000 s (14.173 %)
Hessian update/contruction      :      0.000 s (25.984 %)
Making the step                 :      0.000 s (12.205 %)
Converting the step to Cartesian:      0.000 s ( 3.543 %)
Storing new data                :      0.000 s ( 3.937 %)
Checking convergence            :      0.000 s ( 6.890 %)
Final printing                  :      0.000 s (24.803 %)
Total time                      :      0.001 s

Time for energy+gradient        :      0.025 s
Time for complete geometry iter :      0.027 s

         *************************************************************
         *                GEOMETRY OPTIMIZATION CYCLE   7            *
         *************************************************************
---------------------------------
CARTESIAN COORDINATES (ANGSTROEM)
---------------------------------
  C    -0.632231   -0.136936   -0.130535
  C     0.639103   -0.157112   -0.103041
  O    -0.026989    1.157044    0.103036
  H    -1.639906   -0.444282   -0.207014
  H     1.660024   -0.418714   -0.122469

----------------------------
CARTESIAN COORDINATES (A.U.)
----------------------------
  NO LB    ZA    FRAG    MASS        X           Y           Z
   0 C   6.0000    1    12.011   -1.194744   -0.258771   -0.246675
   1 C   6.0000    1    12.011    1.207729   -0.296899   -0.194720
   2 O   8.0000    1    15.999   -0.051003    2.186496    0.194711
   3 H   1.0000    1     1.008   -3.098973   -0.839571   -0.391200
   4 H   1.0000    1     1.008    3.136991   -0.791255   -0.231434

      -----------------------------------------------------------      
     |                   =====================                   |     
     |                           x T B                           |     
     |                   =====================                   |     
     |                         S. Grimme                         |     
     |          Mulliken Center for Theoretical Chemistry        |     
     |                    University of Bonn                     |     
      -----------------------------------------------------------      

   * xtb version 6.7.1 (edcfbbe) compiled by 'albert@albert-system' on 2024-07-22

   xtb is free software: you can redistribute it and/or modify it under
   the terms of the GNU Lesser General Public License as published by
   the Free Software Foundation, either version 3 of the License, or
   (at your option) any later version.
   
   xtb is distributed in the hope that it will be useful,
   but WITHOUT ANY WARRANTY; without even the implied warranty of
   MERCHANTABILITY or FITNESS FOR A PARTICULAR PURPOSE.  See the
   GNU Lesser General Public License for more details.
   
   Cite this work as:
   * C. Bannwarth, E. Caldeweyher, S. Ehlert, A. Hansen, P. Pracht,
     J. Seibert, S. Spicher, S. Grimme, WIREs Comput. Mol. Sci., 2020, 11,
     e01493. DOI: 10.1002/wcms.1493
   
   for GFN2-xTB:
   * C. Bannwarth, S. Ehlert and S. Grimme., J. Chem. Theory Comput., 2019,
     15, 1652-1671. DOI: 10.1021/acs.jctc.8b01176
   for GFN1-xTB:
   * S. Grimme, C. Bannwarth, P. Shushkov, J. Chem. Theory Comput., 2017,
     13, 1989-2009. DOI: 10.1021/acs.jctc.7b00118
   for GFN0-xTB:
   * P. Pracht, E. Caldeweyher, S. Ehlert, S. Grimme, ChemRxiv, 2019, preprint.
     DOI: 10.26434/chemrxiv.8326202.v1
   for GFN-FF:
   * S. Spicher and S. Grimme, Angew. Chem. Int. Ed., 2020, 59, 15665-15673.
     DOI: 10.1002/anie.202004239
   
   for ALPB and GBSA implicit solvation:
   * S. Ehlert, M. Stahn, S. Spicher, S. Grimme, J. Chem. Theory Comput.,
     2021, 17, 4250-4261. DOI: 10.1021/acs.jctc.1c00471
   
   for ddCOSMO and CPCM-X implicit solvation:
   * M. Stahn, S. Ehlert, S. Grimme, J. Phys. Chem. A,
     2023, XX, XXXX-XXXX. DOI: 10.1021/acs.jpca.3c04382
   
   for DFT-D4:
   * E. Caldeweyher, C. Bannwarth and S. Grimme, J. Chem. Phys., 2017,
     147, 034112. DOI: 10.1063/1.4993215
   * E. Caldeweyher, S. Ehlert, A. Hansen, H. Neugebauer, S. Spicher,
     C. Bannwarth and S. Grimme, J. Chem. Phys., 2019, 150, 154122.
     DOI: 10.1063/1.5090222
   * E. Caldeweyher, J.-M. Mewes, S. Ehlert and S. Grimme, Phys. Chem. Chem. Phys.
     2020, 22, 8499-8512. DOI: 10.1039/D0CP00502A
   
   for sTDA-xTB:
   * S. Grimme and C. Bannwarth, J. Chem. Phys., 2016, 145, 054103.
     DOI: 10.1063/1.4959605
   
   in the mass-spec context:
   * V. Asgeirsson, C. Bauer and S. Grimme, Chem. Sci., 2017, 8, 4879.
     DOI: 10.1039/c7sc00601b
   * J. Koopman and S. Grimme, ACS Omega 2019, 4, 12, 15120-15133.
     DOI: 10.1021/acsomega.9b02011
   
   for metadynamics refer to:
   * S. Grimme, J. Chem. Theory Comput., 2019, 155, 2847-2862
     DOI: 10.1021/acs.jctc.9b00143
   
   for SPH calculations refer to:
   * S. Spicher and S. Grimme, J. Chem. Theory Comput., 2021, 17, 1701-1714
     DOI: 10.1021/acs.jctc.0c01306
   
   for ONIOM refer to:
   * C. Plett, A. Katbashev, S. Ehlert, S. Grimme, M. Bursch,
     Phys. Chem. Chem. Phys., 2023, 25, 17860-17868. DOI: 10.1039/D3CP02178E
   
   for DIPRO refer to:
   * J. Kohn, N. Gildemeister, S. Grimme, D. Fazzi, A. Hansen,
     J. Chem. Phys., 2023, just accepted.
   
   for PTB refer to:
   * S. Grimme, M. Mueller, A. Hansen, J. Chem. Phys., 2023, 158, 124111.
     DOI: 10.1063/5.0137838
   
   with help from (in alphabetical order)
   P. Atkinson, C. Bannwarth, F. Bohle, G. Brandenburg, E. Caldeweyher
   M. Checinski, S. Dohm, S. Ehlert, S. Ehrlich, I. Gerasimov, C. Hölzer
   A. Katbashev, J. Kohn, J. Koopman, C. Lavigne, S. Lehtola, F. März, M. Müller,
   F. Musil, H. Neugebauer, J. Pisarek, C. Plett, P. Pracht, F. Pultar,
   J. Seibert, P. Shushkov, S. Spicher, M. Stahn, M. Steiner, T. Strunk,
   J. Stückrath, T. Rose, and J. Unsleber
   
 * started run on 2026/03/06 at 18:05:58.723     
   ID    Z sym.   atoms
    1    6 C      1, 2
    2    8 O      3
    3    1 H      4, 5

           -------------------------------------------------
          |                Calculation Setup                |
           -------------------------------------------------

          program call               : /apps/eb/ORCA/6.1.1-gompi-2024a-avx2/bin/otool_xtb goat_XTB.xyz --grad -c 0 -u 0 -P 8 --namespace goat --input goat_XTB.input.tmp --acc 0.200000
          hostname                   : ra8-10
          calculation namespace      : goat
          coordinate file            : goat_XTB.xyz
          omp threads                :                     8


           -------------------------------------------------
          |                 G F N 2 - x T B                 |
           -------------------------------------------------

        Reference                      10.1021/acs.jctc.8b01176
      * Hamiltonian:
        H0-scaling (s, p, d)           1.850000    2.230000    2.230000
        zeta-weighting                 0.500000
      * Dispersion:
        s8                             2.700000
        a1                             0.520000
        a2                             5.000000
        s9                             5.000000
      * Repulsion:
        kExp                           1.500000    1.000000
        rExp                           1.000000
      * Coulomb:
        alpha                          2.000000
        third order                    shell-resolved
        anisotropic                    true
        a3                             3.000000
        a5                             4.000000
        cn-shift                       1.200000
        cn-exp                         4.000000
        max-rad                        5.000000

q/qsh data taken from xtbrestart
CAMM data taken from xtbrestart

          ...................................................
          :                      SETUP                      :
          :.................................................:
          :  # basis functions                  14          :
          :  # atomic orbitals                  14          :
          :  # shells                            8          :
          :  # electrons                        16          :
          :  max. iterations                   250          :
          :  Hamiltonian                  GFN2-xTB          :
          :  restarted?                       true          :
          :  GBSA solvation                  false          :
          :  PC potential                    false          :
          :  electronic temp.          300.0000000     K    :
          :  accuracy                    0.2000000          :
          :  -> integral cutoff          0.3198970E+02      :
          :  -> integral neglect         0.2000000E-08      :
          :  -> SCF convergence          0.2000000E-06 Eh   :
          :  -> wf. convergence          0.2000000E-04 e    :
          :  Broyden damping             0.4000000          :
          :  net charge                          0          :
          :  unpaired electrons                  0          :
          ...................................................

 iter      E             dE          RMSdq      gap      omega  full diag
   1     -9.3403857 -0.934039E+01  0.977E-02    3.32       0.0  T
   2     -9.3403858 -0.575159E-07  0.585E-02    3.32       1.0  T
   3     -9.3403809  0.490706E-05  0.362E-02    3.32       1.2  T
   4     -9.3403863 -0.537582E-05  0.359E-03    3.32      12.5  T
   5     -9.3403863 -0.485498E-08  0.582E-04    3.32      76.9  T
   6     -9.3403863 -0.184434E-09  0.159E-04    3.32     282.0  T
   7     -9.3403863 -0.125624E-10  0.378E-05    3.32    1183.7  T

   *** convergence criteria satisfied after 7 iterations ***

         #    Occupation            Energy/Eh            Energy/eV
      -------------------------------------------------------------
         1        2.0000           -0.7138210             -19.4241
         2        2.0000           -0.6344968             -17.2655
         3        2.0000           -0.6016814             -16.3726
         4        2.0000           -0.5460675             -14.8593
         5        2.0000           -0.5349599             -14.5570
         6        2.0000           -0.5064264             -13.7806
         7        2.0000           -0.4963608             -13.5067
         8        2.0000           -0.3726489             -10.1403 (HOMO)
         9                         -0.2506569              -6.8207 (LUMO)
        10                         -0.0936644              -2.5487
        11                         -0.0208693              -0.5679
        12                          0.0315220               0.8578
        13                          0.2697736               7.3409
        14                          1.0096884              27.4750
      -------------------------------------------------------------
                  HL-Gap            0.1219920 Eh            3.3196 eV
             Fermi-level           -0.3116529 Eh           -8.4805 eV

 SCC (total)                   0 d,  0 h,  0 min,  0.006 sec
 SCC setup                      ...        0 min,  0.000 sec (  2.330%)
 Dispersion                     ...        0 min,  0.000 sec (  2.723%)
 classical contributions        ...        0 min,  0.000 sec (  1.344%)
 integral evaluation            ...        0 min,  0.000 sec (  3.957%)
 iterations                     ...        0 min,  0.004 sec ( 75.547%)
 molecular gradient             ...        0 min,  0.001 sec ( 12.604%)
 printout                       ...        0 min,  0.000 sec (  1.076%)

         :::::::::::::::::::::::::::::::::::::::::::::::::::::
         ::                     SUMMARY                     ::
         :::::::::::::::::::::::::::::::::::::::::::::::::::::
         :: total energy              -9.216476791528 Eh    ::
         :: gradient norm              0.003355424501 Eh/a0 ::
         :: HOMO-LUMO gap              3.319570100636 eV    ::
         ::.................................................::
         :: SCC energy                -9.340386239402 Eh    ::
         :: -> isotropic ES            0.027934608155 Eh    ::
         :: -> anisotropic ES         -0.003055812408 Eh    ::
         :: -> anisotropic XC          0.003766988665 Eh    ::
         :: -> dispersion             -0.001339117261 Eh    ::
         :: repulsion energy           0.123909447874 Eh    ::
         :: add. restraining           0.000000000000 Eh    ::
         :: total charge              -0.000000000000 e     ::
         :::::::::::::::::::::::::::::::::::::::::::::::::::::


Property printout bound to 'properties.out'

           -------------------------------------------------
          | TOTAL ENERGY               -9.216476791528 Eh   |
          | GRADIENT NORM               0.003355424501 Eh/α |
          | HOMO-LUMO GAP               3.319570100636 eV   |
           -------------------------------------------------

------------------------------------------------------------------------
 * finished run on 2026/03/06 at 18:05:58.744     
------------------------------------------------------------------------
 total:
 * wall-time:     0 d,  0 h,  0 min,  0.020 sec
 *  cpu-time:     0 d,  0 h,  0 min,  0.121 sec
 * ratio c/w:     6.167 speedup
 SCF:
 * wall-time:     0 d,  0 h,  0 min,  0.006 sec
 *  cpu-time:     0 d,  0 h,  0 min,  0.039 sec
 * ratio c/w:     6.894 speedup


-------------------------   --------------------
FINAL SINGLE POINT ENERGY        -9.216476791530
-------------------------   --------------------


-------------
DIPOLE MOMENT
-------------
                                X             Y             Z
Total Dipole Moment    :      0.00600      -1.08900      -0.18400
                        -----------------------------------------
Magnitude (a.u.)       :      1.10445
Magnitude (Debye)      :      2.80729


------------------
CARTESIAN GRADIENT
------------------

   1   C   :   -0.000495724   -0.000581126   -0.000110348
   2   C   :    0.001030966   -0.001980117   -0.000309840
   3   O   :   -0.000533552    0.002254263    0.000368306
   4   H   :   -0.000103942    0.000078403    0.000010738
   5   H   :    0.000102253    0.000228577    0.000041145

Difference to translation invariance:
           :    0.0000000000    0.0000000000   -0.0000000000

Difference to rotation invariance:
           :   -0.0000000004   -0.0000000031    0.0000000181

Norm of the Cartesian gradient     ...    0.0033554245
RMS gradient                       ...    0.0008663669
MAX gradient                       ...    0.0022542630
------------------------------------------------------------------------------
                         ORCA GEOMETRY RELAXATION STEP
------------------------------------------------------------------------------

Reading the OPT-File                    .... done
Getting information on internals        .... done
Copying old internal coords+grads       .... done
Making the new internal coordinates     .... (2022 redundants) done
Validating the new internal coordinates .... (2022 redundants) done
Calculating the B-matrix                .... done
Calculating the G,G- and P matrices     .... done
Transforming gradient to internals      .... done
Projecting the internal gradient        .... done
Number of atoms                         ....   5
Number of internal coordinates          ....  17
Current Energy                          ....    -9.216476792 Eh
Current gradient norm                   ....     0.003355425 Eh/bohr
Maximum allowed component of the step   ....  0.300
Current trust radius                    ....  0.300
Updating the Hessian (BFGS)             .... done
Forming the augmented Hessian           .... done
Diagonalizing the augmented Hessian     .... done
Last element of RFO vector              ....  0.999968679
Lowest eigenvalues of augmented Hessian:
 -0.000013343  0.039274498  0.044543926  0.065537622  0.272444737
Length of the computed step             ....  0.007914883
The final length of the internal step   ....  0.007914883
Converting the step to Cartesian space:
 Initial RMS(Int)=    0.0019196411
Transforming coordinates:
 Iter   0:  RMS(Cart)=    0.0012975018 RMS(Int)=    0.0019197114
done
Storing new coordinates                 .... done
The predicted energy change is          ....    -0.000006672
Previously predicted energy change      ....    -0.000078749
Actually observed energy change         ....    -0.000092271
Ratio of predicted to observed change   ....     1.171713592
New trust radius                        ....     0.450000000

                                .--------------------.
          ----------------------|Geometry convergence|-------------------------
          Item                value                   Tolerance       Converged
          ---------------------------------------------------------------------
          Energy change      -0.0000922713            0.0000050000      NO
          RMS gradient        0.0004668447            0.0001000000      NO
          MAX gradient        0.0015182454            0.0003000000      NO
          RMS step            0.0019196411            0.0020000000      YES
          MAX step            0.0051576618            0.0040000000      NO
          -------------------------------------------------------------------------
          ........................................................
          Max(Bonds)      0.0027      Max(Angles)    0.18
          Max(Dihed)        0.00      Max(Improp)    0.00
          ---------------------------------------------------------------------

    ---------------------------------------------------------------------------
                         Redundant Internal Coordinates
                            (Angstroem and degrees)

        Definition                    Value    dE/dq     Step     New-Value
    ----------------------------------------------------------------------------
     1. B(C   1,C   0)                1.2718  0.000531 -0.0002    1.2716   
     2. B(O   2,C   1)                1.4877  0.001518 -0.0027    1.4849   
     3. B(O   2,C   0)                1.4475  0.000839 -0.0017    1.4458   
     4. B(H   3,C   0)                1.0563  0.000076 -0.0001    1.0562   
     5. B(H   4,C   1)                1.0541  0.000042 -0.0000    1.0541   
     6. A(C   1,C   0,O   2)           65.97  0.000351   -0.08     65.89   
     7. A(O   2,C   0,H   3)          132.12 -0.000282    0.18    132.30   
     8. A(C   1,C   0,H   3)          161.91 -0.000069   -0.10    161.82   
     9. A(C   0,C   1,H   4)          166.34  0.000324   -0.13    166.22   
    10. A(C   0,C   1,O   2)           62.70 -0.000148    0.00     62.70   
    11. A(O   2,C   1,H   4)          130.95 -0.000175    0.12    131.08   
    12. A(C   0,O   2,C   1)           51.33 -0.000203    0.08     51.41   
    13. D(O   2,C   1,C   0,H   3)   -180.00  0.000000   -0.00   -180.00   
    14. D(H   4,C   1,C   0,H   3)      0.00  0.000000   -0.00      0.00   
    15. D(H   4,C   1,C   0,O   2)   -180.00 -0.000000    0.00   -180.00   
    16. D(C   0,O   2,C   1,H   4)    180.00  0.000000   -0.00    180.00   
    17. D(C   1,O   2,C   0,H   3)    180.00 -0.000000    0.00    180.00   
    ----------------------------------------------------------------------------

Geometry step timings:
Preparation and reading OPT file:      0.000 s ( 3.101 %)
Internal coordinates            :      0.000 s ( 3.488 %)
B/P matrices and projection     :      0.000 s (14.341 %)
Hessian update/contruction      :      0.000 s (27.713 %)
Making the step                 :      0.000 s (12.209 %)
Converting the step to Cartesian:      0.000 s ( 3.488 %)
Storing new data                :      0.000 s ( 3.876 %)
Checking convergence            :      0.000 s ( 6.589 %)
Final printing                  :      0.000 s (25.194 %)
Total time                      :      0.001 s

Time for energy+gradient        :      0.030 s
Time for complete geometry iter :      0.031 s

         *************************************************************
         *                GEOMETRY OPTIMIZATION CYCLE   8            *
         *************************************************************
---------------------------------
CARTESIAN COORDINATES (ANGSTROEM)
---------------------------------
  C    -0.632336   -0.135865   -0.130356
  C     0.638815   -0.155686   -0.102807
  O    -0.026373    1.155912    0.102860
  H    -1.639322   -0.445147   -0.207146
  H     1.659217   -0.419215   -0.122574

----------------------------
CARTESIAN COORDINATES (A.U.)
----------------------------
  NO LB    ZA    FRAG    MASS        X           Y           Z
   0 C   6.0000    1    12.011   -1.194942   -0.256747   -0.246337
   1 C   6.0000    1    12.011    1.207185   -0.294203   -0.194277
   2 O   8.0000    1    15.999   -0.049838    2.184356    0.194377
   3 H   1.0000    1     1.008   -3.097870   -0.841205   -0.391449
   4 H   1.0000    1     1.008    3.135466   -0.792201   -0.231631

      -----------------------------------------------------------      
     |                   =====================                   |     
     |                           x T B                           |     
     |                   =====================                   |     
     |                         S. Grimme                         |     
     |          Mulliken Center for Theoretical Chemistry        |     
     |                    University of Bonn                     |     
      -----------------------------------------------------------      

   * xtb version 6.7.1 (edcfbbe) compiled by 'albert@albert-system' on 2024-07-22

   xtb is free software: you can redistribute it and/or modify it under
   the terms of the GNU Lesser General Public License as published by
   the Free Software Foundation, either version 3 of the License, or
   (at your option) any later version.
   
   xtb is distributed in the hope that it will be useful,
   but WITHOUT ANY WARRANTY; without even the implied warranty of
   MERCHANTABILITY or FITNESS FOR A PARTICULAR PURPOSE.  See the
   GNU Lesser General Public License for more details.
   
   Cite this work as:
   * C. Bannwarth, E. Caldeweyher, S. Ehlert, A. Hansen, P. Pracht,
     J. Seibert, S. Spicher, S. Grimme, WIREs Comput. Mol. Sci., 2020, 11,
     e01493. DOI: 10.1002/wcms.1493
   
   for GFN2-xTB:
   * C. Bannwarth, S. Ehlert and S. Grimme., J. Chem. Theory Comput., 2019,
     15, 1652-1671. DOI: 10.1021/acs.jctc.8b01176
   for GFN1-xTB:
   * S. Grimme, C. Bannwarth, P. Shushkov, J. Chem. Theory Comput., 2017,
     13, 1989-2009. DOI: 10.1021/acs.jctc.7b00118
   for GFN0-xTB:
   * P. Pracht, E. Caldeweyher, S. Ehlert, S. Grimme, ChemRxiv, 2019, preprint.
     DOI: 10.26434/chemrxiv.8326202.v1
   for GFN-FF:
   * S. Spicher and S. Grimme, Angew. Chem. Int. Ed., 2020, 59, 15665-15673.
     DOI: 10.1002/anie.202004239
   
   for ALPB and GBSA implicit solvation:
   * S. Ehlert, M. Stahn, S. Spicher, S. Grimme, J. Chem. Theory Comput.,
     2021, 17, 4250-4261. DOI: 10.1021/acs.jctc.1c00471
   
   for ddCOSMO and CPCM-X implicit solvation:
   * M. Stahn, S. Ehlert, S. Grimme, J. Phys. Chem. A,
     2023, XX, XXXX-XXXX. DOI: 10.1021/acs.jpca.3c04382
   
   for DFT-D4:
   * E. Caldeweyher, C. Bannwarth and S. Grimme, J. Chem. Phys., 2017,
     147, 034112. DOI: 10.1063/1.4993215
   * E. Caldeweyher, S. Ehlert, A. Hansen, H. Neugebauer, S. Spicher,
     C. Bannwarth and S. Grimme, J. Chem. Phys., 2019, 150, 154122.
     DOI: 10.1063/1.5090222
   * E. Caldeweyher, J.-M. Mewes, S. Ehlert and S. Grimme, Phys. Chem. Chem. Phys.
     2020, 22, 8499-8512. DOI: 10.1039/D0CP00502A
   
   for sTDA-xTB:
   * S. Grimme and C. Bannwarth, J. Chem. Phys., 2016, 145, 054103.
     DOI: 10.1063/1.4959605
   
   in the mass-spec context:
   * V. Asgeirsson, C. Bauer and S. Grimme, Chem. Sci., 2017, 8, 4879.
     DOI: 10.1039/c7sc00601b
   * J. Koopman and S. Grimme, ACS Omega 2019, 4, 12, 15120-15133.
     DOI: 10.1021/acsomega.9b02011
   
   for metadynamics refer to:
   * S. Grimme, J. Chem. Theory Comput., 2019, 155, 2847-2862
     DOI: 10.1021/acs.jctc.9b00143
   
   for SPH calculations refer to:
   * S. Spicher and S. Grimme, J. Chem. Theory Comput., 2021, 17, 1701-1714
     DOI: 10.1021/acs.jctc.0c01306
   
   for ONIOM refer to:
   * C. Plett, A. Katbashev, S. Ehlert, S. Grimme, M. Bursch,
     Phys. Chem. Chem. Phys., 2023, 25, 17860-17868. DOI: 10.1039/D3CP02178E
   
   for DIPRO refer to:
   * J. Kohn, N. Gildemeister, S. Grimme, D. Fazzi, A. Hansen,
     J. Chem. Phys., 2023, just accepted.
   
   for PTB refer to:
   * S. Grimme, M. Mueller, A. Hansen, J. Chem. Phys., 2023, 158, 124111.
     DOI: 10.1063/5.0137838
   
   with help from (in alphabetical order)
   P. Atkinson, C. Bannwarth, F. Bohle, G. Brandenburg, E. Caldeweyher
   M. Checinski, S. Dohm, S. Ehlert, S. Ehrlich, I. Gerasimov, C. Hölzer
   A. Katbashev, J. Kohn, J. Koopman, C. Lavigne, S. Lehtola, F. März, M. Müller,
   F. Musil, H. Neugebauer, J. Pisarek, C. Plett, P. Pracht, F. Pultar,
   J. Seibert, P. Shushkov, S. Spicher, M. Stahn, M. Steiner, T. Strunk,
   J. Stückrath, T. Rose, and J. Unsleber
   
 * started run on 2026/03/06 at 18:05:58.755     
   ID    Z sym.   atoms
    1    6 C      1, 2
    2    8 O      3
    3    1 H      4, 5

           -------------------------------------------------
          |                Calculation Setup                |
           -------------------------------------------------

          program call               : /apps/eb/ORCA/6.1.1-gompi-2024a-avx2/bin/otool_xtb goat_XTB.xyz --grad -c 0 -u 0 -P 8 --namespace goat --input goat_XTB.input.tmp --acc 0.200000
          hostname                   : ra8-10
          calculation namespace      : goat
          coordinate file            : goat_XTB.xyz
          omp threads                :                     8


           -------------------------------------------------
          |                 G F N 2 - x T B                 |
           -------------------------------------------------

        Reference                      10.1021/acs.jctc.8b01176
      * Hamiltonian:
        H0-scaling (s, p, d)           1.850000    2.230000    2.230000
        zeta-weighting                 0.500000
      * Dispersion:
        s8                             2.700000
        a1                             0.520000
        a2                             5.000000
        s9                             5.000000
      * Repulsion:
        kExp                           1.500000    1.000000
        rExp                           1.000000
      * Coulomb:
        alpha                          2.000000
        third order                    shell-resolved
        anisotropic                    true
        a3                             3.000000
        a5                             4.000000
        cn-shift                       1.200000
        cn-exp                         4.000000
        max-rad                        5.000000

q/qsh data taken from xtbrestart
CAMM data taken from xtbrestart

          ...................................................
          :                      SETUP                      :
          :.................................................:
          :  # basis functions                  14          :
          :  # atomic orbitals                  14          :
          :  # shells                            8          :
          :  # electrons                        16          :
          :  max. iterations                   250          :
          :  Hamiltonian                  GFN2-xTB          :
          :  restarted?                       true          :
          :  GBSA solvation                  false          :
          :  PC potential                    false          :
          :  electronic temp.          300.0000000     K    :
          :  accuracy                    0.2000000          :
          :  -> integral cutoff          0.3198970E+02      :
          :  -> integral neglect         0.2000000E-08      :
          :  -> SCF convergence          0.2000000E-06 Eh   :
          :  -> wf. convergence          0.2000000E-04 e    :
          :  Broyden damping             0.4000000          :
          :  net charge                          0          :
          :  unpaired electrons                  0          :
          ...................................................

 iter      E             dE          RMSdq      gap      omega  full diag
   1     -9.3406563 -0.934066E+01  0.223E-02    3.31       0.0  T
   2     -9.3406563  0.255609E-07  0.137E-02    3.31       3.3  T
   3     -9.3406561  0.227954E-06  0.131E-02    3.31       3.4  T
   4     -9.3406565 -0.484421E-06  0.143E-03    3.31      31.2  T
   5     -9.3406565 -0.135758E-08  0.591E-04    3.31      75.6  T
   6     -9.3406565 -0.149424E-09  0.215E-04    3.31     207.9  T
   7     -9.3406565 -0.191935E-10  0.147E-05    3.31    3047.5  T
   8     -9.3406565 -0.781597E-13  0.323E-06    3.31   13837.2  T

   *** convergence criteria satisfied after 8 iterations ***

         #    Occupation            Energy/Eh            Energy/eV
      -------------------------------------------------------------
         1        2.0000           -0.7141454             -19.4329
         2        2.0000           -0.6345879             -17.2680
         3        2.0000           -0.6017760             -16.3752
         4        2.0000           -0.5460765             -14.8595
         5        2.0000           -0.5353112             -14.5666
         6        2.0000           -0.5062449             -13.7756
         7        2.0000           -0.4967166             -13.5163
         8        2.0000           -0.3722413             -10.1292 (HOMO)
         9                         -0.2505199              -6.8170 (LUMO)
        10                         -0.0920750              -2.5055
        11                         -0.0188423              -0.5127
        12                          0.0321341               0.8744
        13                          0.2703562               7.3568
        14                          1.0103614              27.4933
      -------------------------------------------------------------
                  HL-Gap            0.1217213 Eh            3.3122 eV
             Fermi-level           -0.3113806 Eh           -8.4731 eV

 SCC (total)                   0 d,  0 h,  0 min,  0.009 sec
 SCC setup                      ...        0 min,  0.000 sec (  1.683%)
 Dispersion                     ...        0 min,  0.000 sec (  0.633%)
 classical contributions        ...        0 min,  0.000 sec (  0.215%)
 integral evaluation            ...        0 min,  0.000 sec (  1.546%)
 iterations                     ...        0 min,  0.008 sec ( 87.425%)
 molecular gradient             ...        0 min,  0.001 sec (  7.512%)
 printout                       ...        0 min,  0.000 sec (  0.700%)

         :::::::::::::::::::::::::::::::::::::::::::::::::::::
         ::                     SUMMARY                     ::
         :::::::::::::::::::::::::::::::::::::::::::::::::::::
         :: total energy              -9.216484616341 Eh    ::
         :: gradient norm              0.001270213909 Eh/a0 ::
         :: HOMO-LUMO gap              3.312206090755 eV    ::
         ::.................................................::
         :: SCC energy                -9.340656528382 Eh    ::
         :: -> isotropic ES            0.027825919259 Eh    ::
         :: -> anisotropic ES         -0.003016122192 Eh    ::
         :: -> anisotropic XC          0.003689053162 Eh    ::
         :: -> dispersion             -0.001339491878 Eh    ::
         :: repulsion energy           0.124171912041 Eh    ::
         :: add. restraining           0.000000000000 Eh    ::
         :: total charge              -0.000000000000 e     ::
         :::::::::::::::::::::::::::::::::::::::::::::::::::::


Property printout bound to 'properties.out'

           -------------------------------------------------
          | TOTAL ENERGY               -9.216484616341 Eh   |
          | GRADIENT NORM               0.001270213909 Eh/α |
          | HOMO-LUMO GAP               3.312206090755 eV   |
           -------------------------------------------------

------------------------------------------------------------------------
 * finished run on 2026/03/06 at 18:05:58.770     
------------------------------------------------------------------------
 total:
 * wall-time:     0 d,  0 h,  0 min,  0.015 sec
 *  cpu-time:     0 d,  0 h,  0 min,  0.099 sec
 * ratio c/w:     6.678 speedup
 SCF:
 * wall-time:     0 d,  0 h,  0 min,  0.009 sec
 *  cpu-time:     0 d,  0 h,  0 min,  0.063 sec
 * ratio c/w:     7.037 speedup


-------------------------   --------------------
FINAL SINGLE POINT ENERGY        -9.216484616340
-------------------------   --------------------


-------------
DIPOLE MOMENT
-------------
                                X             Y             Z
Total Dipole Moment    :      0.00600      -1.08600      -0.18400
                        -----------------------------------------
Magnitude (a.u.)       :      1.10149
Magnitude (Debye)      :      2.79977


------------------
CARTESIAN GRADIENT
------------------

   1   C   :    0.000108589    0.000639062    0.000110720
   2   C   :    0.000336924   -0.000882310   -0.000141034
   3   O   :   -0.000469946    0.000058841   -0.000001472
   4   H   :   -0.000032854   -0.000013188   -0.000003026
   5   H   :    0.000057288    0.000197595    0.000034811

Difference to translation invariance:
           :   -0.0000000000    0.0000000000   -0.0000000000

Difference to rotation invariance:
           :   -0.0000000000   -0.0000000002    0.0000000011

Norm of the Cartesian gradient     ...    0.0012702139
RMS gradient                       ...    0.0003279678
MAX gradient                       ...    0.0008823099
------------------------------------------------------------------------------
                         ORCA GEOMETRY RELAXATION STEP
------------------------------------------------------------------------------

Reading the OPT-File                    .... done
Getting information on internals        .... done
Copying old internal coords+grads       .... done
Making the new internal coordinates     .... (2022 redundants) done
Validating the new internal coordinates .... (2022 redundants) done
Calculating the B-matrix                .... done
Calculating the G,G- and P matrices     .... done
Transforming gradient to internals      .... done
Projecting the internal gradient        .... done
Number of atoms                         ....   5
Number of internal coordinates          ....  17
Current Energy                          ....    -9.216484616 Eh
Current gradient norm                   ....     0.001270214 Eh/bohr
Maximum allowed component of the step   ....  0.300
Current trust radius                    ....  0.450
Updating the Hessian (BFGS)             .... done
Forming the augmented Hessian           .... done
Diagonalizing the augmented Hessian     .... done
Last element of RFO vector              ....  0.999994085
Lowest eigenvalues of augmented Hessian:
 -0.000001762  0.039274498  0.044543926  0.059966457  0.230158057
Length of the computed step             ....  0.003439373
The final length of the internal step   ....  0.003439373
Converting the step to Cartesian space:
 Initial RMS(Int)=    0.0008341705
Transforming coordinates:
 Iter   0:  RMS(Cart)=    0.0008024923 RMS(Int)=    0.0008341118
done
Storing new coordinates                 .... done
The predicted energy change is          ....    -0.000000881
Previously predicted energy change      ....    -0.000006672
Actually observed energy change         ....    -0.000007825
Ratio of predicted to observed change   ....     1.172799580
New trust radius                        ....     0.675000000

                                .--------------------.
          ----------------------|Geometry convergence|-------------------------
          Item                value                   Tolerance       Converged
          ---------------------------------------------------------------------
          Energy change      -0.0000078248            0.0000050000      NO
          RMS gradient        0.0001771419            0.0001000000      NO
          MAX gradient        0.0003685816            0.0003000000      NO
          RMS step            0.0008341705            0.0020000000      YES
          MAX step            0.0018282417            0.0040000000      YES
          -------------------------------------------------------------------------
          ........................................................
          Max(Bonds)      0.0009      Max(Angles)    0.10
          Max(Dihed)        0.00      Max(Improp)    0.00
          ---------------------------------------------------------------------

    ---------------------------------------------------------------------------
                         Redundant Internal Coordinates
                            (Angstroem and degrees)

        Definition                    Value    dE/dq     Step     New-Value
    ----------------------------------------------------------------------------
     1. B(C   1,C   0)                1.2716  0.000155 -0.0001    1.2715   
     2. B(O   2,C   1)                1.4849  0.000369 -0.0009    1.4841   
     3. B(O   2,C   0)                1.4458 -0.000306  0.0001    1.4458   
     4. B(H   3,C   0)                1.0562  0.000035 -0.0001    1.0562   
     5. B(H   4,C   1)                1.0541  0.000005  0.0000    1.0541   
     6. A(C   1,C   0,O   2)           65.89  0.000229   -0.04     65.85   
     7. A(O   2,C   0,H   3)          132.30 -0.000111    0.09    132.39   
     8. A(C   1,C   0,H   3)          161.82 -0.000117   -0.05    161.77   
     9. A(C   0,C   1,H   4)          166.22  0.000344   -0.10    166.11   
    10. A(C   0,C   1,O   2)           62.71 -0.000273    0.03     62.74   
    11. A(O   2,C   1,H   4)          131.08 -0.000071    0.07    131.15   
    12. A(C   0,O   2,C   1)           51.41  0.000045    0.01     51.42   
    13. D(O   2,C   1,C   0,H   3)   -180.00  0.000000   -0.00   -180.00   
    14. D(H   4,C   1,C   0,H   3)      0.00  0.000000   -0.00      0.00   
    15. D(H   4,C   1,C   0,O   2)   -180.00  0.000000    0.00   -180.00   
    16. D(C   0,O   2,C   1,H   4)    180.00  0.000000   -0.00    180.00   
    17. D(C   1,O   2,C   0,H   3)    180.00 -0.000000    0.00    180.00   
    ----------------------------------------------------------------------------

Geometry step timings:
Preparation and reading OPT file:      0.000 s ( 3.682 %)
Internal coordinates            :      0.000 s ( 3.488 %)
B/P matrices and projection     :      0.000 s (13.566 %)
Hessian update/contruction      :      0.000 s (27.907 %)
Making the step                 :      0.000 s (12.016 %)
Converting the step to Cartesian:      0.000 s ( 3.488 %)
Storing new data                :      0.000 s ( 4.070 %)
Checking convergence            :      0.000 s ( 6.589 %)
Final printing                  :      0.000 s (25.000 %)
Total time                      :      0.001 s

Time for energy+gradient        :      0.025 s
Time for complete geometry iter :      0.027 s

         *************************************************************
         *                GEOMETRY OPTIMIZATION CYCLE   9            *
         *************************************************************
---------------------------------
CARTESIAN COORDINATES (ANGSTROEM)
---------------------------------
  C    -0.632408   -0.135479   -0.130293
  C     0.638642   -0.154836   -0.102667
  O    -0.025943    1.156125    0.102907
  H    -1.638954   -0.445969   -0.207276
  H     1.658663   -0.419841   -0.122693

----------------------------
CARTESIAN COORDINATES (A.U.)
----------------------------
  NO LB    ZA    FRAG    MASS        X           Y           Z
   0 C   6.0000    1    12.011   -1.195078   -0.256018   -0.246217
   1 C   6.0000    1    12.011    1.206859   -0.292597   -0.194013
   2 O   8.0000    1    15.999   -0.049025    2.184759    0.194465
   3 H   1.0000    1     1.008   -3.097173   -0.842759   -0.391695
   4 H   1.0000    1     1.008    3.134418   -0.793385   -0.231857

      -----------------------------------------------------------      
     |                   =====================                   |     
     |                           x T B                           |     
     |                   =====================                   |     
     |                         S. Grimme                         |     
     |          Mulliken Center for Theoretical Chemistry        |     
     |                    University of Bonn                     |     
      -----------------------------------------------------------      

   * xtb version 6.7.1 (edcfbbe) compiled by 'albert@albert-system' on 2024-07-22

   xtb is free software: you can redistribute it and/or modify it under
   the terms of the GNU Lesser General Public License as published by
   the Free Software Foundation, either version 3 of the License, or
   (at your option) any later version.
   
   xtb is distributed in the hope that it will be useful,
   but WITHOUT ANY WARRANTY; without even the implied warranty of
   MERCHANTABILITY or FITNESS FOR A PARTICULAR PURPOSE.  See the
   GNU Lesser General Public License for more details.
   
   Cite this work as:
   * C. Bannwarth, E. Caldeweyher, S. Ehlert, A. Hansen, P. Pracht,
     J. Seibert, S. Spicher, S. Grimme, WIREs Comput. Mol. Sci., 2020, 11,
     e01493. DOI: 10.1002/wcms.1493
   
   for GFN2-xTB:
   * C. Bannwarth, S. Ehlert and S. Grimme., J. Chem. Theory Comput., 2019,
     15, 1652-1671. DOI: 10.1021/acs.jctc.8b01176
   for GFN1-xTB:
   * S. Grimme, C. Bannwarth, P. Shushkov, J. Chem. Theory Comput., 2017,
     13, 1989-2009. DOI: 10.1021/acs.jctc.7b00118
   for GFN0-xTB:
   * P. Pracht, E. Caldeweyher, S. Ehlert, S. Grimme, ChemRxiv, 2019, preprint.
     DOI: 10.26434/chemrxiv.8326202.v1
   for GFN-FF:
   * S. Spicher and S. Grimme, Angew. Chem. Int. Ed., 2020, 59, 15665-15673.
     DOI: 10.1002/anie.202004239
   
   for ALPB and GBSA implicit solvation:
   * S. Ehlert, M. Stahn, S. Spicher, S. Grimme, J. Chem. Theory Comput.,
     2021, 17, 4250-4261. DOI: 10.1021/acs.jctc.1c00471
   
   for ddCOSMO and CPCM-X implicit solvation:
   * M. Stahn, S. Ehlert, S. Grimme, J. Phys. Chem. A,
     2023, XX, XXXX-XXXX. DOI: 10.1021/acs.jpca.3c04382
   
   for DFT-D4:
   * E. Caldeweyher, C. Bannwarth and S. Grimme, J. Chem. Phys., 2017,
     147, 034112. DOI: 10.1063/1.4993215
   * E. Caldeweyher, S. Ehlert, A. Hansen, H. Neugebauer, S. Spicher,
     C. Bannwarth and S. Grimme, J. Chem. Phys., 2019, 150, 154122.
     DOI: 10.1063/1.5090222
   * E. Caldeweyher, J.-M. Mewes, S. Ehlert and S. Grimme, Phys. Chem. Chem. Phys.
     2020, 22, 8499-8512. DOI: 10.1039/D0CP00502A
   
   for sTDA-xTB:
   * S. Grimme and C. Bannwarth, J. Chem. Phys., 2016, 145, 054103.
     DOI: 10.1063/1.4959605
   
   in the mass-spec context:
   * V. Asgeirsson, C. Bauer and S. Grimme, Chem. Sci., 2017, 8, 4879.
     DOI: 10.1039/c7sc00601b
   * J. Koopman and S. Grimme, ACS Omega 2019, 4, 12, 15120-15133.
     DOI: 10.1021/acsomega.9b02011
   
   for metadynamics refer to:
   * S. Grimme, J. Chem. Theory Comput., 2019, 155, 2847-2862
     DOI: 10.1021/acs.jctc.9b00143
   
   for SPH calculations refer to:
   * S. Spicher and S. Grimme, J. Chem. Theory Comput., 2021, 17, 1701-1714
     DOI: 10.1021/acs.jctc.0c01306
   
   for ONIOM refer to:
   * C. Plett, A. Katbashev, S. Ehlert, S. Grimme, M. Bursch,
     Phys. Chem. Chem. Phys., 2023, 25, 17860-17868. DOI: 10.1039/D3CP02178E
   
   for DIPRO refer to:
   * J. Kohn, N. Gildemeister, S. Grimme, D. Fazzi, A. Hansen,
     J. Chem. Phys., 2023, just accepted.
   
   for PTB refer to:
   * S. Grimme, M. Mueller, A. Hansen, J. Chem. Phys., 2023, 158, 124111.
     DOI: 10.1063/5.0137838
   
   with help from (in alphabetical order)
   P. Atkinson, C. Bannwarth, F. Bohle, G. Brandenburg, E. Caldeweyher
   M. Checinski, S. Dohm, S. Ehlert, S. Ehrlich, I. Gerasimov, C. Hölzer
   A. Katbashev, J. Kohn, J. Koopman, C. Lavigne, S. Lehtola, F. März, M. Müller,
   F. Musil, H. Neugebauer, J. Pisarek, C. Plett, P. Pracht, F. Pultar,
   J. Seibert, P. Shushkov, S. Spicher, M. Stahn, M. Steiner, T. Strunk,
   J. Stückrath, T. Rose, and J. Unsleber
   
 * started run on 2026/03/06 at 18:05:58.782     
   ID    Z sym.   atoms
    1    6 C      1, 2
    2    8 O      3
    3    1 H      4, 5

           -------------------------------------------------
          |                Calculation Setup                |
           -------------------------------------------------

          program call               : /apps/eb/ORCA/6.1.1-gompi-2024a-avx2/bin/otool_xtb goat_XTB.xyz --grad -c 0 -u 0 -P 8 --namespace goat --input goat_XTB.input.tmp --acc 0.200000
          hostname                   : ra8-10
          calculation namespace      : goat
          coordinate file            : goat_XTB.xyz
          omp threads                :                     8


           -------------------------------------------------
          |                 G F N 2 - x T B                 |
           -------------------------------------------------

        Reference                      10.1021/acs.jctc.8b01176
      * Hamiltonian:
        H0-scaling (s, p, d)           1.850000    2.230000    2.230000
        zeta-weighting                 0.500000
      * Dispersion:
        s8                             2.700000
        a1                             0.520000
        a2                             5.000000
        s9                             5.000000
      * Repulsion:
        kExp                           1.500000    1.000000
        rExp                           1.000000
      * Coulomb:
        alpha                          2.000000
        third order                    shell-resolved
        anisotropic                    true
        a3                             3.000000
        a5                             4.000000
        cn-shift                       1.200000
        cn-exp                         4.000000
        max-rad                        5.000000

q/qsh data taken from xtbrestart
CAMM data taken from xtbrestart

          ...................................................
          :                      SETUP                      :
          :.................................................:
          :  # basis functions                  14          :
          :  # atomic orbitals                  14          :
          :  # shells                            8          :
          :  # electrons                        16          :
          :  max. iterations                   250          :
          :  Hamiltonian                  GFN2-xTB          :
          :  restarted?                       true          :
          :  GBSA solvation                  false          :
          :  PC potential                    false          :
          :  electronic temp.          300.0000000     K    :
          :  accuracy                    0.2000000          :
          :  -> integral cutoff          0.3198970E+02      :
          :  -> integral neglect         0.2000000E-08      :
          :  -> SCF convergence          0.2000000E-06 Eh   :
          :  -> wf. convergence          0.2000000E-04 e    :
          :  Broyden damping             0.4000000          :
          :  net charge                          0          :
          :  unpaired electrons                  0          :
          ...................................................

 iter      E             dE          RMSdq      gap      omega  full diag
   1     -9.3407380 -0.934074E+01  0.140E-02    3.31       0.0  T
   2     -9.3407378  0.225135E-06  0.115E-02    3.31       3.9  T
   3     -9.3407383 -0.478679E-06  0.616E-03    3.31       7.3  T
   4     -9.3407384 -0.604523E-07  0.361E-04    3.31     123.8  T
   5     -9.3407384 -0.596305E-10  0.109E-04    3.31     409.6  T
   6     -9.3407384 -0.805223E-11  0.359E-05    3.31    1247.0  T

   *** convergence criteria satisfied after 6 iterations ***

         #    Occupation            Energy/Eh            Energy/eV
      -------------------------------------------------------------
         1        2.0000           -0.7142100             -19.4346
         2        2.0000           -0.6346170             -17.2688
         3        2.0000           -0.6017880             -16.3755
         4        2.0000           -0.5461004             -14.8601
         5        2.0000           -0.5353820             -14.5685
         6        2.0000           -0.5061542             -13.7732
         7        2.0000           -0.4968566             -13.5202
         8        2.0000           -0.3721817             -10.1276 (HOMO)
         9                         -0.2504839              -6.8160 (LUMO)
        10                         -0.0916529              -2.4940
        11                         -0.0188004              -0.5116
        12                          0.0324631               0.8834
        13                          0.2705493               7.3620
        14                          1.0105184              27.4976
      -------------------------------------------------------------
                  HL-Gap            0.1216978 Eh            3.3116 eV
             Fermi-level           -0.3113328 Eh           -8.4718 eV

 SCC (total)                   0 d,  0 h,  0 min,  0.005 sec
 SCC setup                      ...        0 min,  0.000 sec (  2.907%)
 Dispersion                     ...        0 min,  0.000 sec (  0.737%)
 classical contributions        ...        0 min,  0.000 sec (  0.429%)
 integral evaluation            ...        0 min,  0.000 sec (  3.171%)
 iterations                     ...        0 min,  0.004 sec ( 77.601%)
 molecular gradient             ...        0 min,  0.001 sec ( 13.463%)
 printout                       ...        0 min,  0.000 sec (  1.229%)

         :::::::::::::::::::::::::::::::::::::::::::::::::::::
         ::                     SUMMARY                     ::
         :::::::::::::::::::::::::::::::::::::::::::::::::::::
         :: total energy              -9.216486014443 Eh    ::
         :: gradient norm              0.001282546078 Eh/a0 ::
         :: HOMO-LUMO gap              3.311565367250 eV    ::
         ::.................................................::
         :: SCC energy                -9.340738341334 Eh    ::
         :: -> isotropic ES            0.027794991125 Eh    ::
         :: -> anisotropic ES         -0.002995661552 Eh    ::
         :: -> anisotropic XC          0.003669907464 Eh    ::
         :: -> dispersion             -0.001339605962 Eh    ::
         :: repulsion energy           0.124252326891 Eh    ::
         :: add. restraining           0.000000000000 Eh    ::
         :: total charge               0.000000000000 e     ::
         :::::::::::::::::::::::::::::::::::::::::::::::::::::


Property printout bound to 'properties.out'

           -------------------------------------------------
          | TOTAL ENERGY               -9.216486014443 Eh   |
          | GRADIENT NORM               0.001282546078 Eh/α |
          | HOMO-LUMO GAP               3.311565367250 eV   |
           -------------------------------------------------

------------------------------------------------------------------------
 * finished run on 2026/03/06 at 18:05:58.798     
------------------------------------------------------------------------
 total:
 * wall-time:     0 d,  0 h,  0 min,  0.015 sec
 *  cpu-time:     0 d,  0 h,  0 min,  0.101 sec
 * ratio c/w:     6.617 speedup
 SCF:
 * wall-time:     0 d,  0 h,  0 min,  0.005 sec
 *  cpu-time:     0 d,  0 h,  0 min,  0.035 sec
 * ratio c/w:     7.092 speedup


-------------------------   --------------------
FINAL SINGLE POINT ENERGY        -9.216486014440
-------------------------   --------------------


-------------
DIPOLE MOMENT
-------------
                                X             Y             Z
Total Dipole Moment    :      0.00600      -1.08600      -0.18400
                        -----------------------------------------
Magnitude (a.u.)       :      1.10149
Magnitude (Debye)      :      2.79977


------------------
CARTESIAN GRADIENT
------------------

   1   C   :    0.000276194    0.000883111    0.000156073
   2   C   :    0.000111684   -0.000657724   -0.000108523
   3   O   :   -0.000431189   -0.000291139   -0.000059724
   4   H   :    0.000016412   -0.000087993   -0.000014481
   5   H   :    0.000026898    0.000153745    0.000026655

Difference to translation invariance:
           :    0.0000000000    0.0000000000    0.0000000000

Difference to rotation invariance:
           :   -0.0000000035   -0.0000000241    0.0000001426

Norm of the Cartesian gradient     ...    0.0012825461
RMS gradient                       ...    0.0003311520
MAX gradient                       ...    0.0008831112
------------------------------------------------------------------------------
                         ORCA GEOMETRY RELAXATION STEP
------------------------------------------------------------------------------

Reading the OPT-File                    .... done
Getting information on internals        .... done
Copying old internal coords+grads       .... done
Making the new internal coordinates     .... (2022 redundants) done
Validating the new internal coordinates .... (2022 redundants) done
Calculating the B-matrix                .... done
Calculating the G,G- and P matrices     .... done
Transforming gradient to internals      .... done
Projecting the internal gradient        .... done
Number of atoms                         ....   5
Number of internal coordinates          ....  17
Current Energy                          ....    -9.216486014 Eh
Current gradient norm                   ....     0.001282546 Eh/bohr
Maximum allowed component of the step   ....  0.300
Current trust radius                    ....  0.675
Updating the Hessian (BFGS)             .... done
Forming the augmented Hessian           .... done
Diagonalizing the augmented Hessian     .... done
Last element of RFO vector              ....  0.999974527
Lowest eigenvalues of augmented Hessian:
 -0.000003717  0.039274498  0.044543926  0.049549015  0.125363518
Length of the computed step             ....  0.007137745
The final length of the internal step   ....  0.007137745
Converting the step to Cartesian space:
 Initial RMS(Int)=    0.0017311575
Transforming coordinates:
 Iter   0:  RMS(Cart)=    0.0014436463 RMS(Int)=    0.0017310755
done
Storing new coordinates                 .... done
The predicted energy change is          ....    -0.000001858
Previously predicted energy change      ....    -0.000000881
Actually observed energy change         ....    -0.000001398
Ratio of predicted to observed change   ....     1.587129858
New trust radius                        ....     0.450000000

                                .--------------------.
          ----------------------|Geometry convergence|-------------------------
          Item                value                   Tolerance       Converged
          ---------------------------------------------------------------------
          Energy change      -0.0000013981            0.0000050000      YES
          RMS gradient        0.0001717757            0.0001000000      NO
          MAX gradient        0.0004781737            0.0003000000      NO
          RMS step            0.0017311575            0.0020000000      YES
          MAX step            0.0041046062            0.0040000000      NO
          -------------------------------------------------------------------------
          ........................................................
          Max(Bonds)      0.0019      Max(Angles)    0.24
          Max(Dihed)        0.00      Max(Improp)    0.00
          ---------------------------------------------------------------------

    ---------------------------------------------------------------------------
                         Redundant Internal Coordinates
                            (Angstroem and degrees)

        Definition                    Value    dE/dq     Step     New-Value
    ----------------------------------------------------------------------------
     1. B(C   1,C   0)                1.2715 -0.000020 -0.0002    1.2713   
     2. B(O   2,C   1)                1.4841  0.000168 -0.0019    1.4822   
     3. B(O   2,C   0)                1.4458 -0.000478  0.0009    1.4468   
     4. B(H   3,C   0)                1.0562  0.000011 -0.0001    1.0560   
     5. B(H   4,C   1)                1.0541 -0.000013  0.0000    1.0541   
     6. A(C   1,C   0,O   2)           65.84  0.000222   -0.12     65.72   
     7. A(O   2,C   0,H   3)          132.39 -0.000021    0.12    132.51   
     8. A(C   1,C   0,H   3)          161.77 -0.000201    0.00    161.77   
     9. A(C   0,C   1,H   4)          166.11  0.000288   -0.24    165.88   
    10. A(C   0,C   1,O   2)           62.74 -0.000262    0.11     62.84   
    11. A(O   2,C   1,H   4)          131.15 -0.000026    0.13    131.28   
    12. A(C   0,O   2,C   1)           51.42  0.000040    0.01     51.43   
    13. D(O   2,C   1,C   0,H   3)   -180.00  0.000000   -0.00   -180.00   
    14. D(H   4,C   1,C   0,H   3)      0.00  0.000000   -0.00      0.00   
    15. D(H   4,C   1,C   0,O   2)   -180.00  0.000000    0.00   -180.00   
    16. D(C   0,O   2,C   1,H   4)    180.00  0.000000   -0.00    180.00   
    17. D(C   1,O   2,C   0,H   3)    180.00 -0.000000    0.00    180.00   
    ----------------------------------------------------------------------------

Geometry step timings:
Preparation and reading OPT file:      0.000 s ( 2.104 %)
Internal coordinates            :      0.000 s ( 2.665 %)
B/P matrices and projection     :      0.000 s (11.080 %)
Hessian update/contruction      :      0.000 s (20.056 %)
Making the step                 :      0.000 s (35.063 %)
Converting the step to Cartesian:      0.000 s ( 2.525 %)
Storing new data                :      0.000 s ( 3.086 %)
Checking convergence            :      0.000 s ( 4.628 %)
Final printing                  :      0.000 s (18.654 %)
Total time                      :      0.001 s

Time for energy+gradient        :      0.026 s
Time for complete geometry iter :      0.027 s

         *************************************************************
         *                GEOMETRY OPTIMIZATION CYCLE  10            *
         *************************************************************
---------------------------------
CARTESIAN COORDINATES (ANGSTROEM)
---------------------------------
  C    -0.632593   -0.135460   -0.130294
  C     0.638304   -0.153043   -0.102373
  O    -0.024772    1.156536    0.103005
  H    -1.638592   -0.447261   -0.207486
  H     1.657654   -0.420773   -0.122875

----------------------------
CARTESIAN COORDINATES (A.U.)
----------------------------
  NO LB    ZA    FRAG    MASS        X           Y           Z
   0 C   6.0000    1    12.011   -1.195428   -0.255982   -0.246220
   1 C   6.0000    1    12.011    1.206219   -0.289210   -0.193456
   2 O   8.0000    1    15.999   -0.046812    2.185537    0.194650
   3 H   1.0000    1     1.008   -3.096490   -0.845200   -0.392091
   4 H   1.0000    1     1.008    3.132511   -0.795145   -0.232201

      -----------------------------------------------------------      
     |                   =====================                   |     
     |                           x T B                           |     
     |                   =====================                   |     
     |                         S. Grimme                         |     
     |          Mulliken Center for Theoretical Chemistry        |     
     |                    University of Bonn                     |     
      -----------------------------------------------------------      

   * xtb version 6.7.1 (edcfbbe) compiled by 'albert@albert-system' on 2024-07-22

   xtb is free software: you can redistribute it and/or modify it under
   the terms of the GNU Lesser General Public License as published by
   the Free Software Foundation, either version 3 of the License, or
   (at your option) any later version.
   
   xtb is distributed in the hope that it will be useful,
   but WITHOUT ANY WARRANTY; without even the implied warranty of
   MERCHANTABILITY or FITNESS FOR A PARTICULAR PURPOSE.  See the
   GNU Lesser General Public License for more details.
   
   Cite this work as:
   * C. Bannwarth, E. Caldeweyher, S. Ehlert, A. Hansen, P. Pracht,
     J. Seibert, S. Spicher, S. Grimme, WIREs Comput. Mol. Sci., 2020, 11,
     e01493. DOI: 10.1002/wcms.1493
   
   for GFN2-xTB:
   * C. Bannwarth, S. Ehlert and S. Grimme., J. Chem. Theory Comput., 2019,
     15, 1652-1671. DOI: 10.1021/acs.jctc.8b01176
   for GFN1-xTB:
   * S. Grimme, C. Bannwarth, P. Shushkov, J. Chem. Theory Comput., 2017,
     13, 1989-2009. DOI: 10.1021/acs.jctc.7b00118
   for GFN0-xTB:
   * P. Pracht, E. Caldeweyher, S. Ehlert, S. Grimme, ChemRxiv, 2019, preprint.
     DOI: 10.26434/chemrxiv.8326202.v1
   for GFN-FF:
   * S. Spicher and S. Grimme, Angew. Chem. Int. Ed., 2020, 59, 15665-15673.
     DOI: 10.1002/anie.202004239
   
   for ALPB and GBSA implicit solvation:
   * S. Ehlert, M. Stahn, S. Spicher, S. Grimme, J. Chem. Theory Comput.,
     2021, 17, 4250-4261. DOI: 10.1021/acs.jctc.1c00471
   
   for ddCOSMO and CPCM-X implicit solvation:
   * M. Stahn, S. Ehlert, S. Grimme, J. Phys. Chem. A,
     2023, XX, XXXX-XXXX. DOI: 10.1021/acs.jpca.3c04382
   
   for DFT-D4:
   * E. Caldeweyher, C. Bannwarth and S. Grimme, J. Chem. Phys., 2017,
     147, 034112. DOI: 10.1063/1.4993215
   * E. Caldeweyher, S. Ehlert, A. Hansen, H. Neugebauer, S. Spicher,
     C. Bannwarth and S. Grimme, J. Chem. Phys., 2019, 150, 154122.
     DOI: 10.1063/1.5090222
   * E. Caldeweyher, J.-M. Mewes, S. Ehlert and S. Grimme, Phys. Chem. Chem. Phys.
     2020, 22, 8499-8512. DOI: 10.1039/D0CP00502A
   
   for sTDA-xTB:
   * S. Grimme and C. Bannwarth, J. Chem. Phys., 2016, 145, 054103.
     DOI: 10.1063/1.4959605
   
   in the mass-spec context:
   * V. Asgeirsson, C. Bauer and S. Grimme, Chem. Sci., 2017, 8, 4879.
     DOI: 10.1039/c7sc00601b
   * J. Koopman and S. Grimme, ACS Omega 2019, 4, 12, 15120-15133.
     DOI: 10.1021/acsomega.9b02011
   
   for metadynamics refer to:
   * S. Grimme, J. Chem. Theory Comput., 2019, 155, 2847-2862
     DOI: 10.1021/acs.jctc.9b00143
   
   for SPH calculations refer to:
   * S. Spicher and S. Grimme, J. Chem. Theory Comput., 2021, 17, 1701-1714
     DOI: 10.1021/acs.jctc.0c01306
   
   for ONIOM refer to:
   * C. Plett, A. Katbashev, S. Ehlert, S. Grimme, M. Bursch,
     Phys. Chem. Chem. Phys., 2023, 25, 17860-17868. DOI: 10.1039/D3CP02178E
   
   for DIPRO refer to:
   * J. Kohn, N. Gildemeister, S. Grimme, D. Fazzi, A. Hansen,
     J. Chem. Phys., 2023, just accepted.
   
   for PTB refer to:
   * S. Grimme, M. Mueller, A. Hansen, J. Chem. Phys., 2023, 158, 124111.
     DOI: 10.1063/5.0137838
   
   with help from (in alphabetical order)
   P. Atkinson, C. Bannwarth, F. Bohle, G. Brandenburg, E. Caldeweyher
   M. Checinski, S. Dohm, S. Ehlert, S. Ehrlich, I. Gerasimov, C. Hölzer
   A. Katbashev, J. Kohn, J. Koopman, C. Lavigne, S. Lehtola, F. März, M. Müller,
   F. Musil, H. Neugebauer, J. Pisarek, C. Plett, P. Pracht, F. Pultar,
   J. Seibert, P. Shushkov, S. Spicher, M. Stahn, M. Steiner, T. Strunk,
   J. Stückrath, T. Rose, and J. Unsleber
   
 * started run on 2026/03/06 at 18:05:58.809     
   ID    Z sym.   atoms
    1    6 C      1, 2
    2    8 O      3
    3    1 H      4, 5

           -------------------------------------------------
          |                Calculation Setup                |
           -------------------------------------------------

          program call               : /apps/eb/ORCA/6.1.1-gompi-2024a-avx2/bin/otool_xtb goat_XTB.xyz --grad -c 0 -u 0 -P 8 --namespace goat --input goat_XTB.input.tmp --acc 0.200000
          hostname                   : ra8-10
          calculation namespace      : goat
          coordinate file            : goat_XTB.xyz
          omp threads                :                     8


           -------------------------------------------------
          |                 G F N 2 - x T B                 |
           -------------------------------------------------

        Reference                      10.1021/acs.jctc.8b01176
      * Hamiltonian:
        H0-scaling (s, p, d)           1.850000    2.230000    2.230000
        zeta-weighting                 0.500000
      * Dispersion:
        s8                             2.700000
        a1                             0.520000
        a2                             5.000000
        s9                             5.000000
      * Repulsion:
        kExp                           1.500000    1.000000
        rExp                           1.000000
      * Coulomb:
        alpha                          2.000000
        third order                    shell-resolved
        anisotropic                    true
        a3                             3.000000
        a5                             4.000000
        cn-shift                       1.200000
        cn-exp                         4.000000
        max-rad                        5.000000

q/qsh data taken from xtbrestart
CAMM data taken from xtbrestart

          ...................................................
          :                      SETUP                      :
          :.................................................:
          :  # basis functions                  14          :
          :  # atomic orbitals                  14          :
          :  # shells                            8          :
          :  # electrons                        16          :
          :  max. iterations                   250          :
          :  Hamiltonian                  GFN2-xTB          :
          :  restarted?                       true          :
          :  GBSA solvation                  false          :
          :  PC potential                    false          :
          :  electronic temp.          300.0000000     K    :
          :  accuracy                    0.2000000          :
          :  -> integral cutoff          0.3198970E+02      :
          :  -> integral neglect         0.2000000E-08      :
          :  -> SCF convergence          0.2000000E-06 Eh   :
          :  -> wf. convergence          0.2000000E-04 e    :
          :  Broyden damping             0.4000000          :
          :  net charge                          0          :
          :  unpaired electrons                  0          :
          ...................................................

 iter      E             dE          RMSdq      gap      omega  full diag
   1     -9.3408483 -0.934085E+01  0.394E-02    3.31       0.0  T
   2     -9.3408456  0.268585E-05  0.362E-02    3.31       1.2  T
   3     -9.3408516 -0.598551E-05  0.140E-02    3.31       3.2  T
   4     -9.3408519 -0.302448E-06  0.368E-04    3.31     121.6  T
   5     -9.3408519 -0.272582E-10  0.205E-04    3.31     218.1  T
   6     -9.3408519 -0.397993E-10  0.650E-05    3.31     688.1  T
   7     -9.3408519 -0.387601E-11  0.152E-05    3.31    2941.4  T

   *** convergence criteria satisfied after 7 iterations ***

         #    Occupation            Energy/Eh            Energy/eV
      -------------------------------------------------------------
         1        2.0000           -0.7142828             -19.4366
         2        2.0000           -0.6346498             -17.2697
         3        2.0000           -0.6018007             -16.3758
         4        2.0000           -0.5461402             -14.8612
         5        2.0000           -0.5354634             -14.5707
         6        2.0000           -0.5059311             -13.7671
         7        2.0000           -0.4971513             -13.5282
         8        2.0000           -0.3721067             -10.1255 (HOMO)
         9                         -0.2504529              -6.8152 (LUMO)
        10                         -0.0907417              -2.4692
        11                         -0.0192620              -0.5241
        12                          0.0329459               0.8965
        13                          0.2707768               7.3682
        14                          1.0107678              27.5044
      -------------------------------------------------------------
                  HL-Gap            0.1216538 Eh            3.3104 eV
             Fermi-level           -0.3112798 Eh           -8.4704 eV

 SCC (total)                   0 d,  0 h,  0 min,  0.012 sec
 SCC setup                      ...        0 min,  0.000 sec (  1.215%)
 Dispersion                     ...        0 min,  0.000 sec (  0.346%)
 classical contributions        ...        0 min,  0.000 sec (  0.161%)
 integral evaluation            ...        0 min,  0.000 sec (  1.249%)
 iterations                     ...        0 min,  0.011 sec ( 88.873%)
 molecular gradient             ...        0 min,  0.001 sec (  7.459%)
 printout                       ...        0 min,  0.000 sec (  0.497%)

         :::::::::::::::::::::::::::::::::::::::::::::::::::::
         ::                     SUMMARY                     ::
         :::::::::::::::::::::::::::::::::::::::::::::::::::::
         :: total energy              -9.216488933775 Eh    ::
         :: gradient norm              0.001570349261 Eh/a0 ::
         :: HOMO-LUMO gap              3.310368136401 eV    ::
         ::.................................................::
         :: SCC energy                -9.340851877655 Eh    ::
         :: -> isotropic ES            0.027758834788 Eh    ::
         :: -> anisotropic ES         -0.002965384069 Eh    ::
         :: -> anisotropic XC          0.003643430644 Eh    ::
         :: -> dispersion             -0.001339754939 Eh    ::
         :: repulsion energy           0.124362943880 Eh    ::
         :: add. restraining           0.000000000000 Eh    ::
         :: total charge              -0.000000000000 e     ::
         :::::::::::::::::::::::::::::::::::::::::::::::::::::


Property printout bound to 'properties.out'

           -------------------------------------------------
          | TOTAL ENERGY               -9.216488933775 Eh   |
          | GRADIENT NORM               0.001570349261 Eh/α |
          | HOMO-LUMO GAP               3.310368136401 eV   |
           -------------------------------------------------

------------------------------------------------------------------------
 * finished run on 2026/03/06 at 18:05:58.827     
------------------------------------------------------------------------
 total:
 * wall-time:     0 d,  0 h,  0 min,  0.018 sec
 *  cpu-time:     0 d,  0 h,  0 min,  0.119 sec
 * ratio c/w:     6.700 speedup
 SCF:
 * wall-time:     0 d,  0 h,  0 min,  0.012 sec
 *  cpu-time:     0 d,  0 h,  0 min,  0.084 sec
 * ratio c/w:     7.017 speedup


-------------------------   --------------------
FINAL SINGLE POINT ENERGY        -9.216488933770
-------------------------   --------------------


-------------
DIPOLE MOMENT
-------------
                                X             Y             Z
Total Dipole Moment    :      0.00600      -1.08700      -0.18400
                        -----------------------------------------
Magnitude (a.u.)       :      1.10248
Magnitude (Debye)      :      2.80228


------------------
CARTESIAN GRADIENT
------------------

   1   C   :    0.000492181    0.001154721    0.000207263
   2   C   :   -0.000222127   -0.000355258   -0.000065480
   3   O   :   -0.000343444   -0.000690153   -0.000125079
   4   H   :    0.000090127   -0.000199694   -0.000031582
   5   H   :   -0.000016737    0.000090384    0.000014877

Difference to translation invariance:
           :   -0.0000000000    0.0000000000    0.0000000000

Difference to rotation invariance:
           :   -0.0000000026   -0.0000000177    0.0000001049

Norm of the Cartesian gradient     ...    0.0015703493
RMS gradient                       ...    0.0004054624
MAX gradient                       ...    0.0011547212
------------------------------------------------------------------------------
                         ORCA GEOMETRY RELAXATION STEP
------------------------------------------------------------------------------

Reading the OPT-File                    .... done
Getting information on internals        .... done
Copying old internal coords+grads       .... done
Making the new internal coordinates     .... (2022 redundants) done
Validating the new internal coordinates .... (2022 redundants) done
Calculating the B-matrix                .... done
Calculating the G,G- and P matrices     .... done
Transforming gradient to internals      .... done
Projecting the internal gradient        .... done
Number of atoms                         ....   5
Number of internal coordinates          ....  17
Current Energy                          ....    -9.216488934 Eh
Current gradient norm                   ....     0.001570349 Eh/bohr
Maximum allowed component of the step   ....  0.300
Current trust radius                    ....  0.450
Updating the Hessian (BFGS)             .... done
Forming the augmented Hessian           .... done
Diagonalizing the augmented Hessian     .... done
Last element of RFO vector              ....  0.999887762
Lowest eigenvalues of augmented Hessian:
 -0.000007215  0.026209123  0.039274498  0.044543926  0.098609551
Length of the computed step             ....  0.014983762
The final length of the internal step   ....  0.014983762
Converting the step to Cartesian space:
 Initial RMS(Int)=    0.0036340960
Transforming coordinates:
 Iter   0:  RMS(Cart)=    0.0025323489 RMS(Int)=    0.0036339359
done
Storing new coordinates                 .... done
The predicted energy change is          ....    -0.000003608
Previously predicted energy change      ....    -0.000001858
Actually observed energy change         ....    -0.000002919
Ratio of predicted to observed change   ....     1.570799195
New trust radius                        ....     0.300000000

                                .--------------------.
          ----------------------|Geometry convergence|-------------------------
          Item                value                   Tolerance       Converged
          ---------------------------------------------------------------------
          Energy change      -0.0000029193            0.0000050000      YES
          RMS gradient        0.0002116691            0.0001000000      NO
          MAX gradient        0.0006527007            0.0003000000      NO
          RMS step            0.0036340960            0.0020000000      NO
          MAX step            0.0080218270            0.0040000000      NO
          -------------------------------------------------------------------------
          ........................................................
          Max(Bonds)      0.0040      Max(Angles)    0.46
          Max(Dihed)        0.00      Max(Improp)    0.00
          ---------------------------------------------------------------------

    ---------------------------------------------------------------------------
                         Redundant Internal Coordinates
                            (Angstroem and degrees)

        Definition                    Value    dE/dq     Step     New-Value
    ----------------------------------------------------------------------------
     1. B(C   1,C   0)                1.2713 -0.000278 -0.0002    1.2711   
     2. B(O   2,C   1)                1.4822 -0.000089 -0.0040    1.4782   
     3. B(O   2,C   0)                1.4468 -0.000653  0.0029    1.4497   
     4. B(H   3,C   0)                1.0560 -0.000025 -0.0002    1.0558   
     5. B(H   4,C   1)                1.0541 -0.000039  0.0002    1.0543   
     6. A(C   1,C   0,O   2)           65.72  0.000208   -0.29     65.43   
     7. A(O   2,C   0,H   3)          132.51  0.000116    0.10    132.61   
     8. A(C   1,C   0,H   3)          161.77 -0.000323    0.19    161.96   
     9. A(C   0,C   1,H   4)          165.88  0.000194   -0.46    165.42   
    10. A(C   0,C   1,O   2)           62.85 -0.000220    0.27     63.12   
    11. A(O   2,C   1,H   4)          131.28  0.000026    0.19    131.47   
    12. A(C   0,O   2,C   1)           51.43  0.000013    0.02     51.45   
    13. D(O   2,C   1,C   0,H   3)   -180.00  0.000000   -0.00   -180.00   
    14. D(H   4,C   1,C   0,H   3)      0.00  0.000000   -0.00      0.00   
    15. D(H   4,C   1,C   0,O   2)   -180.00  0.000000    0.00   -180.00   
    16. D(C   0,O   2,C   1,H   4)    180.00  0.000000   -0.00    180.00   
    17. D(C   1,O   2,C   0,H   3)    180.00 -0.000000    0.00    180.00   
    ----------------------------------------------------------------------------

Geometry step timings:
Preparation and reading OPT file:      0.000 s ( 2.896 %)
Internal coordinates            :      0.000 s ( 3.668 %)
B/P matrices and projection     :      0.000 s (13.707 %)
Hessian update/contruction      :      0.000 s (27.799 %)
Making the step                 :      0.000 s (12.355 %)
Converting the step to Cartesian:      0.000 s ( 3.668 %)
Storing new data                :      0.000 s ( 4.054 %)
Checking convergence            :      0.000 s ( 6.757 %)
Final printing                  :      0.000 s (24.903 %)
Total time                      :      0.001 s

Time for energy+gradient        :      0.028 s
Time for complete geometry iter :      0.029 s

         *************************************************************
         *                GEOMETRY OPTIMIZATION CYCLE  11            *
         *************************************************************
---------------------------------
CARTESIAN COORDINATES (ANGSTROEM)
---------------------------------
  C    -0.632988   -0.136723   -0.130517
  C     0.637734   -0.149677   -0.101817
  O    -0.022180    1.157047    0.103154
  H    -1.638630   -0.448845   -0.207755
  H     1.656063   -0.421802   -0.123088

----------------------------
CARTESIAN COORDINATES (A.U.)
----------------------------
  NO LB    ZA    FRAG    MASS        X           Y           Z
   0 C   6.0000    1    12.011   -1.196173   -0.258369   -0.246642
   1 C   6.0000    1    12.011    1.205143   -0.282849   -0.192406
   2 O   8.0000    1    15.999   -0.041913    2.186501    0.194933
   3 H   1.0000    1     1.008   -3.096562   -0.848194   -0.392600
   4 H   1.0000    1     1.008    3.129506   -0.797090   -0.232603

      -----------------------------------------------------------      
     |                   =====================                   |     
     |                           x T B                           |     
     |                   =====================                   |     
     |                         S. Grimme                         |     
     |          Mulliken Center for Theoretical Chemistry        |     
     |                    University of Bonn                     |     
      -----------------------------------------------------------      

   * xtb version 6.7.1 (edcfbbe) compiled by 'albert@albert-system' on 2024-07-22

   xtb is free software: you can redistribute it and/or modify it under
   the terms of the GNU Lesser General Public License as published by
   the Free Software Foundation, either version 3 of the License, or
   (at your option) any later version.
   
   xtb is distributed in the hope that it will be useful,
   but WITHOUT ANY WARRANTY; without even the implied warranty of
   MERCHANTABILITY or FITNESS FOR A PARTICULAR PURPOSE.  See the
   GNU Lesser General Public License for more details.
   
   Cite this work as:
   * C. Bannwarth, E. Caldeweyher, S. Ehlert, A. Hansen, P. Pracht,
     J. Seibert, S. Spicher, S. Grimme, WIREs Comput. Mol. Sci., 2020, 11,
     e01493. DOI: 10.1002/wcms.1493
   
   for GFN2-xTB:
   * C. Bannwarth, S. Ehlert and S. Grimme., J. Chem. Theory Comput., 2019,
     15, 1652-1671. DOI: 10.1021/acs.jctc.8b01176
   for GFN1-xTB:
   * S. Grimme, C. Bannwarth, P. Shushkov, J. Chem. Theory Comput., 2017,
     13, 1989-2009. DOI: 10.1021/acs.jctc.7b00118
   for GFN0-xTB:
   * P. Pracht, E. Caldeweyher, S. Ehlert, S. Grimme, ChemRxiv, 2019, preprint.
     DOI: 10.26434/chemrxiv.8326202.v1
   for GFN-FF:
   * S. Spicher and S. Grimme, Angew. Chem. Int. Ed., 2020, 59, 15665-15673.
     DOI: 10.1002/anie.202004239
   
   for ALPB and GBSA implicit solvation:
   * S. Ehlert, M. Stahn, S. Spicher, S. Grimme, J. Chem. Theory Comput.,
     2021, 17, 4250-4261. DOI: 10.1021/acs.jctc.1c00471
   
   for ddCOSMO and CPCM-X implicit solvation:
   * M. Stahn, S. Ehlert, S. Grimme, J. Phys. Chem. A,
     2023, XX, XXXX-XXXX. DOI: 10.1021/acs.jpca.3c04382
   
   for DFT-D4:
   * E. Caldeweyher, C. Bannwarth and S. Grimme, J. Chem. Phys., 2017,
     147, 034112. DOI: 10.1063/1.4993215
   * E. Caldeweyher, S. Ehlert, A. Hansen, H. Neugebauer, S. Spicher,
     C. Bannwarth and S. Grimme, J. Chem. Phys., 2019, 150, 154122.
     DOI: 10.1063/1.5090222
   * E. Caldeweyher, J.-M. Mewes, S. Ehlert and S. Grimme, Phys. Chem. Chem. Phys.
     2020, 22, 8499-8512. DOI: 10.1039/D0CP00502A
   
   for sTDA-xTB:
   * S. Grimme and C. Bannwarth, J. Chem. Phys., 2016, 145, 054103.
     DOI: 10.1063/1.4959605
   
   in the mass-spec context:
   * V. Asgeirsson, C. Bauer and S. Grimme, Chem. Sci., 2017, 8, 4879.
     DOI: 10.1039/c7sc00601b
   * J. Koopman and S. Grimme, ACS Omega 2019, 4, 12, 15120-15133.
     DOI: 10.1021/acsomega.9b02011
   
   for metadynamics refer to:
   * S. Grimme, J. Chem. Theory Comput., 2019, 155, 2847-2862
     DOI: 10.1021/acs.jctc.9b00143
   
   for SPH calculations refer to:
   * S. Spicher and S. Grimme, J. Chem. Theory Comput., 2021, 17, 1701-1714
     DOI: 10.1021/acs.jctc.0c01306
   
   for ONIOM refer to:
   * C. Plett, A. Katbashev, S. Ehlert, S. Grimme, M. Bursch,
     Phys. Chem. Chem. Phys., 2023, 25, 17860-17868. DOI: 10.1039/D3CP02178E
   
   for DIPRO refer to:
   * J. Kohn, N. Gildemeister, S. Grimme, D. Fazzi, A. Hansen,
     J. Chem. Phys., 2023, just accepted.
   
   for PTB refer to:
   * S. Grimme, M. Mueller, A. Hansen, J. Chem. Phys., 2023, 158, 124111.
     DOI: 10.1063/5.0137838
   
   with help from (in alphabetical order)
   P. Atkinson, C. Bannwarth, F. Bohle, G. Brandenburg, E. Caldeweyher
   M. Checinski, S. Dohm, S. Ehlert, S. Ehrlich, I. Gerasimov, C. Hölzer
   A. Katbashev, J. Kohn, J. Koopman, C. Lavigne, S. Lehtola, F. März, M. Müller,
   F. Musil, H. Neugebauer, J. Pisarek, C. Plett, P. Pracht, F. Pultar,
   J. Seibert, P. Shushkov, S. Spicher, M. Stahn, M. Steiner, T. Strunk,
   J. Stückrath, T. Rose, and J. Unsleber
   
 * started run on 2026/03/06 at 18:05:58.838     
   ID    Z sym.   atoms
    1    6 C      1, 2
    2    8 O      3
    3    1 H      4, 5

           -------------------------------------------------
          |                Calculation Setup                |
           -------------------------------------------------

          program call               : /apps/eb/ORCA/6.1.1-gompi-2024a-avx2/bin/otool_xtb goat_XTB.xyz --grad -c 0 -u 0 -P 8 --namespace goat --input goat_XTB.input.tmp --acc 0.200000
          hostname                   : ra8-10
          calculation namespace      : goat
          coordinate file            : goat_XTB.xyz
          omp threads                :                     8


           -------------------------------------------------
          |                 G F N 2 - x T B                 |
           -------------------------------------------------

        Reference                      10.1021/acs.jctc.8b01176
      * Hamiltonian:
        H0-scaling (s, p, d)           1.850000    2.230000    2.230000
        zeta-weighting                 0.500000
      * Dispersion:
        s8                             2.700000
        a1                             0.520000
        a2                             5.000000
        s9                             5.000000
      * Repulsion:
        kExp                           1.500000    1.000000
        rExp                           1.000000
      * Coulomb:
        alpha                          2.000000
        third order                    shell-resolved
        anisotropic                    true
        a3                             3.000000
        a5                             4.000000
        cn-shift                       1.200000
        cn-exp                         4.000000
        max-rad                        5.000000

q/qsh data taken from xtbrestart
CAMM data taken from xtbrestart

          ...................................................
          :                      SETUP                      :
          :.................................................:
          :  # basis functions                  14          :
          :  # atomic orbitals                  14          :
          :  # shells                            8          :
          :  # electrons                        16          :
          :  max. iterations                   250          :
          :  Hamiltonian                  GFN2-xTB          :
          :  restarted?                       true          :
          :  GBSA solvation                  false          :
          :  PC potential                    false          :
          :  electronic temp.          300.0000000     K    :
          :  accuracy                    0.2000000          :
          :  -> integral cutoff          0.3198970E+02      :
          :  -> integral neglect         0.2000000E-08      :
          :  -> SCF convergence          0.2000000E-06 Eh   :
          :  -> wf. convergence          0.2000000E-04 e    :
          :  Broyden damping             0.4000000          :
          :  net charge                          0          :
          :  unpaired electrons                  0          :
          ...................................................

 iter      E             dE          RMSdq      gap      omega  full diag
   1     -9.3409528 -0.934095E+01  0.940E-02    3.31       0.0  T
   2     -9.3409363  0.164802E-04  0.886E-02    3.31       1.0  T
   3     -9.3409733 -0.370219E-04  0.310E-02    3.31       1.4  T
   4     -9.3409748 -0.154161E-05  0.585E-04    3.31      76.4  T
   5     -9.3409748 -0.578346E-10  0.406E-04    3.31     110.1  T
   6     -9.3409748 -0.187189E-09  0.585E-05    3.31     764.8  T
   7     -9.3409748 -0.180833E-11  0.218E-05    3.31    2052.3  T

   *** convergence criteria satisfied after 7 iterations ***

         #    Occupation            Energy/Eh            Energy/eV
      -------------------------------------------------------------
         1        2.0000           -0.7143441             -19.4383
         2        2.0000           -0.6346698             -17.2702
         3        2.0000           -0.6018122             -16.3761
         4        2.0000           -0.5461906             -14.8626
         5        2.0000           -0.5355338             -14.5726
         6        2.0000           -0.5054683             -13.7545
         7        2.0000           -0.4977012             -13.5431
         8        2.0000           -0.3720125             -10.1230 (HOMO)
         9                         -0.2504558              -6.8152 (LUMO)
        10                         -0.0890377              -2.4228
        11                         -0.0206105              -0.5608
        12                          0.0334933               0.9114
        13                          0.2709447               7.3728
        14                          1.0110757              27.5128
      -------------------------------------------------------------
                  HL-Gap            0.1215567 Eh            3.3077 eV
             Fermi-level           -0.3112342 Eh           -8.4691 eV

 SCC (total)                   0 d,  0 h,  0 min,  0.009 sec
 SCC setup                      ...        0 min,  0.000 sec (  1.672%)
 Dispersion                     ...        0 min,  0.000 sec (  0.474%)
 classical contributions        ...        0 min,  0.000 sec (  0.202%)
 integral evaluation            ...        0 min,  0.000 sec (  1.750%)
 iterations                     ...        0 min,  0.008 sec ( 86.483%)
 molecular gradient             ...        0 min,  0.001 sec (  8.400%)
 printout                       ...        0 min,  0.000 sec (  0.721%)

         :::::::::::::::::::::::::::::::::::::::::::::::::::::
         ::                     SUMMARY                     ::
         :::::::::::::::::::::::::::::::::::::::::::::::::::::
         :: total energy              -9.216494479470 Eh    ::
         :: gradient norm              0.002038889588 Eh/a0 ::
         :: HOMO-LUMO gap              3.307727297076 eV    ::
         ::.................................................::
         :: SCC energy                -9.340974828668 Eh    ::
         :: -> isotropic ES            0.027729399738 Eh    ::
         :: -> anisotropic ES         -0.002929918985 Eh    ::
         :: -> anisotropic XC          0.003612204514 Eh    ::
         :: -> dispersion             -0.001339906877 Eh    ::
         :: repulsion energy           0.124480349198 Eh    ::
         :: add. restraining           0.000000000000 Eh    ::
         :: total charge               0.000000000000 e     ::
         :::::::::::::::::::::::::::::::::::::::::::::::::::::


Property printout bound to 'properties.out'

           -------------------------------------------------
          | TOTAL ENERGY               -9.216494479470 Eh   |
          | GRADIENT NORM               0.002038889588 Eh/α |
          | HOMO-LUMO GAP               3.307727297076 eV   |
           -------------------------------------------------

------------------------------------------------------------------------
 * finished run on 2026/03/06 at 18:05:58.854     
------------------------------------------------------------------------
 total:
 * wall-time:     0 d,  0 h,  0 min,  0.015 sec
 *  cpu-time:     0 d,  0 h,  0 min,  0.100 sec
 * ratio c/w:     6.624 speedup
 SCF:
 * wall-time:     0 d,  0 h,  0 min,  0.009 sec
 *  cpu-time:     0 d,  0 h,  0 min,  0.063 sec
 * ratio c/w:     7.021 speedup


-------------------------   --------------------
FINAL SINGLE POINT ENERGY        -9.216494479470
-------------------------   --------------------


-------------
DIPOLE MOMENT
-------------
                                X             Y             Z
Total Dipole Moment    :      0.00700      -1.08700      -0.18400
                        -----------------------------------------
Magnitude (a.u.)       :      1.10249
Magnitude (Debye)      :      2.80230


------------------
CARTESIAN GRADIENT
------------------

   1   C   :    0.000685777    0.001361881    0.000247010
   2   C   :   -0.000621041    0.000025107   -0.000010843
   3   O   :   -0.000175141   -0.001084555   -0.000187695
   4   H   :    0.000173934   -0.000324213   -0.000050607
   5   H   :   -0.000063530    0.000021780    0.000002135

Difference to translation invariance:
           :    0.0000000000    0.0000000000    0.0000000000

Difference to rotation invariance:
           :   -0.0000000032   -0.0000000223    0.0000001319

Norm of the Cartesian gradient     ...    0.0020388896
RMS gradient                       ...    0.0005264390
MAX gradient                       ...    0.0013618810
------------------------------------------------------------------------------
                         ORCA GEOMETRY RELAXATION STEP
------------------------------------------------------------------------------

Reading the OPT-File                    .... done
Getting information on internals        .... done
Copying old internal coords+grads       .... done
Making the new internal coordinates     .... (2022 redundants) done
Validating the new internal coordinates .... (2022 redundants) done
Calculating the B-matrix                .... done
Calculating the G,G- and P matrices     .... done
Transforming gradient to internals      .... done
Projecting the internal gradient        .... done
Number of atoms                         ....   5
Number of internal coordinates          ....  17
Current Energy                          ....    -9.216494479 Eh
Current gradient norm                   ....     0.002038890 Eh/bohr
Maximum allowed component of the step   ....  0.300
Current trust radius                    ....  0.300
Updating the Hessian (BFGS)             .... done
Forming the augmented Hessian           .... done
Diagonalizing the augmented Hessian     .... done
Last element of RFO vector              ....  0.999674327
Lowest eigenvalues of augmented Hessian:
 -0.000011042  0.013048902  0.039274498  0.044543926  0.095619412
Length of the computed step             ....  0.025527726
The final length of the internal step   ....  0.025527726
Converting the step to Cartesian space:
 Initial RMS(Int)=    0.0061913829
Transforming coordinates:
 Iter   0:  RMS(Cart)=    0.0038785156 RMS(Int)=    0.0061912433
done
Storing new coordinates                 .... done
The predicted energy change is          ....    -0.000005525
Previously predicted energy change      ....    -0.000003608
Actually observed energy change         ....    -0.000005546
Ratio of predicted to observed change   ....     1.536896647
New trust radius                        ....     0.200000000

                                .--------------------.
          ----------------------|Geometry convergence|-------------------------
          Item                value                   Tolerance       Converged
          ---------------------------------------------------------------------
          Energy change      -0.0000055457            0.0000050000      NO
          RMS gradient        0.0002888471            0.0001000000      NO
          MAX gradient        0.0007773609            0.0003000000      NO
          RMS step            0.0061913829            0.0020000000      NO
          MAX step            0.0121242827            0.0040000000      NO
          -------------------------------------------------------------------------
          ........................................................
          Max(Bonds)      0.0063      Max(Angles)    0.69
          Max(Dihed)        0.00      Max(Improp)    0.00
          ---------------------------------------------------------------------

    ---------------------------------------------------------------------------
                         Redundant Internal Coordinates
                            (Angstroem and degrees)

        Definition                    Value    dE/dq     Step     New-Value
    ----------------------------------------------------------------------------
     1. B(C   1,C   0)                1.2711 -0.000563 -0.0002    1.2710   
     2. B(O   2,C   1)                1.4782 -0.000394 -0.0063    1.4719   
     3. B(O   2,C   0)                1.4497 -0.000777  0.0057    1.4554   
     4. B(H   3,C   0)                1.0558 -0.000066 -0.0004    1.0554   
     5. B(H   4,C   1)                1.0543 -0.000067  0.0003    1.0546   
     6. A(C   1,C   0,O   2)           65.43  0.000161   -0.50     64.94   
     7. A(O   2,C   0,H   3)          132.61  0.000284   -0.03    132.57   
     8. A(C   1,C   0,H   3)          161.96 -0.000445    0.53    162.49   
     9. A(C   0,C   1,H   4)          165.42  0.000073   -0.69    164.72   
    10. A(C   0,C   1,O   2)           63.12 -0.000136    0.48     63.60   
    11. A(O   2,C   1,H   4)          131.47  0.000063    0.21    131.68   
    12. A(C   0,O   2,C   1)           51.45 -0.000025    0.01     51.46   
    13. D(O   2,C   1,C   0,H   3)   -180.00 -0.000000   -0.00   -180.00   
    14. D(H   4,C   1,C   0,H   3)      0.00  0.000000   -0.00      0.00   
    15. D(H   4,C   1,C   0,O   2)   -180.00  0.000000   -0.00   -180.00   
    16. D(C   0,O   2,C   1,H   4)    180.00 -0.000000   -0.00    180.00   
    17. D(C   1,O   2,C   0,H   3)    180.00 -0.000000    0.00    180.00   
    ----------------------------------------------------------------------------

Geometry step timings:
Preparation and reading OPT file:      0.000 s ( 2.924 %)
Internal coordinates            :      0.000 s ( 3.899 %)
B/P matrices and projection     :      0.000 s (13.450 %)
Hessian update/contruction      :      0.000 s (27.875 %)
Making the step                 :      0.000 s (12.281 %)
Converting the step to Cartesian:      0.000 s ( 3.314 %)
Storing new data                :      0.000 s ( 3.899 %)
Checking convergence            :      0.000 s ( 6.433 %)
Final printing                  :      0.000 s (25.731 %)
Total time                      :      0.001 s

Time for energy+gradient        :      0.026 s
Time for complete geometry iter :      0.027 s

         *************************************************************
         *                GEOMETRY OPTIMIZATION CYCLE  12            *
         *************************************************************
---------------------------------
CARTESIAN COORDINATES (ANGSTROEM)
---------------------------------
  C    -0.633590   -0.140347   -0.131145
  C     0.637018   -0.144780   -0.101006
  O    -0.017951    1.157418    0.103320
  H    -1.639657   -0.449953   -0.207967
  H     1.654180   -0.422338   -0.123224

----------------------------
CARTESIAN COORDINATES (A.U.)
----------------------------
  NO LB    ZA    FRAG    MASS        X           Y           Z
   0 C   6.0000    1    12.011   -1.197312   -0.265217   -0.247828
   1 C   6.0000    1    12.011    1.203790   -0.273595   -0.190874
   2 O   8.0000    1    15.999   -0.033923    2.187204    0.195246
   3 H   1.0000    1     1.008   -3.098503   -0.850288   -0.393001
   4 H   1.0000    1     1.008    3.125947   -0.798103   -0.232860

      -----------------------------------------------------------      
     |                   =====================                   |     
     |                           x T B                           |     
     |                   =====================                   |     
     |                         S. Grimme                         |     
     |          Mulliken Center for Theoretical Chemistry        |     
     |                    University of Bonn                     |     
      -----------------------------------------------------------      

   * xtb version 6.7.1 (edcfbbe) compiled by 'albert@albert-system' on 2024-07-22

   xtb is free software: you can redistribute it and/or modify it under
   the terms of the GNU Lesser General Public License as published by
   the Free Software Foundation, either version 3 of the License, or
   (at your option) any later version.
   
   xtb is distributed in the hope that it will be useful,
   but WITHOUT ANY WARRANTY; without even the implied warranty of
   MERCHANTABILITY or FITNESS FOR A PARTICULAR PURPOSE.  See the
   GNU Lesser General Public License for more details.
   
   Cite this work as:
   * C. Bannwarth, E. Caldeweyher, S. Ehlert, A. Hansen, P. Pracht,
     J. Seibert, S. Spicher, S. Grimme, WIREs Comput. Mol. Sci., 2020, 11,
     e01493. DOI: 10.1002/wcms.1493
   
   for GFN2-xTB:
   * C. Bannwarth, S. Ehlert and S. Grimme., J. Chem. Theory Comput., 2019,
     15, 1652-1671. DOI: 10.1021/acs.jctc.8b01176
   for GFN1-xTB:
   * S. Grimme, C. Bannwarth, P. Shushkov, J. Chem. Theory Comput., 2017,
     13, 1989-2009. DOI: 10.1021/acs.jctc.7b00118
   for GFN0-xTB:
   * P. Pracht, E. Caldeweyher, S. Ehlert, S. Grimme, ChemRxiv, 2019, preprint.
     DOI: 10.26434/chemrxiv.8326202.v1
   for GFN-FF:
   * S. Spicher and S. Grimme, Angew. Chem. Int. Ed., 2020, 59, 15665-15673.
     DOI: 10.1002/anie.202004239
   
   for ALPB and GBSA implicit solvation:
   * S. Ehlert, M. Stahn, S. Spicher, S. Grimme, J. Chem. Theory Comput.,
     2021, 17, 4250-4261. DOI: 10.1021/acs.jctc.1c00471
   
   for ddCOSMO and CPCM-X implicit solvation:
   * M. Stahn, S. Ehlert, S. Grimme, J. Phys. Chem. A,
     2023, XX, XXXX-XXXX. DOI: 10.1021/acs.jpca.3c04382
   
   for DFT-D4:
   * E. Caldeweyher, C. Bannwarth and S. Grimme, J. Chem. Phys., 2017,
     147, 034112. DOI: 10.1063/1.4993215
   * E. Caldeweyher, S. Ehlert, A. Hansen, H. Neugebauer, S. Spicher,
     C. Bannwarth and S. Grimme, J. Chem. Phys., 2019, 150, 154122.
     DOI: 10.1063/1.5090222
   * E. Caldeweyher, J.-M. Mewes, S. Ehlert and S. Grimme, Phys. Chem. Chem. Phys.
     2020, 22, 8499-8512. DOI: 10.1039/D0CP00502A
   
   for sTDA-xTB:
   * S. Grimme and C. Bannwarth, J. Chem. Phys., 2016, 145, 054103.
     DOI: 10.1063/1.4959605
   
   in the mass-spec context:
   * V. Asgeirsson, C. Bauer and S. Grimme, Chem. Sci., 2017, 8, 4879.
     DOI: 10.1039/c7sc00601b
   * J. Koopman and S. Grimme, ACS Omega 2019, 4, 12, 15120-15133.
     DOI: 10.1021/acsomega.9b02011
   
   for metadynamics refer to:
   * S. Grimme, J. Chem. Theory Comput., 2019, 155, 2847-2862
     DOI: 10.1021/acs.jctc.9b00143
   
   for SPH calculations refer to:
   * S. Spicher and S. Grimme, J. Chem. Theory Comput., 2021, 17, 1701-1714
     DOI: 10.1021/acs.jctc.0c01306
   
   for ONIOM refer to:
   * C. Plett, A. Katbashev, S. Ehlert, S. Grimme, M. Bursch,
     Phys. Chem. Chem. Phys., 2023, 25, 17860-17868. DOI: 10.1039/D3CP02178E
   
   for DIPRO refer to:
   * J. Kohn, N. Gildemeister, S. Grimme, D. Fazzi, A. Hansen,
     J. Chem. Phys., 2023, just accepted.
   
   for PTB refer to:
   * S. Grimme, M. Mueller, A. Hansen, J. Chem. Phys., 2023, 158, 124111.
     DOI: 10.1063/5.0137838
   
   with help from (in alphabetical order)
   P. Atkinson, C. Bannwarth, F. Bohle, G. Brandenburg, E. Caldeweyher
   M. Checinski, S. Dohm, S. Ehlert, S. Ehrlich, I. Gerasimov, C. Hölzer
   A. Katbashev, J. Kohn, J. Koopman, C. Lavigne, S. Lehtola, F. März, M. Müller,
   F. Musil, H. Neugebauer, J. Pisarek, C. Plett, P. Pracht, F. Pultar,
   J. Seibert, P. Shushkov, S. Spicher, M. Stahn, M. Steiner, T. Strunk,
   J. Stückrath, T. Rose, and J. Unsleber
   
 * started run on 2026/03/06 at 18:05:58.865     
   ID    Z sym.   atoms
    1    6 C      1, 2
    2    8 O      3
    3    1 H      4, 5

           -------------------------------------------------
          |                Calculation Setup                |
           -------------------------------------------------

          program call               : /apps/eb/ORCA/6.1.1-gompi-2024a-avx2/bin/otool_xtb goat_XTB.xyz --grad -c 0 -u 0 -P 8 --namespace goat --input goat_XTB.input.tmp --acc 0.200000
          hostname                   : ra8-10
          calculation namespace      : goat
          coordinate file            : goat_XTB.xyz
          omp threads                :                     8


           -------------------------------------------------
          |                 G F N 2 - x T B                 |
           -------------------------------------------------

        Reference                      10.1021/acs.jctc.8b01176
      * Hamiltonian:
        H0-scaling (s, p, d)           1.850000    2.230000    2.230000
        zeta-weighting                 0.500000
      * Dispersion:
        s8                             2.700000
        a1                             0.520000
        a2                             5.000000
        s9                             5.000000
      * Repulsion:
        kExp                           1.500000    1.000000
        rExp                           1.000000
      * Coulomb:
        alpha                          2.000000
        third order                    shell-resolved
        anisotropic                    true
        a3                             3.000000
        a5                             4.000000
        cn-shift                       1.200000
        cn-exp                         4.000000
        max-rad                        5.000000

q/qsh data taken from xtbrestart
CAMM data taken from xtbrestart

          ...................................................
          :                      SETUP                      :
          :.................................................:
          :  # basis functions                  14          :
          :  # atomic orbitals                  14          :
          :  # shells                            8          :
          :  # electrons                        16          :
          :  max. iterations                   250          :
          :  Hamiltonian                  GFN2-xTB          :
          :  restarted?                       true          :
          :  GBSA solvation                  false          :
          :  PC potential                    false          :
          :  electronic temp.          300.0000000     K    :
          :  accuracy                    0.2000000          :
          :  -> integral cutoff          0.3198970E+02      :
          :  -> integral neglect         0.2000000E-08      :
          :  -> SCF convergence          0.2000000E-06 Eh   :
          :  -> wf. convergence          0.2000000E-04 e    :
          :  Broyden damping             0.4000000          :
          :  net charge                          0          :
          :  unpaired electrons                  0          :
          ...................................................

 iter      E             dE          RMSdq      gap      omega  full diag
   1     -9.3409636 -0.934096E+01  0.165E-01    3.30       0.0  T
   2     -9.3409119  0.517068E-04  0.157E-01    3.30       1.0  T
   3     -9.3410283 -0.116455E-03  0.538E-02    3.30       1.0  T
   4     -9.3410330 -0.466586E-05  0.951E-04    3.30      47.0  T
   5     -9.3410330 -0.164071E-09  0.681E-04    3.30      65.7  T
   6     -9.3410330 -0.568258E-09  0.697E-05    3.30     641.8  T
   7     -9.3410330 -0.763833E-12  0.382E-05    3.30    1170.0  T

   *** convergence criteria satisfied after 7 iterations ***

         #    Occupation            Energy/Eh            Energy/eV
      -------------------------------------------------------------
         1        2.0000           -0.7143460             -19.4383
         2        2.0000           -0.6346552             -17.2698
         3        2.0000           -0.6018139             -16.3762
         4        2.0000           -0.5462279             -14.8636
         5        2.0000           -0.5355400             -14.5728
         6        2.0000           -0.5048414             -13.7374
         7        2.0000           -0.4983853             -13.5618
         8        2.0000           -0.3719472             -10.1212 (HOMO)
         9                         -0.2505156              -6.8169 (LUMO)
        10                         -0.0870554              -2.3689
        11                         -0.0226163              -0.6154
        12                          0.0337917               0.9195
        13                          0.2708923               7.3714
        14                          1.0112615              27.5178
      -------------------------------------------------------------
                  HL-Gap            0.1214316 Eh            3.3043 eV
             Fermi-level           -0.3112314 Eh           -8.4690 eV

 SCC (total)                   0 d,  0 h,  0 min,  0.012 sec
 SCC setup                      ...        0 min,  0.000 sec (  1.064%)
 Dispersion                     ...        0 min,  0.000 sec (  0.304%)
 classical contributions        ...        0 min,  0.000 sec (  0.143%)
 integral evaluation            ...        0 min,  0.000 sec (  1.183%)
 iterations                     ...        0 min,  0.011 sec ( 90.508%)
 molecular gradient             ...        0 min,  0.001 sec (  6.112%)
 printout                       ...        0 min,  0.000 sec (  0.482%)

         :::::::::::::::::::::::::::::::::::::::::::::::::::::
         ::                     SUMMARY                     ::
         :::::::::::::::::::::::::::::::::::::::::::::::::::::
         :: total energy              -9.216502532781 Eh    ::
         :: gradient norm              0.002184949448 Eh/a0 ::
         :: HOMO-LUMO gap              3.304321631596 eV    ::
         ::.................................................::
         :: SCC energy                -9.341032988890 Eh    ::
         :: -> isotropic ES            0.027729367236 Eh    ::
         :: -> anisotropic ES         -0.002908002618 Eh    ::
         :: -> anisotropic XC          0.003593134673 Eh    ::
         :: -> dispersion             -0.001339966949 Eh    ::
         :: repulsion energy           0.124530456109 Eh    ::
         :: add. restraining           0.000000000000 Eh    ::
         :: total charge              -0.000000000000 e     ::
         :::::::::::::::::::::::::::::::::::::::::::::::::::::


Property printout bound to 'properties.out'

           -------------------------------------------------
          | TOTAL ENERGY               -9.216502532781 Eh   |
          | GRADIENT NORM               0.002184949448 Eh/α |
          | HOMO-LUMO GAP               3.304321631596 eV   |
           -------------------------------------------------

------------------------------------------------------------------------
 * finished run on 2026/03/06 at 18:05:58.884     
------------------------------------------------------------------------
 total:
 * wall-time:     0 d,  0 h,  0 min,  0.018 sec
 *  cpu-time:     0 d,  0 h,  0 min,  0.118 sec
 * ratio c/w:     6.600 speedup
 SCF:
 * wall-time:     0 d,  0 h,  0 min,  0.012 sec
 *  cpu-time:     0 d,  0 h,  0 min,  0.084 sec
 * ratio c/w:     7.010 speedup


-------------------------   --------------------
FINAL SINGLE POINT ENERGY        -9.216502532780
-------------------------   --------------------


-------------
DIPOLE MOMENT
-------------
                                X             Y             Z
Total Dipole Moment    :      0.00900      -1.08900      -0.18400
                        -----------------------------------------
Magnitude (a.u.)       :      1.10447
Magnitude (Debye)      :      2.80734


------------------
CARTESIAN GRADIENT
------------------

   1   C   :    0.000687174    0.001276374    0.000232585
   2   C   :   -0.000880097    0.000341508    0.000036376
   3   O   :    0.000058361   -0.001213096   -0.000203761
   4   H   :    0.000220158   -0.000386998   -0.000060105
   5   H   :   -0.000085597   -0.000017788   -0.000005095

Difference to translation invariance:
           :   -0.0000000000   -0.0000000000   -0.0000000000

Difference to rotation invariance:
           :   -0.0000000058   -0.0000000406    0.0000002402

Norm of the Cartesian gradient     ...    0.0021849494
RMS gradient                       ...    0.0005641515
MAX gradient                       ...    0.0012763742
------------------------------------------------------------------------------
                         ORCA GEOMETRY RELAXATION STEP
------------------------------------------------------------------------------

Reading the OPT-File                    .... done
Getting information on internals        .... done
Copying old internal coords+grads       .... done
Making the new internal coordinates     .... (2022 redundants) done
Validating the new internal coordinates .... (2022 redundants) done
Calculating the B-matrix                .... done
Calculating the G,G- and P matrices     .... done
Transforming gradient to internals      .... done
Projecting the internal gradient        .... done
Number of atoms                         ....   5
Number of internal coordinates          ....  17
Current Energy                          ....    -9.216502533 Eh
Current gradient norm                   ....     0.002184949 Eh/bohr
Maximum allowed component of the step   ....  0.300
Current trust radius                    ....  0.200
Updating the Hessian (BFGS)             .... done
Forming the augmented Hessian           .... done
Diagonalizing the augmented Hessian     .... done
Last element of RFO vector              ....  0.999652549
Lowest eigenvalues of augmented Hessian:
 -0.000010246  0.008876770  0.039274498  0.044543926  0.089658769
Length of the computed step             ....  0.026367873
The final length of the internal step   ....  0.026367873
Converting the step to Cartesian space:
 Initial RMS(Int)=    0.0063951486
Transforming coordinates:
 Iter   0:  RMS(Cart)=    0.0038764885 RMS(Int)=    0.0063951653
done
Storing new coordinates                 .... done
The predicted energy change is          ....    -0.000005127
Previously predicted energy change      ....    -0.000005525
Actually observed energy change         ....    -0.000008053
Ratio of predicted to observed change   ....     1.457669973
New trust radius                        ....     0.200000000

                                .--------------------.
          ----------------------|Geometry convergence|-------------------------
          Item                value                   Tolerance       Converged
          ---------------------------------------------------------------------
          Energy change      -0.0000080533            0.0000050000      NO
          RMS gradient        0.0003229430            0.0001000000      NO
          MAX gradient        0.0007093949            0.0003000000      NO
          RMS step            0.0063951486            0.0020000000      NO
          MAX step            0.0126867977            0.0040000000      NO
          -------------------------------------------------------------------------
          ........................................................
          Max(Bonds)      0.0064      Max(Angles)    0.73
          Max(Dihed)        0.00      Max(Improp)    0.00
          ---------------------------------------------------------------------

    ---------------------------------------------------------------------------
                         Redundant Internal Coordinates
                            (Angstroem and degrees)

        Definition                    Value    dE/dq     Step     New-Value
    ----------------------------------------------------------------------------
     1. B(C   1,C   0)                1.2710 -0.000701  0.0001    1.2711   
     2. B(O   2,C   1)                1.4719 -0.000605 -0.0056    1.4663   
     3. B(O   2,C   0)                1.4554 -0.000709  0.0064    1.4618   
     4. B(H   3,C   0)                1.0554 -0.000092 -0.0003    1.0551   
     5. B(H   4,C   1)                1.0546 -0.000078  0.0003    1.0549   
     6. A(C   1,C   0,O   2)           64.94  0.000069   -0.48     64.45   
     7. A(O   2,C   0,H   3)          132.57  0.000404   -0.24    132.33   
     8. A(C   1,C   0,H   3)          162.49 -0.000473    0.73    163.22   
     9. A(C   0,C   1,H   4)          164.72 -0.000032   -0.60    164.12   
    10. A(C   0,C   1,O   2)           63.60 -0.000016    0.49     64.09   
    11. A(O   2,C   1,H   4)          131.68  0.000048    0.11    131.79   
    12. A(C   0,O   2,C   1)           51.46 -0.000053   -0.01     51.46   
    13. D(O   2,C   1,C   0,H   3)   -180.00 -0.000000   -0.00   -180.00   
    14. D(H   4,C   1,C   0,H   3)      0.00  0.000000   -0.00      0.00   
    15. D(H   4,C   1,C   0,O   2)   -180.00  0.000000   -0.00   -180.00   
    16. D(C   0,O   2,C   1,H   4)    180.00 -0.000000    0.00    180.00   
    17. D(C   1,O   2,C   0,H   3)    180.00  0.000000    0.00    180.00   
    ----------------------------------------------------------------------------

Geometry step timings:
Preparation and reading OPT file:      0.000 s ( 2.947 %)
Internal coordinates            :      0.000 s ( 3.536 %)
B/P matrices and projection     :      0.000 s (14.538 %)
Hessian update/contruction      :      0.000 s (27.112 %)
Making the step                 :      0.000 s (12.377 %)
Converting the step to Cartesian:      0.000 s ( 3.536 %)
Storing new data                :      0.000 s ( 3.733 %)
Checking convergence            :      0.000 s ( 6.483 %)
Final printing                  :      0.000 s (25.540 %)
Total time                      :      0.001 s

Time for energy+gradient        :      0.029 s
Time for complete geometry iter :      0.030 s

         *************************************************************
         *                GEOMETRY OPTIMIZATION CYCLE  13            *
         *************************************************************
---------------------------------
CARTESIAN COORDINATES (ANGSTROEM)
---------------------------------
  C    -0.634078   -0.145370   -0.132006
  C     0.636586   -0.140786   -0.100341
  O    -0.014096    1.157315    0.103396
  H    -1.641578   -0.449432   -0.207926
  H     1.653166   -0.421727   -0.123146

----------------------------
CARTESIAN COORDINATES (A.U.)
----------------------------
  NO LB    ZA    FRAG    MASS        X           Y           Z
   0 C   6.0000    1    12.011   -1.198233   -0.274709   -0.249455
   1 C   6.0000    1    12.011    1.202972   -0.266048   -0.189617
   2 O   8.0000    1    15.999   -0.026638    2.187009    0.195390
   3 H   1.0000    1     1.008   -3.102132   -0.849304   -0.392923
   4 H   1.0000    1     1.008    3.124030   -0.796948   -0.232712

      -----------------------------------------------------------      
     |                   =====================                   |     
     |                           x T B                           |     
     |                   =====================                   |     
     |                         S. Grimme                         |     
     |          Mulliken Center for Theoretical Chemistry        |     
     |                    University of Bonn                     |     
      -----------------------------------------------------------      

   * xtb version 6.7.1 (edcfbbe) compiled by 'albert@albert-system' on 2024-07-22

   xtb is free software: you can redistribute it and/or modify it under
   the terms of the GNU Lesser General Public License as published by
   the Free Software Foundation, either version 3 of the License, or
   (at your option) any later version.
   
   xtb is distributed in the hope that it will be useful,
   but WITHOUT ANY WARRANTY; without even the implied warranty of
   MERCHANTABILITY or FITNESS FOR A PARTICULAR PURPOSE.  See the
   GNU Lesser General Public License for more details.
   
   Cite this work as:
   * C. Bannwarth, E. Caldeweyher, S. Ehlert, A. Hansen, P. Pracht,
     J. Seibert, S. Spicher, S. Grimme, WIREs Comput. Mol. Sci., 2020, 11,
     e01493. DOI: 10.1002/wcms.1493
   
   for GFN2-xTB:
   * C. Bannwarth, S. Ehlert and S. Grimme., J. Chem. Theory Comput., 2019,
     15, 1652-1671. DOI: 10.1021/acs.jctc.8b01176
   for GFN1-xTB:
   * S. Grimme, C. Bannwarth, P. Shushkov, J. Chem. Theory Comput., 2017,
     13, 1989-2009. DOI: 10.1021/acs.jctc.7b00118
   for GFN0-xTB:
   * P. Pracht, E. Caldeweyher, S. Ehlert, S. Grimme, ChemRxiv, 2019, preprint.
     DOI: 10.26434/chemrxiv.8326202.v1
   for GFN-FF:
   * S. Spicher and S. Grimme, Angew. Chem. Int. Ed., 2020, 59, 15665-15673.
     DOI: 10.1002/anie.202004239
   
   for ALPB and GBSA implicit solvation:
   * S. Ehlert, M. Stahn, S. Spicher, S. Grimme, J. Chem. Theory Comput.,
     2021, 17, 4250-4261. DOI: 10.1021/acs.jctc.1c00471
   
   for ddCOSMO and CPCM-X implicit solvation:
   * M. Stahn, S. Ehlert, S. Grimme, J. Phys. Chem. A,
     2023, XX, XXXX-XXXX. DOI: 10.1021/acs.jpca.3c04382
   
   for DFT-D4:
   * E. Caldeweyher, C. Bannwarth and S. Grimme, J. Chem. Phys., 2017,
     147, 034112. DOI: 10.1063/1.4993215
   * E. Caldeweyher, S. Ehlert, A. Hansen, H. Neugebauer, S. Spicher,
     C. Bannwarth and S. Grimme, J. Chem. Phys., 2019, 150, 154122.
     DOI: 10.1063/1.5090222
   * E. Caldeweyher, J.-M. Mewes, S. Ehlert and S. Grimme, Phys. Chem. Chem. Phys.
     2020, 22, 8499-8512. DOI: 10.1039/D0CP00502A
   
   for sTDA-xTB:
   * S. Grimme and C. Bannwarth, J. Chem. Phys., 2016, 145, 054103.
     DOI: 10.1063/1.4959605
   
   in the mass-spec context:
   * V. Asgeirsson, C. Bauer and S. Grimme, Chem. Sci., 2017, 8, 4879.
     DOI: 10.1039/c7sc00601b
   * J. Koopman and S. Grimme, ACS Omega 2019, 4, 12, 15120-15133.
     DOI: 10.1021/acsomega.9b02011
   
   for metadynamics refer to:
   * S. Grimme, J. Chem. Theory Comput., 2019, 155, 2847-2862
     DOI: 10.1021/acs.jctc.9b00143
   
   for SPH calculations refer to:
   * S. Spicher and S. Grimme, J. Chem. Theory Comput., 2021, 17, 1701-1714
     DOI: 10.1021/acs.jctc.0c01306
   
   for ONIOM refer to:
   * C. Plett, A. Katbashev, S. Ehlert, S. Grimme, M. Bursch,
     Phys. Chem. Chem. Phys., 2023, 25, 17860-17868. DOI: 10.1039/D3CP02178E
   
   for DIPRO refer to:
   * J. Kohn, N. Gildemeister, S. Grimme, D. Fazzi, A. Hansen,
     J. Chem. Phys., 2023, just accepted.
   
   for PTB refer to:
   * S. Grimme, M. Mueller, A. Hansen, J. Chem. Phys., 2023, 158, 124111.
     DOI: 10.1063/5.0137838
   
   with help from (in alphabetical order)
   P. Atkinson, C. Bannwarth, F. Bohle, G. Brandenburg, E. Caldeweyher
   M. Checinski, S. Dohm, S. Ehlert, S. Ehrlich, I. Gerasimov, C. Hölzer
   A. Katbashev, J. Kohn, J. Koopman, C. Lavigne, S. Lehtola, F. März, M. Müller,
   F. Musil, H. Neugebauer, J. Pisarek, C. Plett, P. Pracht, F. Pultar,
   J. Seibert, P. Shushkov, S. Spicher, M. Stahn, M. Steiner, T. Strunk,
   J. Stückrath, T. Rose, and J. Unsleber
   
 * started run on 2026/03/06 at 18:05:58.895     
   ID    Z sym.   atoms
    1    6 C      1, 2
    2    8 O      3
    3    1 H      4, 5

           -------------------------------------------------
          |                Calculation Setup                |
           -------------------------------------------------

          program call               : /apps/eb/ORCA/6.1.1-gompi-2024a-avx2/bin/otool_xtb goat_XTB.xyz --grad -c 0 -u 0 -P 8 --namespace goat --input goat_XTB.input.tmp --acc 0.200000
          hostname                   : ra8-10
          calculation namespace      : goat
          coordinate file            : goat_XTB.xyz
          omp threads                :                     8


           -------------------------------------------------
          |                 G F N 2 - x T B                 |
           -------------------------------------------------

        Reference                      10.1021/acs.jctc.8b01176
      * Hamiltonian:
        H0-scaling (s, p, d)           1.850000    2.230000    2.230000
        zeta-weighting                 0.500000
      * Dispersion:
        s8                             2.700000
        a1                             0.520000
        a2                             5.000000
        s9                             5.000000
      * Repulsion:
        kExp                           1.500000    1.000000
        rExp                           1.000000
      * Coulomb:
        alpha                          2.000000
        third order                    shell-resolved
        anisotropic                    true
        a3                             3.000000
        a5                             4.000000
        cn-shift                       1.200000
        cn-exp                         4.000000
        max-rad                        5.000000

q/qsh data taken from xtbrestart
CAMM data taken from xtbrestart

          ...................................................
          :                      SETUP                      :
          :.................................................:
          :  # basis functions                  14          :
          :  # atomic orbitals                  14          :
          :  # shells                            8          :
          :  # electrons                        16          :
          :  max. iterations                   250          :
          :  Hamiltonian                  GFN2-xTB          :
          :  restarted?                       true          :
          :  GBSA solvation                  false          :
          :  PC potential                    false          :
          :  electronic temp.          300.0000000     K    :
          :  accuracy                    0.2000000          :
          :  -> integral cutoff          0.3198970E+02      :
          :  -> integral neglect         0.2000000E-08      :
          :  -> SCF convergence          0.2000000E-06 Eh   :
          :  -> wf. convergence          0.2000000E-04 e    :
          :  Broyden damping             0.4000000          :
          :  net charge                          0          :
          :  unpaired electrons                  0          :
          ...................................................

 iter      E             dE          RMSdq      gap      omega  full diag
   1     -9.3408724 -0.934087E+01  0.167E-01    3.30       0.0  T
   2     -9.3408199  0.524661E-04  0.158E-01    3.30       1.0  T
   3     -9.3409380 -0.118096E-03  0.547E-02    3.30       1.0  T
   4     -9.3409428 -0.477991E-05  0.984E-04    3.30      45.4  T
   5     -9.3409428 -0.161501E-09  0.699E-04    3.30      64.0  T
   6     -9.3409428 -0.618297E-09  0.144E-04    3.30     310.2  T
   7     -9.3409428 -0.217444E-10  0.434E-05    3.30    1030.0  T

   *** convergence criteria satisfied after 7 iterations ***

         #    Occupation            Energy/Eh            Energy/eV
      -------------------------------------------------------------
         1        2.0000           -0.7142522             -19.4358
         2        2.0000           -0.6345992             -17.2683
         3        2.0000           -0.6017974             -16.3757
         4        2.0000           -0.5462149             -14.8633
         5        2.0000           -0.5354394             -14.5700
         6        2.0000           -0.5045757             -13.7302
         7        2.0000           -0.4986148             -13.5680
         8        2.0000           -0.3719853             -10.1222 (HOMO)
         9                         -0.2506141              -6.8196 (LUMO)
        10                         -0.0863526              -2.3498
        11                         -0.0239538              -0.6518
        12                          0.0334532               0.9103
        13                          0.2705489               7.3620
        14                          1.0110946              27.5133
      -------------------------------------------------------------
                  HL-Gap            0.1213711 Eh            3.3027 eV
             Fermi-level           -0.3112997 Eh           -8.4709 eV

 SCC (total)                   0 d,  0 h,  0 min,  0.009 sec
 SCC setup                      ...        0 min,  0.000 sec (  1.756%)
 Dispersion                     ...        0 min,  0.000 sec (  0.426%)
 classical contributions        ...        0 min,  0.000 sec (  0.213%)
 integral evaluation            ...        0 min,  0.000 sec (  1.644%)
 iterations                     ...        0 min,  0.008 sec ( 88.110%)
 molecular gradient             ...        0 min,  0.001 sec (  6.963%)
 printout                       ...        0 min,  0.000 sec (  0.637%)

         :::::::::::::::::::::::::::::::::::::::::::::::::::::
         ::                     SUMMARY                     ::
         :::::::::::::::::::::::::::::::::::::::::::::::::::::
         :: total energy              -9.216509586000 Eh    ::
         :: gradient norm              0.001482532615 Eh/a0 ::
         :: HOMO-LUMO gap              3.302676600477 eV    ::
         ::.................................................::
         :: SCC energy                -9.340942755136 Eh    ::
         :: -> isotropic ES            0.027774881613 Eh    ::
         :: -> anisotropic ES         -0.002924557365 Eh    ::
         :: -> anisotropic XC          0.003609168176 Eh    ::
         :: -> dispersion             -0.001339835599 Eh    ::
         :: repulsion energy           0.124433169136 Eh    ::
         :: add. restraining           0.000000000000 Eh    ::
         :: total charge               0.000000000000 e     ::
         :::::::::::::::::::::::::::::::::::::::::::::::::::::


Property printout bound to 'properties.out'

           -------------------------------------------------
          | TOTAL ENERGY               -9.216509586000 Eh   |
          | GRADIENT NORM               0.001482532615 Eh/α |
          | HOMO-LUMO GAP               3.302676600477 eV   |
           -------------------------------------------------

------------------------------------------------------------------------
 * finished run on 2026/03/06 at 18:05:58.910     
------------------------------------------------------------------------
 total:
 * wall-time:     0 d,  0 h,  0 min,  0.015 sec
 *  cpu-time:     0 d,  0 h,  0 min,  0.099 sec
 * ratio c/w:     6.667 speedup
 SCF:
 * wall-time:     0 d,  0 h,  0 min,  0.009 sec
 *  cpu-time:     0 d,  0 h,  0 min,  0.066 sec
 * ratio c/w:     7.030 speedup


-------------------------   --------------------
FINAL SINGLE POINT ENERGY        -9.216509586000
-------------------------   --------------------


-------------
DIPOLE MOMENT
-------------
                                X             Y             Z
Total Dipole Moment    :      0.01100      -1.09000      -0.18400
                        -----------------------------------------
Magnitude (a.u.)       :      1.10548
Magnitude (Debye)      :      2.80990


------------------
CARTESIAN GRADIENT
------------------

   1   C   :    0.000378910    0.000771201    0.000139650
   2   C   :   -0.000714525    0.000318630    0.000036532
   3   O   :    0.000214859   -0.000799200   -0.000129952
   4   H   :    0.000170492   -0.000301721   -0.000046890
   5   H   :   -0.000049735    0.000011089    0.000000660

Difference to translation invariance:
           :    0.0000000000   -0.0000000000    0.0000000000

Difference to rotation invariance:
           :   -0.0000000095   -0.0000000661    0.0000003907

Norm of the Cartesian gradient     ...    0.0014825326
RMS gradient                       ...    0.0003827883
MAX gradient                       ...    0.0007991996
------------------------------------------------------------------------------
                         ORCA GEOMETRY RELAXATION STEP
------------------------------------------------------------------------------

Reading the OPT-File                    .... done
Getting information on internals        .... done
Copying old internal coords+grads       .... done
Making the new internal coordinates     .... (2022 redundants) done
Validating the new internal coordinates .... (2022 redundants) done
Calculating the B-matrix                .... done
Calculating the G,G- and P matrices     .... done
Transforming gradient to internals      .... done
Projecting the internal gradient        .... done
Number of atoms                         ....   5
Number of internal coordinates          ....  17
Current Energy                          ....    -9.216509586 Eh
Current gradient norm                   ....     0.001482533 Eh/bohr
Maximum allowed component of the step   ....  0.300
Current trust radius                    ....  0.200
Updating the Hessian (BFGS)             .... done
Forming the augmented Hessian           .... done
Diagonalizing the augmented Hessian     .... done
Last element of RFO vector              ....  0.999905221
Lowest eigenvalues of augmented Hessian:
 -0.000004795  0.008419338  0.039274498  0.044543926  0.074016282
Length of the computed step             ....  0.013768986
The final length of the internal step   ....  0.013768986
Converting the step to Cartesian space:
 Initial RMS(Int)=    0.0033394696
Transforming coordinates:
 Iter   0:  RMS(Cart)=    0.0022424443 RMS(Int)=    0.0033394097
done
Storing new coordinates                 .... done
The predicted energy change is          ....    -0.000002398
Previously predicted energy change      ....    -0.000005127
Actually observed energy change         ....    -0.000007053
Ratio of predicted to observed change   ....     1.375829804
New trust radius                        ....     0.200000000

                                .--------------------.
          ----------------------|Geometry convergence|-------------------------
          Item                value                   Tolerance       Converged
          ---------------------------------------------------------------------
          Energy change      -0.0000070532            0.0000050000      NO
          RMS gradient        0.0002280303            0.0001000000      NO
          MAX gradient        0.0004973965            0.0003000000      NO
          RMS step            0.0033394696            0.0020000000      NO
          MAX step            0.0085117800            0.0040000000      NO
          -------------------------------------------------------------------------
          ........................................................
          Max(Bonds)      0.0033      Max(Angles)    0.49
          Max(Dihed)        0.00      Max(Improp)    0.00
          ---------------------------------------------------------------------

    ---------------------------------------------------------------------------
                         Redundant Internal Coordinates
                            (Angstroem and degrees)

        Definition                    Value    dE/dq     Step     New-Value
    ----------------------------------------------------------------------------
     1. B(C   1,C   0)                1.2711 -0.000497  0.0002    1.2713   
     2. B(O   2,C   1)                1.4663 -0.000496 -0.0019    1.4643   
     3. B(O   2,C   0)                1.4618 -0.000375  0.0033    1.4651   
     4. B(H   3,C   0)                1.0551 -0.000072 -0.0001    1.0550   
     5. B(H   4,C   1)                1.0549 -0.000051  0.0002    1.0551   
     6. A(C   1,C   0,O   2)           64.45 -0.000021   -0.20     64.25   
     7. A(O   2,C   0,H   3)          132.33  0.000351   -0.28    132.05   
     8. A(C   1,C   0,H   3)          163.22 -0.000331    0.49    163.70   
     9. A(C   0,C   1,H   4)          164.12 -0.000037   -0.20    163.92   
    10. A(C   0,C   1,O   2)           64.09  0.000068    0.22     64.31   
    11. A(O   2,C   1,H   4)          131.79 -0.000032   -0.02    131.77   
    12. A(C   0,O   2,C   1)           51.46 -0.000048   -0.02     51.44   
    13. D(O   2,C   1,C   0,H   3)   -180.00 -0.000000   -0.00   -180.00   
    14. D(H   4,C   1,C   0,H   3)      0.00  0.000000   -0.00      0.00   
    15. D(H   4,C   1,C   0,O   2)   -180.00  0.000000   -0.00   -180.00   
    16. D(C   0,O   2,C   1,H   4)    180.00 -0.000000    0.00    180.00   
    17. D(C   1,O   2,C   0,H   3)    180.00  0.000000   -0.00    180.00   
    ----------------------------------------------------------------------------

Geometry step timings:
Preparation and reading OPT file:      0.000 s ( 2.913 %)
Internal coordinates            :      0.000 s ( 3.689 %)
B/P matrices and projection     :      0.000 s (14.175 %)
Hessian update/contruction      :      0.000 s (27.767 %)
Making the step                 :      0.000 s (12.427 %)
Converting the step to Cartesian:      0.000 s ( 3.883 %)
Storing new data                :      0.000 s ( 3.883 %)
Checking convergence            :      0.000 s ( 6.408 %)
Final printing                  :      0.000 s (24.660 %)
Total time                      :      0.001 s

Time for energy+gradient        :      0.026 s
Time for complete geometry iter :      0.027 s

         *************************************************************
         *                GEOMETRY OPTIMIZATION CYCLE  14            *
         *************************************************************
---------------------------------
CARTESIAN COORDINATES (ANGSTROEM)
---------------------------------
  C    -0.634169   -0.148739   -0.132578
  C     0.636659   -0.139680   -0.100152
  O    -0.012798    1.156890    0.103356
  H    -1.643119   -0.447854   -0.207696
  H     1.653426   -0.420618   -0.122952

----------------------------
CARTESIAN COORDINATES (A.U.)
----------------------------
  NO LB    ZA    FRAG    MASS        X           Y           Z
   0 C   6.0000    1    12.011   -1.198406   -0.281076   -0.250536
   1 C   6.0000    1    12.011    1.203111   -0.263957   -0.189260
   2 O   8.0000    1    15.999   -0.024184    2.186206    0.195314
   3 H   1.0000    1     1.008   -3.105044   -0.846321   -0.392489
   4 H   1.0000    1     1.008    3.124523   -0.794852   -0.232345

      -----------------------------------------------------------      
     |                   =====================                   |     
     |                           x T B                           |     
     |                   =====================                   |     
     |                         S. Grimme                         |     
     |          Mulliken Center for Theoretical Chemistry        |     
     |                    University of Bonn                     |     
      -----------------------------------------------------------      

   * xtb version 6.7.1 (edcfbbe) compiled by 'albert@albert-system' on 2024-07-22

   xtb is free software: you can redistribute it and/or modify it under
   the terms of the GNU Lesser General Public License as published by
   the Free Software Foundation, either version 3 of the License, or
   (at your option) any later version.
   
   xtb is distributed in the hope that it will be useful,
   but WITHOUT ANY WARRANTY; without even the implied warranty of
   MERCHANTABILITY or FITNESS FOR A PARTICULAR PURPOSE.  See the
   GNU Lesser General Public License for more details.
   
   Cite this work as:
   * C. Bannwarth, E. Caldeweyher, S. Ehlert, A. Hansen, P. Pracht,
     J. Seibert, S. Spicher, S. Grimme, WIREs Comput. Mol. Sci., 2020, 11,
     e01493. DOI: 10.1002/wcms.1493
   
   for GFN2-xTB:
   * C. Bannwarth, S. Ehlert and S. Grimme., J. Chem. Theory Comput., 2019,
     15, 1652-1671. DOI: 10.1021/acs.jctc.8b01176
   for GFN1-xTB:
   * S. Grimme, C. Bannwarth, P. Shushkov, J. Chem. Theory Comput., 2017,
     13, 1989-2009. DOI: 10.1021/acs.jctc.7b00118
   for GFN0-xTB:
   * P. Pracht, E. Caldeweyher, S. Ehlert, S. Grimme, ChemRxiv, 2019, preprint.
     DOI: 10.26434/chemrxiv.8326202.v1
   for GFN-FF:
   * S. Spicher and S. Grimme, Angew. Chem. Int. Ed., 2020, 59, 15665-15673.
     DOI: 10.1002/anie.202004239
   
   for ALPB and GBSA implicit solvation:
   * S. Ehlert, M. Stahn, S. Spicher, S. Grimme, J. Chem. Theory Comput.,
     2021, 17, 4250-4261. DOI: 10.1021/acs.jctc.1c00471
   
   for ddCOSMO and CPCM-X implicit solvation:
   * M. Stahn, S. Ehlert, S. Grimme, J. Phys. Chem. A,
     2023, XX, XXXX-XXXX. DOI: 10.1021/acs.jpca.3c04382
   
   for DFT-D4:
   * E. Caldeweyher, C. Bannwarth and S. Grimme, J. Chem. Phys., 2017,
     147, 034112. DOI: 10.1063/1.4993215
   * E. Caldeweyher, S. Ehlert, A. Hansen, H. Neugebauer, S. Spicher,
     C. Bannwarth and S. Grimme, J. Chem. Phys., 2019, 150, 154122.
     DOI: 10.1063/1.5090222
   * E. Caldeweyher, J.-M. Mewes, S. Ehlert and S. Grimme, Phys. Chem. Chem. Phys.
     2020, 22, 8499-8512. DOI: 10.1039/D0CP00502A
   
   for sTDA-xTB:
   * S. Grimme and C. Bannwarth, J. Chem. Phys., 2016, 145, 054103.
     DOI: 10.1063/1.4959605
   
   in the mass-spec context:
   * V. Asgeirsson, C. Bauer and S. Grimme, Chem. Sci., 2017, 8, 4879.
     DOI: 10.1039/c7sc00601b
   * J. Koopman and S. Grimme, ACS Omega 2019, 4, 12, 15120-15133.
     DOI: 10.1021/acsomega.9b02011
   
   for metadynamics refer to:
   * S. Grimme, J. Chem. Theory Comput., 2019, 155, 2847-2862
     DOI: 10.1021/acs.jctc.9b00143
   
   for SPH calculations refer to:
   * S. Spicher and S. Grimme, J. Chem. Theory Comput., 2021, 17, 1701-1714
     DOI: 10.1021/acs.jctc.0c01306
   
   for ONIOM refer to:
   * C. Plett, A. Katbashev, S. Ehlert, S. Grimme, M. Bursch,
     Phys. Chem. Chem. Phys., 2023, 25, 17860-17868. DOI: 10.1039/D3CP02178E
   
   for DIPRO refer to:
   * J. Kohn, N. Gildemeister, S. Grimme, D. Fazzi, A. Hansen,
     J. Chem. Phys., 2023, just accepted.
   
   for PTB refer to:
   * S. Grimme, M. Mueller, A. Hansen, J. Chem. Phys., 2023, 158, 124111.
     DOI: 10.1063/5.0137838
   
   with help from (in alphabetical order)
   P. Atkinson, C. Bannwarth, F. Bohle, G. Brandenburg, E. Caldeweyher
   M. Checinski, S. Dohm, S. Ehlert, S. Ehrlich, I. Gerasimov, C. Hölzer
   A. Katbashev, J. Kohn, J. Koopman, C. Lavigne, S. Lehtola, F. März, M. Müller,
   F. Musil, H. Neugebauer, J. Pisarek, C. Plett, P. Pracht, F. Pultar,
   J. Seibert, P. Shushkov, S. Spicher, M. Stahn, M. Steiner, T. Strunk,
   J. Stückrath, T. Rose, and J. Unsleber
   
 * started run on 2026/03/06 at 18:05:58.922     
   ID    Z sym.   atoms
    1    6 C      1, 2
    2    8 O      3
    3    1 H      4, 5

           -------------------------------------------------
          |                Calculation Setup                |
           -------------------------------------------------

          program call               : /apps/eb/ORCA/6.1.1-gompi-2024a-avx2/bin/otool_xtb goat_XTB.xyz --grad -c 0 -u 0 -P 8 --namespace goat --input goat_XTB.input.tmp --acc 0.200000
          hostname                   : ra8-10
          calculation namespace      : goat
          coordinate file            : goat_XTB.xyz
          omp threads                :                     8


           -------------------------------------------------
          |                 G F N 2 - x T B                 |
           -------------------------------------------------

        Reference                      10.1021/acs.jctc.8b01176
      * Hamiltonian:
        H0-scaling (s, p, d)           1.850000    2.230000    2.230000
        zeta-weighting                 0.500000
      * Dispersion:
        s8                             2.700000
        a1                             0.520000
        a2                             5.000000
        s9                             5.000000
      * Repulsion:
        kExp                           1.500000    1.000000
        rExp                           1.000000
      * Coulomb:
        alpha                          2.000000
        third order                    shell-resolved
        anisotropic                    true
        a3                             3.000000
        a5                             4.000000
        cn-shift                       1.200000
        cn-exp                         4.000000
        max-rad                        5.000000

q/qsh data taken from xtbrestart
CAMM data taken from xtbrestart

          ...................................................
          :                      SETUP                      :
          :.................................................:
          :  # basis functions                  14          :
          :  # atomic orbitals                  14          :
          :  # shells                            8          :
          :  # electrons                        16          :
          :  max. iterations                   250          :
          :  Hamiltonian                  GFN2-xTB          :
          :  restarted?                       true          :
          :  GBSA solvation                  false          :
          :  PC potential                    false          :
          :  electronic temp.          300.0000000     K    :
          :  accuracy                    0.2000000          :
          :  -> integral cutoff          0.3198970E+02      :
          :  -> integral neglect         0.2000000E-08      :
          :  -> SCF convergence          0.2000000E-06 Eh   :
          :  -> wf. convergence          0.2000000E-04 e    :
          :  Broyden damping             0.4000000          :
          :  net charge                          0          :
          :  unpaired electrons                  0          :
          ...................................................

 iter      E             dE          RMSdq      gap      omega  full diag
   1     -9.3407687 -0.934077E+01  0.765E-02    3.30       0.0  T
   2     -9.3407585  0.102540E-04  0.712E-02    3.30       1.0  T
   3     -9.3407814 -0.229742E-04  0.265E-02    3.30       1.7  T
   4     -9.3407825 -0.106301E-05  0.679E-04    3.30      65.9  T
   5     -9.3407825 -0.129898E-09  0.377E-04    3.30     118.5  T
   6     -9.3407825 -0.165095E-09  0.118E-04    3.30     378.9  T
   7     -9.3407825 -0.160831E-10  0.330E-05    3.30    1353.3  T

   *** convergence criteria satisfied after 7 iterations ***

         #    Occupation            Energy/Eh            Energy/eV
      -------------------------------------------------------------
         1        2.0000           -0.7141229             -19.4323
         2        2.0000           -0.6345306             -17.2665
         3        2.0000           -0.6017745             -16.3751
         4        2.0000           -0.5461710             -14.8621
         5        2.0000           -0.5352982             -14.5662
         6        2.0000           -0.5046682             -13.7327
         7        2.0000           -0.4984372             -13.5632
         8        2.0000           -0.3720736             -10.1246 (HOMO)
         9                         -0.2507124              -6.8222 (LUMO)
        10                         -0.0865976              -2.3564
        11                         -0.0245573              -0.6682
        12                          0.0327961               0.8924
        13                          0.2701269               7.3505
        14                          1.0107631              27.5043
      -------------------------------------------------------------
                  HL-Gap            0.1213612 Eh            3.3024 eV
             Fermi-level           -0.3113930 Eh           -8.4734 eV

 SCC (total)                   0 d,  0 h,  0 min,  0.011 sec
 SCC setup                      ...        0 min,  0.000 sec (  1.253%)
 Dispersion                     ...        0 min,  0.000 sec (  0.309%)
 classical contributions        ...        0 min,  0.000 sec (  0.160%)
 integral evaluation            ...        0 min,  0.000 sec (  1.165%)
 iterations                     ...        0 min,  0.010 sec ( 88.601%)
 molecular gradient             ...        0 min,  0.001 sec (  7.804%)
 printout                       ...        0 min,  0.000 sec (  0.502%)

         :::::::::::::::::::::::::::::::::::::::::::::::::::::
         ::                     SUMMARY                     ::
         :::::::::::::::::::::::::::::::::::::::::::::::::::::
         :: total energy              -9.216512530751 Eh    ::
         :: gradient norm              0.000478059064 Eh/a0 ::
         :: HOMO-LUMO gap              3.302406461236 eV    ::
         ::.................................................::
         :: SCC energy                -9.340782475192 Eh    ::
         :: -> isotropic ES            0.027838603363 Eh    ::
         :: -> anisotropic ES         -0.002961851340 Eh    ::
         :: -> anisotropic XC          0.003642728933 Eh    ::
         :: -> dispersion             -0.001339616276 Eh    ::
         :: repulsion energy           0.124269944440 Eh    ::
         :: add. restraining           0.000000000000 Eh    ::
         :: total charge               0.000000000000 e     ::
         :::::::::::::::::::::::::::::::::::::::::::::::::::::


Property printout bound to 'properties.out'

           -------------------------------------------------
          | TOTAL ENERGY               -9.216512530751 Eh   |
          | GRADIENT NORM               0.000478059064 Eh/α |
          | HOMO-LUMO GAP               3.302406461236 eV   |
           -------------------------------------------------

------------------------------------------------------------------------
 * finished run on 2026/03/06 at 18:05:58.940     
------------------------------------------------------------------------
 total:
 * wall-time:     0 d,  0 h,  0 min,  0.018 sec
 *  cpu-time:     0 d,  0 h,  0 min,  0.120 sec
 * ratio c/w:     6.708 speedup
 SCF:
 * wall-time:     0 d,  0 h,  0 min,  0.011 sec
 *  cpu-time:     0 d,  0 h,  0 min,  0.080 sec
 * ratio c/w:     7.028 speedup


-------------------------   --------------------
FINAL SINGLE POINT ENERGY        -9.216512530750
-------------------------   --------------------


-------------
DIPOLE MOMENT
-------------
                                X             Y             Z
Total Dipole Moment    :      0.01200      -1.09000      -0.18400
                        -----------------------------------------
Magnitude (a.u.)       :      1.10549
Magnitude (Debye)      :      2.80992


------------------
CARTESIAN GRADIENT
------------------

   1   C   :    0.000007763    0.000202304    0.000034407
   2   C   :   -0.000291404    0.000030839   -0.000001859
   3   O   :    0.000204504   -0.000168517   -0.000023533
   4   H   :    0.000067749   -0.000137876   -0.000021676
   5   H   :    0.000011388    0.000073250    0.000012660

Difference to translation invariance:
           :   -0.0000000000    0.0000000000    0.0000000000

Difference to rotation invariance:
           :   -0.0000000068   -0.0000000475    0.0000002808

Norm of the Cartesian gradient     ...    0.0004780591
RMS gradient                       ...    0.0001234343
MAX gradient                       ...    0.0002914040
------------------------------------------------------------------------------
                         ORCA GEOMETRY RELAXATION STEP
------------------------------------------------------------------------------

Reading the OPT-File                    .... done
Getting information on internals        .... done
Copying old internal coords+grads       .... done
Making the new internal coordinates     .... (2022 redundants) done
Validating the new internal coordinates .... (2022 redundants) done
Calculating the B-matrix                .... done
Calculating the G,G- and P matrices     .... done
Transforming gradient to internals      .... done
Projecting the internal gradient        .... done
Number of atoms                         ....   5
Number of internal coordinates          ....  17
Current Energy                          ....    -9.216512531 Eh
Current gradient norm                   ....     0.000478059 Eh/bohr
Maximum allowed component of the step   ....  0.300
Current trust radius                    ....  0.200
Updating the Hessian (BFGS)             .... done
Forming the augmented Hessian           .... done
Diagonalizing the augmented Hessian     .... done
Last element of RFO vector              ....  0.999996240
Lowest eigenvalues of augmented Hessian:
 -0.000000633  0.008959840  0.039274498  0.044543926  0.060833149
Length of the computed step             ....  0.002742265
The final length of the internal step   ....  0.002742265
Converting the step to Cartesian space:
 Initial RMS(Int)=    0.0006650971
Transforming coordinates:
 Iter   0:  RMS(Cart)=    0.0006504343 RMS(Int)=    0.0006650813
done
Storing new coordinates                 .... done
The predicted energy change is          ....    -0.000000316
Previously predicted energy change      ....    -0.000002398
Actually observed energy change         ....    -0.000002945
Ratio of predicted to observed change   ....     1.228055686
New trust radius                        ....     0.300000000

                                .--------------------.
          ----------------------|Geometry convergence|-------------------------
          Item                value                   Tolerance       Converged
          ---------------------------------------------------------------------
          Energy change      -0.0000029447            0.0000050000      YES
          RMS gradient        0.0000840052            0.0001000000      YES
          MAX gradient        0.0001775253            0.0003000000      YES
          RMS step            0.0006650971            0.0020000000      YES
          MAX step            0.0018804272            0.0040000000      YES
          -------------------------------------------------------------------------
          ........................................................
          Max(Bonds)      0.0002      Max(Angles)    0.11
          Max(Dihed)        0.00      Max(Improp)    0.00
          ---------------------------------------------------------------------

                    ***********************HURRAY********************
                    ***        THE OPTIMIZATION HAS CONVERGED     ***
                    *************************************************


    ---------------------------------------------------------------------------
                         Redundant Internal Coordinates

                          --- Optimized Parameters ---  
                            (Angstroem and degrees)

        Definition                    OldVal   dE/dq     Step     FinalVal
    ----------------------------------------------------------------------------
     1. B(C   1,C   0)                1.2713 -0.000137  0.0001    1.2714   
     2. B(O   2,C   1)                1.4643 -0.000176  0.0002    1.4646   
     3. B(O   2,C   0)                1.4651 -0.000015  0.0002    1.4653   
     4. B(H   3,C   0)                1.0550 -0.000024  0.0000    1.0551   
     5. B(H   4,C   1)                1.0551 -0.000009  0.0000    1.0551   
     6. A(C   1,C   0,O   2)           64.25 -0.000050    0.00     64.25   
     7. A(O   2,C   0,H   3)          132.05  0.000178   -0.11    131.94   
     8. A(C   1,C   0,H   3)          163.70 -0.000128    0.10    163.81   
     9. A(C   0,C   1,H   4)          163.92  0.000039    0.01    163.93   
    10. A(C   0,C   1,O   2)           64.31  0.000071    0.00     64.31   
    11. A(O   2,C   1,H   4)          131.77 -0.000110   -0.02    131.75   
    12. A(C   0,O   2,C   1)           51.44 -0.000022   -0.01     51.43   
    13. D(O   2,C   1,C   0,H   3)   -180.00 -0.000000    0.00   -180.00   
    14. D(H   4,C   1,C   0,H   3)      0.00  0.000000   -0.00      0.00   
    15. D(H   4,C   1,C   0,O   2)   -180.00  0.000000   -0.00   -180.00   
    16. D(C   0,O   2,C   1,H   4)    180.00 -0.000000    0.00    180.00   
    17. D(C   1,O   2,C   0,H   3)    180.00  0.000000   -0.00    180.00   
    ----------------------------------------------------------------------------

Geometry step timings:
Preparation and reading OPT file:      0.000 s ( 2.863 %)
Internal coordinates            :      0.000 s ( 3.435 %)
B/P matrices and projection     :      0.000 s (14.313 %)
Hessian update/contruction      :      0.000 s (25.573 %)
Making the step                 :      0.000 s (12.214 %)
Converting the step to Cartesian:      0.000 s ( 3.435 %)
Storing new data                :      0.000 s ( 3.626 %)
Checking convergence            :      0.000 s ( 8.206 %)
Final printing                  :      0.000 s (26.336 %)
Total time                      :      0.001 s
                 *******************************************************
                 *** FINAL ENERGY EVALUATION AT THE STATIONARY POINT ***
                 ***               (AFTER   14 CYCLES)               ***
                 *******************************************************
---------------------------------
CARTESIAN COORDINATES (ANGSTROEM)
---------------------------------
  C    -0.634056   -0.149424   -0.132691
  C     0.636852   -0.139923   -0.100189
  O    -0.013110    1.156673    0.103311
  H    -1.643485   -0.447072   -0.207573
  H     1.653799   -0.420253   -0.122881

----------------------------
CARTESIAN COORDINATES (A.U.)
----------------------------
  NO LB    ZA    FRAG    MASS        X           Y           Z
   0 C   6.0000    1    12.011   -1.198193   -0.282370   -0.250750
   1 C   6.0000    1    12.011    1.203476   -0.264416   -0.189329
   2 O   8.0000    1    15.999   -0.024775    2.185794    0.195230
   3 H   1.0000    1     1.008   -3.105737   -0.844844   -0.392256
   4 H   1.0000    1     1.008    3.125228   -0.794163   -0.232212

      -----------------------------------------------------------      
     |                   =====================                   |     
     |                           x T B                           |     
     |                   =====================                   |     
     |                         S. Grimme                         |     
     |          Mulliken Center for Theoretical Chemistry        |     
     |                    University of Bonn                     |     
      -----------------------------------------------------------      

   * xtb version 6.7.1 (edcfbbe) compiled by 'albert@albert-system' on 2024-07-22

   xtb is free software: you can redistribute it and/or modify it under
   the terms of the GNU Lesser General Public License as published by
   the Free Software Foundation, either version 3 of the License, or
   (at your option) any later version.
   
   xtb is distributed in the hope that it will be useful,
   but WITHOUT ANY WARRANTY; without even the implied warranty of
   MERCHANTABILITY or FITNESS FOR A PARTICULAR PURPOSE.  See the
   GNU Lesser General Public License for more details.
   
   Cite this work as:
   * C. Bannwarth, E. Caldeweyher, S. Ehlert, A. Hansen, P. Pracht,
     J. Seibert, S. Spicher, S. Grimme, WIREs Comput. Mol. Sci., 2020, 11,
     e01493. DOI: 10.1002/wcms.1493
   
   for GFN2-xTB:
   * C. Bannwarth, S. Ehlert and S. Grimme., J. Chem. Theory Comput., 2019,
     15, 1652-1671. DOI: 10.1021/acs.jctc.8b01176
   for GFN1-xTB:
   * S. Grimme, C. Bannwarth, P. Shushkov, J. Chem. Theory Comput., 2017,
     13, 1989-2009. DOI: 10.1021/acs.jctc.7b00118
   for GFN0-xTB:
   * P. Pracht, E. Caldeweyher, S. Ehlert, S. Grimme, ChemRxiv, 2019, preprint.
     DOI: 10.26434/chemrxiv.8326202.v1
   for GFN-FF:
   * S. Spicher and S. Grimme, Angew. Chem. Int. Ed., 2020, 59, 15665-15673.
     DOI: 10.1002/anie.202004239
   
   for ALPB and GBSA implicit solvation:
   * S. Ehlert, M. Stahn, S. Spicher, S. Grimme, J. Chem. Theory Comput.,
     2021, 17, 4250-4261. DOI: 10.1021/acs.jctc.1c00471
   
   for ddCOSMO and CPCM-X implicit solvation:
   * M. Stahn, S. Ehlert, S. Grimme, J. Phys. Chem. A,
     2023, XX, XXXX-XXXX. DOI: 10.1021/acs.jpca.3c04382
   
   for DFT-D4:
   * E. Caldeweyher, C. Bannwarth and S. Grimme, J. Chem. Phys., 2017,
     147, 034112. DOI: 10.1063/1.4993215
   * E. Caldeweyher, S. Ehlert, A. Hansen, H. Neugebauer, S. Spicher,
     C. Bannwarth and S. Grimme, J. Chem. Phys., 2019, 150, 154122.
     DOI: 10.1063/1.5090222
   * E. Caldeweyher, J.-M. Mewes, S. Ehlert and S. Grimme, Phys. Chem. Chem. Phys.
     2020, 22, 8499-8512. DOI: 10.1039/D0CP00502A
   
   for sTDA-xTB:
   * S. Grimme and C. Bannwarth, J. Chem. Phys., 2016, 145, 054103.
     DOI: 10.1063/1.4959605
   
   in the mass-spec context:
   * V. Asgeirsson, C. Bauer and S. Grimme, Chem. Sci., 2017, 8, 4879.
     DOI: 10.1039/c7sc00601b
   * J. Koopman and S. Grimme, ACS Omega 2019, 4, 12, 15120-15133.
     DOI: 10.1021/acsomega.9b02011
   
   for metadynamics refer to:
   * S. Grimme, J. Chem. Theory Comput., 2019, 155, 2847-2862
     DOI: 10.1021/acs.jctc.9b00143
   
   for SPH calculations refer to:
   * S. Spicher and S. Grimme, J. Chem. Theory Comput., 2021, 17, 1701-1714
     DOI: 10.1021/acs.jctc.0c01306
   
   for ONIOM refer to:
   * C. Plett, A. Katbashev, S. Ehlert, S. Grimme, M. Bursch,
     Phys. Chem. Chem. Phys., 2023, 25, 17860-17868. DOI: 10.1039/D3CP02178E
   
   for DIPRO refer to:
   * J. Kohn, N. Gildemeister, S. Grimme, D. Fazzi, A. Hansen,
     J. Chem. Phys., 2023, just accepted.
   
   for PTB refer to:
   * S. Grimme, M. Mueller, A. Hansen, J. Chem. Phys., 2023, 158, 124111.
     DOI: 10.1063/5.0137838
   
   with help from (in alphabetical order)
   P. Atkinson, C. Bannwarth, F. Bohle, G. Brandenburg, E. Caldeweyher
   M. Checinski, S. Dohm, S. Ehlert, S. Ehrlich, I. Gerasimov, C. Hölzer
   A. Katbashev, J. Kohn, J. Koopman, C. Lavigne, S. Lehtola, F. März, M. Müller,
   F. Musil, H. Neugebauer, J. Pisarek, C. Plett, P. Pracht, F. Pultar,
   J. Seibert, P. Shushkov, S. Spicher, M. Stahn, M. Steiner, T. Strunk,
   J. Stückrath, T. Rose, and J. Unsleber
   
 * started run on 2026/03/06 at 18:05:58.952     
   ID    Z sym.   atoms
    1    6 C      1, 2
    2    8 O      3
    3    1 H      4, 5

           -------------------------------------------------
          |                Calculation Setup                |
           -------------------------------------------------

          program call               : /apps/eb/ORCA/6.1.1-gompi-2024a-avx2/bin/otool_xtb goat_XTB.xyz --grad -c 0 -u 0 -P 8 --namespace goat --input goat_XTB.input.tmp --acc 0.200000
          hostname                   : ra8-10
          calculation namespace      : goat
          coordinate file            : goat_XTB.xyz
          omp threads                :                     8


           -------------------------------------------------
          |                 G F N 2 - x T B                 |
           -------------------------------------------------

        Reference                      10.1021/acs.jctc.8b01176
      * Hamiltonian:
        H0-scaling (s, p, d)           1.850000    2.230000    2.230000
        zeta-weighting                 0.500000
      * Dispersion:
        s8                             2.700000
        a1                             0.520000
        a2                             5.000000
        s9                             5.000000
      * Repulsion:
        kExp                           1.500000    1.000000
        rExp                           1.000000
      * Coulomb:
        alpha                          2.000000
        third order                    shell-resolved
        anisotropic                    true
        a3                             3.000000
        a5                             4.000000
        cn-shift                       1.200000
        cn-exp                         4.000000
        max-rad                        5.000000

q/qsh data taken from xtbrestart
CAMM data taken from xtbrestart

          ...................................................
          :                      SETUP                      :
          :.................................................:
          :  # basis functions                  14          :
          :  # atomic orbitals                  14          :
          :  # shells                            8          :
          :  # electrons                        16          :
          :  max. iterations                   250          :
          :  Hamiltonian                  GFN2-xTB          :
          :  restarted?                       true          :
          :  GBSA solvation                  false          :
          :  PC potential                    false          :
          :  electronic temp.          300.0000000     K    :
          :  accuracy                    0.2000000          :
          :  -> integral cutoff          0.3198970E+02      :
          :  -> integral neglect         0.2000000E-08      :
          :  -> SCF convergence          0.2000000E-06 Eh   :
          :  -> wf. convergence          0.2000000E-04 e    :
          :  Broyden damping             0.4000000          :
          :  net charge                          0          :
          :  unpaired electrons                  0          :
          ...................................................

 iter      E             dE          RMSdq      gap      omega  full diag
   1     -9.3407196 -0.934072E+01  0.770E-03    3.30       0.0  T
   2     -9.3407196 -0.314356E-08  0.449E-03    3.30      10.0  T
   3     -9.3407195  0.353693E-07  0.315E-03    3.30      14.2  T
   4     -9.3407196 -0.385946E-07  0.438E-04    3.30     102.1  T
   5     -9.3407196 -0.488329E-09  0.710E-05    3.30     630.2  T
   6     -9.3407196 -0.374101E-11  0.151E-05    3.30    2961.9  T

   *** convergence criteria satisfied after 6 iterations ***

         #    Occupation            Energy/Eh            Energy/eV
      -------------------------------------------------------------
         1        2.0000           -0.7140754             -19.4310
         2        2.0000           -0.6345041             -17.2657
         3        2.0000           -0.6017669             -16.3749
         4        2.0000           -0.5461517             -14.8615
         5        2.0000           -0.5352460             -14.5648
         6        2.0000           -0.5047169             -13.7340
         7        2.0000           -0.4983553             -13.5609
         8        2.0000           -0.3721034             -10.1254 (HOMO)
         9                         -0.2507497              -6.8232 (LUMO)
        10                         -0.0867011              -2.3593
        11                         -0.0247402              -0.6732
        12                          0.0325306               0.8852
        13                          0.2699711               7.3463
        14                          1.0106344              27.5008
      -------------------------------------------------------------
                  HL-Gap            0.1213537 Eh            3.3022 eV
             Fermi-level           -0.3114265 Eh           -8.4743 eV

 SCC (total)                   0 d,  0 h,  0 min,  0.010 sec
 SCC setup                      ...        0 min,  0.000 sec (  1.465%)
 Dispersion                     ...        0 min,  0.000 sec (  0.393%)
 classical contributions        ...        0 min,  0.000 sec (  0.197%)
 integral evaluation            ...        0 min,  0.000 sec (  1.404%)
 iterations                     ...        0 min,  0.008 sec ( 85.628%)
 molecular gradient             ...        0 min,  0.001 sec (  6.928%)
 printout                       ...        0 min,  0.000 sec (  3.732%)

         :::::::::::::::::::::::::::::::::::::::::::::::::::::
         ::                     SUMMARY                     ::
         :::::::::::::::::::::::::::::::::::::::::::::::::::::
         :: total energy              -9.216512924080 Eh    ::
         :: gradient norm              0.000254880592 Eh/a0 ::
         :: HOMO-LUMO gap              3.302202791491 eV    ::
         ::.................................................::
         :: SCC energy                -9.340719549936 Eh    ::
         :: -> isotropic ES            0.027863278876 Eh    ::
         :: -> anisotropic ES         -0.002977208385 Eh    ::
         :: -> anisotropic XC          0.003655528737 Eh    ::
         :: -> dispersion             -0.001339530675 Eh    ::
         :: repulsion energy           0.124206625856 Eh    ::
         :: add. restraining           0.000000000000 Eh    ::
         :: total charge              -0.000000000000 e     ::
         :::::::::::::::::::::::::::::::::::::::::::::::::::::


Property printout bound to 'properties.out'

           -------------------------------------------------
          | TOTAL ENERGY               -9.216512924080 Eh   |
          | GRADIENT NORM               0.000254880592 Eh/α |
          | HOMO-LUMO GAP               3.302202791491 eV   |
           -------------------------------------------------

------------------------------------------------------------------------
 * finished run on 2026/03/06 at 18:05:58.968     
------------------------------------------------------------------------
 total:
 * wall-time:     0 d,  0 h,  0 min,  0.015 sec
 *  cpu-time:     0 d,  0 h,  0 min,  0.097 sec
 * ratio c/w:     6.644 speedup
 SCF:
 * wall-time:     0 d,  0 h,  0 min,  0.010 sec
 *  cpu-time:     0 d,  0 h,  0 min,  0.069 sec
 * ratio c/w:     7.023 speedup


-------------------------   --------------------
FINAL SINGLE POINT ENERGY        -9.216512924080
-------------------------   --------------------


-------------
DIPOLE MOMENT
-------------
                                X             Y             Z
Total Dipole Moment    :      0.01300      -1.09000      -0.18400
                        -----------------------------------------
Magnitude (a.u.)       :      1.10550
Magnitude (Debye)      :      2.80995

                                *** OPTIMIZATION RUN DONE ***

		     ------------------------------
			                   _   
			                  | |  
			  __ _  ___   __ _| |_ 
			 / _` |/ _ \ / _` | __|
			| (_| | (_) | (_| | |_ 
			 \__, |\___/ \__,_|\__|
			 __/ |                
			|___/                 

		      A Global Optimizer Algorithm
		     ------------------------------

Global parameters
-----------------
  GOAT version                               ... default
  Minimum global steps                       ... 3
  Number of base workers                     ... 4
  Split workers by                           ... 2
  Final number of workers                    ... 8
  Number of available CPUs                   ... 8
  Parameter list (worker : temperature)      ...  0 : 2903.97,  1 : 1451.98, 
                                                  2 :  725.99,  3 :  363.00, 
                                                  4 : 2903.97,  5 : 1451.98, 
                                                  6 :  725.99,  7 :  363.00 
  GradComp (mean : sigma)                    ... 1.00 : 0.50
  Number of fragments                        ... 1
  Number of atoms                            ... 5
  Flexibility parameter                      ... 0.33
  Optimizations per global step              ... 120
  Optimizations per worker                   ... 15
  *Reached the min. opt. per worker: max(flex * NAtoms, 15) = 15

Filtering criteria
------------------
  RMSD                                       ... 0.125 Angs (atom. pos.)
  EnDiff                                     ... 0.100 kcal/mol
  RotConst                                   ... 1.00-2.50 %
  Maximum Conf. Energy                       ... 6.000 kcal/mol

Thermodynamics
--------------
  Ensemble temperature                       ... 298.15 K
  Degeneracy of conformers                   ... 1
  *No rotamers will be included in Gconf

------------------------------------------------------------------------------
   Iter  MinTemp     MaxEn       GradComp    NOpt   NProcs    Output
------------------------------------------------------------------------------
List of participating nodes    ...  goat.goat.0.hostnames

   7      363.00     15.00    1.00 : 0.50      15        1    goat.goat.0.7.out
   0     2903.97     15.00    1.00 : 0.50      15        1    goat.goat.0.0.out
   2      725.99     15.00    1.00 : 0.50      15        1    goat.goat.0.2.out
   3      363.00     15.00    1.00 : 0.50      15        1    goat.goat.0.3.out
   1     1451.98     15.00    1.00 : 0.50      15        1    goat.goat.0.1.out
   4     2903.97     15.00    1.00 : 0.50      15        1    goat.goat.0.4.out
   6      725.99     15.00    1.00 : 0.50      15        1    goat.goat.0.6.out
   5     1451.98     15.00    1.00 : 0.50      15        1    goat.goat.0.5.out

			     GOAT Global Iter 1
		Iter    Min En       Sconf       Gconf   
		        Hartree      cal/(molK)  kcal/mol
		=========================================

		   1     -9.216513   0.000       0.000

List of participating nodes    ...  goat.goat.1.hostnames

   4     2903.97     15.00    1.00 : 0.50      15        1    goat.goat.1.4.out
   1     1451.98     15.00    1.00 : 0.50      15        1    goat.goat.1.1.out
   0     2903.97     15.00    1.00 : 0.50      15        1    goat.goat.1.0.out
   6      725.99     15.00    1.00 : 0.50      15        1    goat.goat.1.6.out
   3      363.00     15.00    1.00 : 0.50      15        1    goat.goat.1.3.out
   7      363.00     15.00    1.00 : 0.50      15        1    goat.goat.1.7.out
   2      725.99     15.00    1.00 : 0.50      15        1    goat.goat.1.2.out
   5     1451.98     15.00    1.00 : 0.50      15        1    goat.goat.1.5.out

			     GOAT Global Iter 2
		Iter    Min En       Sconf       Gconf   
		        Hartree      cal/(molK)  kcal/mol
		=========================================

		   1     -9.216513   0.000       0.000
		   2     -9.216513   0.000       0.000

List of participating nodes    ...  goat.goat.2.hostnames

   3      363.00     15.00    1.00 : 0.50      15        1    goat.goat.2.3.out
   4     2903.97     15.00    1.00 : 0.50      15        1    goat.goat.2.4.out
   1     1451.98     15.00    1.00 : 0.50      15        1    goat.goat.2.1.out
   2      725.99     15.00    1.00 : 0.50      15        1    goat.goat.2.2.out
   0     2903.97     15.00    1.00 : 0.50      15        1    goat.goat.2.0.out
   5     1451.98     15.00    1.00 : 0.50      15        1    goat.goat.2.5.out
   6      725.99     15.00    1.00 : 0.50      15        1    goat.goat.2.6.out
   7      363.00     15.00    1.00 : 0.50      15        1    goat.goat.2.7.out

			     GOAT Global Iter 3
		Iter    Min En       Sconf       Gconf   
		        Hartree      cal/(molK)  kcal/mol
		=========================================

		   1     -9.216513   0.000       0.000
		   2     -9.216513   0.000       0.000
		   3     -9.216513   0.000       0.000

		Global minimum found!
		Writing structure to goat.globalminimum.xyz

		# Final ensemble info #
		Conformer     Energy     Degen.   % total   % cumul.  
		              (kcal/mol)
		------------------------------------------------------
		        0     0.000	     1     100.00     100.00

		Conformers below 3 kcal/mol: 1
		Lowest energy conformer    : -9.216513 Eh
		Sconf at 298.15 K          :  0.00 cal/(molK)
		Gconf at 298.15 K          : 0.00 kcal/mol

		Writing final ensemble to goat.finalensemble.xyz

--------------------------------
SUGGESTED CITATIONS FOR THIS RUN
--------------------------------

Below you find a list of papers that are relevant to this ORCA run
We neither can nor want to force you to cite these papers, but we appreciate if you do
You receive ORCA, which is the product of decades of hard work by many enthusiastic individuals, for free
The only thing we kindly ask in return is that you cite our papers,
We deeply appreciate it, if you show your appreciation for ORCA by not just citing the generic ORCA reference.

Please note that relegating all ORCA citations to the supporting information does *not* help us.
SI sections are not indexed - citations you put there will not count into any citation statistics
But we need these citations in order to attract the funding resources that allow us to do what we are doing

Therefore, if you are a happy ORCA user, please consider citing a few of the papers listed below in the main body of your paper

In addition to the list printed below, the program has created the file goat.bibtex that contains the list in bibtex format
You can import this file easily into all common literature databanks and citation aid programs

It goes without saying that in many instances, there are alternative algorithms to achieve similar
results as the ones you have gotten from ORCA. It is, of course, also the case that in some instances
ORCA just re-implements algorithms worked out by others. We are fully aware of that and we are also
fully appreciative of our colleagues work. Hence this citation list should not be read as indicating
that the listed papers, which are focused on our own work, are the only ones worth citing. It simply
meant to make it easier for users to cite ORCA specific papers. It is not a substitute for doing your
own literature research and citing the relevant literature in a scientifically appropriate manner.

List of essential papers. We consider these as the minimum necessary citations

  1. Bannwarth, C.; Ehlert, S.; Grimme, S.
     GFN2-xTB—An Accurate and Broadly Parametrized Self-Consistent Tight-Binding Quantum Chemical Method with Multipole Electrostatics and Density-Dependent Dispersion Contributions
     J. Chem. Theory Comput. 2019 15(3), 1652-1671
     doi.org/10.1021/acs.jctc.8b01176
  2. Neese, F.
     Software update: the ORCA program system, version 6.0
     WIRES Comput. Molec. Sci. 2025 15(1), e70019
     doi.org/10.1002/wcms.70019
  3. de Souza, B.
     GOAT: A Global Optimization Algorithm for Molecules and Atomic Clusters
     Angewandte Chemie 2025 64(18), e202500393
     doi.org/10.1002/anie.202500393

List of papers to cite with high priority. The work reported in these papers was absolutely
necessary for this run to complete.
Our perspective: the developers of density functionals and basis sets usually get cited in chemistry papers
Good! But without the algorithms to do something with them, the functionals or basis sets would not do anything.
Hence, in our opinion, the algorithm design and method developments papers are equally worthy of getting cited

  1. Bannwarth, C.; Caldeweyher, E.; Ehlert, S.; Hansen, A.; Pracht, P.; Seibert, J.; Spicher, S.; Grimme, S.
     Extended tight-binding quantum chemistry methods
     WIRES Comput. Molec. Sci. 2020 11(2), e1493
     doi.org/10.1002/wcms.1493

List of suggested additional citations. These are papers that are important in the 'surrounding' of 
of this run, or papers that preceded the highly important papers. If you like your results we are grateful for a citation.

  1. Neese, F.
     The ORCA program system
     WIRES Comput. Molec. Sci. 2012 2(1), 73-78
     doi.org/10.1002/wcms.81
  2. Neese, F.
     Software update: the ORCA program system, version 4.0
     WIRES Comput. Molec. Sci. 2018 8(1), 1-6
     doi.org/10.1002/wcms.1327
  3. Neese, F.; Wennmohs, F.; Becker, U.; Riplinger, C.
     The ORCA quantum chemistry program package
     J. Chem. Phys. 2020 152(22), 224108
     doi.org/10.1063/5.0004608
  4. Neese, F.
     Software update: The ORCA program system—Version 5.0
     WIRES Comput. Molec. Sci. 2022 12(1), e1606
     doi.org/10.1002/wcms.1606

List of optional additional citations

  1. Neese, F.
     Approximate second-order SCF convergence for spin unrestricted wavefunctions
     Chem. Phys. Lett. 2000 325(1-3), 93-98
     doi.org/10.1016/s0009-2614(00)00662-x

Timings for individual modules:

Sum of individual times          ...       86.341 sec (=   1.439 min)
Geometry relaxation              ...        0.017 sec (=   0.000 min)   0.0 %
GOAT                             ...       85.895 sec (=   1.432 min)  99.5 %
XTB module                       ...        0.429 sec (=   0.007 min)   0.5 %
                             ****ORCA TERMINATED NORMALLY****
TOTAL RUN TIME: 0 days 0 hours 1 minutes 28 seconds 296 msec
