17
Coordinates from ORCA-job freq E -421.358925878994
  C          -2.64920858077610      0.30114410557969      0.12717952694632
  C           2.59898601831233      0.19977194022435     -0.63176635090024
  C          -1.34942894018018     -0.47405037169851     -0.03798639706167
  C          -0.13557849502475      0.37473689519103      0.36904229994670
  C           1.13529984816446     -0.36242937278509      0.15436238070727
  O           2.98762056622899     -0.78160164332058      1.01938721566702
  O           1.55841534888165     -0.55660320343048     -1.14326638847032
  O           1.60663629577514     -1.17823462462173      1.08561899835764
  H           3.58739845115782     -0.14029214991522     -0.91156994803745
  H          -2.78638812280002      0.61594362725824      1.16240774169768
  H          -3.50748766959164     -0.30695871365401     -0.15494150403706
  H          -2.65106442025822      1.19542063640949     -0.49740858356728
  H           2.44777285483033      1.27673219656218     -0.63471019171304
  H          -1.22699897974454     -0.79078392259150     -1.07505264094696
  H          -1.36942427123198     -1.37834541267022      0.57228705449339
  H          -0.20419551995703      0.66090580595054      1.41793760128948
  H          -0.11112438378627      1.28464020751182     -0.23612581437150
