17
Coordinates from ORCA-job freq E -421.391081516399
  C      -2.330666      0.897271     -0.430655
  C      -1.541251     -0.159183      0.338236
  C       2.367979     -0.590382      0.444772
  C      -0.091695     -0.110544     -0.010522
  C       0.977376     -1.096743      0.081448
  O       1.585112      1.559243      0.679051
  O       2.525393      0.750432      0.055314
  O       0.454536     -0.631894     -1.159742
  H       0.587366      1.067687      0.334835
  H      -3.389071      0.817649     -0.197690
  H      -2.196438      0.759742     -1.500561
  H      -1.989785      1.894494     -0.163827
  H      -1.928254     -1.155803      0.092078
  H      -1.646339     -0.004150      1.414068
  H       2.523436     -0.722500      1.525175
  H       3.143585     -1.121139     -0.111576
  H       0.774809     -2.139880      0.306427
17
Coordinates from ORCA-job freq E -421.392056720766
  C      -2.330968      0.880765     -0.457409
  C      -1.538718     -0.139793      0.353349
  C       2.371515     -0.598282      0.415403
  C      -0.080662     -0.081675      0.035903
  C       0.974034     -1.079088      0.097739
  O       1.611788      1.513215      0.764128
  O       2.505952      0.751849      0.031906
  O       0.437796     -0.578662     -1.138199
  H       0.580963      1.036605      0.403517
  H      -3.395165      0.797471     -0.245952
  H      -2.178639      0.718417     -1.523437
  H      -2.011260      1.894162     -0.218847
  H      -1.891051     -1.152671      0.131900
  H      -1.666164      0.029706      1.423318
  H       2.570555     -0.725444      1.484360
  H       3.120319     -1.133352     -0.169290
  H       0.745798     -2.118924      0.308442
17
Coordinates from ORCA-job freq E -421.392202467896
  C      -2.334124      0.847538     -0.492447
  C      -1.539993     -0.113753      0.385083
  C       2.372704     -0.610224      0.389157
  C      -0.078831     -0.051124      0.080489
  C       0.964665     -1.061395      0.083003
  O       1.645225      1.487647      0.851874
  O       2.515948      0.755725      0.064307
  O       0.416012     -0.499273     -1.124313
  H       0.597084      1.041648      0.480178
  H      -3.399717      0.770300     -0.283951
  H      -2.173321      0.620588     -1.545701
  H      -2.024120      1.877188     -0.316667
  H      -1.871307     -1.143882      0.218526
  H      -1.685367      0.110536      1.442390
  H       2.595717     -0.781999      1.446251
  H       3.100912     -1.129294     -0.234028
  H       0.724607     -2.105928      0.252681
17
Coordinates from ORCA-job freq E -421.392208170403
  C      -2.335378      0.848047     -0.492105
  C      -1.539230     -0.113841      0.383082
  C       2.373220     -0.610810      0.389812
  C      -0.077520     -0.049490      0.078137
  C       0.965134     -1.060241      0.084952
  O       1.646037      1.485468      0.852208
  O       2.514480      0.754595      0.061740
  O       0.418513     -0.503000     -1.125148
  H       0.596478      1.042094      0.477767
  H      -3.400922      0.767185     -0.284538
  H      -2.172762      0.626742     -1.546153
  H      -2.028801      1.877953     -0.311185
  H      -1.869611     -1.144235      0.216343
  H      -1.684485      0.109572      1.440422
  H       2.597550     -0.781577      1.446601
  H       3.100557     -1.130542     -0.233727
  H       0.722832     -2.103621      0.258624
17
Coordinates from ORCA-job freq E -421.392191744903
  C      -2.335732      0.848429     -0.491482
  C      -1.539100     -0.113959      0.382701
  C       2.373223     -0.610926      0.390303
  C      -0.077527     -0.049580      0.077340
  C       0.965130     -1.060305      0.085230
  O       1.646130      1.486324      0.850394
  O       2.515719      0.754330      0.062215
  O       0.418524     -0.504139     -1.125448
  H       0.596771      1.042874      0.475361
  H      -3.401341      0.765862     -0.284942
  H      -2.172010      0.628964     -1.545753
  H      -2.030612      1.878429     -0.308702
  H      -1.869546     -1.144221      0.215226
  H      -1.683992      0.108520      1.440276
  H       2.597103     -0.781717      1.447201
  H       3.100583     -1.131057     -0.232889
  H       0.722770     -2.103530      0.259800
17
Coordinates from ORCA-job freq E -421.392204491676
  C      -2.335625      0.846665     -0.493243
  C      -1.539174     -0.112973      0.384111
  C       2.373155     -0.611145      0.389428
  C      -0.077459     -0.048580      0.079204
  C       0.964959     -1.059587      0.083468
  O       1.646882      1.484882      0.855217
  O       2.515122      0.754755      0.063831
  O       0.418360     -0.499185     -1.125219
  H       0.597000      1.042124      0.480886
  H      -3.400862      0.768135     -0.283217
  H      -2.175437      0.620897     -1.546711
  H      -2.027181      1.876834     -0.317044
  H      -1.869175     -1.143850      0.219502
  H      -1.684620      0.112603      1.440969
  H       2.597240     -0.783869      1.445956
  H       3.100408     -1.130055     -0.234881
  H       0.722500     -2.103352      0.254574
17
Coordinates from ORCA-job freq E -421.392197238301
  C      -2.335697      0.847609     -0.492276
  C      -1.539113     -0.113460      0.383398
  C       2.373197     -0.611062      0.389877
  C      -0.077496     -0.049077      0.078150
  C       0.965028     -1.059951      0.084439
  O       1.646525      1.485666      0.852595
  O       2.515571      0.754506      0.063054
  O       0.418349     -0.501970     -1.125363
  H       0.596929      1.042670      0.477666
  H      -3.401176      0.766543     -0.284457
  H      -2.173208      0.625476     -1.546176
  H      -2.029422      1.877761     -0.312249
  H      -1.869374     -1.144009      0.217279
  H      -1.684240      0.110460      1.440646
  H       2.597176     -0.782863      1.446581
  H       3.100466     -1.130609     -0.233891
  H       0.722578     -2.103391      0.257558
17
Coordinates from ORCA-job freq E -421.392203062346
  C      -2.335748      0.847621     -0.492269
  C      -1.539102     -0.113462      0.383342
  C       2.373204     -0.611072      0.389920
  C      -0.077484     -0.049053      0.078100
  C       0.965033     -1.059936      0.084473
  O       1.646523      1.485673      0.852589
  O       2.515606      0.754493      0.063108
  O       0.418402     -0.501992     -1.125372
  H       0.596955      1.042710      0.477609
  H      -3.401207      0.766581     -0.284345
  H      -2.173396      0.625486     -1.546189
  H      -2.029403      1.877757     -0.312277
  H      -1.869318     -1.144022      0.217204
  H      -1.684218      0.110420      1.440599
  H       2.597206     -0.782907      1.446617
  H       3.100448     -1.130620     -0.233882
  H       0.722592     -2.103378      0.257604
