17
* (null), Energy   -1000.0000000
C    -2.862835    0.717643   -0.521706    0.002562   -0.000867    0.001076
C    -2.066189   -0.243440    0.353905    0.001270   -0.015325   -0.000509
C     1.846117   -0.741050    0.360484   -0.000085   -0.011839    0.003433
C    -0.604571   -0.179030    0.048664    0.043352    0.096753    0.055485
C     0.437946   -1.189913    0.055037   -0.018537   -0.004239   -0.015049
O     1.119436    1.355695    0.823153    0.092876   -0.004337   -0.007611
O     1.988519    0.624516    0.033671   -0.033075    0.029802    0.024961
O    -0.108685   -0.631970   -1.154809    0.016898   -0.010168   -0.009582
H     0.069869    0.912732    0.448173   -1.555991   -1.058355   -0.656046
H    -3.928293    0.636603   -0.313782    0.000706    0.002381    0.000059
H    -2.700483    0.495508   -1.575626    0.001079   -0.000544   -0.000051
H    -2.556490    1.747779   -0.341714    0.002676    0.001408    0.000082
H    -2.396405   -1.274000    0.187768   -0.017265    0.007803   -0.001823
H    -2.211305   -0.019558    1.411163   -0.006726    0.000932   -0.001061
H     2.070119   -0.912885    1.417181    0.006264    0.014459   -0.004240
H     2.573361   -1.260598   -0.263318    0.005910    0.015174   -0.005159
H     0.195505   -2.233356    0.228168    0.005630    0.005602    0.015452
17
* Frequency(6) -1981.9368
C    -2.862544    0.717545   -0.521583    0.002562   -0.000867    0.001076
C    -2.066044   -0.245182    0.353848    0.001270   -0.015325   -0.000509
C     1.846108   -0.742395    0.360874   -0.000085   -0.011839    0.003433
C    -0.599644   -0.168035    0.054969    0.043352    0.096753    0.055485
C     0.435839   -1.190395    0.053326   -0.018537   -0.004239   -0.015049
O     1.129991    1.355202    0.822288    0.092876   -0.004337   -0.007611
O     1.984760    0.627902    0.036508   -0.033075    0.029802    0.024961
O    -0.106765   -0.633125   -1.155898    0.016898   -0.010168   -0.009582
H    -0.106962    0.792456    0.373617   -1.555991   -1.058355   -0.656046
H    -3.928213    0.636873   -0.313775    0.000706    0.002381    0.000059
H    -2.700360    0.495446   -1.575631    0.001079   -0.000544   -0.000051
H    -2.556186    1.747939   -0.341704    0.002676    0.001408    0.000082
H    -2.398367   -1.273113    0.187561   -0.017265    0.007803   -0.001823
H    -2.212070   -0.019452    1.411042   -0.006726    0.000932   -0.001061
H     2.070831   -0.911242    1.416699    0.006264    0.014459   -0.004240
H     2.574032   -1.258873   -0.263905    0.005910    0.015174   -0.005159
H     0.196145   -2.232719    0.229924    0.005630    0.005602    0.015452
17
* Frequency(6) -1981.9368
C    -2.862284    0.717457   -0.521474    0.002562   -0.000867    0.001076
C    -2.065916   -0.246735    0.353796    0.001270   -0.015325   -0.000509
C     1.846099   -0.743595    0.361222   -0.000085   -0.011839    0.003433
C    -0.595252   -0.158231    0.060592    0.043352    0.096753    0.055485
C     0.433961   -1.190825    0.051801   -0.018537   -0.004239   -0.015049
O     1.139402    1.354763    0.821517    0.092876   -0.004337   -0.007611
O     1.981409    0.630922    0.039037   -0.033075    0.029802    0.024961
O    -0.105052   -0.634155   -1.156869    0.016898   -0.010168   -0.009582
H    -0.264630    0.685213    0.307140   -1.555991   -1.058355   -0.656046
H    -3.928142    0.637115   -0.313769    0.000706    0.002381    0.000059
H    -2.700251    0.495391   -1.575637    0.001079   -0.000544   -0.000051
H    -2.555915    1.748082   -0.341696    0.002676    0.001408    0.000082
H    -2.400116   -1.272322    0.187376   -0.017265    0.007803   -0.001823
H    -2.212751   -0.019358    1.410935   -0.006726    0.000932   -0.001061
H     2.071466   -0.909777    1.416269    0.006264    0.014459   -0.004240
H     2.574631   -1.257336   -0.264427    0.005910    0.015174   -0.005159
H     0.196715   -2.232152    0.231490    0.005630    0.005602    0.015452
17
* Frequency(6) -1981.9368
C    -2.862084    0.717389   -0.521390    0.002562   -0.000867    0.001076
C    -2.065816   -0.247931    0.353756    0.001270   -0.015325   -0.000509
C     1.846092   -0.744518    0.361490   -0.000085   -0.011839    0.003433
C    -0.591869   -0.150681    0.064921    0.043352    0.096753    0.055485
C     0.432514   -1.191156    0.050627   -0.018537   -0.004239   -0.015049
O     1.146650    1.354424    0.820923    0.092876   -0.004337   -0.007611
O     1.978828    0.633248    0.040985   -0.033075    0.029802    0.024961
O    -0.103734   -0.634949   -1.157616    0.016898   -0.010168   -0.009582
H    -0.386050    0.602626    0.255946   -1.555991   -1.058355   -0.656046
H    -3.928087    0.637301   -0.313764    0.000706    0.002381    0.000059
H    -2.700166    0.495348   -1.575641    0.001079   -0.000544   -0.000051
H    -2.555706    1.748192   -0.341690    0.002676    0.001408    0.000082
H    -2.401463   -1.271713    0.187234   -0.017265    0.007803   -0.001823
H    -2.213276   -0.019285    1.410852   -0.006726    0.000932   -0.001061
H     2.071955   -0.908648    1.415938    0.006264    0.014459   -0.004240
H     2.575092   -1.256152   -0.264830    0.005910    0.015174   -0.005159
H     0.197154   -2.231714    0.232695    0.005630    0.005602    0.015452
17
* Frequency(6) -1981.9368
C    -2.861966    0.717349   -0.521341    0.002562   -0.000867    0.001076
C    -2.065758   -0.248640    0.353733    0.001270   -0.015325   -0.000509
C     1.846089   -0.745066    0.361649   -0.000085   -0.011839    0.003433
C    -0.589862   -0.146203    0.067489    0.043352    0.096753    0.055485
C     0.431656   -1.191352    0.049930   -0.018537   -0.004239   -0.015049
O     1.150948    1.354223    0.820570    0.092876   -0.004337   -0.007611
O     1.977297    0.634627    0.042140   -0.033075    0.029802    0.024961
O    -0.102952   -0.635419   -1.158060    0.016898   -0.010168   -0.009582
H    -0.458064    0.553643    0.225583   -1.555991   -1.058355   -0.656046
H    -3.928054    0.637411   -0.313761    0.000706    0.002381    0.000059
H    -2.700117    0.495323   -1.575643    0.001079   -0.000544   -0.000051
H    -2.555582    1.748257   -0.341686    0.002676    0.001408    0.000082
H    -2.402262   -1.271352    0.187149   -0.017265    0.007803   -0.001823
H    -2.213587   -0.019242    1.410803   -0.006726    0.000932   -0.001061
H     2.072245   -0.907979    1.415742    0.006264    0.014459   -0.004240
H     2.575366   -1.255449   -0.265069    0.005910    0.015174   -0.005159
H     0.197415   -2.231455    0.233411    0.005630    0.005602    0.015452
17
* Frequency(6) -1981.9368
C    -2.861941    0.717341   -0.521330    0.002562   -0.000867    0.001076
C    -2.065746   -0.248786    0.353728    0.001270   -0.015325   -0.000509
C     1.846088   -0.745179    0.361681   -0.000085   -0.011839    0.003433
C    -0.589450   -0.145282    0.068017    0.043352    0.096753    0.055485
C     0.431480   -1.191392    0.049787   -0.018537   -0.004239   -0.015049
O     1.151832    1.354182    0.820498    0.092876   -0.004337   -0.007611
O     1.976982    0.634911    0.042378   -0.033075    0.029802    0.024961
O    -0.102791   -0.635516   -1.158151    0.016898   -0.010168   -0.009582
H    -0.472868    0.543573    0.219341   -1.555991   -1.058355   -0.656046
H    -3.928047    0.637433   -0.313761    0.000706    0.002381    0.000059
H    -2.700106    0.495318   -1.575643    0.001079   -0.000544   -0.000051
H    -2.555556    1.748270   -0.341685    0.002676    0.001408    0.000082
H    -2.402427   -1.271278    0.187132   -0.017265    0.007803   -0.001823
H    -2.213651   -0.019233    1.410793   -0.006726    0.000932   -0.001061
H     2.072304   -0.907842    1.415702    0.006264    0.014459   -0.004240
H     2.575422   -1.255305   -0.265118    0.005910    0.015174   -0.005159
H     0.197469   -2.231402    0.233558    0.005630    0.005602    0.015452
17
* Frequency(6) -1981.9368
C    -2.862014    0.717366   -0.521361    0.002562   -0.000867    0.001076
C    -2.065782   -0.248352    0.353742    0.001270   -0.015325   -0.000509
C     1.846090   -0.744844    0.361584   -0.000085   -0.011839    0.003433
C    -0.590676   -0.148019    0.066448    0.043352    0.096753    0.055485
C     0.432004   -1.191272    0.050213   -0.018537   -0.004239   -0.015049
O     1.149205    1.354305    0.820713    0.092876   -0.004337   -0.007611
O     1.977918    0.634068    0.041672   -0.033075    0.029802    0.024961
O    -0.103269   -0.635229   -1.157880    0.016898   -0.010168   -0.009582
H    -0.428859    0.573508    0.237896   -1.555991   -1.058355   -0.656046
H    -3.928067    0.637366   -0.313763    0.000706    0.002381    0.000059
H    -2.700137    0.495333   -1.575642    0.001079   -0.000544   -0.000051
H    -2.555632    1.748231   -0.341687    0.002676    0.001408    0.000082
H    -2.401938   -1.271499    0.187183   -0.017265    0.007803   -0.001823
H    -2.213461   -0.019259    1.410823   -0.006726    0.000932   -0.001061
H     2.072127   -0.908251    1.415822    0.006264    0.014459   -0.004240
H     2.575255   -1.255734   -0.264972    0.005910    0.015174   -0.005159
H     0.197309   -2.231560    0.233120    0.005630    0.005602    0.015452
17
* Frequency(6) -1981.9368
C    -2.862175    0.717420   -0.521429    0.002562   -0.000867    0.001076
C    -2.065862   -0.247387    0.353774    0.001270   -0.015325   -0.000509
C     1.846095   -0.744098    0.361368   -0.000085   -0.011839    0.003433
C    -0.593408   -0.154116    0.062951    0.043352    0.096753    0.055485
C     0.433173   -1.191005    0.051161   -0.018537   -0.004239   -0.015049
O     1.143352    1.354578    0.821193    0.092876   -0.004337   -0.007611
O     1.980002    0.632190    0.040099   -0.033075    0.029802    0.024961
O    -0.104334   -0.634588   -1.157276    0.016898   -0.010168   -0.009582
H    -0.330804    0.640202    0.279239   -1.555991   -1.058355   -0.656046
H    -3.928112    0.637216   -0.313766    0.000706    0.002381    0.000059
H    -2.700205    0.495368   -1.575639    0.001079   -0.000544   -0.000051
H    -2.555801    1.748142   -0.341693    0.002676    0.001408    0.000082
H    -2.400850   -1.271990    0.187298   -0.017265    0.007803   -0.001823
H    -2.213037   -0.019318    1.410890   -0.006726    0.000932   -0.001061
H     2.071732   -0.909162    1.416089    0.006264    0.014459   -0.004240
H     2.574882   -1.256690   -0.264647    0.005910    0.015174   -0.005159
H     0.196955   -2.231913    0.232147    0.005630    0.005602    0.015452
17
* Frequency(6) -1981.9368
C    -2.862408    0.717499   -0.521526    0.002562   -0.000867    0.001076
C    -2.065977   -0.245993    0.353821    0.001270   -0.015325   -0.000509
C     1.846103   -0.743022    0.361056   -0.000085   -0.011839    0.003433
C    -0.597350   -0.162913    0.057906    0.043352    0.096753    0.055485
C     0.434858   -1.190620    0.052530   -0.018537   -0.004239   -0.015049
O     1.134908    1.354972    0.821885    0.092876   -0.004337   -0.007611
O     1.983009    0.629480    0.037829   -0.033075    0.029802    0.024961
O    -0.105870   -0.633663   -1.156405    0.016898   -0.010168   -0.009582
H    -0.189331    0.736430    0.338888   -1.555991   -1.058355   -0.656046
H    -3.928176    0.637000   -0.313772    0.000706    0.002381    0.000059
H    -2.700303    0.495417   -1.575634    0.001079   -0.000544   -0.000051
H    -2.556044    1.748014   -0.341700    0.002676    0.001408    0.000082
H    -2.399281   -1.272700    0.187464   -0.017265    0.007803   -0.001823
H    -2.212426   -0.019403    1.410986   -0.006726    0.000932   -0.001061
H     2.071163   -0.910476    1.416474    0.006264    0.014459   -0.004240
H     2.574345   -1.258070   -0.264178    0.005910    0.015174   -0.005159
H     0.196443   -2.232423    0.230742    0.005630    0.005602    0.015452
17
* Frequency(6) -1981.9368
C    -2.862688    0.717594   -0.521644    0.002562   -0.000867    0.001076
C    -2.066115   -0.244323    0.353876    0.001270   -0.015325   -0.000509
C     1.846112   -0.741732    0.360682   -0.000085   -0.011839    0.003433
C    -0.602074   -0.173457    0.051860    0.043352    0.096753    0.055485
C     0.436878   -1.190158    0.054170   -0.018537   -0.004239   -0.015049
O     1.124786    1.355445    0.822714    0.092876   -0.004337   -0.007611
O     1.986614    0.626233    0.035109   -0.033075    0.029802    0.024961
O    -0.107712   -0.632555   -1.155361    0.016898   -0.010168   -0.009582
H    -0.019769    0.851763    0.410379   -1.555991   -1.058355   -0.656046
H    -3.928253    0.636740   -0.313778    0.000706    0.002381    0.000059
H    -2.700421    0.495476   -1.575628    0.001079   -0.000544   -0.000051
H    -2.556336    1.747860   -0.341709    0.002676    0.001408    0.000082
H    -2.397399   -1.273550    0.187663   -0.017265    0.007803   -0.001823
H    -2.211693   -0.019504    1.411102   -0.006726    0.000932   -0.001061
H     2.070480   -0.912052    1.416936    0.006264    0.014459   -0.004240
H     2.573701   -1.259724   -0.263615    0.005910    0.015174   -0.005159
H     0.195829   -2.233033    0.229058    0.005630    0.005602    0.015452
17
* Frequency(6) -1981.9368
C    -2.862983    0.717693   -0.521768    0.002562   -0.000867    0.001076
C    -2.066262   -0.242557    0.353935    0.001270   -0.015325   -0.000509
C     1.846122   -0.740368    0.360286   -0.000085   -0.011839    0.003433
C    -0.607069   -0.184604    0.045467    0.043352    0.096753    0.055485
C     0.439014   -1.189669    0.055903   -0.018537   -0.004239   -0.015049
O     1.114086    1.355945    0.823591    0.092876   -0.004337   -0.007611
O     1.990424    0.622799    0.032233   -0.033075    0.029802    0.024961
O    -0.109659   -0.631384   -1.154257    0.016898   -0.010168   -0.009582
H     0.159506    0.973702    0.485966   -1.555991   -1.058355   -0.656046
H    -3.928334    0.636466   -0.313785    0.000706    0.002381    0.000059
H    -2.700545    0.495539   -1.575623    0.001079   -0.000544   -0.000051
H    -2.556644    1.747698   -0.341719    0.002676    0.001408    0.000082
H    -2.395410   -1.274449    0.187873   -0.017265    0.007803   -0.001823
H    -2.210918   -0.019612    1.411224   -0.006726    0.000932   -0.001061
H     2.069758   -0.913718    1.417425    0.006264    0.014459   -0.004240
H     2.573020   -1.261472   -0.263021    0.005910    0.015174   -0.005159
H     0.195180   -2.233679    0.227278    0.005630    0.005602    0.015452
17
* Frequency(6) -1981.9368
C    -2.863262    0.717788   -0.521885    0.002562   -0.000867    0.001076
C    -2.066400   -0.240887    0.353990    0.001270   -0.015325   -0.000509
C     1.846131   -0.739078    0.359912   -0.000085   -0.011839    0.003433
C    -0.611793   -0.195148    0.039421    0.043352    0.096753    0.055485
C     0.441034   -1.189207    0.057543   -0.018537   -0.004239   -0.015049
O     1.103965    1.356418    0.824420    0.092876   -0.004337   -0.007611
O     1.994029    0.619551    0.029513   -0.033075    0.029802    0.024961
O    -0.111500   -0.630276   -1.153213    0.016898   -0.010168   -0.009582
H     0.329068    1.089035    0.557458   -1.555991   -1.058355   -0.656046
H    -3.928411    0.636206   -0.313791    0.000706    0.002381    0.000059
H    -2.700663    0.495598   -1.575617    0.001079   -0.000544   -0.000051
H    -2.556935    1.747545   -0.341727    0.002676    0.001408    0.000082
H    -2.393529   -1.275299    0.188071   -0.017265    0.007803   -0.001823
H    -2.210185   -0.019713    1.411339   -0.006726    0.000932   -0.001061
H     2.069076   -0.915294    1.417887    0.006264    0.014459   -0.004240
H     2.572376   -1.263125   -0.262459    0.005910    0.015174   -0.005159
H     0.194567   -2.234289    0.225594    0.005630    0.005602    0.015452
17
* Frequency(6) -1981.9368
C    -2.863495    0.717867   -0.521983    0.002562   -0.000867    0.001076
C    -2.066516   -0.239494    0.354037    0.001270   -0.015325   -0.000509
C     1.846139   -0.738001    0.359600   -0.000085   -0.011839    0.003433
C    -0.615735   -0.203945    0.034376    0.043352    0.096753    0.055485
C     0.442719   -1.188822    0.058912   -0.018537   -0.004239   -0.015049
O     1.095520    1.356812    0.825112    0.092876   -0.004337   -0.007611
O     1.997036    0.616842    0.027244   -0.033075    0.029802    0.024961
O    -0.113036   -0.629351   -1.152341    0.016898   -0.010168   -0.009582
H     0.470542    1.185262    0.617107   -1.555991   -1.058355   -0.656046
H    -3.928475    0.635990   -0.313797    0.000706    0.002381    0.000059
H    -2.700761    0.495648   -1.575612    0.001079   -0.000544   -0.000051
H    -2.557179    1.747417   -0.341735    0.002676    0.001408    0.000082
H    -2.391959   -1.276009    0.188237   -0.017265    0.007803   -0.001823
H    -2.209573   -0.019798    1.411436   -0.006726    0.000932   -0.001061
H     2.068506   -0.916608    1.418272    0.006264    0.014459   -0.004240
H     2.571839   -1.264505   -0.261990    0.005910    0.015174   -0.005159
H     0.194055   -2.234798    0.224189    0.005630    0.005602    0.015452
17
* Frequency(6) -1981.9368
C    -2.863656    0.717921   -0.522051    0.002562   -0.000867    0.001076
C    -2.066596   -0.238528    0.354069    0.001270   -0.015325   -0.000509
C     1.846144   -0.737255    0.359383   -0.000085   -0.011839    0.003433
C    -0.618466   -0.210042    0.030880    0.043352    0.096753    0.055485
C     0.443888   -1.188554    0.059860   -0.018537   -0.004239   -0.015049
O     1.089667    1.357085    0.825592    0.092876   -0.004337   -0.007611
O     1.999120    0.614964    0.025671   -0.033075    0.029802    0.024961
O    -0.114101   -0.628710   -1.151738    0.016898   -0.010168   -0.009582
H     0.568596    1.251957    0.658449   -1.555991   -1.058355   -0.656046
H    -3.928520    0.635840   -0.313801    0.000706    0.002381    0.000059
H    -2.700829    0.495682   -1.575609    0.001079   -0.000544   -0.000051
H    -2.557347    1.747328   -0.341740    0.002676    0.001408    0.000082
H    -2.390871   -1.276501    0.188352   -0.017265    0.007803   -0.001823
H    -2.209149   -0.019857    1.411503   -0.006726    0.000932   -0.001061
H     2.068111   -0.917519    1.418539    0.006264    0.014459   -0.004240
H     2.571467   -1.265461   -0.261665    0.005910    0.015174   -0.005159
H     0.193700   -2.235151    0.223215    0.005630    0.005602    0.015452
17
* Frequency(6) -1981.9368
C    -2.863729    0.717946   -0.522081    0.002562   -0.000867    0.001076
C    -2.066631   -0.238095    0.354083    0.001270   -0.015325   -0.000509
C     1.846147   -0.736920    0.359286   -0.000085   -0.011839    0.003433
C    -0.619693   -0.212778    0.029310    0.043352    0.096753    0.055485
C     0.444412   -1.188435    0.060286   -0.018537   -0.004239   -0.015049
O     1.087041    1.357208    0.825807    0.092876   -0.004337   -0.007611
O     2.000056    0.614121    0.024965   -0.033075    0.029802    0.024961
O    -0.114579   -0.628423   -1.151467    0.016898   -0.010168   -0.009582
H     0.612605    1.281891    0.677005   -1.555991   -1.058355   -0.656046
H    -3.928540    0.635772   -0.313802    0.000706    0.002381    0.000059
H    -2.700859    0.495697   -1.575608    0.001079   -0.000544   -0.000051
H    -2.557423    1.747288   -0.341742    0.002676    0.001408    0.000082
H    -2.390383   -1.276721    0.188404   -0.017265    0.007803   -0.001823
H    -2.208959   -0.019883    1.411533   -0.006726    0.000932   -0.001061
H     2.067934   -0.917928    1.418659    0.006264    0.014459   -0.004240
H     2.571299   -1.265891   -0.261519    0.005910    0.015174   -0.005159
H     0.193541   -2.235310    0.222778    0.005630    0.005602    0.015452
17
* Frequency(6) -1981.9368
C    -2.863704    0.717938   -0.522071    0.002562   -0.000867    0.001076
C    -2.066619   -0.238240    0.354078    0.001270   -0.015325   -0.000509
C     1.846146   -0.737033    0.359319   -0.000085   -0.011839    0.003433
C    -0.619280   -0.211858    0.029838    0.043352    0.096753    0.055485
C     0.444235   -1.188475    0.060143   -0.018537   -0.004239   -0.015049
O     1.087924    1.357167    0.825735    0.092876   -0.004337   -0.007611
O     1.999741    0.614404    0.025202   -0.033075    0.029802    0.024961
O    -0.114418   -0.628520   -1.151558    0.016898   -0.010168   -0.009582
H     0.597801    1.271822    0.670763   -1.555991   -1.058355   -0.656046
H    -3.928533    0.635795   -0.313802    0.000706    0.002381    0.000059
H    -2.700849    0.495692   -1.575608    0.001079   -0.000544   -0.000051
H    -2.557398    1.747302   -0.341742    0.002676    0.001408    0.000082
H    -2.390547   -1.276647    0.188386   -0.017265    0.007803   -0.001823
H    -2.209023   -0.019874    1.411523   -0.006726    0.000932   -0.001061
H     2.067994   -0.917791    1.418619    0.006264    0.014459   -0.004240
H     2.571356   -1.265746   -0.261568    0.005910    0.015174   -0.005159
H     0.193594   -2.235257    0.222925    0.005630    0.005602    0.015452
17
* Frequency(6) -1981.9368
C    -2.863586    0.717897   -0.522021    0.002562   -0.000867    0.001076
C    -2.066561   -0.238950    0.354055    0.001270   -0.015325   -0.000509
C     1.846142   -0.737581    0.359478   -0.000085   -0.011839    0.003433
C    -0.617274   -0.207380    0.032406    0.043352    0.096753    0.055485
C     0.443377   -1.188671    0.059446   -0.018537   -0.004239   -0.015049
O     1.092223    1.356966    0.825383    0.092876   -0.004337   -0.007611
O     1.998210    0.615784    0.026357   -0.033075    0.029802    0.024961
O    -0.113636   -0.628990   -1.152001    0.016898   -0.010168   -0.009582
H     0.525787    1.222839    0.640400   -1.555991   -1.058355   -0.656046
H    -3.928500    0.635905   -0.313799    0.000706    0.002381    0.000059
H    -2.700799    0.495667   -1.575611    0.001079   -0.000544   -0.000051
H    -2.557274    1.747367   -0.341738    0.002676    0.001408    0.000082
H    -2.391346   -1.276286    0.188302   -0.017265    0.007803   -0.001823
H    -2.209334   -0.019831    1.411473   -0.006726    0.000932   -0.001061
H     2.068284   -0.917122    1.418423    0.006264    0.014459   -0.004240
H     2.571629   -1.265044   -0.261807    0.005910    0.015174   -0.005159
H     0.193855   -2.234997    0.223640    0.005630    0.005602    0.015452
17
* Frequency(6) -1981.9368
C    -2.863386    0.717830   -0.521937    0.002562   -0.000867    0.001076
C    -2.066462   -0.240146    0.354015    0.001270   -0.015325   -0.000509
C     1.846135   -0.738505    0.359746   -0.000085   -0.011839    0.003433
C    -0.613891   -0.199830    0.036736    0.043352    0.096753    0.055485
C     0.441931   -1.189002    0.058272   -0.018537   -0.004239   -0.015049
O     1.099470    1.356627    0.824789    0.092876   -0.004337   -0.007611
O     1.995629    0.618109    0.028305   -0.033075    0.029802    0.024961
O    -0.112318   -0.629784   -1.152749    0.016898   -0.010168   -0.009582
H     0.404367    1.140252    0.589206   -1.555991   -1.058355   -0.656046
H    -3.928445    0.636091   -0.313794    0.000706    0.002381    0.000059
H    -2.700715    0.495625   -1.575615    0.001079   -0.000544   -0.000051
H    -2.557065    1.747477   -0.341731    0.002676    0.001408    0.000082
H    -2.392693   -1.275677    0.188160   -0.017265    0.007803   -0.001823
H    -2.209859   -0.019758    1.411391   -0.006726    0.000932   -0.001061
H     2.068773   -0.915993    1.418092    0.006264    0.014459   -0.004240
H     2.572090   -1.263860   -0.262209    0.005910    0.015174   -0.005159
H     0.194294   -2.234560    0.224846    0.005630    0.005602    0.015452
17
* Frequency(6) -1981.9368
C    -2.863126    0.717742   -0.521828    0.002562   -0.000867    0.001076
C    -2.066333   -0.241699    0.353963    0.001270   -0.015325   -0.000509
C     1.846127   -0.739704    0.360094   -0.000085   -0.011839    0.003433
C    -0.609498   -0.190026    0.042358    0.043352    0.096753    0.055485
C     0.440053   -1.189432    0.056747   -0.018537   -0.004239   -0.015049
O     1.108881    1.356188    0.824018    0.092876   -0.004337   -0.007611
O     1.992278    0.621129    0.030834   -0.033075    0.029802    0.024961
O    -0.110605   -0.630814   -1.153720    0.016898   -0.010168   -0.009582
H     0.246699    1.033009    0.522729   -1.555991   -1.058355   -0.656046
H    -3.928374    0.636332   -0.313788    0.000706    0.002381    0.000059
H    -2.700605    0.495570   -1.575620    0.001079   -0.000544   -0.000051
H    -2.556794    1.747619   -0.341723    0.002676    0.001408    0.000082
H    -2.394443   -1.274886    0.187975   -0.017265    0.007803   -0.001823
H    -2.210541   -0.019664    1.411283   -0.006726    0.000932   -0.001061
H     2.069407   -0.914528    1.417662    0.006264    0.014459   -0.004240
H     2.572689   -1.262322   -0.262732    0.005910    0.015174   -0.005159
H     0.194865   -2.233993    0.226412    0.005630    0.005602    0.015452
17
* Frequency(6) -1981.9368
C    -2.862835    0.717643   -0.521706    0.002562   -0.000867    0.001076
C    -2.066189   -0.243440    0.353905    0.001270   -0.015325   -0.000509
C     1.846117   -0.741050    0.360484   -0.000085   -0.011839    0.003433
C    -0.604571   -0.179030    0.048664    0.043352    0.096753    0.055485
C     0.437946   -1.189913    0.055037   -0.018537   -0.004239   -0.015049
O     1.119436    1.355695    0.823153    0.092876   -0.004337   -0.007611
O     1.988519    0.624516    0.033671   -0.033075    0.029802    0.024961
O    -0.108685   -0.631970   -1.154809    0.016898   -0.010168   -0.009582
H     0.069869    0.912732    0.448173   -1.555991   -1.058355   -0.656046
H    -3.928293    0.636603   -0.313782    0.000706    0.002381    0.000059
H    -2.700483    0.495508   -1.575626    0.001079   -0.000544   -0.000051
H    -2.556490    1.747779   -0.341714    0.002676    0.001408    0.000082
H    -2.396405   -1.274000    0.187768   -0.017265    0.007803   -0.001823
H    -2.211305   -0.019558    1.411163   -0.006726    0.000932   -0.001061
H     2.070119   -0.912885    1.417181    0.006264    0.014459   -0.004240
H     2.573361   -1.260598   -0.263318    0.005910    0.015174   -0.005159
H     0.195505   -2.233356    0.228168    0.005630    0.005602    0.015452
