17
Coordinates from ORCA-job freq E -421.405472099322
  C       2.336916      0.038932     -0.347272
  C      -2.139644      1.218255      0.383855
  C       1.163633     -0.830819     -0.023708
  C       0.049296     -0.209574      0.719909
  C      -1.241748      0.065064      0.015812
  O      -0.565846     -1.217656     -1.795307
  O      -1.115234     -0.994752      0.894557
  O      -1.305063     -0.133732     -1.344243
  H       0.407561     -1.134950     -1.178469
  H       2.982937     -0.450708     -1.071979
  H       2.933073      0.237567      0.548108
  H       2.013774      0.997008     -0.750416
  H      -1.831200      2.108217     -0.157949
  H      -3.162735      0.974752      0.108516
  H      -2.088772      1.393963      1.454087
  H       1.390266     -1.852501      0.262924
  H       0.287537      0.457943      1.548432
17
Coordinates from ORCA-job freq E -421.405832804357
  C       2.318392      0.044095     -0.361782
  C      -2.129368      1.226863      0.380551
  C       1.154654     -0.845847     -0.036379
  C       0.047425     -0.225223      0.720720
  C      -1.219956      0.092444      0.014045
  O      -0.576637     -1.233981     -1.755763
  O      -1.141559     -1.003267      0.855371
  O      -1.261145     -0.102790     -1.357045
  H       0.433705     -1.147515     -1.138935
  H       2.991316     -0.437411     -1.068000
  H       2.894906      0.278918      0.538267
  H       1.979554      0.985910     -0.793009
  H      -1.835954      2.128710     -0.151553
  H      -3.151826      0.973023      0.107132
  H      -2.078599      1.398369      1.452359
  H       1.396182     -1.858937      0.277951
  H       0.293663      0.393648      1.582926
17
Coordinates from ORCA-job freq E -421.406026292794
  C       2.323700      0.040081     -0.353001
  C      -2.131439      1.228367      0.384421
  C       1.152233     -0.850707     -0.051177
  C       0.048685     -0.230367      0.712072
  C      -1.213089      0.107249      0.010329
  O      -0.589622     -1.225808     -1.757058
  O      -1.150458     -1.002226      0.837062
  O      -1.257371     -0.085246     -1.365088
  H       0.438402     -1.134903     -1.152669
  H       3.030730     -0.451161     -1.018068
  H       2.859441      0.304044      0.564501
  H       1.997247      0.968734     -0.821933
  H      -1.898566      2.117762     -0.196911
  H      -3.160519      0.934144      0.184213
  H      -2.023233      1.444921      1.444004
  H       1.386764     -1.867048      0.260521
  H       0.301847      0.369171      1.585642
17
Coordinates from ORCA-job freq E -421.406057263323
  C       2.317809      0.041916     -0.354871
  C      -2.127386      1.231325      0.385096
  C       1.151457     -0.856221     -0.051280
  C       0.047694     -0.238673      0.714701
  C      -1.207500      0.112611      0.010886
  O      -0.591422     -1.224406     -1.752818
  O      -1.157865     -1.005714      0.826966
  O      -1.244859     -0.074652     -1.367792
  H       0.442701     -1.136826     -1.151294
  H       3.035988     -0.450203     -1.007403
  H       2.842940      0.325091      0.563124
  H       1.985969      0.960408     -0.840341
  H      -1.903193      2.118596     -0.203110
  H      -3.156576      0.931283      0.193526
  H      -2.012695      1.455822      1.442543
  H       1.390624     -1.871354      0.262129
  H       0.301066      0.348004      1.596795
17
Coordinates from ORCA-job freq E -421.406032597679
  C       2.319712      0.040789     -0.352737
  C      -2.128706      1.230890      0.385459
  C       1.151214     -0.855971     -0.053190
  C       0.048055     -0.238045      0.713068
  C      -1.207979      0.113227      0.010276
  O      -0.590834     -1.220338     -1.757176
  O      -1.157541     -1.004850      0.826887
  O      -1.247300     -0.073711     -1.368321
  H       0.441756     -1.136116     -1.152359
  H       3.039426     -0.451744     -1.003263
  H       2.842246      0.322001      0.567354
  H       1.990992      0.960412     -0.838130
  H      -1.914479      2.114476     -0.211899
  H      -3.158396      0.924576      0.206865
  H      -2.004528      1.464182      1.439919
  H       1.388711     -1.871739      0.259468
  H       0.302404      0.348970      1.594638
17
Coordinates from ORCA-job freq E -421.406035978000
  C       2.318943      0.041298     -0.353870
  C      -2.128292      1.231022      0.385053
  C       1.151365     -0.855912     -0.052093
  C       0.047921     -0.237963      0.713843
  C      -1.207899      0.112795      0.010542
  O      -0.590867     -1.222390     -1.755136
  O      -1.157467     -1.005120      0.827286
  O      -1.246365     -0.074591     -1.368045
  H       0.442122     -1.136903     -1.151013
  H       3.036566     -0.450338     -1.007403
  H       2.844459      0.321300      0.564867
  H       1.988614      0.961502     -0.837075
  H      -1.908625      2.116598     -0.207369
  H      -3.157689      0.928006      0.199307
  H      -2.009478      1.459605      1.441169
  H       1.389692     -1.871227      0.261404
  H       0.301752      0.349326      1.595391
17
Coordinates from ORCA-job freq E -421.406051901485
  C       2.318773      0.041352     -0.354070
  C      -2.128167      1.231046      0.385111
  C       1.151406     -0.855991     -0.051903
  C       0.047926     -0.238065      0.713993
  C      -1.207819      0.112777      0.010612
  O      -0.590788     -1.222288     -1.755230
  O      -1.157513     -1.005208      0.827255
  O      -1.246197     -0.074476     -1.368028
  H       0.442016     -1.137144     -1.150870
  H       3.036604     -0.450485     -1.007222
  H       2.844104      0.322121      0.564542
  H       1.988231      0.961145     -0.837920
  H      -1.907839      2.116904     -0.206639
  H      -3.157510      0.928427      0.198450
  H      -2.010034      1.458976      1.441444
  H       1.389902     -1.871226      0.261709
  H       0.301658      0.349142      1.595623
