15
Coordinates from ORCA-job freq E -271.023214552916
  C           0.13393918826540      1.51432223812245     -1.23954147493576
  C          -1.51368512784898     -0.96281765350796      2.53952038501550
  C           0.72316697227185      1.02871417662670      0.03840778685699
  C          -0.70580055083852      0.30635582150239      2.27978500164314
  C           0.00179494565338      0.24764577135154      0.98009530633279
  O           0.76335001509401     -0.69103273797166      0.51582945901228
  H          -0.89021201263569      1.85664034322768     -1.08681047699216
  H           0.09845368914913      0.68814241920707     -1.95443045019716
  H           0.73535625159802      2.30774190406028     -1.68234972109914
  H          -0.86848548082980     -1.83821032967220      2.48027680126029
  H          -1.96884447941041     -0.93656736822864      3.52838253847997
  H          -2.30215174573349     -1.07614711315746      1.79625236816676
  H           1.78091464908552      1.19585326035754      0.21247979930955
  H           0.03563492969868      0.43767322461427      3.07924558771947
  H          -1.34164224351907      1.19248504346797      2.29254408942745
