15
Coordinates from ORCA-job freq E -270.970275034070
  C       1.874367      0.893357     -0.426561
  C      -0.354226     -0.245171     -0.226485
  C      -2.121615      0.151574      1.040314
  C       1.072333     -0.226971      0.226592
  C      -1.370030     -1.018133      0.584521
  O      -1.332167     -0.577424      1.919236
  H      -1.204269      0.783049      0.356872
  H       1.860750      0.791798     -1.509836
  H       2.908157      0.865706     -0.091264
  H       1.454858      1.862945     -0.167681
  H      -0.517757     -0.271550     -1.297596
  H      -3.175441      0.270622      1.236281
  H       1.539685     -1.192781     -0.012133
  H       1.093126     -0.121587      1.314676
  H      -1.720181     -2.021010      0.400385
15
Coordinates from ORCA-job freq E -270.968762444318
  C       1.866303      0.899618     -0.416456
  C      -0.352089     -0.274942     -0.206179
  C      -2.105153      0.159874      1.016454
  C       1.082771     -0.241424      0.228119
  C      -1.371645     -1.029980      0.597774
  O      -1.325179     -0.556357      1.927663
  H      -1.201274      0.735454      0.289254
  H       1.842634      0.818341     -1.503744
  H       2.907262      0.884371     -0.096223
  H       1.436998      1.862035     -0.138949
  H      -0.548997     -0.232371     -1.275810
  H      -3.161113      0.308752      1.208366
  H       1.556093     -1.197666     -0.030570
  H       1.118639     -0.158159      1.315839
  H      -1.737661     -2.033122      0.431784
15
Coordinates from ORCA-job freq E -270.969030132035
  C       1.872738      0.897257     -0.419175
  C      -0.363794     -0.243664     -0.232872
  C      -2.099691      0.157601      1.052145
  C       1.061926     -0.221208      0.231659
  C      -1.376107     -1.014379      0.568454
  O      -1.291223     -0.590263      1.909019
  H      -1.224910      0.760370      0.319609
  H       1.868474      0.793919     -1.504390
  H       2.906226      0.872149     -0.076932
  H       1.451758      1.869855     -0.167162
  H      -0.509099     -0.313967     -1.308396
  H      -3.150364      0.288616      1.277176
  H       1.529639     -1.187607      0.001160
  H       1.075738     -0.111738      1.317942
  H      -1.743722     -2.012517      0.379085
15
Coordinates from ORCA-job freq E -270.966595871368
  C       1.851798      0.905437     -0.422245
  C      -0.367307     -0.266118     -0.217687
  C      -2.070522      0.158170      1.030689
  C       1.061337     -0.222714      0.235481
  C      -1.378325     -1.041046      0.577630
  O      -1.328661     -0.615430      1.926323
  H      -1.109765      0.737452      0.363100
  H       1.842117      0.802652     -1.507746
  H       2.888544      0.897799     -0.089196
  H       1.418868      1.872855     -0.169458
  H      -0.527737     -0.303098     -1.293641
  H      -3.122001      0.344258      1.212448
  H       1.538574     -1.183676      0.002710
  H       1.082535     -0.115057      1.321419
  H      -1.771866     -2.027063      0.377494
15
Coordinates from ORCA-job freq E -270.966281955839
  C       1.855595      0.903966     -0.421926
  C      -0.367212     -0.256399     -0.201691
  C      -2.085067      0.151946      1.024230
  C       1.068002     -0.225163      0.235515
  C      -1.377074     -1.042764      0.588847
  O      -1.339121     -0.601712      1.935452
  H      -1.104608      0.725474      0.326372
  H       1.834630      0.809953     -1.508073
  H       2.895889      0.891146     -0.100663
  H       1.429163      1.871573     -0.158318
  H      -0.541647     -0.269709     -1.275579
  H      -3.140138      0.333744      1.194793
  H       1.538190     -1.186845     -0.008662
  H       1.101567     -0.127478      1.322234
  H      -1.760579     -2.033308      0.394792
15
Coordinates from ORCA-job freq E -270.966970174058
  C       1.859377      0.902328     -0.425227
  C      -0.364020     -0.255825     -0.191691
  C      -2.099786      0.144524      1.019201
  C       1.075464     -0.227028      0.235255
  C      -1.377897     -1.046155      0.595607
  O      -1.356749     -0.595048      1.942463
  H      -1.091760      0.727053      0.324432
  H       1.832363      0.810364     -1.511676
  H       2.902008      0.890556     -0.110947
  H       1.434339      1.870119     -0.158941
  H      -0.551438     -0.239093     -1.263861
  H      -3.158102      0.325555      1.178288
  H       1.542459     -1.188959     -0.012352
  H       1.116320     -0.134176      1.322058
  H      -1.754992     -2.039790      0.404712
15
Coordinates from ORCA-job freq E -270.968357985656
  C       1.867791      0.897478     -0.429275
  C      -0.359725     -0.249693     -0.183742
  C      -2.123837      0.134540      1.018459
  C       1.082732     -0.228444      0.234730
  C      -1.376401     -1.043009      0.599036
  O      -1.371061     -0.585557      1.946189
  H      -1.099195      0.747669      0.320865
  H       1.835470      0.805933     -1.515747
  H       2.912108      0.882842     -0.120476
  H       1.447419      1.867139     -0.161836
  H      -0.557428     -0.210112     -1.253739
  H      -3.185611      0.300157      1.173720
  H       1.543244     -1.192763     -0.014999
  H       1.129952     -0.138375      1.321508
  H      -1.737869     -2.043383      0.412629
15
Coordinates from ORCA-job freq E -270.969442152419
  C       1.877857      0.891489     -0.433674
  C      -0.354631     -0.244173     -0.181845
  C      -2.148359      0.123805      1.023437
  C       1.088175     -0.228130      0.234832
  C      -1.376249     -1.035770      0.595444
  O      -1.379157     -0.580919      1.945903
  H      -1.118209      0.777983      0.322582
  H       1.845019      0.795993     -1.519922
  H       2.922436      0.874801     -0.125553
  H       1.461179      1.864072     -0.170711
  H      -0.557158     -0.190884     -1.250792
  H      -3.212042      0.270916      1.185018
  H       1.542857     -1.195984     -0.011462
  H       1.137126     -0.135895      1.321358
  H      -1.721255     -2.042883      0.412706
15
Coordinates from ORCA-job freq E -270.969754775836
  C       1.886582      0.885932     -0.436071
  C      -0.350835     -0.238572     -0.186851
  C      -2.165700      0.115752      1.031842
  C       1.089372     -0.226419      0.235051
  C      -1.376404     -1.024881      0.585489
  O      -1.375866     -0.579463      1.941199
  H      -1.149792      0.806784      0.326251
  H       1.857879      0.785025     -1.521973
  H       2.929915      0.867063     -0.123858
  H       1.472605      1.861581     -0.180295
  H      -0.549716     -0.189049     -1.256821
  H      -3.228533      0.246402      1.209794
  H       1.539505     -1.198162     -0.004819
  H       1.135173     -0.129422      1.321323
  H      -1.706595     -2.038149      0.407061
15
Coordinates from ORCA-job freq E -270.969809201093
  C       1.891020      0.882720     -0.437262
  C      -0.351017     -0.230718     -0.189612
  C      -2.172096      0.110966      1.035751
  C       1.087330     -0.223628      0.235572
  C      -1.375715     -1.018103      0.577990
  O      -1.371908     -0.580300      1.937726
  H      -1.170059      0.816476      0.331488
  H       1.865108      0.778198     -1.522853
  H       2.933376      0.860886     -0.122105
  H       1.480198      1.860853     -0.186237
  H      -0.543979     -0.191027     -1.261025
  H      -3.233492      0.235701      1.223718
  H       1.532885     -1.198622     -0.000472
  H       1.131456     -0.123434      1.321683
  H      -1.695521     -2.035547      0.402960
15
Coordinates from ORCA-job freq E -270.969824460953
  C       1.893310      0.881014     -0.438487
  C      -0.351895     -0.225304     -0.189425
  C      -2.175310      0.106895      1.037105
  C       1.086149     -0.221321      0.236369
  C      -1.375790     -1.016072      0.573651
  O      -1.372104     -0.582767      1.936800
  H      -1.176408      0.818396      0.335037
  H       1.868731      0.773692     -1.523843
  H       2.935281      0.858094     -0.122140
  H       1.484330      1.860828     -0.190995
  H      -0.542161     -0.188110     -1.261543
  H      -3.235797      0.232660      1.228724
  H       1.528303     -1.198495      0.002662
  H       1.130475     -0.119180      1.322349
  H      -1.689525     -2.035909      0.401057
15
Coordinates from ORCA-job freq E -270.969839037895
  C       1.892987      0.881081     -0.438703
  C      -0.352356     -0.225064     -0.189310
  C      -2.174492      0.105860      1.037570
  C       1.085851     -0.220800      0.236742
  C      -1.376301     -1.017220      0.572407
  O      -1.372613     -0.585275      1.937128
  H      -1.173864      0.817223      0.335485
  H       1.869544      0.772550     -1.523988
  H       2.934729      0.859393     -0.121505
  H       1.483214      1.861030     -0.192909
  H      -0.542136     -0.186939     -1.261552
  H      -3.234531      0.235859      1.229112
  H       1.527771     -1.198241      0.003812
  H       1.130207     -0.118052      1.322656
  H      -1.690421     -2.036983      0.400377
15
Coordinates from ORCA-job freq E -270.969842691935
  C       1.892179      0.881582     -0.438239
  C      -0.352386     -0.226232     -0.189914
  C      -2.173131      0.106140      1.037808
  C       1.085807     -0.221197      0.236578
  C      -1.376540     -1.017984      0.572234
  O      -1.372040     -0.585779      1.937333
  H      -1.172191      0.816358      0.334468
  H       1.869398      0.773324     -1.523574
  H       2.933798      0.860900     -0.120562
  H       1.481351      1.861104     -0.192442
  H      -0.541901     -0.188413     -1.262210
  H      -3.232873      0.238994      1.229162
  H       1.528464     -1.198237      0.003391
  H       1.129830     -0.118798      1.322527
  H      -1.692176     -2.037339      0.400761
15
Coordinates from ORCA-job freq E -270.969865536529
  C       1.891451      0.882131     -0.437606
  C      -0.352310     -0.227465     -0.190618
  C      -2.172087      0.106627      1.037836
  C       1.085849     -0.221829      0.236178
  C      -1.376599     -1.018354      0.572419
  O      -1.371326     -0.585243      1.937493
  H      -1.171363      0.815772      0.333172
  H       1.868938      0.774804     -1.523039
  H       2.933040      0.862010     -0.119790
  H       1.479831      1.861126     -0.191035
  H      -0.541633     -0.190619     -1.262966
  H      -3.231613      0.241480      1.228980
  H       1.529293     -1.198335      0.002272
  H       1.129578     -0.120232      1.322203
  H      -1.693461     -2.037452      0.401821
15
Coordinates from ORCA-job freq E -270.969872569761
  C       1.890711      0.882714     -0.436887
  C      -0.352169     -0.228801     -0.191282
  C      -2.171184      0.107270      1.037640
  C       1.085961     -0.222616      0.235680
  C      -1.376588     -1.018574      0.572821
  O      -1.370642     -0.584174      1.937625
  H      -1.170672      0.815271      0.331739
  H       1.868149      0.776713     -1.522453
  H       2.932359      0.862942     -0.119218
  H       1.478431      1.861116     -0.189059
  H      -0.541417     -0.193095     -1.263666
  H      -3.230548      0.243709      1.228499
  H       1.530234     -1.198504      0.000792
  H       1.129466     -0.122046      1.321800
  H      -1.694501     -2.037505      0.403291
15
Coordinates from ORCA-job freq E -270.969871752152
  C       1.890096      0.883235     -0.436223
  C      -0.352030     -0.229968     -0.191870
  C      -2.170501      0.107839      1.037403
  C       1.086073     -0.223323      0.235209
  C      -1.376543     -1.018693      0.573231
  O      -1.370061     -0.583032      1.937739
  H      -1.170206      0.814864      0.330406
  H       1.867314      0.778584     -1.521919
  H       2.931836      0.863591     -0.118849
  H       1.477376      1.861107     -0.187063
  H      -0.541238     -0.195407     -1.264287
  H      -3.229741      0.245542      1.228000
  H       1.531073     -1.198645     -0.000634
  H       1.129400     -0.123730      1.321419
  H      -1.695260     -2.037540      0.404760
15
Coordinates from ORCA-job freq E -270.969872334094
  C       1.889542      0.883733     -0.435582
  C      -0.351898     -0.231056     -0.192373
  C      -2.169950      0.108405      1.037096
  C       1.086205     -0.224014      0.234741
  C      -1.376482     -1.018764      0.573694
  O      -1.369589     -0.581804      1.937860
  H      -1.169813      0.814490      0.329112
  H       1.866426      0.780463     -1.521399
  H       2.931409      0.864117     -0.118610
  H       1.476495      1.861108     -0.185023
  H      -0.541107     -0.197620     -1.264821
  H      -3.229095      0.247155      1.227408
  H       1.531868     -1.198789     -0.002106
  H       1.129422     -0.125427      1.321043
  H      -1.695845     -2.037575      0.406282
15
Coordinates from ORCA-job freq E -270.969871254657
  C       1.889053      0.884177     -0.435003
  C      -0.351778     -0.232019     -0.192810
  C      -2.169490      0.108910      1.036784
  C       1.086319     -0.224619      0.234332
  C      -1.376419     -1.018817      0.574120
  O      -1.369195     -0.580667      1.937967
  H      -1.169464      0.814161      0.327928
  H       1.865517      0.782218     -1.520936
  H       2.931059      0.864485     -0.118499
  H       1.475816      1.861118     -0.183087
  H      -0.540983     -0.199630     -1.265281
  H      -3.228556      0.248557      1.226836
  H       1.532567     -1.198903     -0.003424
  H       1.129441     -0.126927      1.320709
  H      -1.696297     -2.037622      0.407685
15
Coordinates from ORCA-job freq E -270.969869330301
  C       1.888607      0.884579     -0.434491
  C      -0.351660     -0.232911     -0.193187
  C      -2.169072      0.109370      1.036501
  C       1.086432     -0.225143      0.234000
  C      -1.376385     -1.018874      0.574480
  O      -1.368860     -0.579700      1.938045
  H      -1.169110      0.813851      0.326883
  H       1.864624      0.783773     -1.520522
  H       2.930762      0.864798     -0.118466
  H       1.475233      1.861144     -0.181348
  H      -0.540873     -0.201434     -1.265683
  H      -3.228063      0.249824      1.226327
  H       1.533232     -1.198983     -0.004541
  H       1.129476     -0.128214      1.320448
  H      -1.696755     -2.037658      0.408877
15
Coordinates from ORCA-job freq E -270.969868408393
  C       1.888194      0.884943     -0.434027
  C      -0.351549     -0.233721     -0.193533
  C      -2.168682      0.109799      1.036241
  C       1.086530     -0.225622      0.233697
  C      -1.376360     -1.018926      0.574804
  O      -1.368553     -0.578834      1.938111
  H      -1.168763      0.813564      0.325934
  H       1.863822      0.785182     -1.520146
  H       2.930472      0.865094     -0.118416
  H       1.474682      1.861156     -0.179787
  H      -0.540751     -0.203071     -1.266046
  H      -3.227604      0.250980      1.225886
  H       1.533839     -1.199053     -0.005552
  H       1.129494     -0.129380      1.320202
  H      -1.697183     -2.037688      0.409954
15
Coordinates from ORCA-job freq E -270.969867083194
  C       1.887818      0.885265     -0.433610
  C      -0.351441     -0.234446     -0.193845
  C      -2.168339      0.110190      1.036002
  C       1.086621     -0.226054      0.233431
  C      -1.376335     -1.018961      0.575091
  O      -1.368290     -0.578054      1.938170
  H      -1.168447      0.813315      0.325090
  H       1.863067      0.786458     -1.519809
  H       2.930217      0.865344     -0.118400
  H       1.474187      1.861158     -0.178357
  H      -0.540626     -0.204561     -1.266381
  H      -3.227199      0.252014      1.225491
  H       1.534389     -1.199117     -0.006450
  H       1.129511     -0.130422      1.319983
  H      -1.697545     -2.037706      0.410917
15
Coordinates from ORCA-job freq E -270.969865641400
  C       1.887511      0.885554     -0.433239
  C      -0.351366     -0.235064     -0.194131
  C      -2.168057      0.110519      1.035796
  C       1.086685     -0.226421      0.233185
  C      -1.376311     -1.018981      0.575339
  O      -1.368033     -0.577346      1.938217
  H      -1.168242      0.813103      0.324323
  H       1.862442      0.787590     -1.519510
  H       2.930010      0.865525     -0.118372
  H       1.473814      1.861186     -0.177091
  H      -0.540530     -0.205900     -1.266681
  H      -3.226857      0.252886      1.225170
  H       1.534842     -1.199165     -0.007261
  H       1.129517     -0.131340      1.319789
  H      -1.697835     -2.037724      0.411788
15
Coordinates from ORCA-job freq E -270.969865341351
  C       1.887205      0.885810     -0.432892
  C      -0.351281     -0.235639     -0.194387
  C      -2.167787      0.110844      1.035593
  C       1.086753     -0.226776      0.232961
  C      -1.376273     -1.018992      0.575584
  O      -1.367805     -0.576672      1.938264
  H      -1.168009      0.812924      0.323625
  H       1.861828      0.788635     -1.519229
  H       2.929803      0.865710     -0.118352
  H       1.473418      1.861182     -0.175912
  H      -0.540427     -0.207123     -1.266954
  H      -3.226543      0.253684      1.224846
  H       1.535272     -1.199219     -0.008019
  H       1.129523     -0.132216      1.319604
  H      -1.698087     -2.037729      0.412592
15
Coordinates from ORCA-job freq E -270.969864178825
  C       1.886937      0.886059     -0.432579
  C      -0.351212     -0.236206     -0.194627
  C      -2.167525      0.111150      1.035419
  C       1.086814     -0.227097      0.232753
  C      -1.376277     -1.019025      0.575798
  O      -1.367586     -0.576091      1.938297
  H      -1.167766      0.812727      0.322973
  H       1.861321      0.789587     -1.518975
  H       2.929615      0.865919     -0.118306
  H       1.473046      1.861192     -0.174869
  H      -0.540363     -0.208242     -1.267208
  H      -3.226229      0.254446      1.224594
  H       1.535685     -1.199260     -0.008686
  H       1.129526     -0.132989      1.319435
  H      -1.698397     -2.037750      0.413304
15
Coordinates from ORCA-job freq E -270.969863278502
  C       1.886689      0.886274     -0.432291
  C      -0.351143     -0.236684     -0.194839
  C      -2.167309      0.111423      1.035250
  C       1.086875     -0.227389      0.232568
  C      -1.376266     -1.019031      0.575990
  O      -1.367398     -0.575542      1.938326
  H      -1.167585      0.812567      0.322388
  H       1.860831      0.790436     -1.518737
  H       2.929447      0.866088     -0.118281
  H       1.472715      1.861191     -0.173913
  H      -0.540275     -0.209249     -1.267433
  H      -3.225972      0.255105      1.224356
  H       1.536050     -1.199303     -0.009311
  H       1.129552     -0.133713      1.319287
  H      -1.698622     -2.037752      0.413963
15
Coordinates from ORCA-job freq E -270.969862522885
  C       1.886463      0.886469     -0.432034
  C      -0.351087     -0.237113     -0.195022
  C      -2.167107      0.111672      1.035086
  C       1.086925     -0.227650      0.232405
  C      -1.376246     -1.019044      0.576171
  O      -1.367241     -0.575048      1.938358
  H      -1.167405      0.812434      0.321875
  H       1.860358      0.791226     -1.518528
  H       2.929297      0.866220     -0.118287
  H       1.472440      1.861198     -0.173022
  H      -0.540196     -0.210185     -1.267633
  H      -3.225733      0.255699      1.224114
  H       1.536369     -1.199343     -0.009869
  H       1.129572     -0.134354      1.319155
  H      -1.698820     -2.037759      0.414553
15
Coordinates from ORCA-job freq E -270.969861412780
  C       1.886283      0.886643     -0.431813
  C      -0.351040     -0.237496     -0.195200
  C      -2.166939      0.111882      1.034961
  C       1.086964     -0.227864      0.232261
  C      -1.376247     -1.019056      0.576317
  O      -1.367092     -0.574630      1.938381
  H      -1.167274      0.812297      0.321411
  H       1.859973      0.791914     -1.518346
  H       2.929183      0.866330     -0.118277
  H       1.472225      1.861209     -0.172258
  H      -0.540128     -0.211004     -1.267823
  H      -3.225530      0.256215      1.223950
  H       1.536648     -1.199364     -0.010338
  H       1.129577     -0.134885      1.319035
  H      -1.699014     -2.037768      0.415061
15
Coordinates from ORCA-job freq E -270.969861553371
  C       1.886092      0.886813     -0.431591
  C      -0.350986     -0.237877     -0.195355
  C      -2.166774      0.112104      1.034817
  C       1.087016     -0.228094      0.232114
  C      -1.376238     -1.019066      0.576483
  O      -1.366959     -0.574190      1.938407
  H      -1.167108      0.812186      0.320950
  H       1.859585      0.792587     -1.518166
  H       2.929055      0.866461     -0.118260
  H       1.471971      1.861207     -0.171500
  H      -0.540075     -0.211792     -1.267988
  H      -3.225337      0.256709      1.223752
  H       1.536932     -1.199398     -0.010836
  H       1.129610     -0.135455      1.318917
  H      -1.699195     -2.037773      0.415579
15
Coordinates from ORCA-job freq E -270.969860774075
  C       1.885923      0.886963     -0.431389
  C      -0.350938     -0.238217     -0.195498
  C      -2.166617      0.112303      1.034691
  C       1.087058     -0.228298      0.231989
  C      -1.376230     -1.019072      0.576622
  O      -1.366817     -0.573800      1.938423
  H      -1.166982      0.812072      0.320513
  H       1.859229      0.793193     -1.517996
  H       2.928946      0.866573     -0.118259
  H       1.471754      1.861205     -0.170816
  H      -0.540022     -0.212497     -1.268133
  H      -3.225150      0.257150      1.223593
  H       1.537182     -1.199432     -0.011263
  H       1.129614     -0.135949      1.318815
  H      -1.699361     -2.037771      0.416030
15
Coordinates from ORCA-job freq E -270.969859598958
  C       1.885792      0.887095     -0.431221
  C      -0.350911     -0.238489     -0.195627
  C      -2.166495      0.112459      1.034591
  C       1.087081     -0.228456      0.231875
  C      -1.376223     -1.019076      0.576735
  O      -1.366707     -0.573479      1.938442
  H      -1.166894      0.811975      0.320181
  H       1.858960      0.793700     -1.517858
  H       2.928856      0.866652     -0.118240
  H       1.471609      1.861226     -0.170256
  H      -0.539982     -0.213118     -1.268273
  H      -3.225002      0.257520      1.223463
  H       1.537370     -1.199448     -0.011631
  H       1.129619     -0.136362      1.318720
  H      -1.699484     -2.037777      0.416422
15
Coordinates from ORCA-job freq E -270.969858990495
  C       1.885641      0.887203     -0.431074
  C      -0.350862     -0.238759     -0.195739
  C      -2.166359      0.112610      1.034501
  C       1.087118     -0.228606      0.231799
  C      -1.376223     -1.019088      0.576819
  O      -1.366610     -0.573227      1.938449
  H      -1.166741      0.811895      0.319882
  H       1.858647      0.794139     -1.517735
  H       2.928754      0.866740     -0.118257
  H       1.471410      1.861212     -0.169744
  H      -0.539915     -0.213648     -1.268396
  H      -3.224840      0.257891      1.223346
  H       1.537580     -1.199466     -0.011911
  H       1.129628     -0.136697      1.318660
  H      -1.699638     -2.037777      0.416722
15
Coordinates from ORCA-job freq E -270.969858423470
  C       1.885536      0.887305     -0.430942
  C      -0.350837     -0.238977     -0.195840
  C      -2.166267      0.112737      1.034426
  C       1.087140     -0.228735      0.231707
  C      -1.376216     -1.019086      0.576912
  O      -1.366521     -0.572967      1.938467
  H      -1.166685      0.811829      0.319610
  H       1.858437      0.794545     -1.517632
  H       2.928683      0.866800     -0.118239
  H       1.471285      1.861221     -0.169292
  H      -0.539877     -0.214146     -1.268504
  H      -3.224731      0.258179      1.223246
  H       1.537740     -1.199479     -0.012207
  H       1.129637     -0.137028      1.318581
  H      -1.699737     -2.037775      0.417029
15
Coordinates from ORCA-job freq E -270.969858341363
  C       1.885423      0.887402     -0.430817
  C      -0.350812     -0.239203     -0.195939
  C      -2.166156      0.112866      1.034352
  C       1.087161     -0.228862      0.231626
  C      -1.376217     -1.019097      0.576991
  O      -1.366428     -0.572738      1.938472
  H      -1.166577      0.811754      0.319355
  H       1.858226      0.794918     -1.517525
  H       2.928601      0.866883     -0.118216
  H       1.471130      1.861220     -0.168879
  H      -0.539848     -0.214599     -1.268608
  H      -3.224598      0.258479      1.223160
  H       1.537910     -1.199499     -0.012465
  H       1.129632     -0.137325      1.318516
  H      -1.699858     -2.037777      0.417300
15
Coordinates from ORCA-job freq E -270.969858255441
  C       1.885334      0.887497     -0.430695
  C      -0.350792     -0.239400     -0.196035
  C      -2.166083      0.112979      1.034267
  C       1.087178     -0.228978      0.231542
  C      -1.376211     -1.019097      0.577084
  O      -1.366349     -0.572476      1.938483
  H      -1.166529      0.811684      0.319083
  H       1.858003      0.795321     -1.517426
  H       2.928553      0.866902     -0.118234
  H       1.471064      1.861239     -0.168427
  H      -0.539823     -0.215039     -1.268711
  H      -3.224507      0.258719      1.223059
  H       1.538046     -1.199511     -0.012732
  H       1.129624     -0.137629      1.318448
  H      -1.699921     -2.037787      0.417616
15
Coordinates from ORCA-job freq E -270.969848202622
  C       1.885244      0.887568     -0.430596
  C      -0.350763     -0.239564     -0.196104
  C      -2.166006      0.113077      1.034200
  C       1.087200     -0.229078      0.231486
  C      -1.376203     -1.019098      0.577149
  O      -1.366292     -0.572284      1.938492
  H      -1.166460      0.811634      0.318890
  H       1.857793      0.795632     -1.517345
  H       2.928497      0.866940     -0.118258
  H       1.470962      1.861233     -0.168071
  H      -0.539771     -0.215406     -1.268785
  H      -3.224420      0.258944      1.222965
  H       1.538169     -1.199524     -0.012941
  H       1.129633     -0.137866      1.318403
  H      -1.699994     -2.037788      0.417836
15
Coordinates from ORCA-job freq E -270.969862303635
  C       1.885165      0.887651     -0.430480
  C      -0.350741     -0.239747     -0.196185
  C      -2.165951      0.113189      1.034116
  C       1.087228     -0.229196      0.231392
  C      -1.376191     -1.019092      0.577255
  O      -1.366225     -0.572011      1.938510
  H      -1.166427      0.811584      0.318626
  H       1.857612      0.796005     -1.517250
  H       2.928450      0.866971     -0.118250
  H       1.470874      1.861228     -0.167650
  H      -0.539767     -0.215794     -1.268868
  H      -3.224355      0.259142      1.222858
  H       1.538303     -1.199547     -0.013221
  H       1.129658     -0.138168      1.318321
  H      -1.700043     -2.037795      0.418148
15
Coordinates from ORCA-job freq E -270.969842307268
  C       1.885062      0.887743     -0.430358
  C      -0.350713     -0.239954     -0.196248
  C      -2.165872      0.113325      1.034006
  C       1.087266     -0.229335      0.231301
  C      -1.376183     -1.019094      0.577368
  O      -1.366171     -0.571730      1.938529
  H      -1.166329      0.811523      0.318369
  H       1.857398      0.796385     -1.517149
  H       2.928383      0.867048     -0.118240
  H       1.470726      1.861218     -0.167221
  H      -0.539763     -0.216196     -1.268927
  H      -3.224264      0.259386      1.222709
  H       1.538456     -1.199576     -0.013529
  H       1.129711     -0.138518      1.318245
  H      -1.700116     -2.037803      0.418465
15
Coordinates from ORCA-job freq E -270.969859419305
  C       1.884979      0.887828     -0.430245
  C      -0.350684     -0.240134     -0.196314
  C      -2.165818      0.113440      1.033912
  C       1.087301     -0.229461      0.231210
  C      -1.376176     -1.019090      0.577472
  O      -1.366127     -0.571465      1.938550
  H      -1.166263      0.811463      0.318122
  H       1.857223      0.796736     -1.517055
  H       2.928332      0.867117     -0.118227
  H       1.470607      1.861210     -0.166827
  H      -0.539753     -0.216562     -1.268996
  H      -3.224204      0.259603      1.222596
  H       1.538589     -1.199605     -0.013824
  H       1.129750     -0.138843      1.318171
  H      -1.700164     -2.037814      0.418776
15
Coordinates from ORCA-job freq E -270.969848300777
  C       1.884935      0.887864     -0.430198
  C      -0.350683     -0.240210     -0.196373
  C      -2.165758      0.113476      1.033906
  C       1.087289     -0.229486      0.231190
  C      -1.376183     -1.019095      0.577464
  O      -1.366067     -0.571426      1.938543
  H      -1.166224      0.811423      0.318044
  H       1.857153      0.796854     -1.517014
  H       2.928291      0.867133     -0.118204
  H       1.470559      1.861223     -0.166699
  H      -0.539722     -0.216763     -1.269063
  H      -3.224119      0.259745      1.222613
  H       1.538637     -1.199593     -0.013882
  H       1.129701     -0.138907      1.318152
  H      -1.700221     -2.037816      0.418844
