15
* (null), Energy   -1000.0000000
C     1.884935    0.887864   -0.430198   -0.001071   -0.000669    0.000799
C    -0.350683   -0.240210   -0.196373   -0.052824    0.103717    0.029237
C    -2.165758    0.113476    1.033906   -0.068213   -0.075323    0.060809
C     1.087289   -0.229486    0.231190    0.005588   -0.008944   -0.001837
C    -1.376183   -1.019095    0.577464   -0.011422    0.001615   -0.008460
O    -1.366067   -0.571426    1.938543   -0.008170    0.014569   -0.002732
H    -1.166224    0.811423    0.318044    1.676955   -0.367122   -1.001314
H     1.857153    0.796854   -1.517014    0.001671    0.000959    0.000297
H     2.928291    0.867133   -0.118204   -0.000322    0.001948   -0.000347
H     1.470559    1.861223   -0.166699   -0.004309   -0.000921    0.001608
H    -0.539722   -0.216763   -1.269063    0.029891   -0.109632   -0.000971
H    -3.224119    0.259745    1.222613   -0.056007    0.001275    0.064001
H     1.538637   -1.199593   -0.013882   -0.001681    0.005689   -0.004175
H     1.129701   -0.138907    1.318152   -0.000251    0.005971   -0.004950
H    -1.700221   -2.037816    0.418844    0.008233   -0.012440    0.029447
15
* Frequency(6) -2078.2381
C     1.884814    0.887788   -0.430108   -0.001071   -0.000669    0.000799
C    -0.356686   -0.228423   -0.193051   -0.052824    0.103717    0.029237
C    -2.173510    0.104916    1.040816   -0.068213   -0.075323    0.060809
C     1.087924   -0.230502    0.230981    0.005588   -0.008944   -0.001837
C    -1.377481   -1.018912    0.576503   -0.011422    0.001615   -0.008460
O    -1.366995   -0.569770    1.938232   -0.008170    0.014569   -0.002732
H    -0.975646    0.769702    0.204250    1.676955   -0.367122   -1.001314
H     1.857343    0.796963   -1.516980    0.001671    0.000959    0.000297
H     2.928255    0.867354   -0.118244   -0.000322    0.001948   -0.000347
H     1.470069    1.861118   -0.166517   -0.004309   -0.000921    0.001608
H    -0.536325   -0.229222   -1.269173    0.029891   -0.109632   -0.000971
H    -3.230484    0.259890    1.229886   -0.056007    0.001275    0.064001
H     1.538446   -1.198947   -0.014356   -0.001681    0.005689   -0.004175
H     1.129673   -0.138228    1.317589   -0.000251    0.005971   -0.004950
H    -1.699286   -2.039230    0.422191    0.008233   -0.012440    0.029447
15
* Frequency(6) -2078.2381
C     1.884705    0.887720   -0.430027   -0.001071   -0.000669    0.000799
C    -0.362039   -0.217913   -0.190088   -0.052824    0.103717    0.029237
C    -2.180422    0.097283    1.046978   -0.068213   -0.075323    0.060809
C     1.088490   -0.231409    0.230795    0.005588   -0.008944   -0.001837
C    -1.378638   -1.018748    0.575645   -0.011422    0.001615   -0.008460
O    -1.367823   -0.568294    1.937955   -0.008170    0.014569   -0.002732
H    -0.805721    0.732502    0.102787    1.676955   -0.367122   -1.001314
H     1.857512    0.797060   -1.516950    0.001671    0.000959    0.000297
H     2.928222    0.867552   -0.118279   -0.000322    0.001948   -0.000347
H     1.469633    1.861025   -0.166354   -0.004309   -0.000921    0.001608
H    -0.533296   -0.240331   -1.269272    0.029891   -0.109632   -0.000971
H    -3.236159    0.260019    1.236371   -0.056007    0.001275    0.064001
H     1.538275   -1.198370   -0.014779   -0.001681    0.005689   -0.004175
H     1.129647   -0.137623    1.317088   -0.000251    0.005971   -0.004950
H    -1.698451   -2.040491    0.425175    0.008233   -0.012440    0.029447
15
* Frequency(6) -2078.2381
C     1.884621    0.887668   -0.429964   -0.001071   -0.000669    0.000799
C    -0.366161   -0.209820   -0.187807   -0.052824    0.103717    0.029237
C    -2.185745    0.091406    1.051723   -0.068213   -0.075323    0.060809
C     1.088926   -0.232107    0.230652    0.005588   -0.008944   -0.001837
C    -1.379530   -1.018622    0.574985   -0.011422    0.001615   -0.008460
O    -1.368460   -0.567157    1.937742   -0.008170    0.014569   -0.002732
H    -0.674862    0.703854    0.024651    1.676955   -0.367122   -1.001314
H     1.857643    0.797135   -1.516926    0.001671    0.000959    0.000297
H     2.928197    0.867704   -0.118306   -0.000322    0.001948   -0.000347
H     1.469296    1.860953   -0.166228   -0.004309   -0.000921    0.001608
H    -0.530963   -0.248886   -1.269348    0.029891   -0.109632   -0.000971
H    -3.240530    0.260119    1.241366   -0.056007    0.001275    0.064001
H     1.538144   -1.197926   -0.015105   -0.001681    0.005689   -0.004175
H     1.129628   -0.137158    1.316702   -0.000251    0.005971   -0.004950
H    -1.697809   -2.041462    0.427472    0.008233   -0.012440    0.029447
15
* Frequency(6) -2078.2381
C     1.884572    0.887637   -0.429927   -0.001071   -0.000669    0.000799
C    -0.368606   -0.205020   -0.186454   -0.052824    0.103717    0.029237
C    -2.188902    0.087919    1.054538   -0.068213   -0.075323    0.060809
C     1.089185   -0.232521    0.230567    0.005588   -0.008944   -0.001837
C    -1.380058   -1.018547    0.574593   -0.011422    0.001615   -0.008460
O    -1.368838   -0.566483    1.937616   -0.008170    0.014569   -0.002732
H    -0.597250    0.686863   -0.021692    1.676955   -0.367122   -1.001314
H     1.857720    0.797179   -1.516913    0.001671    0.000959    0.000297
H     2.928182    0.867794   -0.118322   -0.000322    0.001948   -0.000347
H     1.469097    1.860910   -0.166154   -0.004309   -0.000921    0.001608
H    -0.529580   -0.253959   -1.269392    0.029891   -0.109632   -0.000971
H    -3.243122    0.260178    1.244328   -0.056007    0.001275    0.064001
H     1.538067   -1.197663   -0.015298   -0.001681    0.005689   -0.004175
H     1.129616   -0.136881    1.316473   -0.000251    0.005971   -0.004950
H    -1.697428   -2.042037    0.428835    0.008233   -0.012440    0.029447
15
* Frequency(6) -2078.2381
C     1.884562    0.887630   -0.429920   -0.001071   -0.000669    0.000799
C    -0.369108   -0.204033   -0.186175   -0.052824    0.103717    0.029237
C    -2.189551    0.087203    1.055116   -0.068213   -0.075323    0.060809
C     1.089238   -0.232606    0.230549    0.005588   -0.008944   -0.001837
C    -1.380167   -1.018532    0.574513   -0.011422    0.001615   -0.008460
O    -1.368916   -0.566344    1.937590   -0.008170    0.014569   -0.002732
H    -0.581294    0.683370   -0.031219    1.676955   -0.367122   -1.001314
H     1.857736    0.797189   -1.516910    0.001671    0.000959    0.000297
H     2.928179    0.867812   -0.118325   -0.000322    0.001948   -0.000347
H     1.469056    1.860901   -0.166139   -0.004309   -0.000921    0.001608
H    -0.529296   -0.255003   -1.269402    0.029891   -0.109632   -0.000971
H    -3.243655    0.260190    1.244937   -0.056007    0.001275    0.064001
H     1.538051   -1.197609   -0.015338   -0.001681    0.005689   -0.004175
H     1.129614   -0.136824    1.316426   -0.000251    0.005971   -0.004950
H    -1.697350   -2.042156    0.429115    0.008233   -0.012440    0.029447
15
* Frequency(6) -2078.2381
C     1.884592    0.887649   -0.429942   -0.001071   -0.000669    0.000799
C    -0.367614   -0.206966   -0.187002   -0.052824    0.103717    0.029237
C    -2.187622    0.089333    1.053396   -0.068213   -0.075323    0.060809
C     1.089080   -0.232353    0.230601    0.005588   -0.008944   -0.001837
C    -1.379844   -1.018578    0.574752   -0.011422    0.001615   -0.008460
O    -1.368685   -0.566756    1.937667   -0.008170    0.014569   -0.002732
H    -0.628725    0.693753   -0.002898    1.676955   -0.367122   -1.001314
H     1.857689    0.797161   -1.516918    0.001671    0.000959    0.000297
H     2.928188    0.867757   -0.118316   -0.000322    0.001948   -0.000347
H     1.469178    1.860928   -0.166184   -0.004309   -0.000921    0.001608
H    -0.530141   -0.251902   -1.269374    0.029891   -0.109632   -0.000971
H    -3.242071    0.260154    1.243126   -0.056007    0.001275    0.064001
H     1.538098   -1.197770   -0.015220   -0.001681    0.005689   -0.004175
H     1.129621   -0.136993    1.316565   -0.000251    0.005971   -0.004950
H    -1.697582   -2.041804    0.428282    0.008233   -0.012440    0.029447
15
* Frequency(6) -2078.2381
C     1.884660    0.887691   -0.429993   -0.001071   -0.000669    0.000799
C    -0.364285   -0.213502   -0.188845   -0.052824    0.103717    0.029237
C    -2.183323    0.094080    1.049564   -0.068213   -0.075323    0.060809
C     1.088728   -0.231789    0.230717    0.005588   -0.008944   -0.001837
C    -1.379124   -1.018680    0.575285   -0.011422    0.001615   -0.008460
O    -1.368170   -0.567674    1.937839   -0.008170    0.014569   -0.002732
H    -0.734402    0.716888    0.060203    1.676955   -0.367122   -1.001314
H     1.857584    0.797101   -1.516937    0.001671    0.000959    0.000297
H     2.928208    0.867634   -0.118294   -0.000322    0.001948   -0.000347
H     1.469449    1.860986   -0.166285   -0.004309   -0.000921    0.001608
H    -0.532025   -0.244993   -1.269313    0.029891   -0.109632   -0.000971
H    -3.238541    0.260074    1.239093   -0.056007    0.001275    0.064001
H     1.538204   -1.198128   -0.014957   -0.001681    0.005689   -0.004175
H     1.129637   -0.137370    1.316877   -0.000251    0.005971   -0.004950
H    -1.698101   -2.041020    0.426427    0.008233   -0.012440    0.029447
15
* Frequency(6) -2078.2381
C     1.884757    0.887752   -0.430065   -0.001071   -0.000669    0.000799
C    -0.359483   -0.222932   -0.191503   -0.052824    0.103717    0.029237
C    -2.177121    0.100928    1.044035   -0.068213   -0.075323    0.060809
C     1.088220   -0.230976    0.230884    0.005588   -0.008944   -0.001837
C    -1.378086   -1.018826    0.576055   -0.011422    0.001615   -0.008460
O    -1.367428   -0.568999    1.938088   -0.008170    0.014569   -0.002732
H    -0.886874    0.750268    0.151244    1.676955   -0.367122   -1.001314
H     1.857432    0.797014   -1.516964    0.001671    0.000959    0.000297
H     2.928238    0.867457   -0.118262   -0.000322    0.001948   -0.000347
H     1.469841    1.861069   -0.166432   -0.004309   -0.000921    0.001608
H    -0.534743   -0.235025   -1.269225    0.029891   -0.109632   -0.000971
H    -3.233449    0.259958    1.233274   -0.056007    0.001275    0.064001
H     1.538357   -1.198645   -0.014577   -0.001681    0.005689   -0.004175
H     1.129659   -0.137912    1.317327   -0.000251    0.005971   -0.004950
H    -1.698850   -2.039889    0.423749    0.008233   -0.012440    0.029447
15
* Frequency(6) -2078.2381
C     1.884874    0.887825   -0.430152   -0.001071   -0.000669    0.000799
C    -0.353726   -0.234235   -0.194689   -0.052824    0.103717    0.029237
C    -2.169687    0.109137    1.037409   -0.068213   -0.075323    0.060809
C     1.087611   -0.230001    0.231084    0.005588   -0.008944   -0.001837
C    -1.376841   -1.019002    0.576977   -0.011422    0.001615   -0.008460
O    -1.366537   -0.570586    1.938385   -0.008170    0.014569   -0.002732
H    -1.069617    0.790274    0.260361    1.676955   -0.367122   -1.001314
H     1.857249    0.796909   -1.516996    0.001671    0.000959    0.000297
H     2.928273    0.867245   -0.118224   -0.000322    0.001948   -0.000347
H     1.470311    1.861170   -0.166607   -0.004309   -0.000921    0.001608
H    -0.538000   -0.223078   -1.269119    0.029891   -0.109632   -0.000971
H    -3.227346    0.259819    1.226300   -0.056007    0.001275    0.064001
H     1.538540   -1.199265   -0.014122   -0.001681    0.005689   -0.004175
H     1.129687   -0.138563    1.317867   -0.000251    0.005971   -0.004950
H    -1.699747   -2.038533    0.420541    0.008233   -0.012440    0.029447
15
* Frequency(6) -2078.2381
C     1.884997    0.887902   -0.430244   -0.001071   -0.000669    0.000799
C    -0.347640   -0.246185   -0.198058   -0.052824    0.103717    0.029237
C    -2.161828    0.117815    1.030403   -0.068213   -0.075323    0.060809
C     1.086967   -0.228971    0.231296    0.005588   -0.008944   -0.001837
C    -1.375525   -1.019188    0.577951   -0.011422    0.001615   -0.008460
O    -1.365596   -0.572265    1.938700   -0.008170    0.014569   -0.002732
H    -1.262830    0.832573    0.375728    1.676955   -0.367122   -1.001314
H     1.857057    0.796799   -1.517031    0.001671    0.000959    0.000297
H     2.928310    0.867021   -0.118184   -0.000322    0.001948   -0.000347
H     1.470807    1.861276   -0.166792   -0.004309   -0.000921    0.001608
H    -0.541444   -0.210447   -1.269007    0.029891   -0.109632   -0.000971
H    -3.220893    0.259672    1.218926   -0.056007    0.001275    0.064001
H     1.538734   -1.199921   -0.013641   -0.001681    0.005689   -0.004175
H     1.129716   -0.139251    1.318437   -0.000251    0.005971   -0.004950
H    -1.700695   -2.037100    0.417148    0.008233   -0.012440    0.029447
15
* Frequency(6) -2078.2381
C     1.885114    0.887975   -0.430332   -0.001071   -0.000669    0.000799
C    -0.341884   -0.257487   -0.201244   -0.052824    0.103717    0.029237
C    -2.154395    0.126023    1.023776   -0.068213   -0.075323    0.060809
C     1.086358   -0.227996    0.231496    0.005588   -0.008944   -0.001837
C    -1.374280   -1.019364    0.578873   -0.011422    0.001615   -0.008460
O    -1.364706   -0.573853    1.938998   -0.008170    0.014569   -0.002732
H    -1.445573    0.872579    0.484845    1.676955   -0.367122   -1.001314
H     1.856875    0.796694   -1.517063    0.001671    0.000959    0.000297
H     2.928345    0.866808   -0.118147   -0.000322    0.001948   -0.000347
H     1.471277    1.861376   -0.166967   -0.004309   -0.000921    0.001608
H    -0.544701   -0.198500   -1.268901    0.029891   -0.109632   -0.000971
H    -3.214790    0.259533    1.211951   -0.056007    0.001275    0.064001
H     1.538917   -1.200541   -0.013187   -0.001681    0.005689   -0.004175
H     1.129743   -0.139902    1.318976   -0.000251    0.005971   -0.004950
H    -1.701593   -2.035744    0.413939    0.008233   -0.012440    0.029447
15
* Frequency(6) -2078.2381
C     1.885211    0.888036   -0.430404   -0.001071   -0.000669    0.000799
C    -0.337081   -0.266917   -0.203902   -0.052824    0.103717    0.029237
C    -2.148193    0.132872    1.018247   -0.068213   -0.075323    0.060809
C     1.085850   -0.227183    0.231663    0.005588   -0.008944   -0.001837
C    -1.373242   -1.019511    0.579643   -0.011422    0.001615   -0.008460
O    -1.363963   -0.575177    1.939246   -0.008170    0.014569   -0.002732
H    -1.598045    0.905959    0.575886    1.676955   -0.367122   -1.001314
H     1.856723    0.796607   -1.517090    0.001671    0.000959    0.000297
H     2.928374    0.866631   -0.118115   -0.000322    0.001948   -0.000347
H     1.471669    1.861460   -0.167113   -0.004309   -0.000921    0.001608
H    -0.547419   -0.188532   -1.268813    0.029891   -0.109632   -0.000971
H    -3.209697    0.259417    1.206132   -0.056007    0.001275    0.064001
H     1.539070   -1.201058   -0.012807   -0.001681    0.005689   -0.004175
H     1.129766   -0.140444    1.319426   -0.000251    0.005971   -0.004950
H    -1.702341   -2.034613    0.411262    0.008233   -0.012440    0.029447
15
* Frequency(6) -2078.2381
C     1.885278    0.888078   -0.430455   -0.001071   -0.000669    0.000799
C    -0.333752   -0.273453   -0.205744   -0.052824    0.103717    0.029237
C    -2.143894    0.137618    1.014416   -0.068213   -0.075323    0.060809
C     1.085498   -0.226619    0.231779    0.005588   -0.008944   -0.001837
C    -1.372522   -1.019613    0.580176   -0.011422    0.001615   -0.008460
O    -1.363448   -0.576095    1.939419   -0.008170    0.014569   -0.002732
H    -1.703722    0.929094    0.638986    1.676955   -0.367122   -1.001314
H     1.856617    0.796547   -1.517109    0.001671    0.000959    0.000297
H     2.928394    0.866509   -0.118093   -0.000322    0.001948   -0.000347
H     1.471940    1.861518   -0.167215   -0.004309   -0.000921    0.001608
H    -0.549303   -0.181623   -1.268752    0.029891   -0.109632   -0.000971
H    -3.206168    0.259337    1.202099   -0.056007    0.001275    0.064001
H     1.539176   -1.201417   -0.012544   -0.001681    0.005689   -0.004175
H     1.129781   -0.140821    1.319738   -0.000251    0.005971   -0.004950
H    -1.702860   -2.033829    0.409406    0.008233   -0.012440    0.029447
15
* Frequency(6) -2078.2381
C     1.885309    0.888097   -0.430477   -0.001071   -0.000669    0.000799
C    -0.332258   -0.276387   -0.206571   -0.052824    0.103717    0.029237
C    -2.141965    0.139749    1.012696   -0.068213   -0.075323    0.060809
C     1.085340   -0.226366    0.231831    0.005588   -0.008944   -0.001837
C    -1.372199   -1.019659    0.580415   -0.011422    0.001615   -0.008460
O    -1.363217   -0.576507    1.939496   -0.008170    0.014569   -0.002732
H    -1.751153    0.939477    0.667307    1.676955   -0.367122   -1.001314
H     1.856570    0.796520   -1.517117    0.001671    0.000959    0.000297
H     2.928404    0.866453   -0.118083   -0.000322    0.001948   -0.000347
H     1.472062    1.861544   -0.167260   -0.004309   -0.000921    0.001608
H    -0.550148   -0.178523   -1.268725    0.029891   -0.109632   -0.000971
H    -3.204584    0.259301    1.200289   -0.056007    0.001275    0.064001
H     1.539223   -1.201578   -0.012426   -0.001681    0.005689   -0.004175
H     1.129788   -0.140990    1.319878   -0.000251    0.005971   -0.004950
H    -1.703093   -2.033477    0.408573    0.008233   -0.012440    0.029447
15
* Frequency(6) -2078.2381
C     1.885299    0.888091   -0.430470   -0.001071   -0.000669    0.000799
C    -0.332761   -0.275400   -0.206293   -0.052824    0.103717    0.029237
C    -2.142614    0.139032    1.013274   -0.068213   -0.075323    0.060809
C     1.085393   -0.226451    0.231814    0.005588   -0.008944   -0.001837
C    -1.372308   -1.019643    0.580334   -0.011422    0.001615   -0.008460
O    -1.363295   -0.576369    1.939470   -0.008170    0.014569   -0.002732
H    -1.735198    0.935984    0.657780    1.676955   -0.367122   -1.001314
H     1.856586    0.796529   -1.517114    0.001671    0.000959    0.000297
H     2.928400    0.866472   -0.118087   -0.000322    0.001948   -0.000347
H     1.472021    1.861535   -0.167245   -0.004309   -0.000921    0.001608
H    -0.549864   -0.179566   -1.268734    0.029891   -0.109632   -0.000971
H    -3.205117    0.259313    1.200898   -0.056007    0.001275    0.064001
H     1.539207   -1.201524   -0.012466   -0.001681    0.005689   -0.004175
H     1.129786   -0.140933    1.319831   -0.000251    0.005971   -0.004950
H    -1.703014   -2.033596    0.408853    0.008233   -0.012440    0.029447
15
* Frequency(6) -2078.2381
C     1.885249    0.888060   -0.430433   -0.001071   -0.000669    0.000799
C    -0.335205   -0.270600   -0.204940   -0.052824    0.103717    0.029237
C    -2.145771    0.135546    1.016088   -0.068213   -0.075323    0.060809
C     1.085652   -0.226865    0.231729    0.005588   -0.008944   -0.001837
C    -1.372836   -1.019569    0.579943   -0.011422    0.001615   -0.008460
O    -1.363673   -0.575695    1.939343   -0.008170    0.014569   -0.002732
H    -1.657585    0.918993    0.611438    1.676955   -0.367122   -1.001314
H     1.856663    0.796573   -1.517101    0.001671    0.000959    0.000297
H     2.928386    0.866562   -0.118103   -0.000322    0.001948   -0.000347
H     1.471822    1.861493   -0.167170   -0.004309   -0.000921    0.001608
H    -0.548480   -0.184640   -1.268779    0.029891   -0.109632   -0.000971
H    -3.207709    0.259372    1.203860   -0.056007    0.001275    0.064001
H     1.539129   -1.201260   -0.012659   -0.001681    0.005689   -0.004175
H     1.129775   -0.140656    1.319602   -0.000251    0.005971   -0.004950
H    -1.702633   -2.034171    0.410216    0.008233   -0.012440    0.029447
15
* Frequency(6) -2078.2381
C     1.885165    0.888007   -0.430370   -0.001071   -0.000669    0.000799
C    -0.339327   -0.262506   -0.202659   -0.052824    0.103717    0.029237
C    -2.151094    0.129668    1.020834   -0.068213   -0.075323    0.060809
C     1.086088   -0.227563    0.231585    0.005588   -0.008944   -0.001837
C    -1.373728   -1.019443    0.579283   -0.011422    0.001615   -0.008460
O    -1.364310   -0.574558    1.939130   -0.008170    0.014569   -0.002732
H    -1.526726    0.890345    0.533301    1.676955   -0.367122   -1.001314
H     1.856794    0.796648   -1.517077    0.001671    0.000959    0.000297
H     2.928360    0.866714   -0.118130   -0.000322    0.001948   -0.000347
H     1.471485    1.861421   -0.167045   -0.004309   -0.000921    0.001608
H    -0.546148   -0.193195   -1.268855    0.029891   -0.109632   -0.000971
H    -3.212079    0.259471    1.208854   -0.056007    0.001275    0.064001
H     1.538998   -1.200816   -0.012985   -0.001681    0.005689   -0.004175
H     1.129755   -0.140191    1.319216   -0.000251    0.005971   -0.004950
H    -1.701991   -2.035142    0.412514    0.008233   -0.012440    0.029447
15
* Frequency(6) -2078.2381
C     1.885057    0.887940   -0.430289   -0.001071   -0.000669    0.000799
C    -0.344680   -0.251997   -0.199696   -0.052824    0.103717    0.029237
C    -2.158006    0.122036    1.026995   -0.068213   -0.075323    0.060809
C     1.086654   -0.228470    0.231399    0.005588   -0.008944   -0.001837
C    -1.374885   -1.019279    0.578425   -0.011422    0.001615   -0.008460
O    -1.365138   -0.573081    1.938853   -0.008170    0.014569   -0.002732
H    -1.356801    0.853145    0.431839    1.676955   -0.367122   -1.001314
H     1.856963    0.796745   -1.517047    0.001671    0.000959    0.000297
H     2.928328    0.866912   -0.118165   -0.000322    0.001948   -0.000347
H     1.471049    1.861328   -0.166882   -0.004309   -0.000921    0.001608
H    -0.543119   -0.204303   -1.268953    0.029891   -0.109632   -0.000971
H    -3.217754    0.259600    1.215339   -0.056007    0.001275    0.064001
H     1.538828   -1.200240   -0.013408   -0.001681    0.005689   -0.004175
H     1.129730   -0.139586    1.318714   -0.000251    0.005971   -0.004950
H    -1.701157   -2.036403    0.415498    0.008233   -0.012440    0.029447
15
* Frequency(6) -2078.2381
C     1.884935    0.887864   -0.430198   -0.001071   -0.000669    0.000799
C    -0.350683   -0.240210   -0.196373   -0.052824    0.103717    0.029237
C    -2.165758    0.113476    1.033906   -0.068213   -0.075323    0.060809
C     1.087289   -0.229486    0.231190    0.005588   -0.008944   -0.001837
C    -1.376183   -1.019095    0.577464   -0.011422    0.001615   -0.008460
O    -1.366067   -0.571426    1.938543   -0.008170    0.014569   -0.002732
H    -1.166224    0.811423    0.318044    1.676955   -0.367122   -1.001314
H     1.857153    0.796854   -1.517014    0.001671    0.000959    0.000297
H     2.928291    0.867133   -0.118204   -0.000322    0.001948   -0.000347
H     1.470559    1.861223   -0.166699   -0.004309   -0.000921    0.001608
H    -0.539722   -0.216763   -1.269063    0.029891   -0.109632   -0.000971
H    -3.224119    0.259745    1.222613   -0.056007    0.001275    0.064001
H     1.538637   -1.199593   -0.013882   -0.001681    0.005689   -0.004175
H     1.129701   -0.138907    1.318152   -0.000251    0.005971   -0.004950
H    -1.700221   -2.037816    0.418844    0.008233   -0.012440    0.029447
