15
Coordinates from ORCA-job freq E -271.013858708597
  C           2.78476290969649      0.00192426291864      0.98837432134360
  C          -1.19801550111817     -0.08685938957721     -2.39653048317352
  C          -0.48798669270115     -0.45447095832777     -1.10121710848324
  C           0.89330262451272      0.19267491837089     -1.00453607346950
  C           1.55376796960689     -0.08431256998935      0.28897950234988
  O           1.08873734089988      0.07138853068341      1.48574251096959
  H           3.07861618120733      0.93255218282480      1.45713970542028
  H           3.42810154447961     -0.85851624170106      1.14181177874929
  H          -2.17841950431223     -0.55738305460233     -2.45813333554572
  H          -1.33896868507704      0.99246612402329     -2.47061604508787
  H          -0.61823568508052     -0.40587597152661     -3.26417767621255
  H          -1.08180004670545     -0.13963251684379     -0.24147852669459
  H          -0.37865292484153     -1.53787586809658     -1.02318788064825
  H           0.78849162905580      1.28079228987256     -1.12293974065684
  H           1.54332384037735     -0.14872773802888     -1.81255894886054
