17
Coordinates from ORCA-job freq E -421.462368066849
  C          -2.94360122394113     -0.77505681508404     -0.11434226462580
  C          -0.44965837074095     -1.12424698565219      0.15864831335142
  C           0.90049070762349     -0.68647965732028      0.59076966248376
  C           1.50320770873964      0.27763818282655     -0.43131580643107
  C          -1.59953896763528     -0.27132419616222      0.35765460131673
  O          -1.47444597445074      0.82463721835187      0.88777825087860
  O           3.39013146860275      1.46206482691394     -0.90210329920520
  O           2.78918291694158      0.60728583816111      0.05518413100997
  H          -2.92667539585136     -0.93903485115306     -1.19279417057693
  H          -3.71033766529523     -0.04615456522819      0.13056083476875
  H          -3.17874103759113     -1.73006994838832      0.35711352145149
  H          -0.57952795433694     -2.07015402321616     -0.35137431627843
  H           1.56923977595318     -1.53857988627484      0.70722755047063
  H           0.82398315350940     -0.15784109543142      1.54213010415185
  H           1.59387171947322     -0.18992437678380     -1.41494482689867
  H           0.88299287744580      1.17379889874072     -0.51021135017577
  H           3.31448926155371      2.32273743570033     -0.47368093569132
