17
Coordinates from ORCA-job freq E -421.375161949874
  C      -1.830756      1.332455     -0.540623
  C       0.070600     -0.062117      0.446190
  C       2.609466     -0.370063      0.542569
  C      -1.224830     -0.048756     -0.374510
  C       1.360077     -0.237064     -0.237912
  O      -1.398546     -1.896669      0.896697
  O       2.302158      0.802520     -0.137327
  O      -2.132511     -0.855391      0.374948
  H      -0.343158     -1.220097      0.991022
  H      -2.743211      1.267144     -1.126899
  H      -2.072596      1.750870      0.432732
  H      -1.123927      1.981782     -1.049840
  H       0.099090      0.677911      1.242712
  H       3.418616     -0.963573      0.132857
  H       2.567867     -0.316372      1.624636
  H      -1.034146     -0.516506     -1.353184
  H       1.330684     -0.731305     -1.206367
17
Coordinates from ORCA-job freq E -421.376874313726
  C      -1.795320      1.337615     -0.548731
  C       0.060475     -0.112260      0.458936
  C       2.608634     -0.329411      0.535086
  C      -1.234218     -0.055739     -0.358111
  C       1.351447     -0.251477     -0.233395
  O      -1.439555     -1.911465      0.859917
  O       2.251514      0.838085     -0.148372
  O      -2.155563     -0.815691      0.417829
  H      -0.364057     -1.278566      0.960459
  H      -2.716232      1.298116     -1.126181
  H      -2.005430      1.790137      0.417881
  H      -1.071567      1.951731     -1.080956
  H       0.092211      0.589160      1.291168
  H       3.439980     -0.887043      0.120127
  H       2.568900     -0.271525      1.617072
  H      -1.068040     -0.554407     -1.322595
  H       1.331698     -0.742489     -1.202432
17
Coordinates from ORCA-job freq E -421.377691382044
  C      -1.760505      1.344357     -0.550402
  C       0.051818     -0.159651      0.470135
  C       2.606008     -0.284333      0.528205
  C      -1.239519     -0.058755     -0.344879
  C       1.343467     -0.274531     -0.227632
  O      -1.481292     -1.922609      0.820211
  O       2.204569      0.861233     -0.184587
  O      -2.175103     -0.782329      0.446748
  H      -0.386640     -1.334203      0.923714
  H      -2.686960      1.330824     -1.122297
  H      -1.946294      1.816958      0.413056
  H      -1.022607      1.933253     -1.094303
  H       0.084768      0.499690      1.337458
  H       3.456567     -0.816510      0.119152
  H       2.569915     -0.196955      1.608332
  H      -1.095267     -0.580397     -1.297715
  H       1.331952     -0.781273     -1.187498
17
Coordinates from ORCA-job freq E -421.377891891126
  C      -1.721928      1.353690     -0.538960
  C       0.043048     -0.206336      0.476453
  C       2.603238     -0.229613      0.518676
  C      -1.241780     -0.064605     -0.341158
  C       1.335461     -0.311073     -0.221003
  O      -1.532536     -1.933986      0.800782
  O       2.144925      0.866778     -0.240901
  O      -2.197660     -0.770755      0.442405
  H      -0.420946     -1.384790      0.900449
  H      -2.647622      1.372136     -1.112153
  H      -1.893306      1.827280      0.426926
  H      -0.965250      1.923198     -1.078306
  H       0.075286      0.426495      1.363497
  H       3.473680     -0.739342      0.123233
  H       2.573912     -0.094607      1.594046
  H      -1.108854     -0.583741     -1.296595
  H       1.335208     -0.855957     -1.159690
17
Coordinates from ORCA-job freq E -421.376949752900
  C      -1.674256      1.326645     -0.613627
  C       0.037105     -0.250658      0.490483
  C       2.605415     -0.243241      0.507206
  C      -1.256306     -0.090584     -0.304185
  C       1.327451     -0.210220     -0.218748
  O      -1.598708     -1.905383      0.884585
  O       2.102398      0.973639      0.006917
  O      -2.200271     -0.691930      0.569627
  H      -0.436781     -1.436550      0.871906
  H      -2.635489      1.333327     -1.126461
  H      -1.751055      1.913737      0.299886
  H      -0.931461      1.786841     -1.265186
  H       0.042298      0.302290      1.430610
  H       3.483825     -0.628707      0.003443
  H       2.591496     -0.340233      1.587243
  H      -1.182684     -0.691551     -1.217473
  H       1.331901     -0.552650     -1.248526
17
Coordinates from ORCA-job freq E -421.377868349051
  C      -1.707294      1.347787     -0.558469
  C       0.042644     -0.221731      0.475609
  C       2.602137     -0.229377      0.521081
  C      -1.247029     -0.072437     -0.331616
  C       1.336085     -0.282275     -0.224863
  O      -1.554148     -1.925863      0.823301
  O       2.137478      0.901276     -0.180501
  O      -2.198723     -0.746396      0.483245
  H      -0.421822     -1.408294      0.877792
  H      -2.654765      1.362544     -1.095402
  H      -1.831914      1.858933      0.395218
  H      -0.963609      1.883480     -1.147812
  H       0.061665      0.382025      1.383185
  H       3.478119     -0.709935      0.101979
  H       2.568977     -0.151493      1.602006
  H      -1.135706     -0.615688     -1.276511
  H       1.342782     -0.777783     -1.190542
17
Coordinates from ORCA-job freq E -421.377930638777
  C      -1.700776      1.355573     -0.541058
  C       0.039845     -0.230885      0.480573
  C       2.601076     -0.206558      0.514443
  C      -1.243545     -0.068735     -0.334970
  C       1.332553     -0.317058     -0.219079
  O      -1.561966     -1.936077      0.796103
  O       2.116333      0.879633     -0.242460
  O      -2.205168     -0.755009      0.458348
  H      -0.436780     -1.413523      0.881811
  H      -2.633141      1.382650     -1.103201
  H      -1.852263      1.843083      0.421097
  H      -0.941606      1.906037     -1.096098
  H       0.068415      0.380038      1.383034
  H       3.481693     -0.695665      0.115441
  H       2.573526     -0.072342      1.589984
  H      -1.123154     -0.596166     -1.287580
  H       1.339836     -0.860224     -1.158689
17
Coordinates from ORCA-job freq E -421.377936802282
  C      -1.698657      1.356937     -0.538156
  C       0.039184     -0.233391      0.481393
  C       2.600652     -0.201802      0.513320
  C      -1.243129     -0.068433     -0.335506
  C       1.331952     -0.322765     -0.218080
  O      -1.564425     -1.937849      0.791442
  O       2.111770      0.876368     -0.252537
  O      -2.206594     -0.756020      0.454422
  H      -0.439750     -1.415846      0.881512
  H      -2.629749      1.386800     -1.102270
  H      -1.851734      1.841434      0.425278
  H      -0.937653      1.908229     -1.089863
  H       0.068472      0.377828      1.383621
  H       3.482608     -0.691316      0.117824
  H       2.573739     -0.058165      1.587679
  H      -1.121700     -0.593273     -1.289389
  H       1.339890     -0.873964     -1.152990
17
Coordinates from ORCA-job freq E -421.377940317569
  C      -1.698870      1.356750     -0.538527
  C       0.039229     -0.233080      0.481353
  C       2.600675     -0.202424      0.513406
  C      -1.243178     -0.068505     -0.335433
  C       1.331977     -0.322078     -0.218223
  O      -1.564097     -1.937632      0.792077
  O       2.112183      0.876818     -0.251170
  O      -2.206441     -0.755940      0.454851
  H      -0.439383     -1.415466      0.881783
  H      -2.630031      1.386291     -1.102541
  H      -1.851890      1.841564      0.424751
  H      -0.938004      1.907942     -1.090537
  H       0.068501      0.378211      1.383531
  H       3.482497     -0.691755      0.117388
  H       2.573712     -0.060108      1.587941
  H      -1.121802     -0.593645     -1.289167
  H       1.339798     -0.872173     -1.153783
