17
Coordinates from ORCA-job freq E -421.439934701501
  C           2.13333166682630     -0.33419855107546     -0.08024433950246
  C           1.26503694131508      0.81909016545815     -0.56914763606204
  C          -0.10331107342172      0.38411825802039     -1.09560306749331
  C          -2.24215678809749      0.05893285925920      0.43676852667044
  C          -0.92709904861113     -0.32806197442087     -0.05858779528357
  O          -1.20393348233313     -2.41896795886607      0.82635483196005
  O          -1.04005910761353      0.22135931271270      1.20026550147528
  O          -0.58979505055599     -1.72781286862362     -0.07796805760888
  H           2.24774234420068     -1.09622633610586     -0.85242006371813
  H           3.12538301984282      0.02219796595883      0.19434922594432
  H           1.69765122464505     -0.81371774774304      0.79596060927708
  H           1.11293116061681      1.53361311499214      0.24151921697327
  H           1.77655345636180      1.35487203681378     -1.37036052973174
  H          -0.66615559811090      1.25624945295130     -1.42898737594016
  H           0.00644126346395     -0.28123931172737     -1.95419857489316
  H          -2.68821761846533      0.97985306359843      0.08191411204369
  H          -2.90318431006330     -0.71256748120261      0.80818141588932
