17
Coordinates from ORCA-job scan E -27.243669212370
  C      -2.494822     -0.035392     -0.464652
  C      -1.064374     -0.407739     -0.630159
  C      -0.132650      0.730942     -0.261599
  C       1.253739      0.403842     -0.478814
  C       1.891216     -0.691100      0.380959
  O       3.062760      0.732208      1.532343
  O       1.767337     -0.735652     -0.981442
  O       3.210319     -0.533257      0.934566
  H       1.984530      1.221735      0.112278
  H      -2.842320     -0.229358      0.567041
  H      -2.666210      1.030484     -0.651256
  H      -3.147788     -0.595602     -1.127919
  H      -0.861466     -0.698856     -1.662086
  H      -0.817990     -1.270519     -0.011140
  H      -0.451854      1.615962     -0.835424
  H      -0.341834      0.997892      0.789718
  H       1.408701     -1.273950      1.122352
17
Coordinates from ORCA-job scan E -27.267285563150
  C      -2.542318     -0.021936     -0.490343
  C      -1.090846     -0.411568     -0.632551
  C      -0.141230      0.717998     -0.211934
  C       1.279827      0.379039     -0.408442
  C       1.938042     -0.709551      0.416460
  O       3.114457      0.790213      1.466365
  O       1.790623     -0.763510     -0.942207
  O       3.243086     -0.453871      0.901514
  H       2.013989      1.211412      0.041458
  H      -2.911595     -0.222800      0.520788
  H      -2.696959      1.042687     -0.671326
  H      -3.181903     -0.569381     -1.177861
  H      -0.869522     -0.684848     -1.667821
  H      -0.873590     -1.295768     -0.028661
  H      -0.425902      1.618092     -0.774765
  H      -0.348661      0.965792      0.838551
  H       1.459795     -1.330357      1.155543
17
Coordinates from ORCA-job scan E -27.282307566050
  C      -2.562964     -0.011589     -0.517002
  C      -1.099690     -0.412184     -0.629056
  C      -0.157477      0.707452     -0.159680
  C       1.286478      0.360969     -0.331715
  C       1.953743     -0.719229      0.455887
  O       3.186146      0.840402      1.361298
  O       1.785899     -0.788480     -0.901400
  O       3.250402     -0.393631      0.858350
  H       2.003623      1.193781     -0.015496
  H      -2.954673     -0.222607      0.476648
  H      -2.699177      1.053416     -0.694531
  H      -3.178623     -0.550292     -1.232412
  H      -0.854085     -0.666839     -1.662586
  H      -0.908637     -1.309792     -0.036118
  H      -0.407229      1.619344     -0.711397
  H      -0.359861      0.928608      0.892496
  H       1.473419     -1.367688      1.181483
17
Coordinates from ORCA-job scan E -27.290203467580
  C      -2.572832     -0.005013     -0.542812
  C      -1.102946     -0.409847     -0.624759
  C      -0.175352      0.698349     -0.108993
  C       1.282892      0.349152     -0.254852
  C       1.957771     -0.728934      0.498707
  O       3.253191      0.886661      1.240255
  O       1.766236     -0.801491     -0.862533
  O       3.260023     -0.366968      0.832677
  H       1.993719      1.194998     -0.077873
  H      -2.984545     -0.222621      0.439241
  H      -2.695360      1.060287     -0.722471
  H      -3.164223     -0.541178     -1.280064
  H      -0.832475     -0.644026     -1.655950
  H      -0.934635     -1.319581     -0.044146
  H      -0.392137      1.621573     -0.650567
  H      -0.380553      0.894004      0.946139
  H       1.478518     -1.403723      1.202767
17
Coordinates from ORCA-job scan E -27.295819761160
  C      -2.578077     -0.005637     -0.573389
  C      -1.101163     -0.402583     -0.621488
  C      -0.200108      0.696143     -0.050225
  C       1.270879      0.351935     -0.156983
  C       1.949061     -0.733354      0.556484
  O       3.363189      0.914375      1.054177
  O       1.740022     -0.786311     -0.814501
  O       3.274405     -0.381090      0.832839
  H       1.974470      1.211178     -0.129955
  H      -3.004100     -0.210268      0.404182
  H      -2.697734      1.054626     -0.779444
  H      -3.144394     -0.561291     -1.315668
  H      -0.800336     -0.607076     -1.650180
  H      -0.950792     -1.326807     -0.059434
  H      -0.382715      1.629821     -0.583366
  H      -0.426137      0.866305      1.004697
  H       1.470823     -1.448323      1.217020
17
Coordinates from ORCA-job scan E -27.297768785170
  C      -2.572923     -0.013750     -0.581372
  C      -1.093447     -0.394417     -0.621655
  C      -0.213438      0.706214     -0.027935
  C       1.261238      0.370652     -0.109255
  C       1.932330     -0.732897      0.575944
  O       3.418058      0.896074      0.967221
  O       1.732060     -0.748190     -0.801979
  O       3.270815     -0.414833      0.862648
  H       1.966548      1.227162     -0.129273
  H      -2.986507     -0.167988      0.411425
  H      -2.706312      1.031542     -0.848433
  H      -3.136907     -0.618688     -1.285906
  H      -0.782170     -0.579555     -1.650817
  H      -0.940463     -1.324735     -0.070844
  H      -0.383827      1.640293     -0.564456
  H      -0.463772      0.871200      1.022824
  H       1.456011     -1.486440      1.186630
17
Coordinates from ORCA-job scan E -27.298964369180
  C      -2.564121     -0.024694     -0.576562
  C      -1.084405     -0.387837     -0.621708
  C      -0.220501      0.722312     -0.025552
  C       1.254160      0.397130     -0.089109
  C       1.913461     -0.733135      0.563744
  O       3.441365      0.858808      0.959665
  O       1.735936     -0.695896     -0.817198
  O       3.251524     -0.452786      0.901188
  H       1.971069      1.244480     -0.093087
  H      -2.948847     -0.091012      0.438470
  H      -2.720467      0.989675     -0.936501
  H      -3.137018     -0.700493     -1.205707
  H      -0.773807     -0.563034     -1.652892
  H      -0.920488     -1.318321     -0.074527
  H      -0.389134      1.651126     -0.572652
  H      -0.492579      0.893079      1.019261
  H       1.441146     -1.527760      1.117933
17
Coordinates from ORCA-job scan E -27.299866256530
  C      -2.554303     -0.036666     -0.566305
  C      -1.074933     -0.384862     -0.616453
  C      -0.224578      0.742023     -0.032339
  C       1.249348      0.430721     -0.081675
  C       1.894417     -0.734178      0.523772
  O       3.448235      0.808576      1.005892
  O       1.751207     -0.624232     -0.855445
  O       3.218052     -0.494375      0.936910
  H       1.981062      1.262693     -0.023663
  H      -2.902895      0.023776      0.462838
  H      -2.739356      0.921408     -1.047488
  H      -3.137628     -0.795159     -1.081926
  H      -0.768056     -0.561991     -1.648602
  H      -0.899250     -1.308837     -0.061911
  H      -0.397548      1.660952     -0.595654
  H      -0.513459      0.925832      1.005754
  H       1.426977     -1.574037      1.011062
17
Coordinates from ORCA-job scan E -27.300282070370
  C      -2.549450     -0.043645     -0.561216
  C      -1.069222     -0.387970     -0.602239
  C      -0.226414      0.755430     -0.037060
  C       1.248387      0.457868     -0.079446
  C       1.885076     -0.736163      0.476569
  O       3.444842      0.766907      1.061361
  O       1.771425     -0.557010     -0.896877
  O       3.189589     -0.523235      0.950633
  H       1.985774      1.276052      0.046130
  H      -2.878201      0.124666      0.462439
  H      -2.750337      0.856622     -1.137854
  H      -3.137396     -0.856355     -0.980398
  H      -0.759650     -0.580986     -1.630754
  H      -0.891532     -1.299635     -0.028395
  H      -0.406286      1.663922     -0.615470
  H      -0.519034      0.953489      0.997073
  H       1.419722     -1.608315      0.910272
17
Coordinates from ORCA-job scan E -27.300503048830
  C      -2.548537     -0.046106     -0.564565
  C      -1.067293     -0.395208     -0.579207
  C      -0.228785      0.762148     -0.034305
  C       1.248386      0.478234     -0.073984
  C       1.884050     -0.738978      0.432344
  O       3.443687      0.735745      1.097291
  O       1.790594     -0.495502     -0.932553
  O       3.172239     -0.542597      0.949075
  H       1.982522      1.286917      0.107337
  H      -2.875117      0.203030      0.442821
  H      -2.748536      0.805850     -1.210102
  H      -3.138207     -0.888813     -0.916742
  H      -0.746002     -0.613857     -1.598855
  H      -0.898737     -1.290431      0.022305
  H      -0.415943      1.660520     -0.626325
  H      -0.517227      0.974771      0.997837
  H       1.420199     -1.634080      0.822396
17
Coordinates from ORCA-job scan E -27.300881877620
  C      -2.547776     -0.048108     -0.578408
  C      -1.067499     -0.408902     -0.533326
  C      -0.234995      0.768286     -0.021434
  C       1.246239      0.506498     -0.057208
  C       1.887134     -0.741413      0.365131
  O       3.453104      0.690831      1.123748
  O       1.816881     -0.395757     -0.978916
  O       3.152391     -0.571148      0.938026
  H       1.969968      1.299943      0.202830
  H      -2.884186      0.310431      0.391591
  H      -2.730432      0.730733     -1.314300
  H      -3.140646     -0.919229     -0.845449
  H      -0.719062     -0.676241     -1.532124
  H      -0.924711     -1.272848      0.118143
  H      -0.432560      1.649485     -0.636035
  H      -0.515504      1.006850      1.006973
  H       1.428947     -1.667768      0.685526
17
Coordinates from ORCA-job scan E -27.302225279450
  C      -2.545005     -0.053688     -0.596474
  C      -1.068615     -0.421859     -0.482387
  C      -0.244488      0.775872     -0.004015
  C       1.239683      0.538516     -0.027859
  C       1.888316     -0.736601      0.292346
  O       3.484479      0.634779      1.124445
  O       1.842398     -0.274345     -1.016250
  O       3.124029     -0.607691      0.930703
  H       1.954980      1.299303      0.325796
  H      -2.887752      0.432123      0.313761
  H      -2.707744      0.624246     -1.429883
  H      -3.146001     -0.945452     -0.755075
  H      -0.689235     -0.739788     -1.454730
  H      -0.956358     -1.249431      0.220096
  H      -0.449127      1.636510     -0.645820
  H      -0.525231      1.045350      1.016453
  H       1.442965     -1.696200      0.523663
17
Coordinates from ORCA-job scan E -27.304073920220
  C      -2.542392     -0.059950     -0.615543
  C      -1.071580     -0.431660     -0.439939
  C      -0.254754      0.782072      0.013901
  C       1.229469      0.562129      0.009564
  C       1.891458     -0.728210      0.232799
  O       3.533394      0.587376      1.086304
  O       1.859010     -0.161779     -1.033414
  O       3.092477     -0.639103      0.932996
  H       1.941442      1.281430      0.451656
  H      -2.886436      0.534309      0.227062
  H      -2.686741      0.517076     -1.524483
  H      -3.155619     -0.955503     -0.674242
  H      -0.664806     -0.790185     -1.386771
  H      -0.987382     -1.226451      0.303099
  H      -0.461380      1.623479     -0.653651
  H      -0.543168      1.079808      1.024076
  H       1.464303     -1.713194      0.381353
17
Coordinates from ORCA-job scan E -27.306072283330
  C      -2.543081     -0.056624     -0.628411
  C      -1.074604     -0.428319     -0.443502
  C      -0.260176      0.781221      0.024973
  C       1.217444      0.550013      0.036252
  C       1.903518     -0.738651      0.257914
  O       3.588954      0.598292      0.947172
  O       1.832273     -0.170990     -1.006367
  O       3.089784     -0.631701      0.969733
  H       1.934596      1.280458      0.481821
  H      -2.903758      0.507369      0.228715
  H      -2.678544      0.550837     -1.519414
  H      -3.152762     -0.950660     -0.727643
  H      -0.661315     -0.784862     -1.388231
  H      -0.993226     -1.225350      0.297900
  H      -0.462836      1.621842     -0.646363
  H      -0.563102      1.080860      1.030774
  H       1.484127     -1.722092      0.419444
17
Coordinates from ORCA-job scan E -27.306909459780
  C      -2.542961     -0.050454     -0.633116
  C      -1.075798     -0.422471     -0.455126
  C      -0.260513      0.778467      0.030001
  C       1.212831      0.528401      0.046517
  C       1.914948     -0.751809      0.303810
  O       3.604985      0.616211      0.832535
  O       1.804753     -0.225023     -0.974746
  O       3.098360     -0.600337      0.998064
  H       1.927254      1.287670      0.441174
  H      -2.929240      0.422380      0.267528
  H      -2.668087      0.640196     -1.463545
  H      -3.138044     -0.937161     -0.834249
  H      -0.664102     -0.768357     -1.404089
  H      -0.991439     -1.230789      0.274023
  H      -0.454064      1.623426     -0.637911
  H      -0.570405      1.073654      1.035594
  H       1.488815     -1.722362      0.508306
17
Coordinates from ORCA-job scan E -27.307144473720
  C      -2.545240     -0.048192     -0.629229
  C      -1.077793     -0.420084     -0.462478
  C      -0.258015      0.777106      0.024506
  C       1.215329      0.517036      0.039896
  C       1.920029     -0.757132      0.328134
  O       3.605248      0.627380      0.802632
  O       1.801094     -0.263742     -0.960692
  O       3.103172     -0.579474      1.010771
  H       1.927834      1.293144      0.400339
  H      -2.946836      0.350981      0.299755
  H      -2.665892      0.702766     -1.406298
  H      -3.128376     -0.922625     -0.905921
  H      -0.672277     -0.761551     -1.415776
  H      -0.989335     -1.234964      0.259199
  H      -0.444640      1.623934     -0.642102
  H      -0.567746      1.072820      1.029958
  H       1.480738     -1.715759      0.562075
17
Coordinates from ORCA-job scan E -27.307204638430
  C      -2.547034     -0.049186     -0.624610
  C      -1.079199     -0.420414     -0.461983
  C      -0.256452      0.777882      0.018059
  C       1.217374      0.515556      0.035557
  C       1.920720     -0.757004      0.329608
  O       3.606770      0.627006      0.802127
  O       1.811114     -0.267788     -0.959378
  O       3.096151     -0.572591      1.021373
  H       1.930465      1.291287      0.392819
  H      -2.954159      0.322306      0.313172
  H      -2.666098      0.722825     -1.380918
  H      -3.124982     -0.918097     -0.928649
  H      -0.677308     -0.765052     -1.415962
  H      -0.989536     -1.234708      0.260288
  H      -0.437911      1.622180     -0.652957
  H      -0.566481      1.080070      1.021255
  H       1.473857     -1.712630      0.564967
17
Coordinates from ORCA-job scan E -27.307221688360
  C      -2.548493     -0.050309     -0.619502
  C      -1.079424     -0.419809     -0.464315
  C      -0.254971      0.778962      0.010930
  C       1.218536      0.516020      0.028813
  C       1.920347     -0.756347      0.330646
  O       3.604745      0.627148      0.814677
  O       1.817212     -0.272599     -0.960364
  O       3.093979     -0.572634      1.027697
  H       1.933305      1.291206      0.385587
  H      -2.956155      0.304155      0.324592
  H      -2.670290      0.734073     -1.362573
  H      -3.123827     -0.915812     -0.937786
  H      -0.682150     -0.764702     -1.420380
  H      -0.986038     -1.234711      0.256737
  H      -0.434514      1.621989     -0.662408
  H      -0.564477      1.084377      1.013195
  H       1.469508     -1.709365      0.569225
17
Coordinates from ORCA-job scan E -27.307226747560
  C      -2.548925     -0.051120     -0.617529
  C      -1.079184     -0.419541     -0.464767
  C      -0.254813      0.779877      0.008061
  C       1.218196      0.517088      0.028120
  C       1.919439     -0.755309      0.329882
  O       3.605186      0.625166      0.818627
  O       1.820296     -0.270298     -0.961069
  O       3.091357     -0.573921      1.030903
  H       1.934455      1.289783      0.387651
  H      -2.955770      0.301334      0.327663
  H      -2.672387      0.734450     -1.359082
  H      -3.123674     -0.916691     -0.936553
  H      -0.683580     -0.765070     -1.421351
  H      -0.984401     -1.234112      0.256428
  H      -0.433005      1.621543     -0.667472
  H      -0.564763      1.087535      1.009507
  H       1.468866     -1.709070      0.565747
17
Coordinates from ORCA-job scan E -27.307227939480
  C      -2.549075     -0.051348     -0.616805
  C      -1.078970     -0.419218     -0.465435
  C      -0.254862      0.780312      0.006899
  C       1.217787      0.517286      0.028386
  C       1.919068     -0.754968      0.330581
  O       3.605238      0.624563      0.819594
  O       1.820415     -0.270175     -0.960846
  O       3.091085     -0.574574      1.031637
  H       1.934771      1.289479      0.388053
  H      -2.955436      0.299786      0.329101
  H      -2.673473      0.735033     -1.357352
  H      -3.123509     -0.916873     -0.936456
  H      -0.684268     -0.764616     -1.422407
  H      -0.983369     -1.233918      0.255506
  H      -0.432450      1.621373     -0.669546
  H      -0.565026      1.088747      1.008096
  H       1.469367     -1.709249      0.565763
17
Coordinates from ORCA-job scan E -27.306898334920
  C      -2.548784     -0.050635     -0.616792
  C      -1.078891     -0.419381     -0.465488
  C      -0.254122      0.779538      0.007243
  C       1.218378      0.515675      0.028697
  C       1.918884     -0.756117      0.330512
  O       3.598893      0.629939      0.817218
  O       1.820798     -0.271642     -0.960852
  O       3.090125     -0.572109      1.031698
  H       1.937098      1.286620      0.389174
  H      -2.954977      0.300436      0.329209
  H      -2.672714      0.736044     -1.357100
  H      -3.123696     -0.915738     -0.936729
  H      -0.684352     -0.764707     -1.422553
  H      -0.983773     -1.234358      0.255205
  H      -0.431214      1.620908     -0.668948
  H      -0.564145      1.087839      1.008525
  H       1.469784     -1.710668      0.565750
17
Coordinates from ORCA-job scan E -27.306900227990
  C      -2.549090     -0.050526     -0.616856
  C      -1.079187     -0.419258     -0.465609
  C      -0.254438      0.779778      0.006943
  C       1.217948      0.515420      0.029190
  C       1.919559     -0.756354      0.330808
  O       3.599454      0.630091      0.817447
  O       1.819922     -0.271800     -0.960628
  O       3.091317     -0.572058      1.031317
  H       1.937307      1.286177      0.389853
  H      -2.955381      0.300005      0.329304
  H      -2.673018      0.736538     -1.356751
  H      -3.123889     -0.915513     -0.937314
  H      -0.684764     -0.764765     -1.422641
  H      -0.983993     -1.234109      0.255234
  H      -0.431349      1.620812     -0.669704
  H      -0.564631      1.088545      1.008041
  H       1.471527     -1.711338      0.566134
17
Coordinates from ORCA-job scan E -27.306900992040
  C      -2.549314     -0.050632     -0.616561
  C      -1.079299     -0.419069     -0.465610
  C      -0.254639      0.780331      0.006240
  C       1.217502      0.515331      0.029564
  C       1.919953     -0.756549      0.330655
  O       3.599789      0.629829      0.818556
  O       1.819489     -0.271300     -0.960663
  O       3.091671     -0.572362      1.031232
  H       1.937441      1.285482      0.391083
  H      -2.955643      0.299223      0.329833
  H      -2.673503      0.736836     -1.355983
  H      -3.123868     -0.915598     -0.937516
  H      -0.685151     -0.764952     -1.422600
  H      -0.983698     -1.233592      0.255566
  H      -0.431120      1.620603     -0.671391
  H      -0.565200      1.090159      1.006921
  H       1.472882     -1.712098      0.565440
17
Coordinates from ORCA-job scan E -27.306563979460
  C      -2.549020     -0.049920     -0.616547
  C      -1.079217     -0.419232     -0.465662
  C      -0.253897      0.779559      0.006585
  C       1.218094      0.513723      0.029874
  C       1.919772     -0.757697      0.330586
  O       3.593418      0.635182      0.816180
  O       1.819872     -0.272763     -0.960670
  O       3.090703     -0.569895      1.031291
  H       1.939769      1.282628      0.392199
  H      -2.955182      0.299871      0.329942
  H      -2.672742      0.737845     -1.355730
  H      -3.124051     -0.914464     -0.937787
  H      -0.685233     -0.765042     -1.422746
  H      -0.984098     -1.234032      0.255266
  H      -0.429883      1.620139     -0.670793
  H      -0.564316      1.089253      1.007352
  H       1.473305     -1.713513      0.565428
17
Coordinates from ORCA-job scan E -27.306565595210
  C      -2.549314     -0.049918     -0.616410
  C      -1.079483     -0.419142     -0.465703
  C      -0.254136      0.779847      0.006130
  C       1.217750      0.513619      0.029931
  C       1.920328     -0.757825      0.330399
  O       3.593902      0.635069      0.817090
  O       1.819685     -0.272418     -0.960809
  O       3.091238     -0.569943      1.031399
  H       1.940006      1.281995      0.393276
  H      -2.955393      0.299862      0.330116
  H      -2.673172      0.737820     -1.355599
  H      -3.124309     -0.914519     -0.937563
  H      -0.685642     -0.765171     -1.422772
  H      -0.984182     -1.233752      0.255414
  H      -0.429897      1.620088     -0.671746
  H      -0.564731      1.090050      1.006670
  H       1.474643     -1.714019      0.564947
17
Coordinates from ORCA-job scan E -27.306566418020
  C      -2.549576     -0.050060     -0.615967
  C      -1.079640     -0.418984     -0.465604
  C      -0.254319      0.780429      0.005337
  C       1.217281      0.513595      0.029980
  C       1.920826     -0.758014      0.329764
  O       3.593970      0.634679      0.819283
  O       1.819780     -0.271398     -0.961131
  O       3.091233     -0.570449      1.031677
  H       1.940195      1.281255      0.394468
  H      -2.955493      0.299750      0.330614
  H      -2.673783      0.737556     -1.355229
  H      -3.124456     -0.914835     -0.936865
  H      -0.686066     -0.765441     -1.422626
  H      -0.983882     -1.233185      0.255915
  H      -0.429577      1.619921     -0.673558
  H      -0.565285      1.091700      1.005424
  H       1.476085     -1.714875      0.563288
17
Coordinates from ORCA-job scan E -27.306222157050
  C      -2.549279     -0.049350     -0.615951
  C      -1.079555     -0.419146     -0.465655
  C      -0.253576      0.779658      0.005682
  C       1.217874      0.511991      0.030289
  C       1.920647     -0.759158      0.329693
  O       3.587575      0.640011      0.816905
  O       1.820164     -0.272856     -0.961140
  O       3.090255     -0.567980      1.031735
  H       1.942523      1.278403      0.395580
  H      -2.955030      0.300395      0.330726
  H      -2.673021      0.738564     -1.354973
  H      -3.124634     -0.913703     -0.937134
  H      -0.686146     -0.765528     -1.422772
  H      -0.984277     -1.233624      0.255615
  H      -0.428341      1.619458     -0.672959
  H      -0.564398      1.090794      1.005855
  H       1.476511     -1.716287      0.563274
17
Coordinates from ORCA-job scan E -27.306223718430
  C      -2.549576     -0.049323     -0.615883
  C      -1.079840     -0.419070     -0.465691
  C      -0.253835      0.779908      0.005299
  C       1.217509      0.511865      0.030385
  C       1.921229     -0.759263      0.329525
  O       3.588128      0.639935      0.817603
  O       1.819970     -0.272517     -0.961244
  O       3.090855     -0.567995      1.031770
  H       1.942724      1.277740      0.396763
  H      -2.955238      0.300558      0.330780
  H      -2.673415      0.738467     -1.355019
  H      -3.124929     -0.913754     -0.936863
  H      -0.686529     -0.765664     -1.422774
  H      -0.984429     -1.233358      0.255777
  H      -0.428399      1.619411     -0.673777
  H      -0.564811      1.091475      1.005279
  H       1.477879     -1.716770      0.562839
17
Coordinates from ORCA-job scan E -27.305869962610
  C      -2.549276     -0.048614     -0.615866
  C      -1.079753     -0.419231     -0.465742
  C      -0.253090      0.779139      0.005644
  C       1.218102      0.510264      0.030693
  C       1.921052     -0.760405      0.329454
  O       3.581709      0.645244      0.815221
  O       1.820356     -0.273971     -0.961252
  O       3.089868     -0.565522      1.031826
  H       1.945053      1.274892      0.397872
  H      -2.954772      0.301202      0.330893
  H      -2.672651      0.739473     -1.354762
  H      -3.125104     -0.912624     -0.937131
  H      -0.686606     -0.765750     -1.422919
  H      -0.984820     -1.233795      0.255478
  H      -0.427163      1.618950     -0.673178
  H      -0.563923      1.090571      1.005711
  H       1.478310     -1.718179      0.562825
17
Coordinates from ORCA-job scan E -27.305873530370
  C      -2.549714     -0.048514     -0.615811
  C      -1.080180     -0.419106     -0.465888
  C      -0.253492      0.779439      0.005179
  C       1.217516      0.509988      0.030807
  C       1.921962     -0.760613      0.329373
  O       3.582457      0.645310      0.816296
  O       1.819819     -0.273767     -0.961330
  O       3.090914     -0.565446      1.031883
  H       1.945435      1.274033      0.398987
  H      -2.955068      0.301419      0.330964
  H      -2.673224      0.739464     -1.354802
  H      -3.125555     -0.912599     -0.936855
  H      -0.687167     -0.765791     -1.423060
  H      -0.985064     -1.233502      0.255501
  H      -0.427312      1.618933     -0.674102
  H      -0.564490      1.091315      1.005045
  H       1.480456     -1.718921      0.562580
17
Coordinates from ORCA-job scan E -27.305875148100
  C      -2.550106     -0.048594     -0.615391
  C      -1.080457     -0.418888     -0.465928
  C      -0.253804      0.780079      0.004342
  C       1.216791      0.509799      0.030846
  C       1.922765     -0.760850      0.328810
  O       3.582737      0.645023      0.818713
  O       1.819711     -0.272830     -0.961610
  O       3.091168     -0.565849      1.032239
  H       1.945725      1.272983      0.400220
  H      -2.955171      0.301561      0.331424
  H      -2.674056      0.739113     -1.354596
  H      -3.125886     -0.912916     -0.935922
  H      -0.687733     -0.765890     -1.423093
  H      -0.984781     -1.232912      0.255809
  H      -0.427050      1.618830     -0.675931
  H      -0.565184      1.092976      1.003774
  H       1.482624     -1.719993      0.561063
17
Coordinates from ORCA-job scan E -27.305516376720
  C      -2.549803     -0.047887     -0.615371
  C      -1.080366     -0.419048     -0.465978
  C      -0.253058      0.779312      0.004688
  C       1.217386      0.508203      0.031153
  C       1.922589     -0.761988      0.328737
  O       3.576293      0.650309      0.816330
  O       1.820098     -0.274279     -0.961620
  O       3.090169     -0.563375      1.032294
  H       1.948056      1.270139      0.401325
  H      -2.954702      0.302201      0.331540
  H      -2.673291      0.740118     -1.354337
  H      -3.126056     -0.911788     -0.936188
  H      -0.687806     -0.765972     -1.423239
  H      -0.985166     -1.233349      0.255510
  H      -0.425814      1.618371     -0.675330
  H      -0.564294      1.092074      1.004207
  H       1.483059     -1.721397      0.561047
17
Coordinates from ORCA-job scan E -27.305518111870
  C      -2.550119     -0.047878     -0.615251
  C      -1.080655     -0.418958     -0.466044
  C      -0.253315      0.779595      0.004249
  C       1.217002      0.508061      0.031219
  C       1.923191     -0.762086      0.328549
  O       3.576830      0.650214      0.817188
  O       1.819991     -0.273898     -0.961733
  O       3.090686     -0.563451      1.032410
  H       1.948287      1.269460      0.402515
  H      -2.954875      0.302369      0.331660
  H      -2.673765      0.739976     -1.354349
  H      -3.126375     -0.911878     -0.935799
  H      -0.688230     -0.766069     -1.423295
  H      -0.985254     -1.233071      0.255629
  H      -0.425834      1.618333     -0.676248
  H      -0.564735      1.092825      1.003548
  H       1.484464     -1.721899      0.560521
17
Coordinates from ORCA-job scan E -27.305519092890
  C      -2.550432     -0.047997     -0.614806
  C      -1.080870     -0.418794     -0.465984
  C      -0.253533      0.780185      0.003448
  C       1.216444      0.507950      0.031281
  C       1.923851     -0.762270      0.327876
  O       3.576868      0.649870      0.819600
  O       1.820171     -0.272794     -0.962046
  O       3.090706     -0.564044      1.032729
  H       1.948463      1.268671      0.403723
  H      -2.954913      0.302565      0.332105
  H      -2.674472      0.739527     -1.354188
  H      -3.126646     -0.912240     -0.934786
  H      -0.688715     -0.766292     -1.423200
  H      -0.984961     -1.232488      0.256094
  H      -0.425507      1.618171     -0.678072
  H      -0.565339      1.094459      1.002289
  H       1.486178     -1.722837      0.558705
17
Coordinates from ORCA-job scan E -27.305153588550
  C      -2.550127     -0.047291     -0.614784
  C      -1.080775     -0.418953     -0.466034
  C      -0.252785      0.779420      0.003795
  C       1.217040      0.506358      0.031587
  C       1.923678     -0.763404      0.327802
  O       3.570400      0.655134      0.817216
  O       1.820560     -0.274238     -0.962058
  O       3.089697     -0.561568      1.032783
  H       1.950795      1.265830      0.404825
  H      -2.954441      0.303202      0.332223
  H      -2.673707      0.740531     -1.353926
  H      -3.126812     -0.911114     -0.935049
  H      -0.688785     -0.766372     -1.423346
  H      -0.985341     -1.232924      0.255794
  H      -0.424272      1.617714     -0.677471
  H      -0.564446      1.093558      1.002724
  H       1.486616     -1.724237      0.558686
17
Coordinates from ORCA-job scan E -27.305155202990
  C      -2.550431     -0.047261     -0.614713
  C      -1.081071     -0.418887     -0.466073
  C      -0.253051      0.779663      0.003404
  C       1.216665      0.506208      0.031669
  C       1.924278     -0.763493      0.327619
  O       3.570972      0.655087      0.817970
  O       1.820383     -0.273882     -0.962179
  O       3.090308     -0.561619      1.032823
  H       1.951018      1.265169      0.406046
  H      -2.954635      0.303425      0.332269
  H      -2.674109      0.740399     -1.354010
  H      -3.127130     -0.911172     -0.934717
  H      -0.689180     -0.766516     -1.423352
  H      -0.985501     -1.232664      0.255957
  H      -0.424340      1.617658     -0.678295
  H      -0.564863      1.094222      1.002141
  H       1.487980     -1.724693      0.558210
17
Coordinates from ORCA-job scan E -27.304780466730
  C      -2.550122     -0.046556     -0.614689
  C      -1.080974     -0.419045     -0.466122
  C      -0.252302      0.778900      0.003751
  C       1.217261      0.504620      0.031975
  C       1.924107     -0.764625      0.327544
  O       3.564479      0.660327      0.815583
  O       1.820773     -0.275322     -0.962191
  O       3.089289     -0.559141      1.032875
  H       1.953351      1.262332      0.407145
  H      -2.954160      0.304060      0.332388
  H      -2.673342      0.741401     -1.353747
  H      -3.127292     -0.910048     -0.934979
  H      -0.689247     -0.766595     -1.423497
  H      -0.985877     -1.233098      0.255659
  H      -0.423105      1.617201     -0.677694
  H      -0.563969      1.093323      1.002576
  H       1.488423     -1.726090      0.558191
17
Coordinates from ORCA-job scan E -27.304784245430
  C      -2.550574     -0.046450     -0.614626
  C      -1.081420     -0.418932     -0.466269
  C      -0.252719      0.779197      0.003268
  C       1.216657      0.504308      0.032076
  C       1.925050     -0.764824      0.327448
  O       3.565219      0.660441      0.816843
  O       1.820228     -0.275102     -0.962285
  O       3.090388     -0.559151      1.032916
  H       1.953800      1.261533      0.408205
  H      -2.954449      0.304329      0.332461
  H      -2.673932      0.741366     -1.353810
  H      -3.127771     -0.910025     -0.934645
  H      -0.689833     -0.766653     -1.423639
  H      -0.986137     -1.232809      0.255687
  H      -0.423270      1.617174     -0.678640
  H      -0.564548      1.094063      1.001893
  H       1.490604     -1.726822      0.557886
17
Coordinates from ORCA-job scan E -27.304785967520
  C      -2.550979     -0.046522     -0.614201
  C      -1.081716     -0.418730     -0.466306
  C      -0.253041      0.779834      0.002411
  C       1.215909      0.504076      0.032102
  C       1.925904     -0.765022      0.326870
  O       3.565500      0.660173      0.819342
  O       1.820152     -0.274112     -0.962588
  O       3.090666     -0.559632      1.033273
  H       1.954093      1.260483      0.409513
  H      -2.954539      0.304558      0.332906
  H      -2.674775      0.740968     -1.353658
  H      -3.128138     -0.910349     -0.933630
  H      -0.690419     -0.766784     -1.423663
  H      -0.985877     -1.232219      0.256016
  H      -0.423010      1.617046     -0.680504
  H      -0.565250      1.095729      1.000593
  H       1.492810     -1.727853      0.556292
17
Coordinates from ORCA-job scan E -27.304406843540
  C      -2.550668     -0.045820     -0.614176
  C      -1.081615     -0.418887     -0.466354
  C      -0.252290      0.779073      0.002758
  C       1.216506      0.502493      0.032406
  C       1.925735     -0.766150      0.326793
  O       3.558983      0.665390      0.816953
  O       1.820544     -0.275547     -0.962602
  O       3.089637     -0.557153      1.033324
  H       1.956428      1.257649      0.410609
  H      -2.954060      0.305189      0.333028
  H      -2.674007      0.741968     -1.353392
  H      -3.128296     -0.909228     -0.933889
  H      -0.690483     -0.766860     -1.423808
  H      -0.986247     -1.232653      0.255718
  H      -0.421776      1.616591     -0.679902
  H      -0.564353      1.094831      1.001030
  H       1.493256     -1.729246      0.556271
17
Coordinates from ORCA-job scan E -27.304408718870
  C      -2.550995     -0.045806     -0.614045
  C      -1.081919     -0.418804     -0.466415
  C      -0.252557      0.779359      0.002300
  C       1.216107      0.502323      0.032462
  C       1.926367     -0.766245      0.326591
  O       3.559500      0.665330      0.817971
  O       1.820436     -0.275144     -0.962728
  O       3.090194     -0.557300      1.033425
  H       1.956699      1.257012      0.411759
  H      -2.954234      0.305387      0.333154
  H      -2.674492      0.741813     -1.353412
  H      -3.128634     -0.909317     -0.933464
  H      -0.690927     -0.766977     -1.423855
  H      -0.986348     -1.232370      0.255854
  H      -0.421801      1.616541     -0.680856
  H      -0.564805      1.095598      1.000346
  H       1.494702     -1.729755      0.555680
17
Coordinates from ORCA-job scan E -27.304409793990
  C      -2.551320     -0.045926     -0.613578
  C      -1.082148     -0.418653     -0.466326
  C      -0.252779      0.779967      0.001454
  C       1.215529      0.502183      0.032503
  C       1.927077     -0.766404      0.325858
  O       3.559498      0.664988      0.820593
  O       1.820667     -0.273939     -0.963088
  O       3.090220     -0.558000      1.033737
  H       1.956868      1.256221      0.413054
  H      -2.954264      0.305661      0.333598
  H      -2.675212      0.741306     -1.353290
  H      -3.128930     -0.909700     -0.932350
  H      -0.691434     -0.767268     -1.423714
  H      -0.986069     -1.231756      0.256395
  H      -0.421459      1.616344     -0.682781
  H      -0.565415      1.097304      0.999017
  H       1.496466     -1.730688      0.553682
17
Coordinates from ORCA-job scan E -27.304024570340
  C      -2.551006     -0.045225     -0.613550
  C      -1.082044     -0.418808     -0.466374
  C      -0.252027      0.779209      0.001802
  C       1.216127      0.500605      0.032806
  C       1.926909     -0.767528      0.325780
  O       3.552957      0.670183      0.818202
  O       1.821060     -0.275368     -0.963104
  O       3.089181     -0.555520      1.033788
  H       1.959204      1.253390      0.414147
  H      -2.953783      0.306290      0.333724
  H      -2.674444      0.742305     -1.353021
  H      -3.129084     -0.908581     -0.932607
  H      -0.691496     -0.767341     -1.423859
  H      -0.986434     -1.232189      0.256097
  H      -0.420227      1.615892     -0.682177
  H      -0.564516      1.096407      0.999456
  H       1.496916     -1.732075      0.553659
17
Coordinates from ORCA-job scan E -27.304026318320
  C      -2.551320     -0.045194     -0.613468
  C      -1.082354     -0.418750     -0.466405
  C      -0.252303      0.779457      0.001387
  C       1.215739      0.500432      0.032880
  C       1.927530     -0.767610      0.325580
  O       3.553531      0.670162      0.819087
  O       1.820889     -0.274981     -0.963240
  O       3.089824     -0.555637      1.033813
  H       1.959468      1.252760      0.415377
  H      -2.953980      0.306531      0.333776
  H      -2.674858      0.742160     -1.353108
  H      -3.129416     -0.908642     -0.932245
  H      -0.691910     -0.767512     -1.423852
  H      -0.986606     -1.231921      0.256284
  H      -0.420299      1.615821     -0.683049
  H      -0.564946      1.097098      0.998839
  H       1.498305     -1.732531      0.553113
17
Coordinates from ORCA-job scan E -27.304027219180
  C      -2.551603     -0.045280     -0.613097
  C      -1.082572     -0.418640     -0.466270
  C      -0.252519      0.779977      0.000672
  C       1.215217      0.500294      0.032947
  C       1.928191     -0.767759      0.324892
  O       3.553523      0.669897      0.821474
  O       1.821003     -0.273875     -0.963587
  O       3.089975     -0.556288      1.033993
  H       1.959629      1.252101      0.416530
  H      -2.954043      0.306859      0.334086
  H      -2.675426      0.741696     -1.353091
  H      -3.129684     -0.908959     -0.931286
  H      -0.692336     -0.767859     -1.423630
  H      -0.986449     -1.231366      0.256870
  H      -0.420041      1.615617     -0.684717
  H      -0.565478      1.098590      0.997707
  H       1.499907     -1.733362      0.551276
17
Coordinates from ORCA-job scan E -27.303635837490
  C      -2.551287     -0.044580     -0.613067
  C      -1.082465     -0.418795     -0.466317
  C      -0.251765      0.779220      0.001021
  C       1.215816      0.498720      0.033248
  C       1.928026     -0.768881      0.324812
  O       3.546957      0.675069      0.819081
  O       1.821397     -0.275299     -0.963606
  O       3.088926     -0.553807      1.034043
  H       1.961966      1.249273      0.417618
  H      -2.953558      0.307484      0.334214
  H      -2.674657      0.742694     -1.352820
  H      -3.129834     -0.907843     -0.931541
  H      -0.692396     -0.767930     -1.423776
  H      -0.986808     -1.231798      0.256572
  H      -0.418809      1.615167     -0.684112
  H      -0.564576      1.097695      0.998147
  H       1.500361     -1.734746      0.551250
17
Coordinates from ORCA-job scan E -27.303637680660
  C      -2.551607     -0.044547     -0.612991
  C      -1.082782     -0.418738     -0.466348
  C      -0.252053      0.779472      0.000607
  C       1.215417      0.498539      0.033315
  C       1.928653     -0.768959      0.324615
  O       3.547557      0.675057      0.819986
  O       1.821207     -0.274916     -0.963744
  O       3.089598     -0.553935      1.034054
  H       1.962258      1.248642      0.418854
  H      -2.953764      0.307735      0.334256
  H      -2.675074      0.742546     -1.352920
  H      -3.130171     -0.907904     -0.931180
  H      -0.692812     -0.768105     -1.423764
  H      -0.986993     -1.231529      0.256762
  H      -0.418898      1.615101     -0.684979
  H      -0.565015      1.098383      0.997533
  H       1.501772     -1.735199      0.550711
17
Coordinates from ORCA-job scan E -27.303638609650
  C      -2.551891     -0.044629     -0.612630
  C      -1.083003     -0.418630     -0.466211
  C      -0.252275      0.779990     -0.000097
  C       1.214886      0.498392      0.033370
  C       1.929318     -0.769101      0.323941
  O       3.547555      0.674798      0.822379
  O       1.821302     -0.273821     -0.964091
  O       3.089767     -0.554598      1.034222
  H       1.962439      1.247996      0.419972
  H      -2.953832      0.308072      0.334551
  H      -2.675636      0.742081     -1.352918
  H      -3.130438     -0.908218     -0.930230
  H      -0.693234     -0.768452     -1.423538
  H      -0.986849     -1.230978      0.257347
  H      -0.418658      1.614904     -0.686617
  H      -0.565544      1.099856      0.996419
  H       1.503386     -1.736019      0.548899
17
Coordinates from ORCA-job scan E -27.303241396470
  C      -2.551572     -0.043931     -0.612598
  C      -1.082893     -0.418783     -0.466258
  C      -0.251520      0.779236      0.000252
  C       1.215486      0.496823      0.033669
  C       1.929154     -0.770219      0.323860
  O       3.540965      0.679948      0.819985
  O       1.821697     -0.275240     -0.964111
  O       3.088709     -0.552116      1.034272
  H       1.964778      1.245172      0.421057
  H      -2.953345      0.308694      0.334682
  H      -2.674867      0.743077     -1.352644
  H      -3.130585     -0.907104     -0.930483
  H      -0.693290     -0.768520     -1.423684
  H      -0.987203     -1.231411      0.257049
  H      -0.417427      1.614455     -0.686011
  H      -0.564640      1.098962      0.996860
  H       1.503844     -1.737398      0.548871
17
Coordinates from ORCA-job scan E -27.303243310890
  C      -2.551898     -0.043897     -0.612518
  C      -1.083215     -0.418727     -0.466290
  C      -0.251812      0.779488     -0.000170
  C       1.215080      0.496632      0.033727
  C       1.929789     -0.770294      0.323663
  O       3.541567      0.679948      0.820943
  O       1.821506     -0.274857     -0.964253
  O       3.089397     -0.552267      1.034276
  H       1.965090      1.244552      0.422282
  H      -2.953550      0.308949      0.334729
  H      -2.675292      0.742928     -1.352742
  H      -3.130929     -0.907165     -0.930113
  H      -0.693716     -0.768698     -1.423675
  H      -0.987390     -1.231140      0.257238
  H      -0.417521      1.614388     -0.686889
  H      -0.565082      1.099653      0.996237
  H       1.505268     -1.737849      0.548324
17
Coordinates from ORCA-job scan E -27.303244273360
  C      -2.552186     -0.043977     -0.612152
  C      -1.083440     -0.418621     -0.466157
  C      -0.252035      0.780008     -0.000886
  C       1.214542      0.496473      0.033769
  C       1.930462     -0.770425      0.322991
  O       3.541561      0.679693      0.823374
  O       1.821608     -0.273758     -0.964605
  O       3.089571     -0.552954      1.034447
  H       1.965279      1.243913      0.423403
  H      -2.953617      0.309290      0.335030
  H      -2.675863      0.742461     -1.352737
  H      -3.131203     -0.907479     -0.929151
  H      -0.694146     -0.769049     -1.423453
  H      -0.987246     -1.230589      0.257822
  H      -0.417280      1.614187     -0.688542
  H      -0.565611      1.101129      0.995110
  H       1.506896     -1.738659      0.546504
17
Coordinates from ORCA-job scan E -27.302841552370
  C      -2.551865     -0.043282     -0.612118
  C      -1.083327     -0.418774     -0.466203
  C      -0.251279      0.779256     -0.000536
  C       1.215143      0.494908      0.034067
  C       1.930300     -0.771539      0.322908
  O       3.534948      0.684819      0.820978
  O       1.822005     -0.275172     -0.964628
  O       3.088504     -0.550471      1.034497
  H       1.967619      1.241092      0.424484
  H      -2.953126      0.309909      0.335164
  H      -2.675093      0.743456     -1.352460
  H      -3.131345     -0.906368     -0.929402
  H      -0.694201     -0.769114     -1.423599
  H      -0.987595     -1.231020      0.257524
  H      -0.416050      1.613740     -0.687935
  H      -0.564705      1.100236      0.995552
  H       1.507358     -1.740034      0.546474
17
Coordinates from ORCA-job scan E -27.302843538640
  C      -2.552195     -0.043247     -0.612032
  C      -1.083654     -0.418720     -0.466236
  C      -0.251574      0.779510     -0.000970
  C       1.214732      0.494708      0.034115
  C       1.930942     -0.771612      0.322707
  O       3.535544      0.684833      0.822010
  O       1.821814     -0.274786     -0.964776
  O       3.089208     -0.550650      1.034493
  H       1.967952      1.240492      0.425691
  H      -2.953331      0.310168      0.335218
  H      -2.675525      0.743304     -1.352553
  H      -3.131696     -0.906428     -0.929019
  H      -0.694636     -0.769298     -1.423591
  H      -0.987783     -1.230749      0.257716
  H      -0.416147      1.613669     -0.688830
  H      -0.565149      1.100934      0.994916
  H       1.508792     -1.740486      0.545908
17
Coordinates from ORCA-job scan E -27.302844537030
  C      -2.552487     -0.043328     -0.611658
  C      -1.083883     -0.418617     -0.466102
  C      -0.251798      0.780033     -0.001701
  C       1.214190      0.494538      0.034144
  C       1.931622     -0.771731      0.322031
  O       3.535534      0.684578      0.824480
  O       1.821932     -0.273671     -0.965137
  O       3.089382     -0.551363      1.034666
  H       1.968143      1.239856      0.426838
  H      -2.953395      0.310516      0.335527
  H      -2.676103      0.742832     -1.352545
  H      -3.131976     -0.906745     -0.928040
  H      -0.695076     -0.769661     -1.423367
  H      -0.987638     -1.230193      0.258306
  H      -0.415903      1.613460     -0.690508
  H      -0.565678      1.102422      0.993768
  H       1.510425     -1.741284      0.544066
17
Coordinates from ORCA-job scan E -27.302436653300
  C      -2.552163     -0.042634     -0.611622
  C      -1.083767     -0.418768     -0.466147
  C      -0.251040      0.779283     -0.001351
  C       1.214791      0.492978      0.034441
  C       1.931462     -0.772842      0.321946
  O       3.528898      0.689681      0.822083
  O       1.822331     -0.275079     -0.965161
  O       3.088306     -0.548879      1.034714
  H       1.970486      1.237037      0.427916
  H      -2.952901      0.311132      0.335663
  H      -2.675333      0.743826     -1.352266
  H      -3.132115     -0.905636     -0.928289
  H      -0.695128     -0.769724     -1.423513
  H      -0.987982     -1.230624      0.258009
  H      -0.414674      1.613015     -0.689901
  H      -0.564769      1.101531      0.994212
  H       1.510891     -1.742654      0.544033
17
Coordinates from ORCA-job scan E -27.302438721040
  C      -2.552497     -0.042598     -0.611528
  C      -1.084099     -0.418717     -0.466179
  C      -0.251339      0.779540     -0.001797
  C       1.214376      0.492768      0.034479
  C       1.932112     -0.772915      0.321737
  O       3.529477      0.689709      0.823211
  O       1.822140     -0.274687     -0.965318
  O       3.089030     -0.549093      1.034700
  H       1.970841      1.236464      0.429093
  H      -2.953105      0.311397      0.335725
  H      -2.675772      0.743671     -1.352356
  H      -3.132473     -0.905696     -0.927891
  H      -0.695574     -0.769917     -1.423503
  H      -0.988173     -1.230349      0.258208
  H      -0.414773      1.612939     -0.690815
  H      -0.565216      1.102237      0.993561
  H       1.512338     -1.743108      0.543440
17
Coordinates from ORCA-job scan E -27.302439761610
  C      -2.552792     -0.042681     -0.611146
  C      -1.084331     -0.418618     -0.466040
  C      -0.251562      0.780067     -0.002547
  C       1.213828      0.492587      0.034495
  C       1.932797     -0.773018      0.321053
  O       3.529471      0.689450      0.825712
  O       1.822279     -0.273547     -0.965691
  O       3.089200     -0.549833      1.034873
  H       1.971031      1.235825      0.430293
  H      -2.953166      0.311754      0.336039
  H      -2.676356      0.743188     -1.352348
  H      -3.132758     -0.906017     -0.926891
  H      -0.696022     -0.770297     -1.423271
  H      -0.988028     -1.229788      0.258813
  H      -0.414524      1.612720     -0.692526
  H      -0.565745      1.103744      0.992388
  H       1.513972     -1.743892      0.541562
17
Coordinates from ORCA-job scan E -27.302027093160
  C      -2.552466     -0.041988     -0.611108
  C      -1.084212     -0.418769     -0.466085
  C      -0.250803      0.779319     -0.002196
  C       1.214430      0.491032      0.034791
  C       1.932639     -0.774125      0.320966
  O       3.522810      0.694530      0.823314
  O       1.822679     -0.274950     -0.965717
  O       3.088114     -0.547348      1.034921
  H       1.973375      1.233009      0.431367
  H      -2.952670      0.312366      0.336179
  H      -2.675586      0.744181     -1.352067
  H      -3.132893     -0.904911     -0.927137
  H      -0.696071     -0.770358     -1.423418
  H      -0.988366     -1.230218      0.258515
  H      -0.413297      1.612277     -0.691918
  H      -0.564834      1.102854      0.992833
  H       1.514442     -1.745258      0.541528
17
Coordinates from ORCA-job scan E -27.302029253940
  C      -2.552805     -0.041952     -0.611004
  C      -1.084550     -0.418720     -0.466113
  C      -0.251104      0.779578     -0.002655
  C       1.214011      0.490812      0.034817
  C       1.933299     -0.774200      0.320745
  O       3.523363      0.694575      0.824567
  O       1.822487     -0.274550     -0.965885
  O       3.088861     -0.547606      1.034892
  H       1.973756      1.232472      0.432497
  H      -2.952872      0.312640      0.336250
  H      -2.676032      0.744021     -1.352151
  H      -3.133258     -0.904972     -0.926720
  H      -0.696528     -0.770563     -1.423402
  H      -0.988559     -1.229939      0.258726
  H      -0.413398      1.612195     -0.692855
  H      -0.565281      1.103571      0.992165
  H       1.515904     -1.745719      0.540897
17
Coordinates from ORCA-job scan E -27.302030343970
  C      -2.553103     -0.042038     -0.610615
  C      -1.084785     -0.418627     -0.465968
  C      -0.251328      0.780112     -0.003426
  C       1.213458      0.490623      0.034821
  C       1.933986     -0.774286      0.320049
  O       3.523370      0.694306      0.827081
  O       1.822655     -0.273374     -0.966272
  O       3.089022     -0.548370      1.035065
  H       1.973940      1.231818      0.433786
  H      -2.952932      0.313008      0.336566
  H      -2.676621      0.743524     -1.352149
  H      -3.133549     -0.905300     -0.925697
  H      -0.696984     -0.770966     -1.423159
  H      -0.988415     -1.229368      0.259351
  H      -0.413143      1.611963     -0.694604
  H      -0.565813      1.105103      0.990963
  H       1.517534     -1.746485      0.538977
17
Coordinates from ORCA-job scan E -27.301614346500
  C      -2.553316     -0.041383     -0.610613
  C      -1.085198     -0.418819     -0.466135
  C      -0.251050      0.779351     -0.003365
  C       1.213577      0.489041      0.034732
  C       1.934119     -0.774910      0.319756
  O       3.518967      0.699553      0.826464
  O       1.822766     -0.274588     -0.966597
  O       3.088495     -0.545393      1.035139
  H       1.978390      1.227679      0.435279
  H      -2.952893      0.313667      0.336673
  H      -2.676440      0.744417     -1.351959
  H      -3.134257     -0.904251     -0.925860
  H      -0.697646     -0.771154     -1.423429
  H      -0.989237     -1.229780      0.258993
  H      -0.412443      1.611450     -0.694343
  H      -0.565298      1.104288      0.991116
  H       1.518755     -1.747524      0.538917
17
Coordinates from ORCA-job scan E -27.301615965530
  C      -2.553224     -0.041424     -0.610453
  C      -1.085075     -0.418682     -0.466030
  C      -0.251103      0.779784     -0.003557
  C       1.213274      0.489064      0.035045
  C       1.934516     -0.775245      0.319722
  O       3.517659      0.699020      0.827137
  O       1.822596     -0.274182     -0.966511
  O       3.088802     -0.546519      1.035074
  H       1.977764      1.228452      0.435032
  H      -2.952776      0.313747      0.336796
  H      -2.676502      0.744215     -1.351944
  H      -3.134058     -0.904442     -0.925486
  H      -0.697529     -0.771161     -1.423279
  H      -0.988908     -1.229445      0.259295
  H      -0.412281      1.611558     -0.694994
  H      -0.565588      1.105099      0.990715
  H       1.519727     -1.748195      0.538206
17
Coordinates from ORCA-job scan E -27.301616556400
  C      -2.553258     -0.041500     -0.610230
  C      -1.085055     -0.418591     -0.465935
  C      -0.251122      0.780199     -0.004009
  C       1.213051      0.488994      0.035227
  C       1.934845     -0.775352      0.319416
  O       3.517387      0.698636      0.827147
  O       1.822932     -0.273413     -0.966624
  O       3.088631     -0.547028      1.035261
  H       1.977020      1.228021      0.436834
  H      -2.952696      0.313932      0.336968
  H      -2.676736      0.743881     -1.351960
  H      -3.134046     -0.904693     -0.924884
  H      -0.697612     -0.771362     -1.423113
  H      -0.988630     -1.229049      0.259691
  H      -0.411972      1.611469     -0.696107
  H      -0.565908      1.106159      0.989949
  H       1.520463     -1.748662      0.537137
17
Coordinates from ORCA-job scan E -27.301196697690
  C      -2.553468     -0.040848     -0.610226
  C      -1.085465     -0.418783     -0.466101
  C      -0.250843      0.779440     -0.003948
  C       1.213172      0.487417      0.035137
  C       1.934977     -0.775971      0.319122
  O       3.512965      0.703863      0.826536
  O       1.823040     -0.274621     -0.966952
  O       3.088093     -0.544051      1.035335
  H       1.981481      1.223884      0.438319
  H      -2.952655      0.314588      0.337076
  H      -2.676554      0.744772     -1.351768
  H      -3.134751     -0.903648     -0.925044
  H      -0.698272     -0.771549     -1.423382
  H      -0.989446     -1.229461      0.259333
  H      -0.411273      1.610958     -0.695846
  H      -0.565392      1.105345      0.990103
  H       1.521683     -1.749692      0.537076
17
Coordinates from ORCA-job scan E -27.301198255390
  C      -2.553482     -0.040810     -0.610019
  C      -1.085464     -0.418676     -0.466040
  C      -0.250900      0.779791     -0.004239
  C       1.212899      0.487248      0.035366
  C       1.935562     -0.776400      0.318998
  O       3.511653      0.703727      0.828087
  O       1.822777     -0.274323     -0.966952
  O       3.088647     -0.545094      1.035229
  H       1.981014      1.224681      0.437797
  H      -2.952561      0.314777      0.337270
  H      -2.676711      0.744654     -1.351701
  H      -3.134737     -0.903721     -0.924585
  H      -0.698357     -0.771614     -1.423294
  H      -0.989251     -1.229156      0.259590
  H      -0.411107      1.610966     -0.696602
  H      -0.565648      1.106111      0.989602
  H       1.522960     -1.750519      0.536261
17
Coordinates from ORCA-job scan E -27.301199059440
  C      -2.553582     -0.040830     -0.609755
  C      -1.085523     -0.418595     -0.465976
  C      -0.250934      0.780192     -0.004800
  C       1.212648      0.487023      0.035517
  C       1.936055     -0.776583      0.318642
  O       3.511353      0.703551      0.828501
  O       1.823058     -0.273574     -0.967112
  O       3.088670     -0.545593      1.035385
  H       1.980231      1.224229      0.439738
  H      -2.952481      0.315056      0.337494
  H      -2.677017      0.744360     -1.351691
  H      -3.134838     -0.903904     -0.923887
  H      -0.698576     -0.771864     -1.423167
  H      -0.989037     -1.228744      0.259980
  H      -0.410764      1.610806     -0.697891
  H      -0.565986      1.107235      0.988700
  H       1.524015     -1.751121      0.535091
17
Coordinates from ORCA-job scan E -27.300775881510
  C      -2.553788     -0.040181     -0.609750
  C      -1.085929     -0.418787     -0.466142
  C      -0.250654      0.779435     -0.004739
  C       1.212769      0.485451      0.035426
  C       1.936184     -0.777195      0.318348
  O       3.506912      0.708755      0.827888
  O       1.823164     -0.274777     -0.967441
  O       3.088121     -0.542617      1.035458
  H       1.984702      1.220094      0.441219
  H      -2.952437      0.315707      0.337605
  H      -2.676834      0.745248     -1.351497
  H      -3.135537     -0.902862     -0.924047
  H      -0.699232     -0.772049     -1.423436
  H      -0.989846     -1.229156      0.259623
  H      -0.410067      1.610297     -0.697630
  H      -0.565468      1.106422      0.988854
  H       1.525233     -1.752142      0.535029
17
Coordinates from ORCA-job scan E -27.300777476750
  C      -2.553800     -0.040158     -0.609520
  C      -1.085922     -0.418684     -0.466074
  C      -0.250699      0.779801     -0.005076
  C       1.212496      0.485276      0.035623
  C       1.936740     -0.777589      0.318191
  O       3.505637      0.708573      0.829366
  O       1.823001     -0.274401     -0.967468
  O       3.088597     -0.543663      1.035371
  H       1.984171      1.220824      0.440978
  H      -2.952325      0.315907      0.337819
  H      -2.677007      0.745094     -1.351427
  H      -3.135524     -0.902962     -0.923529
  H      -0.699326     -0.772146     -1.423336
  H      -0.989625     -1.228833      0.259910
  H      -0.409855      1.610282     -0.698479
  H      -0.565721      1.107254      0.988288
  H       1.526457     -1.752931      0.534130
17
Coordinates from ORCA-job scan E -27.300778417180
  C      -2.553914     -0.040183     -0.609180
  C      -1.085987     -0.418598     -0.465985
  C      -0.250719      0.780263     -0.005757
  C       1.212216      0.484989      0.035758
  C       1.937310     -0.777802      0.317741
  O       3.505169      0.708381      0.830063
  O       1.823393     -0.273485     -0.967684
  O       3.088592     -0.544301      1.035554
  H       1.983237      1.220366      0.443158
  H      -2.952210      0.316250      0.338112
  H      -2.677367      0.744739     -1.351393
  H      -3.135649     -0.903177     -0.922660
  H      -0.699598     -0.772467     -1.423175
  H      -0.989364     -1.228349      0.260392
  H      -0.409412      1.610072     -0.700032
  H      -0.566080      1.108586      0.987202
  H       1.527676     -1.753643      0.532655
17
Coordinates from ORCA-job scan E -27.300352538200
  C      -2.554117     -0.039536     -0.609173
  C      -1.086389     -0.418789     -0.466150
  C      -0.250438      0.779508     -0.005696
  C       1.212338      0.483423      0.035666
  C       1.937437     -0.778407      0.317446
  O       3.500707      0.713564      0.829452
  O       1.823496     -0.274683     -0.968015
  O       3.088032     -0.541327      1.035626
  H       1.987718      1.216234      0.444634
  H      -2.952162      0.316897      0.338225
  H      -2.677183      0.745624     -1.351198
  H      -3.136344     -0.902139     -0.922817
  H      -0.700250     -0.772650     -1.423444
  H      -0.990167     -1.228760      0.260034
  H      -0.408716      1.609564     -0.699771
  H      -0.565561      1.107775      0.987358
  H       1.528892     -1.754654      0.532592
17
Coordinates from ORCA-job scan E -27.300354113160
  C      -2.554142     -0.039512     -0.608915
  C      -1.086398     -0.418700     -0.466060
  C      -0.250471      0.779859     -0.006061
  C       1.212086      0.483227      0.035822
  C       1.938004     -0.778805      0.317228
  O       3.499358      0.713429      0.831276
  O       1.823381     -0.274268     -0.968087
  O       3.088511     -0.542422      1.035524
  H       1.987242      1.217033      0.444255
  H      -2.952048      0.317129      0.338462
  H      -2.677366      0.745454     -1.351119
  H      -3.136361     -0.902236     -0.922243
  H      -0.700379     -0.772795     -1.423318
  H      -0.989965     -1.228430      0.260365
  H      -0.408488      1.609516     -0.700671
  H      -0.565785      1.108623      0.986756
  H       1.530113     -1.755462      0.531553
17
Coordinates from ORCA-job scan E -27.300355114590
  C      -2.554261     -0.039536     -0.608569
  C      -1.086476     -0.418629     -0.465944
  C      -0.250488      0.780307     -0.006757
  C       1.211817      0.482932      0.035929
  C       1.938567     -0.778999      0.316739
  O       3.498888      0.713257      0.832101
  O       1.823828     -0.273302     -0.968337
  O       3.088507     -0.543083      1.035686
  H       1.986328      1.216585      0.446459
  H      -2.951938      0.317505      0.338750
  H      -2.677716      0.745081     -1.351101
  H      -3.136502     -0.902450     -0.921347
  H      -0.700667     -0.773170     -1.423116
  H      -0.989734     -1.227938      0.260902
  H      -0.408043      1.609278     -0.702254
  H      -0.566123      1.109961      0.985651
  H       1.531304     -1.756156      0.529978
17
Coordinates from ORCA-job scan E -27.299926994740
  C      -2.554461     -0.038892     -0.608560
  C      -1.086874     -0.418819     -0.466109
  C      -0.250205      0.779555     -0.006695
  C       1.211941      0.481371      0.035836
  C       1.938692     -0.779598      0.316442
  O       3.494407      0.718418      0.831489
  O       1.823928     -0.274494     -0.968670
  O       3.087935     -0.540110      1.035757
  H       1.990819      1.212454      0.447932
  H      -2.951887      0.318146      0.338864
  H      -2.677531      0.745963     -1.350904
  H      -3.137191     -0.901417     -0.921502
  H      -0.701315     -0.773351     -1.423385
  H      -0.990531     -1.228349      0.260544
  H      -0.407348      1.608772     -0.701992
  H      -0.565601      1.109151      0.985808
  H       1.532516     -1.757157      0.529913
17
Coordinates from ORCA-job scan E -27.299928662220
  C      -2.554487     -0.038874     -0.608298
  C      -1.086885     -0.418735     -0.466004
  C      -0.250244      0.779918     -0.007080
  C       1.211679      0.481178      0.035983
  C       1.939256     -0.779983      0.316206
  O       3.493061      0.718256      0.833343
  O       1.823836     -0.274035     -0.968760
  O       3.088427     -0.541252      1.035633
  H       1.990341      1.213268      0.447650
  H      -2.951774      0.318396      0.339096
  H      -2.677714      0.745768     -1.350840
  H      -3.137207     -0.901527     -0.920903
  H      -0.701444     -0.773528     -1.423233
  H      -0.990331     -1.228002      0.260915
  H      -0.407122      1.608714     -0.702935
  H      -0.565831      1.110035      0.985178
  H       1.533731     -1.757953      0.528817
17
Coordinates from ORCA-job scan E -27.299929767340
  C      -2.554611     -0.038901     -0.607930
  C      -1.086969     -0.418668     -0.465860
  C      -0.250265      0.780397     -0.007827
  C       1.211386      0.480861      0.036083
  C       1.939849     -0.780177      0.315667
  O       3.492553      0.718068      0.834279
  O       1.824325     -0.272969     -0.969046
  O       3.088435     -0.541999      1.035778
  H       1.989377      1.212811      0.450024
  H      -2.951661      0.318818      0.339390
  H      -2.678073      0.745353     -1.350841
  H      -3.137356     -0.901761     -0.919935
  H      -0.701746     -0.773964     -1.422985
  H      -0.990098     -1.227469      0.261528
  H      -0.406656      1.608452     -0.704636
  H      -0.566183      1.111470      0.983994
  H       1.534985     -1.758678      0.527083
17
Coordinates from ORCA-job scan E -27.299500100550
  C      -2.554808     -0.038261     -0.607920
  C      -1.087363     -0.418858     -0.466024
  C      -0.249981      0.779647     -0.007764
  C       1.211510      0.479307      0.035989
  C       1.939972     -0.780769      0.315369
  O       3.488052      0.723207      0.833667
  O       1.824423     -0.274155     -0.969380
  O       3.087852     -0.539028      1.035849
  H       1.993879      1.208682      0.451493
  H      -2.951606      0.319455      0.339506
  H      -2.677887      0.746231     -1.350642
  H      -3.138040     -0.900733     -0.920089
  H      -0.702391     -0.774142     -1.423255
  H      -0.990888     -1.227879      0.261171
  H      -0.405964      1.607947     -0.704373
  H      -0.565660      1.110662      0.984152
  H       1.536195     -1.759670      0.527017
17
Coordinates from ORCA-job scan E -27.299501812600
  C      -2.554840     -0.038244     -0.607636
  C      -1.087380     -0.418782     -0.465900
  C      -0.250012      0.780008     -0.008172
  C       1.211258      0.479104      0.036105
  C       1.940543     -0.781155      0.315088
  O       3.486636      0.723060      0.835798
  O       1.824355     -0.273663     -0.969506
  O       3.088350     -0.540232      1.035703
  H       1.993446      1.209566      0.451098
  H      -2.951489      0.319729      0.339754
  H      -2.678076      0.746018     -1.350574
  H      -3.138071     -0.900848     -0.919442
  H      -0.702538     -0.774356     -1.423077
  H      -0.990694     -1.227523      0.261580
  H      -0.405731      1.607869     -0.705358
  H      -0.565873      1.111568      0.983493
  H       1.537409     -1.760477      0.525814
17
Coordinates from ORCA-job scan E -27.299503001830
  C      -2.554965     -0.038275     -0.607265
  C      -1.087469     -0.418726     -0.465735
  C      -0.250033      0.780483     -0.008930
  C       1.210967      0.478785      0.036182
  C       1.941125     -0.781327      0.314520
  O       3.486141      0.722874      0.836812
  O       1.824878     -0.272553     -0.969817
  O       3.088352     -0.541008      1.035826
  H       1.992502      1.209109      0.453515
  H      -2.951378      0.320174      0.340040
  H      -2.678427      0.745580     -1.350592
  H      -3.138225     -0.901088     -0.918452
  H      -0.702844     -0.774832     -1.422797
  H      -0.990477     -1.226980      0.262237
  H      -0.405271      1.607591     -0.707081
  H      -0.566215      1.113013      0.982294
  H       1.538633     -1.761178      0.524011
17
Coordinates from ORCA-job scan E -27.299072392210
  C      -2.555159     -0.037638     -0.607252
  C      -1.087859     -0.418916     -0.465899
  C      -0.249748      0.779735     -0.008868
  C       1.211092      0.477237      0.036087
  C       1.941245     -0.781913      0.314220
  O       3.481620      0.727991      0.836198
  O       1.824973     -0.273733     -0.970154
  O       3.087759     -0.538039      1.035896
  H       1.997014      1.204982      0.454982
  H      -2.951321      0.320806      0.340159
  H      -2.678241      0.746456     -1.350391
  H      -3.138904     -0.900064     -0.918604
  H      -0.703485     -0.775008     -1.423067
  H      -0.991261     -1.227390      0.261880
  H      -0.404581      1.607088     -0.706817
  H      -0.565690      1.112207      0.982453
  H       1.539838     -1.762159      0.523945
17
Coordinates from ORCA-job scan E -27.299074220260
  C      -2.555193     -0.037626     -0.606959
  C      -1.087880     -0.418845     -0.465761
  C      -0.249782      0.780106     -0.009298
  C       1.210833      0.477033      0.036186
  C       1.941818     -0.782290      0.313918
  O       3.480187      0.727825      0.838427
  O       1.824926     -0.273203     -0.970301
  O       3.088275     -0.539299      1.035725
  H       1.996596      1.205902      0.454632
  H      -2.951203      0.321098      0.340408
  H      -2.678434      0.746220     -1.350333
  H      -3.138938     -0.900191     -0.917926
  H      -0.703639     -0.775252     -1.422867
  H      -0.991068     -1.227018      0.262324
  H      -0.404351      1.607000     -0.707846
  H      -0.565905      1.113145      0.981763
  H       1.541052     -1.762961      0.522678
17
Coordinates from ORCA-job scan E -27.299075532510
  C      -2.555325     -0.037661     -0.606568
  C      -1.087976     -0.418794     -0.465572
  C      -0.249808      0.780606     -0.010105
  C       1.210521      0.476696      0.036247
  C       1.942423     -0.782454      0.313308
  O       3.479671      0.727626      0.839553
  O       1.825492     -0.272006     -0.970647
  O       3.088289     -0.540154      1.035826
  H       1.995620      1.205437      0.457204
  H      -2.951089      0.321584      0.340700
  H      -2.678795      0.745744     -1.350366
  H      -3.139102     -0.900449     -0.916871
  H      -0.703962     -0.775783     -1.422549
  H      -0.990851     -1.226441      0.263047
  H      -0.403879      1.606698     -0.709672
  H      -0.566258      1.114670      0.980492
  H       1.542321     -1.763676      0.520741
17
Coordinates from ORCA-job scan E -27.298644762060
  C      -2.555515     -0.037027     -0.606554
  C      -1.088362     -0.418983     -0.465736
  C      -0.249521      0.779861     -0.010042
  C       1.210647      0.475154      0.036151
  C       1.942539     -0.783032      0.313007
  O       3.475131      0.732720      0.838938
  O       1.825584     -0.273179     -0.970986
  O       3.087686     -0.537187      1.035896
  H       2.000142      1.201310      0.458668
  H      -2.951028      0.322211      0.340821
  H      -2.678609      0.746616     -1.350163
  H      -3.139775     -0.899429     -0.917021
  H      -0.704599     -0.775957     -1.422818
  H      -0.991628     -1.226851      0.262690
  H      -0.403191      1.606198     -0.709408
  H      -0.565732      1.113865      0.980652
  H       1.543523     -1.764648      0.520674
17
Coordinates from ORCA-job scan E -27.298646665490
  C      -2.555555     -0.037017     -0.606240
  C      -1.088389     -0.418921     -0.465582
  C      -0.249548      0.780231     -0.010497
  C       1.210394      0.474941      0.036216
  C       1.943119     -0.783408      0.312663
  O       3.473630      0.732563      0.841429
  O       1.825561     -0.272618     -0.971168
  O       3.088209     -0.538509      1.035702
  H       1.999767      1.202300      0.458223
  H      -2.950904      0.322525      0.341086
  H      -2.678810      0.746361     -1.350100
  H      -3.139823     -0.899562     -0.916296
  H      -0.704771     -0.776236     -1.422597
  H      -0.991439     -1.226469      0.263170
  H      -0.402955      1.606090     -0.710481
  H      -0.565930      1.114828      0.979930
  H       1.544736     -1.765457      0.519308
17
Coordinates from ORCA-job scan E -27.298648089310
  C      -2.555689     -0.037055     -0.605841
  C      -1.088490     -0.418880     -0.465375
  C      -0.249573      0.780730     -0.011324
  C       1.210081      0.474598      0.036250
  C       1.943717     -0.783552      0.312026
  O       3.473124      0.732366      0.842641
  O       1.826165     -0.271375     -0.971542
  O       3.088218     -0.539396      1.035782
  H       1.998805      1.201832      0.460857
  H      -2.950790      0.323035      0.341376
  H      -2.679169      0.745863     -1.350146
  H      -3.139994     -0.899827     -0.915210
  H      -0.705103     -0.776807     -1.422250
  H      -0.991233     -1.225880      0.263934
  H      -0.402486      1.605770     -0.712342
  H      -0.566274      1.116370      0.978633
  H       1.545985     -1.766151      0.517300
17
Coordinates from ORCA-job scan E -27.298217873960
  C      -2.555876     -0.036424     -0.605826
  C      -1.088873     -0.419068     -0.465538
  C      -0.249286      0.779988     -0.011260
  C       1.210208      0.473063      0.036153
  C       1.943831     -0.784123      0.311723
  O       3.468565      0.737438      0.842023
  O       1.826255     -0.272541     -0.971883
  O       3.087605     -0.536431      1.035851
  H       2.003337      1.197706      0.462320
  H      -2.950726      0.323657      0.341500
  H      -2.678982      0.746732     -1.349941
  H      -3.140662     -0.898812     -0.915360
  H      -0.705736     -0.776978     -1.422520
  H      -0.992003     -1.226289      0.263577
  H      -0.401800      1.605272     -0.712077
  H      -0.565746      1.115567      0.978794
  H       1.547182     -1.767112      0.517231
17
Coordinates from ORCA-job scan E -27.298219914780
  C      -2.555921     -0.036419     -0.605499
  C      -1.088904     -0.419012     -0.465371
  C      -0.249314      0.780366     -0.011742
  C       1.209950      0.472847      0.036194
  C       1.944413     -0.784491      0.311356
  O       3.467035      0.737263      0.844653
  O       1.826255     -0.271945     -0.972090
  O       3.088147     -0.537812      1.035630
  H       2.002984      1.198744      0.461892
  H      -2.950599      0.323989      0.341771
  H      -2.679189      0.746455     -1.349884
  H      -3.140717     -0.898955     -0.914598
  H      -0.705920     -0.777289     -1.422278
  H      -0.991815     -1.225893      0.264091
  H      -0.401566      1.605152     -0.713196
  H      -0.565942      1.116559      0.978040
  H       1.548396     -1.767916      0.515798
17
Coordinates from ORCA-job scan E -27.298221483790
  C      -2.556062     -0.036460     -0.605080
  C      -1.089014     -0.418979     -0.465143
  C      -0.249342      0.780884     -0.012617
  C       1.209619      0.472484      0.036203
  C       1.945028     -0.784622      0.310680
  O       3.466515      0.737058      0.845982
  O       1.826907     -0.270622     -0.972500
  O       3.088168     -0.538773      1.035686
  H       2.002000      1.198271      0.464676
  H      -2.950482      0.324537      0.342068
  H      -2.679560      0.745921     -1.349942
  H      -3.140900     -0.899235     -0.913450
  H      -0.706271     -0.777914     -1.421897
  H      -0.991611     -1.225274      0.264915
  H      -0.401088      1.604809     -0.715154
  H      -0.566292      1.118170      0.976673
  H       1.549677     -1.768615      0.513667
17
Coordinates from ORCA-job scan E -27.297792692120
  C      -2.556246     -0.035833     -0.605063
  C      -1.089393     -0.419166     -0.465306
  C      -0.249054      0.780144     -0.012553
  C       1.209746      0.470956      0.036105
  C       1.945139     -0.785185      0.310376
  O       3.461938      0.742106      0.845362
  O       1.826994     -0.271781     -0.972843
  O       3.087545     -0.535811      1.035754
  H       2.006542      1.194144      0.466139
  H      -2.950414      0.325153      0.342194
  H      -2.679373      0.746787     -1.349735
  H      -3.141562     -0.898225     -0.913597
  H      -0.706900     -0.778082     -1.422167
  H      -0.992373     -1.225683      0.264558
  H      -0.400404      1.604314     -0.714888
  H      -0.565763      1.117369      0.976836
  H       1.550870     -1.769565      0.513597
17
Coordinates from ORCA-job scan E -27.297794839690
  C      -2.556295     -0.035829     -0.604714
  C      -1.089429     -0.419118     -0.465124
  C      -0.249075      0.780522     -0.013062
  C       1.209494      0.470730      0.036108
  C       1.945728     -0.785551      0.309969
  O       3.460336      0.741936      0.848258
  O       1.827019     -0.271156     -0.973086
  O       3.088096     -0.537253      1.035510
  H       2.006233      1.195256      0.465619
  H      -2.950281      0.325508      0.342483
  H      -2.679589      0.746491     -1.349672
  H      -3.141631     -0.898373     -0.912788
  H      -0.707103     -0.778428     -1.421904
  H      -0.992188     -1.225276      0.265106
  H      -0.400165      1.604174     -0.716052
  H      -0.565941      1.118385      0.976048
  H       1.552085     -1.770375      0.512069
17
Coordinates from ORCA-job scan E -27.297796547150
  C      -2.556441     -0.035873     -0.604285
  C      -1.089547     -0.419095     -0.464879
  C      -0.249102      0.781040     -0.013963
  C       1.209160      0.470359      0.036083
  C       1.946338     -0.785660      0.309266
  O       3.459826      0.741733      0.849685
  O       1.827715     -0.269784     -0.973527
  O       3.088115     -0.538248      1.035541
  H       2.005260      1.194778      0.468479
  H      -2.950162      0.326083      0.342780
  H      -2.679961      0.745934     -1.349742
  H      -3.141825     -0.898660     -0.911604
  H      -0.707467     -0.779096     -1.421495
  H      -0.991994     -1.224644      0.265971
  H      -0.399690      1.603812     -0.718053
  H      -0.566280      1.120016      0.974649
  H       1.553349     -1.771052      0.509862
17
Coordinates from ORCA-job scan E -27.297369999720
  C      -2.556622     -0.035250     -0.604266
  C      -1.089921     -0.419281     -0.465041
  C      -0.248813      0.780303     -0.013898
  C       1.209288      0.468838      0.035983
  C       1.946446     -0.786216      0.308960
  O       3.455231      0.746758      0.849060
  O       1.827800     -0.270936     -0.973873
  O       3.087483     -0.535288      1.035609
  H       2.009811      1.190651      0.469943
  H      -2.950092      0.326694      0.342909
  H      -2.679774      0.746797     -1.349533
  H      -3.142481     -0.897655     -0.911749
  H      -0.708093     -0.779262     -1.421766
  H      -0.992750     -1.225053      0.265615
  H      -0.399009      1.603319     -0.717787
  H      -0.565749      1.119216      0.974813
  H       1.554537     -1.771992      0.509791
17
Coordinates from ORCA-job scan E -27.297372311950
  C      -2.556676     -0.035250     -0.603903
  C      -1.089963     -0.419240     -0.464847
  C      -0.248834      0.780686     -0.014435
  C       1.209032      0.468607      0.035957
  C       1.947038     -0.786574      0.308530
  O       3.453591      0.746571      0.852119
  O       1.827849     -0.270279     -0.974143
  O       3.088053     -0.536790      1.035336
  H       2.009532      1.191822      0.469424
  H      -2.949955      0.327067      0.343206
  H      -2.679998      0.746480     -1.349472
  H      -3.142559     -0.897812     -0.910902
  H      -0.708310     -0.779639     -1.421485
  H      -0.992566     -1.224633      0.266194
  H      -0.398771      1.603165     -0.718998
  H      -0.565922      1.120259      0.973990
  H       1.555751     -1.772796      0.508195
17
Coordinates from ORCA-job scan E -27.297374192580
  C      -2.556831     -0.035297     -0.603454
  C      -1.090090     -0.419225     -0.464583
  C      -0.248864      0.781220     -0.015388
  C       1.208681      0.468215      0.035898
  C       1.947661     -0.786666      0.307792
  O       3.453072      0.746362      0.853673
  O       1.828599     -0.268830     -0.974621
  O       3.088085     -0.537856      1.035339
  H       2.008544      1.191341      0.472436
  H      -2.949831      0.327678      0.343514
  H      -2.680383      0.745889     -1.349552
  H      -3.142767     -0.898112     -0.909655
  H      -0.708697     -0.780361     -1.421044
  H      -0.992374     -1.223973      0.267116
  H      -0.398289      1.602778     -0.721094
  H      -0.566263      1.121953      0.972520
  H       1.557041     -1.773472      0.505872
17
Coordinates from ORCA-job scan E -27.296950854600
  C      -2.557008     -0.034678     -0.603433
  C      -1.090461     -0.419411     -0.464746
  C      -0.248574      0.780486     -0.015322
  C       1.208810      0.466702      0.035798
  C       1.947765     -0.787215      0.307484
  O       3.448460      0.751364      0.853043
  O       1.828681     -0.269975     -0.974969
  O       3.087444     -0.534899      1.035406
  H       2.013105      1.187213      0.473900
  H      -2.949757      0.328282      0.343644
  H      -2.680196      0.746748     -1.349340
  H      -3.143418     -0.897112     -0.909799
  H      -0.709319     -0.780524     -1.421315
  H      -0.993122     -1.224381      0.266759
  H      -0.397611      1.602288     -0.720827
  H      -0.565731      1.121155      0.972685
  H       1.558224     -1.774400      0.505800
17
Coordinates from ORCA-job scan E -27.296953302930
  C      -2.557069     -0.034679     -0.603046
  C      -1.090510     -0.419379     -0.464537
  C      -0.248587      0.780867     -0.015889
  C       1.208559      0.466461      0.035729
  C       1.948363     -0.787569      0.307017
  O       3.446743      0.751176      0.856381
  O       1.828758     -0.269292     -0.975278
  O       3.088025     -0.536460      1.035108
  H       2.012875      1.188462      0.473286
  H      -2.949612      0.328677      0.343962
  H      -2.680431      0.746414     -1.349272
  H      -3.143511     -0.897273     -0.908902
  H      -0.709558     -0.780937     -1.421016
  H      -0.992940     -1.223952      0.267371
  H      -0.397369      1.602114     -0.722085
  H      -0.565882      1.122219      0.971827
  H       1.559440     -1.775207      0.504112
17
Coordinates from ORCA-job scan E -27.296955351910
  C      -2.557229     -0.034728     -0.602585
  C      -1.090645     -0.419374     -0.464261
  C      -0.248616      0.781399     -0.016872
  C       1.208205      0.466056      0.035628
  C       1.948980     -0.787638      0.306257
  O       3.446237      0.750972      0.858034
  O       1.829554     -0.267800     -0.975787
  O       3.088055     -0.537555      1.035086
  H       2.011899      1.187976      0.476380
  H      -2.949487      0.329311      0.344273
  H      -2.680821      0.745803     -1.349358
  H      -3.143732     -0.897577     -0.907619
  H      -0.709963     -0.781699     -1.420555
  H      -0.992757     -1.223281      0.268326
  H      -0.396888      1.601707     -0.724225
  H      -0.566211      1.123929      0.970322
  H       1.560712     -1.775858      0.501724
17
Coordinates from ORCA-job scan E -27.296956557230
  C      -2.557446     -0.034778     -0.601777
  C      -1.090835     -0.419448     -0.463709
  C      -0.248407      0.781924     -0.018232
  C       1.208043      0.465435      0.035265
  C       1.949785     -0.787721      0.304666
  O       3.445009      0.751045      0.862164
  O       1.831023     -0.265493     -0.976796
  O       3.087353     -0.538638      1.035412
  H       2.010705      1.187055      0.479247
  H      -2.949233      0.330344      0.344852
  H      -2.681303      0.744919     -1.349370
  H      -3.144156     -0.897934     -0.905573
  H      -0.710632     -0.782980     -1.419727
  H      -0.992578     -1.222379      0.269880
  H      -0.395945      1.600874     -0.727229
  H      -0.566267      1.126231      0.968226
  H       1.562177     -1.776813      0.497469
17
Coordinates from ORCA-job scan E -27.296956946010
  C      -2.557525     -0.034864     -0.601282
  C      -1.090928     -0.419537     -0.463097
  C      -0.248218      0.782221     -0.019011
  C       1.208086      0.465235      0.035115
  C       1.950192     -0.787754      0.303356
  O       3.444012      0.750848      0.865024
  O       1.832253     -0.263637     -0.977509
  O       3.086656     -0.539347      1.035604
  H       2.009906      1.186537      0.480998
  H      -2.949119      0.331164      0.345072
  H      -2.681426      0.744151     -1.349576
  H      -3.144366     -0.898248     -0.904184
  H      -0.710944     -0.784068     -1.418825
  H      -0.992571     -1.221698      0.271316
  H      -0.395289      1.600216     -0.729175
  H      -0.566217      1.127807      0.966925
  H       1.562790     -1.777381      0.494015
17
Coordinates from ORCA-job scan E -27.296539363850
  C      -2.557698     -0.034250     -0.601258
  C      -1.091292     -0.419721     -0.463260
  C      -0.247925      0.781491     -0.018945
  C       1.208217      0.463732      0.035010
  C       1.950291     -0.788294      0.303042
  O       3.439376      0.755820      0.864393
  O       1.832331     -0.264770     -0.977865
  O       3.086003     -0.536399      1.035676
  H       2.014479      1.182410      0.482463
  H      -2.949038      0.331758      0.345210
  H      -2.681241      0.745007     -1.349358
  H      -3.145009     -0.897256     -0.904325
  H      -0.711562     -0.784224     -1.419099
  H      -0.993306     -1.222108      0.270957
  H      -0.394616      1.599732     -0.728905
  H      -0.565680      1.127010      0.967095
  H       1.563964     -1.778295      0.493938
17
Coordinates from ORCA-job scan E -27.296541226720
  C      -2.557648     -0.034303     -0.601073
  C      -1.091262     -0.419689     -0.462925
  C      -0.248029      0.781852     -0.019185
  C       1.207980      0.463836      0.035147
  C       1.950700     -0.788713      0.302735
  O       3.437455      0.755218      0.867413
  O       1.832095     -0.264257     -0.977987
  O       3.086990     -0.538288      1.035004
  H       2.014579      1.184524      0.481021
  H      -2.949000      0.332091      0.345241
  H      -2.681219      0.744626     -1.349513
  H      -3.144899     -0.897474     -0.903766
  H      -0.711510     -0.784615     -1.418607
  H      -0.993215     -1.221707      0.271695
  H      -0.394653      1.599713     -0.729637
  H      -0.565871      1.127818      0.966662
  H       1.564802     -1.778989      0.492542
17
Coordinates from ORCA-job scan E -27.296542240690
  C      -2.557677     -0.034372     -0.601046
  C      -1.091295     -0.419703     -0.462740
  C      -0.248124      0.782090     -0.019488
  C       1.207797      0.463840      0.035238
  C       1.950755     -0.788611      0.302470
  O       3.437985      0.754958      0.866651
  O       1.832444     -0.263495     -0.978127
  O       3.086993     -0.538557      1.034880
  H       2.014099      1.183865      0.483550
  H      -2.949049      0.332368      0.345125
  H      -2.681250      0.744270     -1.349785
  H      -3.144896     -0.897677     -0.903420
  H      -0.711520     -0.785008     -1.418269
  H      -0.993220     -1.221401      0.272226
  H      -0.394596      1.599587     -0.730388
  H      -0.566112      1.128501      0.966153
  H       1.564960     -1.779011      0.491737
17
Coordinates from ORCA-job scan E -27.296128008330
  C      -2.557848     -0.033761     -0.601020
  C      -1.091656     -0.419887     -0.462902
  C      -0.247832      0.781363     -0.019421
  C       1.207927      0.462343      0.035132
  C       1.950852     -0.789143      0.302156
  O       3.433337      0.759912      0.866014
  O       1.832522     -0.264622     -0.978483
  O       3.086334     -0.535609      1.034950
  H       2.018679      1.179734      0.485016
  H      -2.948967      0.332959      0.345263
  H      -2.681065      0.745123     -1.349567
  H      -3.145535     -0.896690     -0.903560
  H      -0.712135     -0.785163     -1.418544
  H      -0.993950     -1.221810      0.271867
  H      -0.393925      1.599104     -0.730118
  H      -0.565575      1.127706      0.966323
  H       1.566130     -1.779916      0.491661
17
Coordinates from ORCA-job scan E -27.296130929330
  C      -2.557871     -0.033782     -0.600699
  C      -1.091671     -0.419857     -0.462683
  C      -0.247914      0.781771     -0.019896
  C       1.207618      0.462218      0.035076
  C       1.951385     -0.789540      0.301788
  O       3.431451      0.759573      0.869716
  O       1.832283     -0.264095     -0.978753
  O       3.087280     -0.537519      1.034352
  H       2.018791      1.181598      0.483767
  H      -2.948848      0.333315      0.345495
  H      -2.681238      0.744775     -1.349561
  H      -3.145548     -0.896880     -0.902773
  H      -0.712273     -0.785545     -1.418217
  H      -0.993770     -1.221402      0.272471
  H      -0.393881      1.599040     -0.731162
  H      -0.565764      1.128661      0.965618
  H       1.567264     -1.780689      0.490229
17
Coordinates from ORCA-job scan E -27.296132848700
  C      -2.557970     -0.033844     -0.600477
  C      -1.091752     -0.419861     -0.462509
  C      -0.248022      0.782187     -0.020561
  C       1.207275      0.462004      0.035029
  C       1.951687     -0.789484      0.301371
  O       3.431650      0.759354      0.870039
  O       1.832723     -0.263038     -0.979067
  O       3.087431     -0.538296      1.034160
  H       2.018164      1.181034      0.486750
  H      -2.948808      0.333733      0.345585
  H      -2.681479      0.744304     -1.349738
  H      -3.145646     -0.897141     -0.901995
  H      -0.712476     -0.786076     -1.417887
  H      -0.993656     -1.220933      0.273124
  H      -0.393708      1.598833     -0.732571
  H      -0.566102      1.129823      0.964612
  H       1.567983     -1.780955      0.488902
17
Coordinates from ORCA-job scan E -27.296133863990
  C      -2.558113     -0.033884     -0.599919
  C      -1.091870     -0.419924     -0.462140
  C      -0.247894      0.782582     -0.021540
  C       1.207115      0.461555      0.034697
  C       1.952202     -0.789473      0.300266
  O       3.430942      0.759416      0.872954
  O       1.833654     -0.261400     -0.979827
  O       3.086942     -0.539107      1.034314
  H       2.017421      1.180280      0.488897
  H      -2.948615      0.334467      0.345973
  H      -2.681822      0.743657     -1.349771
  H      -3.145927     -0.897409     -0.900544
  H      -0.712929     -0.786984     -1.417317
  H      -0.993509     -1.220302      0.274195
  H      -0.393134      1.598283     -0.734653
  H      -0.566154      1.131419      0.963132
  H       1.568984     -1.781531      0.486052
17
Coordinates from ORCA-job scan E -27.295726859740
  C      -2.558280     -0.033277     -0.599891
  C      -1.092227     -0.420107     -0.462302
  C      -0.247601      0.781859     -0.021474
  C       1.207246      0.460068      0.034590
  C       1.952295     -0.789997      0.299949
  O       3.426277      0.764345      0.872313
  O       1.833729     -0.262517     -0.980187
  O       3.086275     -0.536163      1.034385
  H       2.022011      1.176144      0.490365
  H      -2.948529      0.335050      0.346114
  H      -2.681638      0.744505     -1.349550
  H      -3.146560     -0.896428     -0.900682
  H      -0.713539     -0.787135     -1.417592
  H      -0.994229     -1.220711      0.273836
  H      -0.392468      1.597805     -0.734382
  H      -0.565615      1.130626      0.963303
  H       1.570146     -1.782423      0.485974
17
Coordinates from ORCA-job scan E -27.295729218010
  C      -2.558299     -0.033301     -0.599524
  C      -1.092245     -0.420076     -0.462034
  C      -0.247623      0.782211     -0.021920
  C       1.207044      0.459981      0.034504
  C       1.952858     -0.790429      0.299545
  O       3.423908      0.763857      0.876560
  O       1.833674     -0.262003     -0.980445
  O       3.087158     -0.538158      1.033825
  H       2.022157      1.178434      0.488429
  H      -2.948393      0.335410      0.346394
  H      -2.681795      0.744157     -1.349497
  H      -3.146586     -0.896604     -0.899846
  H      -0.713699     -0.787530     -1.417224
  H      -0.994065     -1.220303      0.274493
  H      -0.392355      1.597688     -0.735414
  H      -0.565717      1.131544      0.962617
  H       1.571271     -1.783234      0.484305
17
Coordinates from ORCA-job scan E -27.295730974540
  C      -2.558384     -0.033354     -0.599385
  C      -1.092326     -0.420085     -0.461894
  C      -0.247695      0.782481     -0.022411
  C       1.206827      0.459839      0.034474
  C       1.953035     -0.790311      0.299256
  O       3.424333      0.763662      0.876162
  O       1.834223     -0.261154     -0.980650
  O       3.087133     -0.538520      1.033758
  H       2.021533      1.177711      0.491266
  H      -2.948390      0.335725      0.346424
  H      -2.681962      0.743798     -1.349662
  H      -3.146676     -0.896796     -0.899302
  H      -0.713861     -0.787949     -1.416960
  H      -0.994022     -1.219953      0.275002
  H      -0.392192      1.597493     -0.736476
  H      -0.565961      1.132384      0.961860
  H       1.571679     -1.783326      0.483306
17
Coordinates from ORCA-job scan E -27.295731943800
  C      -2.558524     -0.033384     -0.598900
  C      -1.092456     -0.420151     -0.461537
  C      -0.247588      0.782811     -0.023305
  C       1.206682      0.459441      0.034167
  C       1.953502     -0.790287      0.298271
  O       3.423756      0.763707      0.878588
  O       1.835172     -0.259649     -0.981329
  O       3.086735     -0.539201      1.033889
  H       2.020784      1.176986      0.493496
  H      -2.948239      0.336422      0.346741
  H      -2.682253      0.743207     -1.349728
  H      -3.146949     -0.897025     -0.898004
  H      -0.714286     -0.788819     -1.416405
  H      -0.993939     -1.219372      0.276021
  H      -0.391670      1.596965     -0.738381
  H      -0.565989      1.133811      0.960514
  H       1.572555     -1.783820      0.480671
17
Coordinates from ORCA-job scan E -27.295331713490
  C      -2.558688     -0.032782     -0.598870
  C      -1.092809     -0.420333     -0.461700
  C      -0.247295      0.782092     -0.023238
  C       1.206814      0.457962      0.034058
  C       1.953591     -0.790803      0.297952
  O       3.419076      0.768613      0.877940
  O       1.835244     -0.260757     -0.981692
  O       3.086060     -0.536260      1.033960
  H       2.025382      1.172847      0.494968
  H      -2.948149      0.336998      0.346885
  H      -2.682069      0.744052     -1.349505
  H      -3.147576     -0.896050     -0.898140
  H      -0.714893     -0.788967     -1.416681
  H      -0.994651     -1.219780      0.275661
  H      -0.391008      1.596490     -0.738110
  H      -0.565448      1.133021      0.960686
  H       1.573710     -1.784700      0.480591
17
Coordinates from ORCA-job scan E -27.295334542790
  C      -2.558715     -0.032799     -0.598479
  C      -1.092833     -0.420310     -0.461442
  C      -0.247326      0.782452     -0.023717
  C       1.206582      0.457853      0.033921
  C       1.954181     -0.791273      0.297540
  O       3.416538      0.768143      0.882720
  O       1.835080     -0.260295     -0.981990
  O       3.087091     -0.538406      1.033309
  H       2.025690      1.175406      0.492678
  H      -2.948001      0.337365      0.347197
  H      -2.682250      0.743710     -1.349424
  H      -3.147618     -0.896220     -0.897268
  H      -0.715079     -0.789374     -1.416327
  H      -0.994476     -1.219378      0.276306
  H      -0.390925      1.596382     -0.739160
  H      -0.565535      1.133940      0.959983
  H       1.574890     -1.785552      0.478919
17
Coordinates from ORCA-job scan E -27.295336714850
  C      -2.558810     -0.032851     -0.598349
  C      -1.092921     -0.420324     -0.461326
  C      -0.247420      0.782730     -0.024231
  C       1.206330      0.457692      0.033873
  C       1.954342     -0.791132      0.297290
  O       3.417112      0.767981      0.882184
  O       1.835608     -0.259455     -0.982191
  O       3.087118     -0.538770      1.033199
  H       2.025074      1.174612      0.495743
  H      -2.948003      0.337669      0.347223
  H      -2.682434      0.743358     -1.349589
  H      -3.147715     -0.896411     -0.896737
  H      -0.715252     -0.789790     -1.416090
  H      -0.994432     -1.219035      0.276784
  H      -0.390788      1.596197     -0.740235
  H      -0.565801      1.134777      0.959206
  H       1.575285     -1.785606      0.478014
17
Coordinates from ORCA-job scan E -27.295337782840
  C      -2.558954     -0.032873     -0.597865
  C      -1.093054     -0.420393     -0.461014
  C      -0.247317      0.783045     -0.025129
  C       1.206172      0.457264      0.033521
  C       1.954797     -0.791088      0.296367
  O       3.416584      0.768069      0.884596
  O       1.836514     -0.258027     -0.982865
  O       3.086745     -0.539427      1.033319
  H       2.024375      1.173888      0.497919
  H      -2.947841      0.338330      0.347560
  H      -2.682742      0.742810     -1.349617
  H      -3.147997     -0.896615     -0.895472
  H      -0.715695     -0.790621     -1.415600
  H      -0.994339     -1.218490      0.277716
  H      -0.390292      1.595689     -0.742090
  H      -0.565816      1.136136      0.957880
  H       1.576151     -1.786055      0.475543
17
Coordinates from ORCA-job scan E -27.294945999940
  C      -2.559114     -0.032275     -0.597833
  C      -1.093402     -0.420574     -0.461176
  C      -0.247022      0.782329     -0.025061
  C       1.206304      0.455795      0.033410
  C       1.954882     -0.791595      0.296046
  O       3.411890      0.772950      0.883937
  O       1.836584     -0.259127     -0.983230
  O       3.086064     -0.536490      1.033389
  H       2.028981      1.169744      0.499399
  H      -2.947748      0.338900      0.347708
  H      -2.682559      0.743651     -1.349392
  H      -3.148617     -0.895647     -0.895606
  H      -0.716297     -0.790765     -1.415877
  H      -0.995042     -1.218898      0.277356
  H      -0.389634      1.595218     -0.741818
  H      -0.565275      1.135348      0.958054
  H       1.577297     -1.786923      0.475463
17
Coordinates from ORCA-job scan E -27.294949059300
  C      -2.559155     -0.032293     -0.597415
  C      -1.093437     -0.420556     -0.460922
  C      -0.247047      0.782686     -0.025577
  C       1.206080      0.455672      0.033220
  C       1.955485     -0.792058      0.295624
  O       3.409250      0.772439      0.888982
  O       1.836461     -0.258667     -0.983556
  O       3.087117     -0.538691      1.032713
  H       2.029353      1.172433      0.497010
  H      -2.947590      0.339272      0.348052
  H      -2.682768      0.743302     -1.349286
  H      -3.148681     -0.895817     -0.894688
  H      -0.716518     -0.791185     -1.415531
  H      -0.994862     -1.218493      0.278003
  H      -0.389547      1.595094     -0.742916
  H      -0.565346      1.136279      0.957309
  H       1.578496     -1.787772      0.473746
17
Coordinates from ORCA-job scan E -27.294951482560
  C      -2.559262     -0.032345     -0.597272
  C      -1.093537     -0.420572     -0.460814
  C      -0.247142      0.782964     -0.026127
  C       1.205818      0.455492      0.033135
  C       1.955652     -0.791899      0.295381
  O       3.409858      0.772290      0.888477
  O       1.837035     -0.257811     -0.983770
  O       3.087157     -0.539075      1.032583
  H       2.028726      1.171621      0.500196
  H      -2.947588      0.339583      0.348095
  H      -2.682973      0.742947     -1.349441
  H      -3.148797     -0.896007     -0.894131
  H      -0.716719     -0.791614     -1.415303
  H      -0.994819     -1.218145      0.278478
  H      -0.389408      1.594896     -0.744039
  H      -0.565611      1.137130      0.956491
  H       1.578904     -1.787812      0.472830
17
Coordinates from ORCA-job scan E -27.294952677330
  C      -2.559421     -0.032356     -0.596756
  C      -1.093686     -0.420649     -0.460514
  C      -0.247027      0.783269     -0.027080
  C       1.205654      0.455014      0.032711
  C       1.956132     -0.791837      0.294452
  O       3.409298      0.772415      0.891049
  O       1.838004     -0.256368     -0.984483
  O       3.086772     -0.539732      1.032717
  H       2.028010      1.170874      0.502426
  H      -2.947408      0.340261      0.348473
  H      -2.683312      0.742406     -1.349436
  H      -3.149112     -0.896196     -0.892812
  H      -0.717213     -0.792467     -1.414832
  H      -0.994724     -1.217597      0.279405
  H      -0.388893      1.594361     -0.745965
  H      -0.565597      1.138499      0.955104
  H       1.579816     -1.788255      0.470312
17
Coordinates from ORCA-job scan E -27.294570642450
  C      -2.559579     -0.031763     -0.596723
  C      -1.094030     -0.420829     -0.460676
  C      -0.246733      0.782558     -0.027012
  C       1.205787      0.453555      0.032600
  C       1.956212     -0.792336      0.294129
  O       3.404591      0.777273      0.890378
  O       1.838074     -0.257457     -0.984851
  O       3.086085     -0.536799      1.032786
  H       2.032623      1.166723      0.503915
  H      -2.947311      0.340824      0.348623
  H      -2.683130      0.743243     -1.349209
  H      -3.149725     -0.895234     -0.892945
  H      -0.717811     -0.792607     -1.415110
  H      -0.995419     -1.218004      0.279045
  H      -0.388239      1.593894     -0.745692
  H      -0.565055      1.137713      0.955279
  H       1.580953     -1.789111      0.470231
17
Coordinates from ORCA-job scan E -27.294573885430
  C      -2.559630     -0.031780     -0.596283
  C      -1.094076     -0.420819     -0.460420
  C      -0.246749      0.782903     -0.027555
  C       1.205570      0.453421      0.032358
  C       1.956826     -0.792800      0.293692
  O       3.401840      0.776731      0.895718
  O       1.837971     -0.257008     -0.985209
  O       3.087170     -0.539044      1.032082
  H       2.033080      1.169558      0.501379
  H      -2.947146      0.341207      0.348991
  H      -2.683357      0.742890     -1.349085
  H      -3.149812     -0.895400     -0.891990
  H      -0.718063     -0.793048     -1.414764
  H      -0.995243     -1.217601      0.279697
  H      -0.388152      1.593753     -0.746818
  H      -0.565099      1.138642      0.954509
  H       1.582163     -1.789962      0.468467
17
Coordinates from ORCA-job scan E -27.294576548900
  C      -2.559748     -0.031829     -0.596139
  C      -1.094188     -0.420841     -0.460320
  C      -0.246848      0.783173     -0.028123
  C       1.205300      0.453228      0.032244
  C       1.956986     -0.792623      0.293463
  O       3.402509      0.776604      0.895195
  O       1.838577     -0.256148     -0.985428
  O       3.087228     -0.539422      1.031929
  H       2.032451      1.168717      0.504673
  H      -2.947146      0.341521      0.349038
  H      -2.683574      0.742537     -1.349236
  H      -3.149943     -0.895584     -0.891427
  H      -0.718284     -0.793488     -1.414544
  H      -0.995208     -1.217255      0.280166
  H      -0.388018      1.593547     -0.747958
  H      -0.565360      1.139485      0.953673
  H       1.582558     -1.789978      0.467564
17
Coordinates from ORCA-job scan E -27.294577836270
  C      -2.559917     -0.031832     -0.595611
  C      -1.094349     -0.420926     -0.460032
  C      -0.246727      0.783459     -0.029103
  C       1.205134      0.452720      0.031765
  C       1.957472     -0.792544      0.292547
  O       3.401943      0.776757      0.897846
  O       1.839582     -0.254715     -0.986163
  O       3.086849     -0.540064      1.032060
  H       2.031741      1.167968      0.506925
  H      -2.946958      0.342207      0.349435
  H      -2.683926      0.742011     -1.349213
  H      -3.150280     -0.895755     -0.890093
  H      -0.718810     -0.794352     -1.414091
  H      -0.995121     -1.216718      0.281077
  H      -0.387503      1.592997     -0.749901
  H      -0.565317      1.140831      0.952266
  H       1.583481     -1.790400      0.465053
17
Coordinates from ORCA-job scan E -27.294206765380
  C      -2.560070     -0.031243     -0.595576
  C      -1.094688     -0.421104     -0.460194
  C      -0.246433      0.782753     -0.029034
  C       1.205267      0.451271      0.031653
  C       1.957547     -0.793034      0.292221
  O       3.397225      0.781590      0.897161
  O       1.839650     -0.255794     -0.986533
  O       3.086155     -0.537136      1.032128
  H       2.036361      1.163810      0.508425
  H      -2.946858      0.342761      0.349587
  H      -2.683745      0.742843     -1.348983
  H      -3.150887     -0.894800     -0.890225
  H      -0.719403     -0.794489     -1.414369
  H      -0.995807     -1.217124      0.280717
  H      -0.386854      1.592535     -0.749627
  H      -0.564775      1.140047      0.952443
  H       1.584607     -1.791242      0.464972
17
Coordinates from ORCA-job scan E -27.294210234640
  C      -2.560133     -0.031261     -0.595116
  C      -1.094746     -0.421103     -0.459938
  C      -0.246444      0.783088     -0.029605
  C       1.205056      0.451130      0.031361
  C       1.958170     -0.793497      0.291771
  O       3.394372      0.781008      0.902781
  O       1.839566     -0.255354     -0.986922
  O       3.087274     -0.539426      1.031392
  H       2.036912      1.166793      0.505759
  H      -2.946687      0.343154      0.349978
  H      -2.683990      0.742484     -1.348843
  H      -3.150995     -0.894964     -0.889234
  H      -0.719685     -0.794950     -1.414024
  H      -0.995634     -1.216722      0.281374
  H      -0.386771      1.592378     -0.750783
  H      -0.564797      1.140975      0.951646
  H       1.585825     -1.792091      0.463170
17
Coordinates from ORCA-job scan E -27.294213160120
  C      -2.560261     -0.031310     -0.594969
  C      -1.094869     -0.421131     -0.459844
  C      -0.246547      0.783352     -0.030197
  C       1.204776      0.450924      0.031214
  C       1.958323     -0.793301      0.291555
  O       3.395102      0.780900      0.902261
  O       1.840205     -0.254488     -0.987150
  O       3.087356     -0.539809      1.031207
  H       2.036285      1.165931      0.509168
  H      -2.946688      0.343474      0.350029
  H      -2.684221      0.742130     -1.348992
  H      -3.151142     -0.895146     -0.888661
  H      -0.719928     -0.795403     -1.413812
  H      -0.995607     -1.216377      0.281840
  H      -0.386644      1.592163     -0.751947
  H      -0.565055      1.141815      0.950788
  H       1.586209     -1.792083      0.462277
17
Coordinates from ORCA-job scan E -27.294214549280
  C      -2.560440     -0.031304     -0.594426
  C      -1.095043     -0.421225     -0.459568
  C      -0.246420      0.783621     -0.031207
  C       1.204606      0.450386      0.030674
  C       1.958813     -0.793202      0.290650
  O       3.394532      0.781079      0.905009
  O       1.841245     -0.253062     -0.987910
  O       3.086981     -0.540439      1.031333
  H       2.035589      1.165181      0.511440
  H      -2.946489      0.344167      0.350449
  H      -2.684588      0.741616     -1.348947
  H      -3.151503     -0.895299     -0.887305
  H      -0.720488     -0.796280     -1.413376
  H      -0.995526     -1.215849      0.282735
  H      -0.386131      1.591598     -0.753910
  H      -0.564984      1.143138      0.949357
  H       1.587140     -1.792482      0.459773
17
Coordinates from ORCA-job scan E -27.293855748710
  C      -2.560591     -0.030720     -0.594390
  C      -1.095377     -0.421402     -0.459730
  C      -0.246126      0.782919     -0.031137
  C       1.204739      0.448948      0.030561
  C       1.958883     -0.793683      0.290322
  O       3.389802      0.785888      0.904308
  O       1.841312     -0.254130     -0.988283
  O       3.086282     -0.537515      1.031399
  H       2.040216      1.161015      0.512953
  H      -2.946386      0.344713      0.350603
  H      -2.684407      0.742444     -1.348715
  H      -3.152103     -0.894351     -0.887436
  H      -0.721076     -0.796413     -1.413654
  H      -0.996202     -1.216255      0.282375
  H      -0.385486      1.591140     -0.753635
  H      -0.564441      1.142357      0.949536
  H       1.588255     -1.793310      0.459692
17
Coordinates from ORCA-job scan E -27.293859454430
  C      -2.560666     -0.030738     -0.593911
  C      -1.095447     -0.421409     -0.459474
  C      -0.246131      0.783243     -0.031734
  C       1.204536      0.448799      0.030217
  C       1.959513     -0.794142      0.289861
  O       3.386849      0.785259      0.910198
  O       1.841249     -0.253702     -0.988703
  O       3.087431     -0.539841      1.030633
  H       2.040864      1.164148      0.510161
  H      -2.946210      0.345115      0.351015
  H      -2.684672      0.742080     -1.348560
  H      -3.152233     -0.894513     -0.886412
  H      -0.721388     -0.796894     -1.413312
  H      -0.996034     -1.215855      0.283035
  H      -0.385408      1.590967     -0.754817
  H      -0.564440      1.143279      0.948715
  H       1.589479     -1.794154      0.457856
17
Coordinates from ORCA-job scan E -27.293862652390
  C      -2.560805     -0.030786     -0.593760
  C      -1.095583     -0.421443     -0.459388
  C      -0.246240      0.783500     -0.032350
  C       1.204246      0.448582      0.030034
  C       1.959659     -0.793927      0.289657
  O       3.387642      0.785169      0.909691
  O       1.841920     -0.252828     -0.988941
  O       3.087539     -0.540229      1.030413
  H       2.040245      1.163269      0.513681
  H      -2.946214      0.345440      0.351071
  H      -2.684917      0.741725     -1.348706
  H      -3.152398     -0.894691     -0.885828
  H      -0.721654     -0.797361     -1.413107
  H      -0.996016     -1.215512      0.283498
  H      -0.385290      1.590743     -0.756004
  H      -0.564694      1.144115      0.947834
  H       1.589852     -1.794122      0.456974
17
Coordinates from ORCA-job scan E -27.293864149130
  C      -2.560995     -0.030771     -0.593203
  C      -1.095770     -0.421548     -0.459125
  C      -0.246106      0.783749     -0.033390
  C       1.204073      0.448013      0.029429
  C       1.960153     -0.793809      0.288765
  O       3.387067      0.785375      0.912542
  O       1.842997     -0.251411     -0.989728
  O       3.087170     -0.540845      1.030532
  H       2.039567      1.162520      0.515973
  H      -2.946004      0.346141      0.351512
  H      -2.685300      0.741224     -1.348641
  H      -3.152784     -0.894826     -0.884452
  H      -0.722251     -0.798252     -1.412690
  H      -0.995943     -1.214994      0.284376
  H      -0.384779      1.590162     -0.757988
  H      -0.564592      1.145412      0.946379
  H       1.590791     -1.794498      0.454479
17
Coordinates from ORCA-job scan E -27.293518955070
  C      -2.561142     -0.030193     -0.593165
  C      -1.096099     -0.421724     -0.459286
  C      -0.245811      0.783052     -0.033320
  C       1.204206      0.446587      0.029316
  C       1.960217     -0.794280      0.288435
  O       3.382328      0.790159      0.911823
  O       1.843063     -0.252469     -0.990103
  O       3.086465     -0.537926      1.030595
  H       2.044200      1.158345      0.517502
  H      -2.945898      0.346680      0.351668
  H      -2.685120      0.742046     -1.348408
  H      -3.153376     -0.893886     -0.884581
  H      -0.722834     -0.798381     -1.412969
  H      -0.996610     -1.215399      0.284016
  H      -0.384140      1.589709     -0.757712
  H      -0.564050      1.144635      0.946560
  H       1.591895     -1.795312      0.454397
17
Coordinates from ORCA-job scan E -27.293522914060
  C      -2.561230     -0.030211     -0.592670
  C      -1.096182     -0.421740     -0.459032
  C      -0.245811      0.783362     -0.033941
  C       1.204010      0.446430      0.028920
  C       1.960854     -0.794735      0.287965
  O       3.379277      0.789478      0.917971
  O       1.843022     -0.252053     -0.990553
  O       3.087644     -0.540281      1.029801
  H       2.044953      1.161632      0.514588
  H      -2.945717      0.347090      0.352100
  H      -2.685403      0.741679     -1.348237
  H      -3.153530     -0.894044     -0.883526
  H      -0.723177     -0.798880     -1.412630
  H      -0.996448     -1.215004      0.284677
  H      -0.384067      1.589520     -0.758916
  H      -0.564025      1.145548      0.945718
  H       1.593124     -1.796148      0.452534
17
Coordinates from ORCA-job scan E -27.293526397020
  C      -2.561382     -0.030257     -0.592515
  C      -1.096332     -0.421781     -0.458954
  C      -0.245925      0.783611     -0.034582
  C       1.203711      0.446202      0.028698
  C       1.960992     -0.794500      0.287775
  O       3.380134      0.789406      0.917487
  O       1.843726     -0.251176     -0.990802
  O       3.087782     -0.540674      1.029543
  H       2.044346      1.160741      0.518215
  H      -2.945723      0.347420      0.352162
  H      -2.685664      0.741322     -1.348381
  H      -3.153714     -0.894217     -0.882931
  H      -0.723468     -0.799361     -1.412434
  H      -0.996440     -1.214663      0.285134
  H      -0.383959      1.589285     -0.760126
  H      -0.564274      1.146376      0.944813
  H       1.593485     -1.796092      0.451666
17
Coordinates from ORCA-job scan E -27.293528007040
  C      -2.561584     -0.030233     -0.591944
  C      -1.096535     -0.421897     -0.458706
  C      -0.245785      0.783838     -0.035653
  C       1.203533      0.445602      0.028025
  C       1.961489     -0.794360      0.286897
  O       3.379558      0.789639      0.920445
  O       1.844839     -0.249771     -0.991617
  O       3.087421     -0.541272      1.029652
  H       2.043693      1.159998      0.520526
  H      -2.945503      0.348130      0.352624
  H      -2.686064      0.740836     -1.348294
  H      -3.154127     -0.894333     -0.881536
  H      -0.724104     -0.800267     -1.412039
  H      -0.996376     -1.214158      0.285993
  H      -0.383454      1.588688     -0.762128
  H      -0.564140      1.147644      0.943337
  H       1.594432     -1.796441      0.449185
17
Coordinates from ORCA-job scan E -27.293197794350
  C      -2.561727     -0.029661     -0.591905
  C      -1.096859     -0.422071     -0.458866
  C      -0.245491      0.783146     -0.035582
  C       1.203667      0.444188      0.027911
  C       1.961547     -0.794822      0.286565
  O       3.374811      0.794398      0.919706
  O       1.844905     -0.250817     -0.991995
  O       3.086711     -0.538358      1.029713
  H       2.048331      1.155811      0.522074
  H      -2.945394      0.348660      0.352783
  H      -2.685885      0.741653     -1.348059
  H      -3.154712     -0.893401     -0.881664
  H      -0.724682     -0.800391     -1.412318
  H      -0.997034     -1.214561      0.285633
  H      -0.382820      1.588240     -0.761852
  H      -0.563598      1.146869      0.943519
  H       1.595523     -1.797241      0.449104
17
Coordinates from ORCA-job scan E -27.293202024380
  C      -2.561828     -0.029678     -0.591394
  C      -1.096955     -0.422097     -0.458616
  C      -0.245486      0.783441     -0.036227
  C       1.203478      0.444025      0.027463
  C       1.962190     -0.795272      0.286089
  O       3.371667      0.793659      0.926096
  O       1.844884     -0.250418     -0.992474
  O       3.087917     -0.540734      1.028894
  H       2.049197      1.159256      0.519044
  H      -2.945211      0.349076      0.353234
  H      -2.686188      0.741284     -1.347873
  H      -3.154890     -0.893554     -0.880582
  H      -0.725056     -0.800907     -1.411985
  H      -0.996880     -1.214173      0.286291
  H      -0.382754      1.588035     -0.763072
  H      -0.563549      1.147769      0.942658
  H       1.596755     -1.798069      0.447222
17
Coordinates from ORCA-job scan E -27.293205803560
  C      -2.561995     -0.029724     -0.591236
  C      -1.097121     -0.422145     -0.458546
  C      -0.245606      0.783679     -0.036892
  C       1.203169      0.443785      0.027200
  C       1.962321     -0.795015      0.285914
  O       3.372591      0.793605      0.925647
  O       1.845622     -0.249538     -0.992735
  O       3.088089     -0.541131      1.028593
  H       2.048609      1.158358      0.522772
  H      -2.945220      0.349412      0.353301
  H      -2.686466      0.740927     -1.348013
  H      -3.155096     -0.893723     -0.879976
  H      -0.725375     -0.801403     -1.411798
  H      -0.996884     -1.213836      0.286742
  H      -0.382658      1.587789     -0.764306
  H      -0.563792      1.148588      0.941731
  H       1.597105     -1.797986      0.446369
17
Coordinates from ORCA-job scan E -27.293207532780
  C      -2.562210     -0.029690     -0.590652
  C      -1.097340     -0.422273     -0.458315
  C      -0.245460      0.783881     -0.037995
  C       1.202987      0.443154      0.026455
  C       1.962821     -0.794854      0.285055
  O       3.372017      0.793866      0.928715
  O       1.846772     -0.248150     -0.993578
  O       3.087740     -0.541708      1.028691
  H       2.047987      1.157628      0.525102
  H      -2.944989      0.350129      0.353786
  H      -2.686884      0.740458     -1.347904
  H      -3.155538     -0.893817     -0.878563
  H      -0.726053     -0.802321     -1.411428
  H      -0.996831     -1.213346      0.287576
  H      -0.382160      1.587176     -0.766323
  H      -0.563624      1.149820      0.940234
  H       1.598060     -1.798309      0.443912
17
Coordinates from ORCA-job scan E -27.292893713440
  C      -2.562349     -0.029123     -0.590611
  C      -1.097660     -0.422445     -0.458475
  C      -0.245167      0.783195     -0.037923
  C       1.203120      0.441753      0.026340
  C       1.962872     -0.795306      0.284721
  O       3.367264      0.798599      0.927954
  O       1.846836     -0.249184     -0.993958
  O       3.087026     -0.538799      1.028749
  H       2.052630      1.153427      0.526669
  H      -2.944877      0.350651      0.353947
  H      -2.686706      0.741269     -1.347667
  H      -3.156115     -0.892894     -0.878690
  H      -0.726624     -0.802441     -1.411707
  H      -0.997478     -1.213748      0.287216
  H      -0.381531      1.586733     -0.766046
  H      -0.563084      1.149049      0.940418
  H       1.599136     -1.799093      0.443831
17
Coordinates from ORCA-job scan E -27.292898232440
  C      -2.562465     -0.029141     -0.590087
  C      -1.097770     -0.422481     -0.458230
  C      -0.245156      0.783471     -0.038588
  C       1.202939      0.441583      0.025842
  C       1.963519     -0.795749      0.284242
  O       3.364034      0.797797      0.934564
  O       1.846837     -0.248805     -0.994465
  O       3.088257     -0.541188      1.027907
  H       2.053615      1.157031      0.523532
  H      -2.944692      0.351071      0.354414
  H      -2.687027      0.740900     -1.347467
  H      -3.156319     -0.893041     -0.877586
  H      -0.727031     -0.802973     -1.411382
  H      -0.997334     -1.213369      0.287868
  H      -0.381473      1.586513     -0.767279
  H      -0.563011      1.149930      0.939542
  H       1.600370     -1.799909      0.441940
17
Coordinates from ORCA-job scan E -27.292902317620
  C      -2.562648     -0.029184     -0.589925
  C      -1.097954     -0.422538     -0.458170
  C      -0.245283      0.783697     -0.039280
  C       1.202620      0.441332      0.025533
  C       1.963643     -0.795471      0.284084
  O       3.365027      0.797760      0.934162
  O       1.847607     -0.247926     -0.994738
  O       3.088467     -0.541588      1.027562
  H       2.053055      1.156136      0.527356
  H      -2.944705      0.351412      0.354488
  H      -2.687324      0.740544     -1.347604
  H      -3.156548     -0.893204     -0.876970
  H      -0.727380     -0.803482     -1.411207
  H      -0.997352     -1.213038      0.288310
  H      -0.381392      1.586256     -0.768534
  H      -0.563248      1.150736      0.938592
  H       1.600708     -1.799800      0.441107
17
Coordinates from ORCA-job scan E -27.292904171580
  C      -2.562877     -0.029140     -0.589328
  C      -1.098192     -0.422678     -0.457959
  C      -0.245132      0.783872     -0.040413
  C       1.202432      0.440669      0.024712
  C       1.964145     -0.795286      0.283248
  O       3.364460      0.798047      0.937343
  O       1.848791     -0.246561     -0.995611
  O       3.088132     -0.542138      1.027647
  H       2.052475      1.155423      0.529699
  H      -2.944465      0.352134      0.354996
  H      -2.687762      0.740095     -1.347471
  H      -3.157022     -0.893275     -0.875542
  H      -0.728103     -0.804412     -1.410866
  H      -0.997311     -1.212566      0.289115
  H      -0.380903      1.585626     -0.770563
  H      -0.563045      1.151926      0.937077
  H       1.601669     -1.800093      0.438682
17
Coordinates from ORCA-job scan E -27.292608191950
  C      -2.563013     -0.028579     -0.589286
  C      -1.098506     -0.422849     -0.458119
  C      -0.244839      0.783192     -0.040340
  C       1.202566      0.439281      0.024596
  C       1.964190     -0.795728      0.282911
  O       3.359702      0.802756      0.936558
  O       1.848856     -0.247581     -0.995993
  O       3.087415     -0.539235      1.027700
  H       2.057121      1.151208      0.531290
  H      -2.944350      0.352647      0.355159
  H      -2.687585      0.740900     -1.347232
  H      -3.157591     -0.892360     -0.875667
  H      -0.728668     -0.804528     -1.411145
  H      -0.997949     -1.212967      0.288756
  H      -0.380280      1.585188     -0.770285
  H      -0.562506      1.151159      0.937262
  H       1.602730     -1.800862      0.438602
17
Coordinates from ORCA-job scan E -27.292613018340
  C      -2.563143     -0.028597     -0.588751
  C      -1.098632     -0.422894     -0.457881
  C      -0.244825      0.783448     -0.041023
  C       1.202393      0.439107      0.024050
  C       1.964840     -0.796163      0.282435
  O       3.356397      0.801884      0.943359
  O       1.848877     -0.247225     -0.996524
  O       3.088667     -0.541627      1.026841
  H       2.058232      1.154973      0.528056
  H      -2.944165      0.353070      0.355641
  H      -2.687925      0.740533     -1.347017
  H      -3.157820     -0.892501     -0.874547
  H      -0.729107     -0.805071     -1.410832
  H      -0.997816     -1.212600      0.289396
  H      -0.380232      1.584954     -0.771524
  H      -0.562411      1.152016      0.936376
  H       1.603964     -1.801664      0.436714
17
Coordinates from ORCA-job scan E -27.292617418290
  C      -2.563344     -0.028639     -0.588586
  C      -1.098835     -0.422960     -0.457833
  C      -0.244959      0.783660     -0.041741
  C       1.202062      0.438844      0.023693
  C       1.964957     -0.795863      0.282296
  O       3.357461      0.801863      0.943017
  O       1.849679     -0.246352     -0.996810
  O       3.088922     -0.542029      1.026448
  H       2.057709      1.154089      0.531968
  H      -2.944183      0.353415      0.355721
  H      -2.688243      0.740179     -1.347150
  H      -3.158076     -0.892658     -0.873921
  H      -0.729489     -0.805595     -1.410671
  H      -0.997849     -1.212275      0.289826
  H      -0.380167      1.584685     -0.772799
  H      -0.562640      1.152806      0.935405
  H       1.604291     -1.801527      0.435905
17
Coordinates from ORCA-job scan E -27.292619402170
  C      -2.563590     -0.028583     -0.587977
  C      -1.099095     -0.423114     -0.457645
  C      -0.244804      0.783803     -0.042904
  C       1.201869      0.438150      0.022791
  C       1.965460     -0.795653      0.281487
  O       3.356908      0.802177      0.946312
  O       1.850895     -0.245016     -0.997712
  O       3.088605     -0.542547      1.026517
  H       2.057184      1.153401      0.534322
  H      -2.943933      0.354141      0.356253
  H      -2.688703      0.739752     -1.346991
  H      -3.158585     -0.892703     -0.872480
  H      -0.730260     -0.806534     -1.410364
  H      -0.997824     -1.211826      0.290596
  H      -0.379692      1.584039     -0.774835
  H      -0.562401      1.153946      0.933874
  H       1.605258     -1.801789      0.433525
17
Coordinates from ORCA-job scan E -27.292342743550
  C      -2.563722     -0.028029     -0.587934
  C      -1.099403     -0.423283     -0.457804
  C      -0.244512      0.783129     -0.042831
  C       1.202002      0.436776      0.022675
  C       1.965497     -0.796084      0.281148
  O       3.352148      0.806861      0.945501
  O       1.850960     -0.246023     -0.998096
  O       3.087884     -0.539649      1.026567
  H       2.061833      1.149169      0.535938
  H      -2.943815      0.354645      0.356417
  H      -2.688526      0.740551     -1.346751
  H      -3.159146     -0.891797     -0.872605
  H      -0.730819     -0.806645     -1.410643
  H      -0.998451     -1.212226      0.290237
  H      -0.379075      1.583607     -0.774557
  H      -0.561864      1.153183      0.934061
  H       1.606303     -1.802541      0.433445
17
Coordinates from ORCA-job scan E -27.292347895990
  C      -2.563868     -0.028046     -0.587393
  C      -1.099545     -0.423339     -0.457576
  C      -0.244495      0.783364     -0.043528
  C       1.201836      0.436597      0.022083
  C       1.966149     -0.796511      0.280680
  O       3.348780      0.805913      0.952459
  O       1.851000     -0.245693     -0.998648
  O       3.089155     -0.542035      1.025694
  H       2.063077      1.153098      0.532621
  H      -2.943633      0.355066      0.356911
  H      -2.688885      0.740188     -1.346524
  H      -3.159401     -0.891931     -0.871476
  H      -0.731288     -0.807197     -1.410344
  H      -0.998333     -1.211874      0.290861
  H      -0.379039      1.583360     -0.775795
  H      -0.561748      1.154010      0.933169
  H       1.607532     -1.803327      0.431572
17
Coordinates from ORCA-job scan E -27.292352618980
  C      -2.564089     -0.028087     -0.587224
  C      -1.099771     -0.423415     -0.457542
  C      -0.244637      0.783559     -0.044272
  C       1.201494      0.436324      0.021674
  C       1.966259     -0.796188      0.280562
  O       3.349920      0.805904      0.952188
  O       1.851832     -0.244829     -0.998948
  O       3.089458     -0.542439      1.025251
  H       2.062604      1.152237      0.536615
  H      -2.943657      0.355415      0.356998
  H      -2.689228      0.739837     -1.346651
  H      -3.159687     -0.892080     -0.870840
  H      -0.731708     -0.807735     -1.410199
  H      -0.998383     -1.211558      0.291275
  H      -0.378992      1.583078     -0.777089
  H      -0.561970      1.154779      0.932177
  H       1.607849     -1.803161      0.430793
17
Coordinates from ORCA-job scan E -27.292354737580
  C      -2.564354     -0.028020     -0.586605
  C      -1.100054     -0.423583     -0.457381
  C      -0.244479      0.783667     -0.045464
  C       1.201295      0.435598      0.020689
  C       1.966763     -0.795951      0.279785
  O       3.349390      0.806244      0.955600
  O       1.853078     -0.243530     -0.999879
  O       3.089163     -0.542919      1.025304
  H       2.062147      1.151583      0.538973
  H      -2.943399      0.356141      0.357554
  H      -2.689710      0.739436     -1.346465
  H      -3.160234     -0.892097     -0.869392
  H      -0.732530     -0.808680     -1.409931
  H      -0.998376     -1.211135      0.292003
  H      -0.378534      1.582416     -0.779127
  H      -0.561694      1.155861      0.930635
  H       1.608820     -1.803388      0.428470
17
Coordinates from ORCA-job scan E -27.292098916150
  C      -2.564482     -0.027472     -0.586561
  C      -1.100357     -0.423751     -0.457539
  C      -0.244189      0.783000     -0.045390
  C       1.201427      0.434239      0.020572
  C       1.966793     -0.796371      0.279443
  O       3.344629      0.810903      0.954761
  O       1.853143     -0.244523     -1.000265
  O       3.088439     -0.540027      1.025349
  H       2.066798      1.147332      0.540617
  H      -2.943279      0.356636      0.357720
  H      -2.689535      0.740228     -1.346225
  H      -3.160786     -0.891202     -0.869515
  H      -0.733083     -0.808787     -1.410210
  H      -0.998992     -1.211533      0.291645
  H      -0.377924      1.581990     -0.778848
  H      -0.561159      1.155104      0.930823
  H       1.609848     -1.804124      0.428391
17
Coordinates from ORCA-job scan E -27.292104413710
  C      -2.564644     -0.027489     -0.586016
  C      -1.100516     -0.423816     -0.457323
  C      -0.244172      0.783211     -0.046097
  C       1.201268      0.434057      0.019940
  C       1.967443     -0.796787      0.278989
  O       3.341215      0.809873      0.961833
  O       1.853200     -0.244223     -1.000833
  O       3.089726     -0.542398      1.024468
  H       2.068183      1.151427      0.537236
  H      -2.943102      0.357052      0.358223
  H      -2.689912      0.739872     -1.345986
  H      -3.161067     -0.891328     -0.868385
  H      -0.733582     -0.809344     -1.409929
  H      -0.998890     -1.211199      0.292247
  H      -0.377901      1.581731     -0.780077
  H      -0.561026      1.155894      0.929931
  H       1.611070     -1.804889      0.426548
17
Coordinates from ORCA-job scan E -27.292109468670
  C      -2.564889     -0.027528     -0.585845
  C      -1.100767     -0.423903     -0.457304
  C      -0.244323      0.783388     -0.046868
  C       1.200914      0.433774      0.019476
  C       1.967548     -0.796440      0.278894
  O       3.342438      0.809872      0.961646
  O       1.854060     -0.243371     -1.001148
  O       3.090082     -0.542803      1.023973
  H       2.067774      1.150602      0.541302
  H      -2.943134      0.357404      0.358317
  H      -2.690281      0.739524     -1.346108
  H      -3.161386     -0.891469     -0.867741
  H      -0.734042     -0.809895     -1.409804
  H      -0.998961     -1.210895      0.292643
  H      -0.377876      1.581437     -0.781389
  H      -0.561239      1.156639      0.928919
  H       1.611376     -1.804694      0.425804
17
Coordinates from ORCA-job scan E -27.292111725640
  C      -2.565174     -0.027450     -0.585217
  C      -1.101076     -0.424087     -0.457174
  C      -0.244164      0.783457     -0.048088
  C       1.200706      0.433016      0.018403
  C       1.968052     -0.796174      0.278153
  O       3.341940      0.810236      0.965175
  O       1.855330     -0.242118     -1.002108
  O       3.089812     -0.543238      1.024011
  H       2.067404      1.149993      0.543659
  H      -2.942869      0.358128      0.358897
  H      -2.690789      0.739154     -1.345893
  H      -3.161973     -0.891457     -0.866289
  H      -0.734919     -0.810844     -1.409581
  H      -0.998974     -1.210503      0.293321
  H      -0.377439      1.580758     -0.783422
  H      -0.560927      1.157655      0.927370
  H       1.612351     -1.804883      0.423551
17
Coordinates from ORCA-job scan E -27.291878298520
  C      -2.565298     -0.026908     -0.585172
  C      -1.101374     -0.424252     -0.457332
  C      -0.243875      0.782796     -0.048014
  C       1.200838      0.431673      0.018287
  C       1.968074     -0.796584      0.277809
  O       3.337182      0.814872      0.964306
  O       1.855396     -0.243096     -1.002496
  O       3.089085     -0.540352      1.024050
  H       2.072055      1.145719      0.545334
  H      -2.942746      0.358613      0.359064
  H      -2.690615      0.739939     -1.345652
  H      -3.162517     -0.890572     -0.866411
  H      -0.735464     -0.810946     -1.409859
  H      -0.999579     -1.210899      0.292964
  H      -0.376836      1.580339     -0.783144
  H      -0.560394      1.156903      0.927558
  H       1.613359     -1.805601      0.423474
17
Coordinates from ORCA-job scan E -27.291884161080
  C      -2.565478     -0.026927     -0.584629
  C      -1.101551     -0.424328     -0.457130
  C      -0.243859      0.782982     -0.048725
  C       1.200684      0.431490      0.017619
  C       1.968721     -0.796987      0.277377
  O       3.333744      0.813753      0.971444
  O       1.855468     -0.242828     -1.003074
  O       3.090386     -0.542701      1.023167
  H       2.073587      1.149982      0.541909
  H      -2.942578      0.359020      0.359571
  H      -2.691010      0.739591     -1.345404
  H      -3.162824     -0.890689     -0.865289
  H      -0.735991     -0.811504     -1.409598
  H      -0.999496     -1.210587      0.293539
  H      -0.376829      1.580070     -0.784356
  H      -0.560248      1.157651      0.926672
  H       1.614569     -1.806344      0.421674
17
Coordinates from ORCA-job scan E -27.291889559340
  C      -2.565748     -0.026965     -0.584457
  C      -1.101830     -0.424427     -0.457129
  C      -0.244022      0.783138     -0.049523
  C       1.200316      0.431198      0.017098
  C       1.968821     -0.796614      0.277306
  O       3.335057      0.813754      0.971352
  O       1.856353     -0.241993     -1.003403
  O       3.090799     -0.543105      1.022619
  H       2.073261      1.149209      0.546044
  H      -2.942620      0.359373      0.359672
  H      -2.691409      0.739248     -1.345519
  H      -3.163180     -0.890823     -0.864639
  H      -0.736496     -0.812067     -1.409496
  H      -0.999590     -1.210296      0.293913
  H      -0.376830      1.579762     -0.785683
  H      -0.560454      1.158367      0.925642
  H       1.614866     -1.806117      0.420972
17
Coordinates from ORCA-job scan E -27.291891960180
  C      -2.566057     -0.026875     -0.583821
  C      -1.102168     -0.424628     -0.457034
  C      -0.243864      0.783165     -0.050770
  C       1.200098      0.430410      0.015935
  C       1.969324     -0.796318      0.276607
  O       3.334606      0.814139      0.974998
  O       1.857643     -0.240793     -1.004392
  O       3.090557     -0.543490      1.022641
  H       2.073000      1.148656      0.548393
  H      -2.942350      0.360091      0.360276
  H      -2.691945      0.738910     -1.345275
  H      -3.163811     -0.890779     -0.863188
  H      -0.737431     -0.813017     -1.409324
  H      -0.999626     -1.209941      0.294533
  H      -0.376420      1.579069     -0.787706
  H      -0.560105      1.159308      0.924090
  H       1.615841     -1.806265      0.418804
17
Coordinates from ORCA-job scan E -27.291685006550
  C      -2.566072     -0.026408     -0.583813
  C      -1.102354     -0.424836     -0.457173
  C      -0.243514      0.782465     -0.050579
  C       1.200295      0.429062      0.015991
  C       1.969169     -0.796900      0.276401
  O       3.329531      0.818103      0.973553
  O       1.857545     -0.241619     -1.004431
  O       3.089611     -0.541134      1.022553
  H       2.077901      1.146291      0.549854
  H      -2.942175      0.360448      0.360405
  H      -2.691644      0.739652     -1.345043
  H      -3.164209     -0.889972     -0.863416
  H      -0.737808     -0.813108     -1.409584
  H      -1.000137     -1.210411      0.294164
  H      -0.375740      1.578640     -0.787282
  H      -0.559570      1.158464      0.924396
  H       1.616464     -1.807095      0.418772
17
Coordinates from ORCA-job scan E -27.291690987300
  C      -2.566499     -0.026336     -0.583592
  C      -1.102811     -0.424905     -0.457156
  C      -0.243753      0.782583     -0.051316
  C       1.199916      0.428748      0.015415
  C       1.969803     -0.796830      0.276289
  O       3.329378      0.818039      0.976385
  O       1.858022     -0.241260     -1.004898
  O       3.090998     -0.541931      1.021825
  H       2.078422      1.146741      0.551096
  H      -2.942333      0.360912      0.360571
  H      -2.692162      0.739447     -1.345086
  H      -3.164781     -0.889948     -0.862732
  H      -0.738535     -0.813626     -1.409490
  H      -1.000459     -1.210141      0.294518
  H      -0.375889      1.578359     -0.788478
  H      -0.559781      1.159094      0.923473
  H       1.617758     -1.807303      0.417943
17
Coordinates from ORCA-job scan E -27.291696461910
  C      -2.567141     -0.026189     -0.582819
  C      -1.103509     -0.425141     -0.457042
  C      -0.243842      0.782713     -0.053023
  C       1.199248      0.427799      0.013909
  C       1.970861     -0.796555      0.275681
  O       3.328201      0.818015      0.982907
  O       1.859437     -0.240001     -1.006154
  O       3.092329     -0.543372      1.020966
  H       2.078944      1.147583      0.553316
  H      -2.942236      0.361932      0.361276
  H      -2.693089      0.738989     -1.344874
  H      -3.165826     -0.889882     -0.860854
  H      -0.739986     -0.814894     -1.409242
  H      -1.000751     -1.209594      0.295377
  H      -0.375611      1.577485     -0.791279
  H      -0.559683      1.160479      0.921323
  H       1.619947     -1.807725      0.415299
17
Coordinates from ORCA-job scan E -27.291697491830
  C      -2.567272     -0.026107     -0.582352
  C      -1.103662     -0.425260     -0.456943
  C      -0.243622      0.782683     -0.053738
  C       1.199226      0.427262      0.013217
  C       1.971255     -0.796447      0.275238
  O       3.327121      0.818122      0.985562
  O       1.860390     -0.239275     -1.006751
  O       3.091953     -0.543687      1.021205
  H       2.078597      1.147681      0.553839
  H      -2.941984      0.362382      0.361739
  H      -2.693360      0.738830     -1.344623
  H      -3.166181     -0.889806     -0.859896
  H      -0.740540     -0.815465     -1.409111
  H      -1.000713     -1.209390      0.295778
  H      -0.375202      1.577016     -0.792489
  H      -0.559333      1.161026      0.920415
  H       1.620620     -1.807922      0.413678
17
Coordinates from ORCA-job scan E -27.291518292020
  C      -2.567285     -0.025646     -0.582346
  C      -1.103845     -0.425466     -0.457083
  C      -0.243277      0.781990     -0.053544
  C       1.199420      0.425928      0.013278
  C       1.971096     -0.797022      0.275034
  O       3.322054      0.822057      0.984072
  O       1.860293     -0.240086     -1.006780
  O       3.091016     -0.541343      1.021108
  H       2.083497      1.145309      0.555328
  H      -2.941811      0.362730      0.361867
  H      -2.693060      0.739567     -1.344391
  H      -3.166572     -0.889007     -0.860128
  H      -0.740911     -0.815550     -1.409371
  H      -1.001218     -1.209858      0.295409
  H      -0.374530      1.576595     -0.792061
  H      -0.558805      1.160185      0.920725
  H       1.621231     -1.808740      0.413651
17
Coordinates from ORCA-job scan E -27.291523550540
  C      -2.567663     -0.025623     -0.582092
  C      -1.104239     -0.425549     -0.457082
  C      -0.243468      0.782081     -0.054288
  C       1.199141      0.425688      0.012611
  C       1.971536     -0.796897      0.274828
  O       3.322003      0.821969      0.986989
  O       1.860815     -0.239777     -1.007330
  O       3.092088     -0.542035      1.020479
  H       2.084198      1.145779      0.556497
  H      -2.941902      0.363115      0.362084
  H      -2.693569      0.739329     -1.344378
  H      -3.167084     -0.889037     -0.859414
  H      -0.741590     -0.816044     -1.409313
  H      -1.001438     -1.209625      0.295716
  H      -0.374704      1.576329     -0.793210
  H      -0.558919      1.160738      0.919830
  H       1.622087     -1.808797      0.412840
17
Coordinates from ORCA-job scan E -27.291528610710
  C      -2.568234     -0.025564     -0.581277
  C      -1.104846     -0.425807     -0.457011
  C      -0.243518      0.782188     -0.056034
  C       1.198602      0.424921      0.010911
  C       1.972281     -0.796516      0.274125
  O       3.320979      0.821827      0.993792
  O       1.862250     -0.238636     -1.008720
  O       3.093098     -0.543412      1.019658
  H       2.085121      1.146754      0.558574
  H      -2.941703      0.364004      0.362859
  H      -2.694499      0.738803     -1.344093
  H      -3.168036     -0.889071     -0.857489
  H      -0.742980     -0.817282     -1.409140
  H      -1.001576     -1.209132      0.296490
  H      -0.374569      1.575522     -0.795927
  H      -0.558664      1.161985      0.917725
  H       1.623587     -1.808942      0.410326
17
Coordinates from ORCA-job scan E -27.291529439900
  C      -2.568325     -0.025502     -0.580869
  C      -1.104953     -0.425912     -0.456943
  C      -0.243314      0.782158     -0.056649
  C       1.198605      0.424494      0.010265
  C       1.972574     -0.796404      0.273772
  O       3.319995      0.821878      0.996118
  O       1.863061     -0.238045     -1.009241
  O       3.092732     -0.543697      1.019873
  H       2.084869      1.146896      0.558896
  H      -2.941456      0.364363      0.363275
  H      -2.694726      0.738671     -1.343855
  H      -3.168318     -0.889013     -0.856667
  H      -0.743442     -0.817755     -1.409056
  H      -1.001509     -1.208975      0.296799
  H      -0.374260      1.575148     -0.796923
  H      -0.558311      1.162405      0.916974
  H       1.624071     -1.809067      0.408998
17
Coordinates from ORCA-job scan E -27.291377714760
  C      -2.568338     -0.025046     -0.580864
  C      -1.105133     -0.426116     -0.457082
  C      -0.242973      0.781471     -0.056452
  C       1.198795      0.423174      0.010332
  C       1.972412     -0.796973      0.273571
  O       3.314940      0.825789      0.994580
  O       1.862965     -0.238842     -1.009259
  O       3.091806     -0.541365      1.019767
  H       2.089766      1.144517      0.560416
  H      -2.941285      0.364702      0.363401
  H      -2.694428      0.739403     -1.343625
  H      -3.168703     -0.888221     -0.856903
  H      -0.743807     -0.817834     -1.409316
  H      -1.002009     -1.209442      0.296429
  H      -0.373595      1.574733     -0.796491
  H      -0.557791      1.161567      0.917288
  H       1.624670     -1.809874      0.408976
17
Coordinates from ORCA-job scan E -27.291383458270
  C      -2.568747     -0.025032     -0.580648
  C      -1.105557     -0.426200     -0.457104
  C      -0.243203      0.781556     -0.057175
  C       1.198488      0.422975      0.009664
  C       1.972848     -0.796826      0.273430
  O       3.315043      0.825620      0.997413
  O       1.863430     -0.238575     -1.009783
  O       3.092984     -0.542058      1.019091
  H       2.090644      1.145084      0.561610
  H      -2.941424      0.365059      0.363582
  H      -2.694964      0.739169     -1.343637
  H      -3.169239     -0.888258     -0.856249
  H      -0.744500     -0.818305     -1.409283
  H      -1.002268     -1.209229      0.296694
  H      -0.373836      1.574488     -0.797580
  H      -0.557943      1.162076      0.916431
  H       1.625539     -1.809901      0.408311
17
Coordinates from ORCA-job scan E -27.291388839160
  C      -2.569355     -0.024992     -0.579923
  C      -1.106199     -0.426464     -0.457098
  C      -0.243327      0.781626     -0.058831
  C       1.197893      0.422295      0.007977
  C       1.973519     -0.796392      0.272894
  O       3.314388      0.825332      1.003889
  O       1.864688     -0.237582     -1.011092
  O       3.094126     -0.543396      1.018189
  H       2.091973      1.146305      0.563644
  H      -2.941301      0.365849      0.364282
  H      -2.695914      0.738683     -1.343385
  H      -3.170204     -0.888296     -0.854506
  H      -0.745881     -0.819450     -1.409196
  H      -1.002468     -1.208817      0.297328
  H      -0.373844      1.573742     -0.800086
  H      -0.557760      1.163150      0.914470
  H       1.626959     -1.809951      0.406212
17
Coordinates from ORCA-job scan E -27.291389676680
  C      -2.569447     -0.024932     -0.579547
  C      -1.106307     -0.426573     -0.457068
  C      -0.243139      0.781572     -0.059400
  C       1.197885      0.421882      0.007335
  C       1.973772     -0.796261      0.272618
  O       3.313525      0.825367      1.006051
  O       1.865425     -0.237083     -1.011578
  O       3.093777     -0.543645      1.018388
  H       2.091852      1.146536      0.563897
  H      -2.941065      0.366154      0.364683
  H      -2.696139      0.738587     -1.343139
  H      -3.170481     -0.888227     -0.853767
  H      -0.746331     -0.819867     -1.409167
  H      -1.002409     -1.208708      0.297552
  H      -0.373580      1.573399     -0.800973
  H      -0.557423      1.163472      0.913796
  H       1.627379     -1.810031      0.405087
17
Coordinates from ORCA-job scan E -27.291267148100
  C      -2.569459     -0.024482     -0.579544
  C      -1.106486     -0.426774     -0.457207
  C      -0.242804      0.780891     -0.059198
  C       1.198071      0.420576      0.007407
  C       1.973608     -0.796824      0.272420
  O       3.308484      0.829256      1.004467
  O       1.865332     -0.237866     -1.011585
  O       3.092863     -0.541323      1.018273
  H       2.096745      1.144146      0.565447
  H      -2.940897      0.366484      0.364806
  H      -2.695842      0.739315     -1.342911
  H      -3.170860     -0.887443     -0.854008
  H      -0.746691     -0.819940     -1.409428
  H      -1.002904     -1.209174      0.297182
  H      -0.372923      1.572991     -0.800538
  H      -0.556910      1.162638      0.914114
  H       1.627967     -1.810827      0.405072
17
Coordinates from ORCA-job scan E -27.291273471930
  C      -2.569899     -0.024478     -0.579332
  C      -1.106938     -0.426870     -0.457255
  C      -0.243049      0.780952     -0.059935
  C       1.197761      0.420386      0.006693
  C       1.974022     -0.796641      0.272294
  O       3.308735      0.829039      1.007331
  O       1.865807     -0.237629     -1.012131
  O       3.094035     -0.541983      1.017608
  H       2.097811      1.144806      0.566697
  H      -2.941055      0.366818      0.364992
  H      -2.696417      0.739081     -1.342915
  H      -3.171432     -0.887485     -0.853365
  H      -0.747424     -0.820406     -1.409430
  H      -1.003185     -1.208988      0.297405
  H      -0.373198      1.572739     -0.801617
  H      -0.557066      1.163103      0.913255
  H       1.628786     -1.810801      0.404473
17
Coordinates from ORCA-job scan E -27.291279603680
  C      -2.570578     -0.024453     -0.578613
  C      -1.107655     -0.427170     -0.457319
  C      -0.243219      0.780961     -0.061644
  C       1.197114      0.419704      0.004869
  C       1.974659     -0.796114      0.271827
  O       3.308379      0.828636      1.013977
  O       1.867068     -0.236710     -1.013492
  O       3.095232     -0.543299      1.016674
  H       2.099600      1.146325      0.568857
  H      -2.940964      0.367563      0.365712
  H      -2.697458      0.738609     -1.342636
  H      -3.172487     -0.887518     -0.851635
  H      -0.748916     -0.821554     -1.409438
  H      -1.003437     -1.208639      0.297934
  H      -0.373301      1.571969     -0.804127
  H      -0.556887      1.164066      0.911272
  H       1.630143     -1.810735      0.402549
17
Coordinates from ORCA-job scan E -27.291280468320
  C      -2.570674     -0.024389     -0.578258
  C      -1.107770     -0.427283     -0.457322
  C      -0.243039      0.780880     -0.062179
  C       1.197100      0.419289      0.004226
  C       1.974897     -0.795971      0.271619
  O       3.307590      0.828664      1.016002
  O       1.867762     -0.236285     -1.013946
  O       3.094892     -0.543513      1.016880
  H       2.099563      1.146639      0.569048
  H      -2.940736      0.367831      0.366107
  H      -2.697682      0.738553     -1.342378
  H      -3.172769     -0.887430     -0.850958
  H      -0.749368     -0.821929     -1.409460
  H      -1.003390     -1.208573      0.298086
  H      -0.373067      1.571645     -0.804931
  H      -0.556549      1.164302      0.910657
  H       1.630533     -1.810786      0.401574
17
Coordinates from ORCA-job scan E -27.291189483520
  C      -2.570685     -0.023944     -0.578258
  C      -1.107947     -0.427482     -0.457461
  C      -0.242708      0.780206     -0.061975
  C       1.197281      0.417997      0.004305
  C       1.974731     -0.796527      0.271423
  O       3.302566      0.832532      1.014371
  O       1.867670     -0.237054     -1.013942
  O       3.093991     -0.541201      1.016755
  H       2.104452      1.144234      0.570629
  H      -2.940571      0.368152      0.366227
  H      -2.697387      0.739275     -1.342151
  H      -3.173143     -0.886655     -0.851204
  H      -0.749722     -0.821997     -1.409720
  H      -1.003881     -1.209037      0.297716
  H      -0.372418      1.571243     -0.804492
  H      -0.556046      1.163472      0.910979
  H       1.631111     -1.811571      0.401566
17
Coordinates from ORCA-job scan E -27.291196380990
  C      -2.571158     -0.023949     -0.578058
  C      -1.108430     -0.427588     -0.457532
  C      -0.242973      0.780245     -0.062718
  C       1.196963      0.417818      0.003558
  C       1.975135     -0.796314      0.271321
  O       3.302966      0.832258      1.017226
  O       1.868149     -0.236840     -1.014496
  O       3.095171     -0.541832      1.016108
  H       2.105694      1.144993      0.571938
  H      -2.940756      0.368465      0.366408
  H      -2.697999      0.739043     -1.342155
  H      -3.173752     -0.886700     -0.850580
  H      -0.750492     -0.822458     -1.409752
  H      -1.004190     -1.208874      0.297900
  H      -0.372730      1.570984     -0.805556
  H      -0.556210      1.163896      0.910124
  H       1.631904     -1.811505      0.401031
17
Coordinates from ORCA-job scan E -27.291203375060
  C      -2.571923     -0.023939     -0.577353
  C      -1.109239     -0.427925     -0.457664
  C      -0.243203      0.780192     -0.064481
  C       1.196251      0.417135      0.001607
  C       1.975758     -0.795697      0.270932
  O       3.302963      0.831713      1.024006
  O       1.869410     -0.235981     -1.015895
  O       3.096447     -0.543139      1.015153
  H       2.107987      1.146860      0.574275
  H      -2.940716      0.369173      0.367136
  H      -2.699139      0.738580     -1.341864
  H      -3.174913     -0.886731     -0.848872
  H      -0.752109     -0.823617     -1.409850
  H      -1.004518     -1.208588      0.298332
  H      -0.372940      1.570185     -0.808077
  H      -0.556051      1.164754      0.908117
  H       1.633228     -1.811332      0.399266
17
Coordinates from ORCA-job scan E -27.291204277120
  C      -2.572026     -0.023874     -0.577018
  C      -1.109363     -0.428046     -0.457698
  C      -0.243033      0.780084     -0.064990
  C       1.196226      0.416714      0.000963
  C       1.975983     -0.795538      0.270784
  O       3.302265      0.831726      1.025908
  O       1.870066     -0.235616     -1.016321
  O       3.096110     -0.543326      1.015367
  H       2.108051      1.147274      0.574435
  H      -2.940497      0.369407      0.367524
  H      -2.699367      0.738556     -1.341596
  H      -3.175204     -0.886628     -0.848250
  H      -0.752567     -0.823960     -1.409917
  H      -1.004485     -1.208563      0.298420
  H      -0.372733      1.569872     -0.808812
  H      -0.555718      1.164914      0.907551
  H       1.633586     -1.811352      0.398420
17
Coordinates from ORCA-job scan E -27.291147498120
  C      -2.572037     -0.023434     -0.577020
  C      -1.109539     -0.428242     -0.457837
  C      -0.242708      0.779416     -0.064782
  C       1.196402      0.415437      0.001047
  C       1.975814     -0.796087      0.270591
  O       3.297262      0.835574      1.024231
  O       1.869976     -0.236371     -1.016307
  O       3.095224     -0.541025      1.015233
  H       2.112935      1.144850      0.576046
  H      -2.940336      0.369719      0.367642
  H      -2.699074      0.739273     -1.341372
  H      -3.175573     -0.885861     -0.848501
  H      -0.752916     -0.824021     -1.410177
  H      -1.004973     -1.209025      0.298049
  H      -0.372093      1.569477     -0.808370
  H      -0.555224      1.164088      0.907876
  H       1.634153     -1.812126      0.398418
17
Coordinates from ORCA-job scan E -27.291155042430
  C      -2.572544     -0.023453     -0.576833
  C      -1.110054     -0.428360     -0.457931
  C      -0.242994      0.779433     -0.065531
  C       1.196074      0.415273      0.000271
  C       1.976204     -0.795840      0.270508
  O       3.297842      0.835237      1.027059
  O       1.870457     -0.236175     -1.016869
  O       3.096397     -0.541629      1.014614
  H       2.114377      1.145721      0.577433
  H      -2.940550      0.370007      0.367816
  H      -2.699724      0.739038     -1.341378
  H      -3.176219     -0.885914     -0.847898
  H      -0.753723     -0.824479     -1.410238
  H      -1.005310     -1.208887      0.298196
  H      -0.372442      1.569210     -0.809419
  H      -0.555401      1.164472      0.907024
  H       1.634904     -1.812013      0.397944
17
Coordinates from ORCA-job scan E -27.291163169850
  C      -2.573417     -0.023471     -0.576146
  C      -1.110975     -0.428744     -0.458137
  C      -0.243305      0.779316     -0.067366
  C       1.195275      0.414594     -0.001820
  C       1.976804     -0.795108      0.270193
  O       3.298317      0.834501      1.033996
  O       1.871718     -0.235355     -1.018317
  O       3.097751     -0.542954      1.013641
  H       2.117307      1.148025      0.580047
  H      -2.940580      0.370672      0.368545
  H      -2.700988      0.738565     -1.341084
  H      -3.177507     -0.885957     -0.846205
  H      -0.755487     -0.825666     -1.410429
  H      -1.005730     -1.208664      0.298533
  H      -0.372782      1.568367     -0.811980
  H      -0.555285      1.165229      0.904969
  H       1.636177     -1.811707      0.396328
17
Coordinates from ORCA-job scan E -27.291164119340
  C      -2.573530     -0.023406     -0.575832
  C      -1.111113     -0.428874     -0.458201
  C      -0.243150      0.779181     -0.067849
  C       1.195233      0.414170     -0.002463
  C       1.977015     -0.794928      0.270102
  O       3.297741      0.834484      1.035764
  O       1.872332     -0.235039     -1.018715
  O       3.097413     -0.543127      1.013867
  H       2.117500      1.148562      0.580201
  H      -2.940375      0.370872      0.368923
  H      -2.701222      0.738567     -1.340811
  H      -3.177809     -0.885845     -0.845638
  H      -0.755953     -0.825981     -1.410539
  H      -1.005717     -1.208679      0.298560
  H      -0.372606      1.568063     -0.812652
  H      -0.554964      1.165317      0.904449
  H       1.636498     -1.811694      0.395602
17
Coordinates from ORCA-job scan E -27.291164909090
  C      -2.573624     -0.023217     -0.575351
  C      -1.111258     -0.429022     -0.458294
  C      -0.242798      0.778928     -0.068456
  C       1.195357      0.413392     -0.003332
  C       1.977490     -0.794812      0.270029
  O       3.296338      0.834760      1.037888
  O       1.873399     -0.234722     -1.019219
  O       3.096741     -0.543092      1.014547
  H       2.117035      1.148982      0.580003
  H      -2.939993      0.371198      0.369529
  H      -2.701461      0.738732     -1.340327
  H      -3.178212     -0.885537     -0.844857
  H      -0.756595     -0.826338     -1.410728
  H      -1.005677     -1.208725      0.298537
  H      -0.372226      1.567625     -0.813468
  H      -0.554345      1.165319      0.903814
  H       1.637122     -1.811829      0.394453
17
Coordinates from ORCA-job scan E -27.291147306000
  C      -2.573636     -0.022784     -0.575357
  C      -1.111432     -0.429215     -0.458432
  C      -0.242480      0.778268     -0.068245
  C       1.195527      0.412132     -0.003240
  C       1.977318     -0.795352      0.269840
  O       3.291366      0.838590      1.036156
  O       1.873312     -0.235460     -1.019193
  O       3.095871     -0.540801      1.014400
  H       2.121908      1.146531      0.581655
  H      -2.939836      0.371500      0.369643
  H      -2.701171      0.739443     -1.340107
  H      -3.178574     -0.884779     -0.845113
  H      -0.756938     -0.826392     -1.410987
  H      -1.006161     -1.209185      0.298166
  H      -0.371596      1.567239     -0.813021
  H      -0.553863      1.164498      0.904143
  H       1.637678     -1.812589      0.394461
17
Coordinates from ORCA-job scan E -27.291155543970
  C      -2.574232     -0.022816     -0.575279
  C      -1.112032     -0.429306     -0.458547
  C      -0.242901      0.778303     -0.068940
  C       1.195142      0.412078     -0.003934
  C       1.977730     -0.795139      0.269817
  O       3.292401      0.838230      1.038734
  O       1.873643     -0.235448     -1.019699
  O       3.097478     -0.541337      1.013604
  H       2.123616      1.147395      0.583335
  H      -2.940205      0.371764      0.369687
  H      -2.701877      0.739198     -1.340225
  H      -3.179275     -0.884856     -0.844661
  H      -0.757760     -0.826798     -1.411054
  H      -1.006623     -1.209043      0.298279
  H      -0.372102      1.567030     -0.813958
  H      -0.554180      1.164847      0.903363
  H       1.638470     -1.812459      0.394248
17
Coordinates from ORCA-job scan E -27.291163005000
  C      -2.575108     -0.022896     -0.574918
  C      -1.112945     -0.429622     -0.458790
  C      -0.243424      0.778206     -0.070371
  C       1.194268      0.411741     -0.005555
  C       1.978121     -0.794500      0.269690
  O       3.293897      0.837464      1.044074
  O       1.874276     -0.235070     -1.020788
  O       3.099280     -0.542394      1.012362
  H       2.126912      1.149613      0.586105
  H      -2.940494      0.372204      0.370060
  H      -2.703030      0.738768     -1.340174
  H      -3.180427     -0.884969     -0.843560
  H      -0.759249     -0.827703     -1.411271
  H      -1.007177     -1.208913      0.298440
  H      -0.372668      1.566426     -0.815870
  H      -0.554346      1.165356      0.901802
  H       1.639408     -1.812069      0.393532
17
Coordinates from ORCA-job scan E -27.291164036230
  C      -2.575245     -0.022876     -0.574684
  C      -1.113101     -0.429763     -0.458895
  C      -0.243352      0.778067     -0.070785
  C       1.194147      0.411417     -0.006124
  C       1.978221     -0.794266      0.269670
  O       3.293781      0.837316      1.045560
  O       1.874686     -0.234822     -1.021111
  O       3.099028     -0.542615      1.012454
  H       2.127522      1.150379      0.586365
  H      -2.940361      0.372301      0.370364
  H      -2.703279      0.738762     -1.339946
  H      -3.180718     -0.884904     -0.843140
  H      -0.759681     -0.827959     -1.411432
  H      -1.007193     -1.208983      0.298381
  H      -0.372589      1.566172     -0.816419
  H      -0.554141      1.165370      0.901373
  H       1.639570     -1.811952      0.393136
17
Coordinates from ORCA-job scan E -27.291164780330
  C      -2.575347     -0.022763     -0.574325
  C      -1.113242     -0.429921     -0.459047
  C      -0.243114      0.777822     -0.071252
  C       1.194176      0.410813     -0.006841
  C       1.978504     -0.794055      0.269709
  O       3.293049      0.837354      1.047130
  O       1.875428     -0.234572     -1.021486
  O       3.098386     -0.542695      1.012987
  H       2.127660      1.151133      0.586215
  H      -2.940075      0.372444      0.370857
  H      -2.703517      0.738912     -1.339524
  H      -3.181061     -0.884684     -0.842600
  H      -0.760219     -0.828199     -1.411694
  H      -1.007164     -1.209114      0.298223
  H      -0.372360      1.565828     -0.817006
  H      -0.553725      1.165259      0.900904
  H       1.639915     -1.811919      0.392517
17
Coordinates from ORCA-job scan E -27.291188955030
  C      -2.575359     -0.022336     -0.574334
  C      -1.113416     -0.430111     -0.459185
  C      -0.242804      0.777171     -0.071037
  C       1.194341      0.409569     -0.006744
  C       1.978331     -0.794587      0.269522
  O       3.288104      0.841169      1.045360
  O       1.875343     -0.235297     -1.021451
  O       3.097532     -0.540414      1.012832
  H       2.132528      1.148652      0.587895
  H      -2.939924      0.372737      0.370968
  H      -2.703229      0.739617     -1.339307
  H      -3.181418     -0.883936     -0.842860
  H      -0.760558     -0.828248     -1.411952
  H      -1.007644     -1.209570      0.297854
  H      -0.371740      1.565449     -0.816558
  H      -0.553254      1.164444      0.901235
  H       1.640461     -1.812666      0.392531
17
Coordinates from ORCA-job scan E -27.291198122190
  C      -2.575988     -0.022400     -0.574261
  C      -1.114041     -0.430216     -0.459316
  C      -0.243247      0.777195     -0.071748
  C       1.193946      0.409545     -0.007472
  C       1.978705     -0.794312      0.269500
  O       3.289374      0.840680      1.047920
  O       1.875686     -0.235243     -1.021980
  O       3.099036     -0.540976      1.012120
  H       2.134518      1.149680      0.589659
  H      -2.940321      0.372964      0.371010
  H      -2.703983      0.739341     -1.339427
  H      -3.182146     -0.884048     -0.842411
  H      -0.761409     -0.828658     -1.412039
  H      -1.008117     -1.209445      0.297944
  H      -0.372294      1.565228     -0.817505
  H      -0.553603      1.164777      0.900438
  H       1.641177     -1.812469      0.392335
17
Coordinates from ORCA-job scan E -27.291207869630
  C      -2.577045     -0.022566     -0.573896
  C      -1.115132     -0.430605     -0.459628
  C      -0.243923      0.777067     -0.073367
  C       1.192903      0.409260     -0.009336
  C       1.979047     -0.793446      0.269392
  O       3.291698      0.839479      1.053770
  O       1.876356     -0.234743     -1.023216
  O       3.100894     -0.542265      1.010874
  H       2.138958      1.152635      0.593012
  H      -2.940733      0.373362      0.371390
  H      -2.705373      0.738783     -1.339405
  H      -3.183491     -0.884265     -0.841222
  H      -0.763130     -0.829683     -1.412325
  H      -1.008783     -1.209338      0.298078
  H      -0.373095      1.564539     -0.819648
  H      -0.553901      1.165291      0.898678
  H       1.642045     -1.811861      0.391617
17
Coordinates from ORCA-job scan E -27.291209109440
  C      -2.577203     -0.022567     -0.573675
  C      -1.115310     -0.430767     -0.459753
  C      -0.243875      0.776909     -0.073784
  C       1.192747      0.408941     -0.009923
  C       1.979116     -0.793155      0.269406
  O       3.291786      0.839223      1.055194
  O       1.876745     -0.234471     -1.023531
  O       3.100576     -0.542538      1.011005
  H       2.139821      1.153625      0.593345
  H      -2.940620      0.373429      0.371685
  H      -2.705646      0.738763     -1.339182
  H      -3.183802     -0.884219     -0.840822
  H      -0.763582     -0.829947     -1.412509
  H      -1.008816     -1.209437      0.297990
  H      -0.373062      1.564274     -0.820189
  H      -0.553721      1.165265      0.898255
  H       1.642139     -1.811686      0.391256
17
Coordinates from ORCA-job scan E -27.291209909920
  C      -2.577305     -0.022469     -0.573364
  C      -1.115453     -0.430932     -0.459919
  C      -0.243664      0.776650     -0.074186
  C       1.192753      0.408356     -0.010577
  C       1.979367     -0.792917      0.269505
  O       3.291272      0.839187      1.056437
  O       1.877409     -0.234245     -1.023841
  O       3.099893     -0.542632      1.011581
  H       2.140116      1.154538      0.593220
  H      -2.940366      0.373525      0.372130
  H      -2.705867      0.738921     -1.338789
  H      -3.184130     -0.884010     -0.840374
  H      -0.764087     -0.830153     -1.412789
  H      -1.008808     -1.209605      0.297790
  H      -0.372882      1.563952     -0.820674
  H      -0.553350      1.165084      0.897868
  H       1.642394     -1.811607      0.390750
17
Coordinates from ORCA-job scan E -27.291106294380
  C      -2.577284     -0.023107     -0.573346
  C      -1.115190     -0.430649     -0.459711
  C      -0.244121      0.777623     -0.074513
  C       1.192515      0.410213     -0.010731
  C       1.979630     -0.792126      0.269784
  O       3.298708      0.833425      1.059167
  O       1.877534     -0.233168     -1.023904
  O       3.101157     -0.546074      1.011828
  H       2.132757      1.158357      0.590637
  H      -2.940586      0.373094      0.371969
  H      -2.706295      0.737864     -1.339112
  H      -3.183595     -0.885129     -0.839975
  H      -0.763581     -0.830087     -1.412401
  H      -1.008086     -1.208920      0.298347
  H      -0.373804      1.564515     -0.821353
  H      -0.554044      1.166308      0.897366
  H       1.641578     -1.810496      0.390717
17
Coordinates from ORCA-job scan E -27.291132006030
  C      -2.576350     -0.022808     -0.573334
  C      -1.114303     -0.430469     -0.459576
  C      -0.243285      0.777451     -0.073516
  C       1.193273      0.409809     -0.009837
  C       1.979505     -0.792679      0.269976
  O       3.295852      0.834687      1.055428
  O       1.877474     -0.233484     -1.023173
  O       3.098961     -0.544883      1.013321
  H       2.128735      1.156414      0.587590
  H      -2.939851      0.372925      0.372099
  H      -2.705158      0.738561     -1.338737
  H      -3.182649     -0.884655     -0.840534
  H      -0.762508     -0.829427     -1.412399
  H      -1.007436     -1.209152      0.298085
  H      -0.372807      1.564754     -0.819938
  H      -0.553224      1.165618      0.898538
  H       1.641064     -1.811020      0.390772
17
Coordinates from ORCA-job scan E -27.291156440010
  C      -2.574834     -0.022023     -0.573571
  C      -1.112837     -0.429856     -0.459327
  C      -0.241815      0.777235     -0.071279
  C       1.195204      0.409061     -0.007627
  C       1.980068     -0.794362      0.270561
  O       3.290042      0.838002      1.047056
  O       1.877552     -0.235019     -1.021479
  O       3.096359     -0.541815      1.016154
  H       2.119586      1.150984      0.581634
  H      -2.938891      0.372751      0.372046
  H      -2.703111      0.740169     -1.338231
  H      -3.181082     -0.883511     -0.842045
  H      -0.760525     -0.827771     -1.412384
  H      -1.006630     -1.209503      0.297449
  H      -0.371079      1.565554     -0.816712
  H      -0.551894      1.164273      0.901163
  H       1.641179     -1.812527      0.391363
17
Coordinates from ORCA-job scan E -27.291158180650
  C      -2.574897     -0.021973     -0.573767
  C      -1.112895     -0.429736     -0.459331
  C      -0.241974      0.777291     -0.071078
  C       1.195215      0.409211     -0.007341
  C       1.980163     -0.794654      0.270629
  O       3.290308      0.838431      1.046432
  O       1.877222     -0.235578     -1.021296
  O       3.097246     -0.541425      1.015763
  H       2.119248      1.150338      0.581808
  H      -2.939102      0.372743      0.371819
  H      -2.703083      0.740260     -1.338403
  H      -3.181072     -0.883463     -0.842375
  H      -0.760430     -0.827564     -1.412368
  H      -1.006796     -1.209462      0.297385
  H      -0.371194      1.565728     -0.816368
  H      -0.552041      1.164212      0.901409
  H       1.641374     -1.812714      0.391850
17
Coordinates from ORCA-job scan E -27.291159500170
  C      -2.574932     -0.021980     -0.574183
  C      -1.112901     -0.429556     -0.459385
  C      -0.242284      0.777399     -0.070601
  C       1.195118      0.409661     -0.006705
  C       1.979988     -0.795072      0.270779
  O       3.291217      0.838998      1.044981
  O       1.876263     -0.236556     -1.020844
  O       3.098609     -0.540839      1.014834
  H       2.119124      1.149479      0.582010
  H      -2.939465      0.372517      0.371373
  H      -2.702971      0.740399     -1.338704
  H      -3.180918     -0.883485     -0.843142
  H      -0.760098     -0.827118     -1.412412
  H      -1.006986     -1.209496      0.297152
  H      -0.371371      1.566123     -0.815584
  H      -0.552364      1.164037      0.902006
  H       1.641265     -1.812868      0.393192
17
Coordinates from ORCA-job scan E -27.291159661610
  C      -2.574884     -0.022044     -0.574303
  C      -1.112831     -0.429529     -0.459428
  C      -0.242358      0.777435     -0.070410
  C       1.195082      0.409874     -0.006473
  C       1.979762     -0.795078      0.270845
  O       3.291637      0.838930      1.044360
  O       1.875891     -0.236707     -1.020668
  O       3.098663     -0.540836      1.014617
  H       2.119376      1.149487      0.581864
  H      -2.939526      0.372314      0.371268
  H      -2.702911      0.740418     -1.338741
  H      -3.180783     -0.883562     -0.843418
  H      -0.759914     -0.826941     -1.412475
  H      -1.006937     -1.209565      0.297013
  H      -0.371427      1.566269     -0.815293
  H      -0.552513      1.163954      0.902230
  H       1.640966     -1.812777      0.393781
17
Coordinates from ORCA-job scan E -27.291159661610
  C      -2.574884     -0.022044     -0.574303
  C      -1.112831     -0.429529     -0.459428
  C      -0.242358      0.777435     -0.070410
  C       1.195082      0.409874     -0.006473
  C       1.979762     -0.795078      0.270845
  O       3.291637      0.838930      1.044360
  O       1.875891     -0.236707     -1.020668
  O       3.098663     -0.540836      1.014617
  H       2.119376      1.149487      0.581864
  H      -2.939526      0.372314      0.371268
  H      -2.702911      0.740418     -1.338741
  H      -3.180783     -0.883562     -0.843418
  H      -0.759914     -0.826941     -1.412475
  H      -1.006937     -1.209565      0.297013
  H      -0.371427      1.566269     -0.815293
  H      -0.552513      1.163954      0.902230
  H       1.640966     -1.812777      0.393781
17
Coordinates from ORCA-job scan E -27.291159750810
  C      -2.574833     -0.022092     -0.574344
  C      -1.112767     -0.429527     -0.459450
  C      -0.242372      0.777453     -0.070313
  C       1.195078      0.409984     -0.006369
  C       1.979606     -0.795031      0.270871
  O       3.291783      0.838811      1.044008
  O       1.875720     -0.236701     -1.020598
  O       3.098494     -0.540905      1.014596
  H       2.119621      1.149585      0.581719
  H      -2.939523      0.372185      0.371242
  H      -2.702867      0.740417     -1.338734
  H      -3.180685     -0.883619     -0.843539
  H      -0.759798     -0.826855     -1.412512
  H      -1.006867     -1.209610      0.296939
  H      -0.371459      1.566335     -0.815150
  H      -0.552590      1.163906      0.902336
  H       1.640751     -1.812693      0.394065
