15
Coordinates from ORCA-job freq E -270.981655054862
  C           1.64650107363881      0.80256109894930      0.11455040934906
  C           0.15235918468997     -0.46901188670794      1.10003461880944
  C           1.13346843716913     -0.61939930746995     -0.05665322077926
  C          -1.75149118888909      0.31651981111508     -0.46221151747332
  C          -1.28444989091892     -0.28413213578625      0.79324675712629
  O          -1.85215391088362     -1.07729116570650     -0.25089074551377
  H           0.74943869588960      0.76850674374371      1.20689045413929
  H           2.65653119097278      0.94908015883749      0.47912096803460
  H           1.28019279362042      1.55623203462242     -0.57376165023728
  H           0.37815626657217     -1.02588793534824      2.00417542592259
  H           0.65609064669043     -0.83212503190287     -1.01077157934593
  H           1.88883474970597     -1.37860552038882      0.12553115947778
  H          -1.02647514320207      0.61959219557978     -1.21046316512223
  H          -2.69238032458484      0.85447395678316     -0.47729696536303
  H          -1.93462158047076     -0.18051401632036      1.65529205097574
