15
* (null), Energy   -1000.0000000
C     1.646501    0.802561    0.114550    0.076381   -0.026479   -0.111308
C     0.152359   -0.469012    1.100035    0.045786    0.118749    0.038206
C     1.133468   -0.619399   -0.056653    0.015950    0.016419   -0.008865
C    -1.751491    0.316520   -0.462212    0.001176    0.001410    0.001975
C    -1.284450   -0.284132    0.793247   -0.014800   -0.007994   -0.013435
O    -1.852154   -1.077291   -0.250891    0.002086   -0.000814    0.005085
H     0.749439    0.768507    1.206890   -1.328555   -1.146718    0.905957
H     2.656531    0.949080    0.479121   -0.028911    0.030470    0.113627
H     1.280193    1.556232   -0.573762   -0.081870    0.056649    0.085105
H     0.378156   -1.025888    2.004175   -0.057841   -0.140440   -0.079215
H     0.656091   -0.832125   -1.010772   -0.013815   -0.000625    0.008849
H     1.888835   -1.378606    0.125531   -0.004827   -0.001743    0.004054
H    -1.026475    0.619592   -1.210463   -0.000632   -0.001086   -0.000339
H    -2.692380    0.854474   -0.477297   -0.001062   -0.003071   -0.005155
H    -1.934622   -0.180514    1.655292    0.000974    0.002816   -0.000362
15
* Frequency(6) -1939.4478
C     1.655181    0.799552    0.101901    0.076381   -0.026479   -0.111308
C     0.157563   -0.455517    1.104377    0.045786    0.118749    0.038206
C     1.135281   -0.617533   -0.057661    0.015950    0.016419   -0.008865
C    -1.751358    0.316680   -0.461987    0.001176    0.001410    0.001975
C    -1.286132   -0.285041    0.791720   -0.014800   -0.007994   -0.013435
O    -1.851917   -1.077384   -0.250313    0.002086   -0.000814    0.005085
H     0.598455    0.638188    1.309848   -1.328555   -1.146718    0.905957
H     2.653246    0.952543    0.492034   -0.028911    0.030470    0.113627
H     1.270889    1.562670   -0.564090   -0.081870    0.056649    0.085105
H     0.371583   -1.041848    1.995173   -0.057841   -0.140440   -0.079215
H     0.654521   -0.832196   -1.009766   -0.013815   -0.000625    0.008849
H     1.888286   -1.378804    0.125992   -0.004827   -0.001743    0.004054
H    -1.026547    0.619469   -1.210502   -0.000632   -0.001086   -0.000339
H    -2.692501    0.854125   -0.477883   -0.001062   -0.003071   -0.005155
H    -1.934511   -0.180194    1.655251    0.000974    0.002816   -0.000362
15
* Frequency(6) -1939.4478
C     1.662921    0.796869    0.090622    0.076381   -0.026479   -0.111308
C     0.162202   -0.443484    1.108248    0.045786    0.118749    0.038206
C     1.136897   -0.615870   -0.058559    0.015950    0.016419   -0.008865
C    -1.751238    0.316823   -0.461787    0.001176    0.001410    0.001975
C    -1.287631   -0.285851    0.790359   -0.014800   -0.007994   -0.013435
O    -1.851706   -1.077466   -0.249798    0.002086   -0.000814    0.005085
H     0.463833    0.521992    1.401648   -1.328555   -1.146718    0.905957
H     2.650316    0.955631    0.503548   -0.028911    0.030470    0.113627
H     1.262593    1.568410   -0.555466   -0.081870    0.056649    0.085105
H     0.365722   -1.056079    1.987146   -0.057841   -0.140440   -0.079215
H     0.653121   -0.832259   -1.008869   -0.013815   -0.000625    0.008849
H     1.887797   -1.378980    0.126403   -0.004827   -0.001743    0.004054
H    -1.026611    0.619359   -1.210536   -0.000632   -0.001086   -0.000339
H    -2.692609    0.853814   -0.478405   -0.001062   -0.003071   -0.005155
H    -1.934412   -0.179909    1.655214    0.000974    0.002816   -0.000362
15
* Frequency(6) -1939.4478
C     1.668881    0.794803    0.081936    0.076381   -0.026479   -0.111308
C     0.165775   -0.434217    1.111229    0.045786    0.118749    0.038206
C     1.138142   -0.614588   -0.059251    0.015950    0.016419   -0.008865
C    -1.751147    0.316933   -0.461633    0.001176    0.001410    0.001975
C    -1.288786   -0.286474    0.789310   -0.014800   -0.007994   -0.013435
O    -1.851543   -1.077530   -0.249401    0.002086   -0.000814    0.005085
H     0.360161    0.432509    1.472343   -1.328555   -1.146718    0.905957
H     2.648060    0.958008    0.512415   -0.028911    0.030470    0.113627
H     1.256204    1.572831   -0.548825   -0.081870    0.056649    0.085105
H     0.361208   -1.067038    1.980965   -0.057841   -0.140440   -0.079215
H     0.652043   -0.832308   -1.008179   -0.013815   -0.000625    0.008849
H     1.887420   -1.379116    0.126719   -0.004827   -0.001743    0.004054
H    -1.026660    0.619274   -1.210563   -0.000632   -0.001086   -0.000339
H    -2.692692    0.853574   -0.478807   -0.001062   -0.003071   -0.005155
H    -1.934336   -0.179689    1.655186    0.000974    0.002816   -0.000362
15
* Frequency(6) -1939.4478
C     1.672416    0.793577    0.076785    0.076381   -0.026479   -0.111308
C     0.167894   -0.428721    1.112998    0.045786    0.118749    0.038206
C     1.138880   -0.613828   -0.059661    0.015950    0.016419   -0.008865
C    -1.751092    0.316998   -0.461541    0.001176    0.001410    0.001975
C    -1.289471   -0.286844    0.788688   -0.014800   -0.007994   -0.013435
O    -1.851446   -1.077567   -0.249165    0.002086   -0.000814    0.005085
H     0.298673    0.379437    1.514273   -1.328555   -1.146718    0.905957
H     2.646722    0.959418    0.517674   -0.028911    0.030470    0.113627
H     1.252415    1.575453   -0.544886   -0.081870    0.056649    0.085105
H     0.358531   -1.073538    1.977298   -0.057841   -0.140440   -0.079215
H     0.651403   -0.832337   -1.007769   -0.013815   -0.000625    0.008849
H     1.887197   -1.379197    0.126907   -0.004827   -0.001743    0.004054
H    -1.026690    0.619224   -1.210578   -0.000632   -0.001086   -0.000339
H    -2.692741    0.853432   -0.479046   -0.001062   -0.003071   -0.005155
H    -1.934291   -0.179559    1.655169    0.000974    0.002816   -0.000362
15
* Frequency(6) -1939.4478
C     1.673143    0.793325    0.075726    0.076381   -0.026479   -0.111308
C     0.168330   -0.427592    1.113361    0.045786    0.118749    0.038206
C     1.139032   -0.613672   -0.059745    0.015950    0.016419   -0.008865
C    -1.751081    0.317012   -0.461523    0.001176    0.001410    0.001975
C    -1.289612   -0.286920    0.788561   -0.014800   -0.007994   -0.013435
O    -1.851426   -1.077575   -0.249117    0.002086   -0.000814    0.005085
H     0.286033    0.368526    1.522892   -1.328555   -1.146718    0.905957
H     2.646447    0.959708    0.518755   -0.028911    0.030470    0.113627
H     1.251636    1.575992   -0.544077   -0.081870    0.056649    0.085105
H     0.357981   -1.074874    1.976545   -0.057841   -0.140440   -0.079215
H     0.651272   -0.832343   -1.007685   -0.013815   -0.000625    0.008849
H     1.887151   -1.379213    0.126945   -0.004827   -0.001743    0.004054
H    -1.026696    0.619213   -1.210582   -0.000632   -0.001086   -0.000339
H    -2.692751    0.853403   -0.479095   -0.001062   -0.003071   -0.005155
H    -1.934282   -0.179532    1.655166    0.000974    0.002816   -0.000362
15
* Frequency(6) -1939.4478
C     1.670983    0.794074    0.078874    0.076381   -0.026479   -0.111308
C     0.167035   -0.430950    1.112280    0.045786    0.118749    0.038206
C     1.138581   -0.614137   -0.059495    0.015950    0.016419   -0.008865
C    -1.751114    0.316972   -0.461578    0.001176    0.001410    0.001975
C    -1.289194   -0.286694    0.788941   -0.014800   -0.007994   -0.013435
O    -1.851485   -1.077552   -0.249261    0.002086   -0.000814    0.005085
H     0.323609    0.400960    1.497268   -1.328555   -1.146718    0.905957
H     2.647264    0.958847    0.515541   -0.028911    0.030470    0.113627
H     1.253952    1.574389   -0.546484   -0.081870    0.056649    0.085105
H     0.359617   -1.070902    1.978785   -0.057841   -0.140440   -0.079215
H     0.651663   -0.832326   -1.007935   -0.013815   -0.000625    0.008849
H     1.887288   -1.379164    0.126831   -0.004827   -0.001743    0.004054
H    -1.026678    0.619244   -1.210572   -0.000632   -0.001086   -0.000339
H    -2.692721    0.853490   -0.478949   -0.001062   -0.003071   -0.005155
H    -1.934309   -0.179611    1.655176    0.000974    0.002816   -0.000362
15
* Frequency(6) -1939.4478
C     1.666170    0.795743    0.085888    0.076381   -0.026479   -0.111308
C     0.164149   -0.438434    1.109873    0.045786    0.118749    0.038206
C     1.137576   -0.615171   -0.058936    0.015950    0.016419   -0.008865
C    -1.751188    0.316883   -0.461703    0.001176    0.001410    0.001975
C    -1.288261   -0.286191    0.789787   -0.014800   -0.007994   -0.013435
O    -1.851617   -1.077501   -0.249581    0.002086   -0.000814    0.005085
H     0.407331    0.473223    1.440177   -1.328555   -1.146718    0.905957
H     2.649086    0.956926    0.508380   -0.028911    0.030470    0.113627
H     1.259111    1.570819   -0.551847   -0.081870    0.056649    0.085105
H     0.363262   -1.062052    1.983777   -0.057841   -0.140440   -0.079215
H     0.652533   -0.832286   -1.008493   -0.013815   -0.000625    0.008849
H     1.887592   -1.379054    0.126575   -0.004827   -0.001743    0.004054
H    -1.026638    0.619312   -1.210551   -0.000632   -0.001086   -0.000339
H    -2.692654    0.853683   -0.478624   -0.001062   -0.003071   -0.005155
H    -1.934371   -0.179789    1.655199    0.000974    0.002816   -0.000362
15
* Frequency(6) -1939.4478
C     1.659225    0.798150    0.096009    0.076381   -0.026479   -0.111308
C     0.159986   -0.449230    1.106399    0.045786    0.118749    0.038206
C     1.136125   -0.616664   -0.058130    0.015950    0.016419   -0.008865
C    -1.751295    0.316755   -0.461882    0.001176    0.001410    0.001975
C    -1.286915   -0.285464    0.791009   -0.014800   -0.007994   -0.013435
O    -1.851806   -1.077427   -0.250044    0.002086   -0.000814    0.005085
H     0.528126    0.577485    1.357806   -1.328555   -1.146718    0.905957
H     2.651715    0.954156    0.498049   -0.028911    0.030470    0.113627
H     1.266555    1.565669   -0.559585   -0.081870    0.056649    0.085105
H     0.368521   -1.049283    1.990980   -0.057841   -0.140440   -0.079215
H     0.653789   -0.832229   -1.009297   -0.013815   -0.000625    0.008849
H     1.888031   -1.378896    0.126207   -0.004827   -0.001743    0.004054
H    -1.026580    0.619411   -1.210520   -0.000632   -0.001086   -0.000339
H    -2.692557    0.853962   -0.478156   -0.001062   -0.003071   -0.005155
H    -1.934459   -0.180045    1.655232    0.000974    0.002816   -0.000362
15
* Frequency(6) -1939.4478
C     1.650901    0.801036    0.108138    0.076381   -0.026479   -0.111308
C     0.154997   -0.462171    1.102236    0.045786    0.118749    0.038206
C     1.134387   -0.618453   -0.057164    0.015950    0.016419   -0.008865
C    -1.751423    0.316601   -0.462098    0.001176    0.001410    0.001975
C    -1.285302   -0.284593    0.792473   -0.014800   -0.007994   -0.013435
O    -1.852034   -1.077338   -0.250598    0.002086   -0.000814    0.005085
H     0.672903    0.702447    1.259081   -1.328555   -1.146718    0.905957
H     2.654866    0.950836    0.485667   -0.028911    0.030470    0.113627
H     1.275476    1.559495   -0.568859   -0.081870    0.056649    0.085105
H     0.374824   -1.033978    1.999612   -0.057841   -0.140440   -0.079215
H     0.655295   -0.832161   -1.010262   -0.013815   -0.000625    0.008849
H     1.888557   -1.378706    0.125765   -0.004827   -0.001743    0.004054
H    -1.026512    0.619530   -1.210483   -0.000632   -0.001086   -0.000339
H    -2.692442    0.854297   -0.477594   -0.001062   -0.003071   -0.005155
H    -1.934565   -0.180352    1.655271    0.000974    0.002816   -0.000362
15
* Frequency(6) -1939.4478
C     1.642101    0.804086    0.120963    0.076381   -0.026479   -0.111308
C     0.149722   -0.475853    1.097834    0.045786    0.118749    0.038206
C     1.132550   -0.620345   -0.056143    0.015950    0.016419   -0.008865
C    -1.751559    0.316439   -0.462325    0.001176    0.001410    0.001975
C    -1.283597   -0.283672    0.794021   -0.014800   -0.007994   -0.013435
O    -1.852274   -1.077244   -0.251184    0.002086   -0.000814    0.005085
H     0.825974    0.834567    1.154700   -1.328555   -1.146718    0.905957
H     2.658197    0.947325    0.472575   -0.028911    0.030470    0.113627
H     1.284909    1.552969   -0.578664   -0.081870    0.056649    0.085105
H     0.381488   -1.017797    2.008739   -0.057841   -0.140440   -0.079215
H     0.656886   -0.832089   -1.011281   -0.013815   -0.000625    0.008849
H     1.889113   -1.378505    0.125298   -0.004827   -0.001743    0.004054
H    -1.026439    0.619655   -1.210444   -0.000632   -0.001086   -0.000339
H    -2.692319    0.854651   -0.477000   -0.001062   -0.003071   -0.005155
H    -1.934678   -0.180676    1.655313    0.000974    0.002816   -0.000362
15
* Frequency(6) -1939.4478
C     1.633777    0.806972    0.133092    0.076381   -0.026479   -0.111308
C     0.144732   -0.488793    1.093670    0.045786    0.118749    0.038206
C     1.130811   -0.622134   -0.055177    0.015950    0.016419   -0.008865
C    -1.751687    0.316285   -0.462541    0.001176    0.001410    0.001975
C    -1.281985   -0.282801    0.795485   -0.014800   -0.007994   -0.013435
O    -1.852501   -1.077156   -0.251738    0.002086   -0.000814    0.005085
H     0.970752    0.959529    1.055975   -1.328555   -1.146718    0.905957
H     2.661347    0.944004    0.460193   -0.028911    0.030470    0.113627
H     1.293831    1.546795   -0.587939   -0.081870    0.056649    0.085105
H     0.387792   -1.002493    2.017371   -0.057841   -0.140440   -0.079215
H     0.658392   -0.832021   -1.012246   -0.013815   -0.000625    0.008849
H     1.889639   -1.378315    0.124856   -0.004827   -0.001743    0.004054
H    -1.026370    0.619773   -1.210407   -0.000632   -0.001086   -0.000339
H    -2.692203    0.854986   -0.476438   -0.001062   -0.003071   -0.005155
H    -1.934784   -0.180983    1.655352    0.000974    0.002816   -0.000362
15
* Frequency(6) -1939.4478
C     1.626833    0.809380    0.143212    0.076381   -0.026479   -0.111308
C     0.140569   -0.499590    1.090196    0.045786    0.118749    0.038206
C     1.129361   -0.623627   -0.054371    0.015950    0.016419   -0.008865
C    -1.751794    0.316157   -0.462720    0.001176    0.001410    0.001975
C    -1.280639   -0.282074    0.796706   -0.014800   -0.007994   -0.013435
O    -1.852691   -1.077082   -0.252200    0.002086   -0.000814    0.005085
H     1.091546    1.063790    0.973603   -1.328555   -1.146718    0.905957
H     2.663976    0.941234    0.449862   -0.028911    0.030470    0.113627
H     1.301275    1.541645   -0.595677   -0.081870    0.056649    0.085105
H     0.393051   -0.989724    2.024574   -0.057841   -0.140440   -0.079215
H     0.659648   -0.831964   -1.013050   -0.013815   -0.000625    0.008849
H     1.890078   -1.378157    0.124487   -0.004827   -0.001743    0.004054
H    -1.026312    0.619872   -1.210376   -0.000632   -0.001086   -0.000339
H    -2.692107    0.855265   -0.475969   -0.001062   -0.003071   -0.005155
H    -1.934872   -0.181239    1.655385    0.000974    0.002816   -0.000362
15
* Frequency(6) -1939.4478
C     1.622019    0.811048    0.150227    0.076381   -0.026479   -0.111308
C     0.137684   -0.507073    1.087789    0.045786    0.118749    0.038206
C     1.128356   -0.624662   -0.053812    0.015950    0.016419   -0.008865
C    -1.751868    0.316068   -0.462845    0.001176    0.001410    0.001975
C    -1.279706   -0.281570    0.797553   -0.014800   -0.007994   -0.013435
O    -1.852822   -1.077030   -0.252521    0.002086   -0.000814    0.005085
H     1.175268    1.136053    0.916512   -1.328555   -1.146718    0.905957
H     2.665798    0.939314    0.442701   -0.028911    0.030470    0.113627
H     1.306434    1.538075   -0.601040   -0.081870    0.056649    0.085105
H     0.396696   -0.980874    2.029566   -0.057841   -0.140440   -0.079215
H     0.660519   -0.831925   -1.013608   -0.013815   -0.000625    0.008849
H     1.890382   -1.378047    0.124232   -0.004827   -0.001743    0.004054
H    -1.026272    0.619940   -1.210354   -0.000632   -0.001086   -0.000339
H    -2.692040    0.855458   -0.475645   -0.001062   -0.003071   -0.005155
H    -1.934934   -0.181417    1.655408    0.000974    0.002816   -0.000362
15
* Frequency(6) -1939.4478
C     1.619859    0.811797    0.153375    0.076381   -0.026479   -0.111308
C     0.136389   -0.510432    1.086708    0.045786    0.118749    0.038206
C     1.127905   -0.625126   -0.053561    0.015950    0.016419   -0.008865
C    -1.751901    0.316028   -0.462900    0.001176    0.001410    0.001975
C    -1.279288   -0.281344    0.797933   -0.014800   -0.007994   -0.013435
O    -1.852881   -1.077007   -0.252664    0.002086   -0.000814    0.005085
H     1.212845    1.168487    0.890888   -1.328555   -1.146718    0.905957
H     2.666616    0.938452    0.439487   -0.028911    0.030470    0.113627
H     1.308750    1.536473   -0.603447   -0.081870    0.056649    0.085105
H     0.398332   -0.976902    2.031806   -0.057841   -0.140440   -0.079215
H     0.660909   -0.831907   -1.013858   -0.013815   -0.000625    0.008849
H     1.890518   -1.377998    0.124117   -0.004827   -0.001743    0.004054
H    -1.026255    0.619971   -1.210345   -0.000632   -0.001086   -0.000339
H    -2.692010    0.855545   -0.475499   -0.001062   -0.003071   -0.005155
H    -1.934961   -0.181496    1.655418    0.000974    0.002816   -0.000362
15
* Frequency(6) -1939.4478
C     1.620586    0.811545    0.152316    0.076381   -0.026479   -0.111308
C     0.136824   -0.509302    1.087072    0.045786    0.118749    0.038206
C     1.128057   -0.624970   -0.053646    0.015950    0.016419   -0.008865
C    -1.751890    0.316041   -0.462882    0.001176    0.001410    0.001975
C    -1.279428   -0.281420    0.797805   -0.014800   -0.007994   -0.013435
O    -1.852862   -1.077015   -0.252616    0.002086   -0.000814    0.005085
H     1.200204    1.157577    0.899508   -1.328555   -1.146718    0.905957
H     2.666341    0.938742    0.440568   -0.028911    0.030470    0.113627
H     1.307971    1.537012   -0.602637   -0.081870    0.056649    0.085105
H     0.397781   -0.978238    2.031052   -0.057841   -0.140440   -0.079215
H     0.660778   -0.831913   -1.013774   -0.013815   -0.000625    0.008849
H     1.890473   -1.378014    0.124156   -0.004827   -0.001743    0.004054
H    -1.026261    0.619961   -1.210348   -0.000632   -0.001086   -0.000339
H    -2.692020    0.855516   -0.475548   -0.001062   -0.003071   -0.005155
H    -1.934952   -0.181469    1.655415    0.000974    0.002816   -0.000362
15
* Frequency(6) -1939.4478
C     1.624121    0.810320    0.147164    0.076381   -0.026479   -0.111308
C     0.138943   -0.503806    1.088840    0.045786    0.118749    0.038206
C     1.128795   -0.624210   -0.054056    0.015950    0.016419   -0.008865
C    -1.751836    0.316107   -0.462790    0.001176    0.001410    0.001975
C    -1.280113   -0.281790    0.797183   -0.014800   -0.007994   -0.013435
O    -1.852765   -1.077053   -0.252381    0.002086   -0.000814    0.005085
H     1.138716    1.104505    0.941438   -1.328555   -1.146718    0.905957
H     2.665002    0.940152    0.445827   -0.028911    0.030470    0.113627
H     1.304181    1.539633   -0.598698   -0.081870    0.056649    0.085105
H     0.395104   -0.984738    2.027386   -0.057841   -0.140440   -0.079215
H     0.660138   -0.831942   -1.013365   -0.013815   -0.000625    0.008849
H     1.890249   -1.378095    0.124343   -0.004827   -0.001743    0.004054
H    -1.026290    0.619910   -1.210364   -0.000632   -0.001086   -0.000339
H    -2.692069    0.855374   -0.475786   -0.001062   -0.003071   -0.005155
H    -1.934907   -0.181339    1.655398    0.000974    0.002816   -0.000362
15
* Frequency(6) -1939.4478
C     1.630081    0.808253    0.138479    0.076381   -0.026479   -0.111308
C     0.142516   -0.494540    1.091821    0.045786    0.118749    0.038206
C     1.130040   -0.622929   -0.054748    0.015950    0.016419   -0.008865
C    -1.751744    0.316217   -0.462636    0.001176    0.001410    0.001975
C    -1.281268   -0.282414    0.796135   -0.014800   -0.007994   -0.013435
O    -1.852602   -1.077116   -0.251984    0.002086   -0.000814    0.005085
H     1.035044    1.015022    1.012133   -1.328555   -1.146718    0.905957
H     2.662746    0.942530    0.454694   -0.028911    0.030470    0.113627
H     1.297793    1.544054   -0.592057   -0.081870    0.056649    0.085105
H     0.390591   -0.995697    2.021205   -0.057841   -0.140440   -0.079215
H     0.659060   -0.831991   -1.012674   -0.013815   -0.000625    0.008849
H     1.889872   -1.378231    0.124660   -0.004827   -0.001743    0.004054
H    -1.026339    0.619826   -1.210390   -0.000632   -0.001086   -0.000339
H    -2.692152    0.855134   -0.476189   -0.001062   -0.003071   -0.005155
H    -1.934831   -0.181119    1.655370    0.000974    0.002816   -0.000362
15
* Frequency(6) -1939.4478
C     1.637821    0.805570    0.127200    0.076381   -0.026479   -0.111308
C     0.147156   -0.482507    1.095693    0.045786    0.118749    0.038206
C     1.131656   -0.621265   -0.055646    0.015950    0.016419   -0.008865
C    -1.751625    0.316360   -0.462436    0.001176    0.001410    0.001975
C    -1.282768   -0.283224    0.794774   -0.014800   -0.007994   -0.013435
O    -1.852391   -1.077199   -0.251469    0.002086   -0.000814    0.005085
H     0.900422    0.898825    1.103933   -1.328555   -1.146718    0.905957
H     2.659817    0.945617    0.466208   -0.028911    0.030470    0.113627
H     1.289497    1.549794   -0.583433   -0.081870    0.056649    0.085105
H     0.384730   -1.009928    2.013178   -0.057841   -0.140440   -0.079215
H     0.657661   -0.832054   -1.011777   -0.013815   -0.000625    0.008849
H     1.889383   -1.378407    0.125070   -0.004827   -0.001743    0.004054
H    -1.026403    0.619716   -1.210425   -0.000632   -0.001086   -0.000339
H    -2.692260    0.854823   -0.476711   -0.001062   -0.003071   -0.005155
H    -1.934732   -0.180834    1.655333    0.000974    0.002816   -0.000362
15
* Frequency(6) -1939.4478
C     1.646501    0.802561    0.114550    0.076381   -0.026479   -0.111308
C     0.152359   -0.469012    1.100035    0.045786    0.118749    0.038206
C     1.133468   -0.619399   -0.056653    0.015950    0.016419   -0.008865
C    -1.751491    0.316520   -0.462212    0.001176    0.001410    0.001975
C    -1.284450   -0.284132    0.793247   -0.014800   -0.007994   -0.013435
O    -1.852154   -1.077291   -0.250891    0.002086   -0.000814    0.005085
H     0.749439    0.768507    1.206890   -1.328555   -1.146718    0.905957
H     2.656531    0.949080    0.479121   -0.028911    0.030470    0.113627
H     1.280193    1.556232   -0.573762   -0.081870    0.056649    0.085105
H     0.378156   -1.025888    2.004175   -0.057841   -0.140440   -0.079215
H     0.656091   -0.832125   -1.010772   -0.013815   -0.000625    0.008849
H     1.888835   -1.378606    0.125531   -0.004827   -0.001743    0.004054
H    -1.026475    0.619592   -1.210463   -0.000632   -0.001086   -0.000339
H    -2.692380    0.854474   -0.477297   -0.001062   -0.003071   -0.005155
H    -1.934622   -0.180514    1.655292    0.000974    0.002816   -0.000362
