17
Coordinates from ORCA-job freq E -421.375176475672
  C          -1.27813329131870      1.26757850358527     -0.57211093146942
  C           0.03827266986951     -1.00654363806806     -0.41598736621055
  C           1.75081724111674      0.56227493882925      0.75539873704655
  C          -1.21213715122355     -0.17000160857692     -0.10568804341008
  C           1.41286110214243     -0.47652625452706     -0.22566382554215
  O          -1.03458427277466     -1.52729390457107      1.62590468235324
  O           1.68902745624316      0.86315339838948     -0.62696436746352
  O          -1.27187487199968     -0.19609837225419      1.32052128443587
  H          -0.24907903595788     -1.71470903179117      0.67183454168622
  H          -2.26218771466306      1.67656757141810     -0.34739836369796
  H          -0.51635422186083      1.87902904491335     -0.09756829809428
  H          -1.11871486587618      1.31112336691099     -1.64843437481838
  H          -0.05686975217877     -1.66931152705333     -1.27241922061411
  H           2.74680801550413      0.56893692033209      1.18174832709984
  H           0.96288393609485      0.98753277979022      1.36453425156252
  H          -2.06662851504153     -0.73219253335415     -0.49433267159995
  H           2.19955727192400     -1.17368965397281     -0.49479536126388
