15
Coordinates from ORCA-job freq E -271.057161838842
  C           2.71520038580044      0.99703678127729      0.88412502138965
  C          -2.09709374703475      0.38220223074046      0.74669151098101
  C           1.95590178956545     -0.01120461086759      0.48968977785637
  C          -0.10509072011028     -1.03644461880623      0.11353262765829
  C          -1.59053015338893     -0.93350248085446      0.16226995043022
  O           0.60105798639734      0.07054626489805      0.48354391010343
  H           2.28087179722150      1.92721573508047      1.22009359223481
  H           3.78808025429728      0.89278511026489      0.86885486366548
  H          -3.18583748696126      0.39628693217708      0.75087125896516
  H          -1.74559108070660      0.51733856989551      1.76849185592212
  H          -1.74480865882126      1.23022554184844      0.16222736749128
  H           2.35953008104929     -0.95604296790559      0.14156461278826
  H           0.41873967256671     -1.98110826903303      0.17884591974667
  H          -1.98770606144742     -1.77154881615505      0.74323732338722
  H          -2.00274605842749     -1.05811840256026     -0.84602659262007
