15
* (null), Energy   -1000.0000000
C     2.715200    0.997037    0.884125   -0.007086   -0.012204    0.045639
C    -2.097094    0.382202    0.746692    0.036998    0.079710   -0.163132
C     1.955902   -0.011205    0.489690   -0.010909    0.011148   -0.007277
C    -0.105091   -1.036445    0.113533   -0.004765    0.120994   -0.371039
C    -1.590530   -0.933502    0.162270   -0.009110   -0.109699    0.246880
O     0.601058    0.070546    0.483544   -0.014113   -0.066659    0.222712
H     2.280872    1.927216    1.220094   -0.009431   -0.082633    0.237741
H     3.788080    0.892785    0.868855   -0.004243    0.040541   -0.099105
H    -3.185837    0.396287    0.750871    0.037289   -0.005925    0.129019
H    -1.745591    0.517339    1.768492    0.309610    0.527852   -0.318290
H    -1.744809    1.230226    0.162227   -0.191053   -0.123004   -0.600403
H     2.359530   -0.956043    0.141565   -0.008216    0.083903   -0.211485
H     0.418740   -1.981108    0.178846    0.076210    0.113050   -1.002236
H    -1.987706   -1.771549    0.743237    0.321247    0.119944    0.823681
H    -2.002746   -1.058118   -0.846027   -0.368509   -0.687528    0.472349
15
* Frequency(6) -149.8369
C     2.714395    0.995650    0.889312   -0.007086   -0.012204    0.045639
C    -2.092889    0.391261    0.728152    0.036998    0.079710   -0.163132
C     1.954662   -0.009938    0.488863   -0.010909    0.011148   -0.007277
C    -0.105632   -1.022694    0.071366   -0.004765    0.120994   -0.371039
C    -1.591565   -0.945969    0.190327   -0.009110   -0.109699    0.246880
O     0.599454    0.062971    0.508854   -0.014113   -0.066659    0.222712
H     2.279800    1.917825    1.247112   -0.009431   -0.082633    0.237741
H     3.787598    0.897392    0.857592   -0.004243    0.040541   -0.099105
H    -3.181600    0.395614    0.765534    0.037289   -0.005925    0.129019
H    -1.710405    0.577326    1.732320    0.309610    0.527852   -0.318290
H    -1.766521    1.216247    0.093995   -0.191053   -0.123004   -0.600403
H     2.358596   -0.946508    0.117530   -0.008216    0.083903   -0.211485
H     0.427401   -1.968261    0.064947    0.076210    0.113050   -1.002236
H    -1.951198   -1.757918    0.836844    0.321247    0.119944    0.823681
H    -2.044625   -1.136252   -0.792347   -0.368509   -0.687528    0.472349
15
* Frequency(6) -149.8369
C     2.713677    0.994413    0.893936   -0.007086   -0.012204    0.045639
C    -2.089140    0.399338    0.711622    0.036998    0.079710   -0.163132
C     1.953557   -0.008808    0.488125   -0.010909    0.011148   -0.007277
C    -0.106115   -1.010434    0.033769   -0.004765    0.120994   -0.371039
C    -1.592489   -0.957085    0.215343   -0.009110   -0.109699    0.246880
O     0.598024    0.056216    0.531421   -0.014113   -0.066659    0.222712
H     2.278844    1.909452    1.271202   -0.009431   -0.082633    0.237741
H     3.787168    0.901500    0.847550   -0.004243    0.040541   -0.099105
H    -3.177821    0.395013    0.778607    0.037289   -0.005925    0.129019
H    -1.679033    0.630813    1.700068    0.309610    0.527852   -0.318290
H    -1.785880    1.203783    0.033156   -0.191053   -0.123004   -0.600403
H     2.357764   -0.938006    0.096101   -0.008216    0.083903   -0.211485
H     0.435123   -1.956805   -0.036609    0.076210    0.113050   -1.002236
H    -1.918646   -1.745764    0.920308    0.321247    0.119944    0.823681
H    -2.081966   -1.205919   -0.744484   -0.368509   -0.687528    0.472349
15
* Frequency(6) -149.8369
C     2.713124    0.993461    0.897498   -0.007086   -0.012204    0.045639
C    -2.086253    0.405558    0.698892    0.036998    0.079710   -0.163132
C     1.952705   -0.007938    0.487557   -0.010909    0.011148   -0.007277
C    -0.106487   -1.000992    0.004815   -0.004765    0.120994   -0.371039
C    -1.593200   -0.965645    0.234608   -0.009110   -0.109699    0.246880
O     0.596923    0.051015    0.548800   -0.014113   -0.066659    0.222712
H     2.278108    1.903004    1.289754   -0.009431   -0.082633    0.237741
H     3.786837    0.904664    0.839816   -0.004243    0.040541   -0.099105
H    -3.174912    0.394551    0.788675    0.037289   -0.005925    0.129019
H    -1.654873    0.672004    1.675230    0.309610    0.527852   -0.318290
H    -1.800789    1.194184   -0.013696   -0.191053   -0.123004   -0.600403
H     2.357123   -0.931459    0.079598   -0.008216    0.083903   -0.211485
H     0.441070   -1.947984   -0.114818    0.076210    0.113050   -1.002236
H    -1.893578   -1.736404    0.984583    0.321247    0.119944    0.823681
H    -2.110722   -1.259570   -0.707624   -0.368509   -0.687528    0.472349
15
* Frequency(6) -149.8369
C     2.712796    0.992896    0.899610   -0.007086   -0.012204    0.045639
C    -2.084541    0.409247    0.691342    0.036998    0.079710   -0.163132
C     1.952201   -0.007422    0.487221   -0.010909    0.011148   -0.007277
C    -0.106707   -0.995392   -0.012357   -0.004765    0.120994   -0.371039
C    -1.593621   -0.970722    0.246034   -0.009110   -0.109699    0.246880
O     0.596269    0.047929    0.559108   -0.014113   -0.066659    0.222712
H     2.277672    1.899179    1.300757   -0.009431   -0.082633    0.237741
H     3.786640    0.906540    0.835230   -0.004243    0.040541   -0.099105
H    -3.173186    0.394277    0.794646    0.037289   -0.005925    0.129019
H    -1.640543    0.696434    1.660499    0.309610    0.527852   -0.318290
H    -1.809631    1.188491   -0.041483   -0.191053   -0.123004   -0.600403
H     2.356743   -0.927575    0.069810   -0.008216    0.083903   -0.211485
H     0.444597   -1.942751   -0.161203    0.076210    0.113050   -1.002236
H    -1.878710   -1.730853    1.022704    0.321247    0.119944    0.823681
H    -2.127778   -1.291390   -0.685763   -0.368509   -0.687528    0.472349
15
* Frequency(6) -149.8369
C     2.712729    0.992780    0.900044   -0.007086   -0.012204    0.045639
C    -2.084189    0.410005    0.689790    0.036998    0.079710   -0.163132
C     1.952097   -0.007316    0.487151   -0.010909    0.011148   -0.007277
C    -0.106753   -0.994241   -0.015888   -0.004765    0.120994   -0.371039
C    -1.593708   -0.971766    0.248383   -0.009110   -0.109699    0.246880
O     0.596135    0.047295    0.561227   -0.014113   -0.066659    0.222712
H     2.277582    1.898393    1.303019   -0.009431   -0.082633    0.237741
H     3.786600    0.906926    0.834287   -0.004243    0.040541   -0.099105
H    -3.172831    0.394220    0.795874    0.037289   -0.005925    0.129019
H    -1.637598    0.701456    1.657471    0.309610    0.527852   -0.318290
H    -1.811449    1.187321   -0.047196   -0.191053   -0.123004   -0.600403
H     2.356664   -0.926777    0.067798   -0.008216    0.083903   -0.211485
H     0.445322   -1.941676   -0.170739    0.076210    0.113050   -1.002236
H    -1.875654   -1.729712    1.030541    0.321247    0.119944    0.823681
H    -2.131284   -1.297931   -0.681269   -0.368509   -0.687528    0.472349
15
* Frequency(6) -149.8369
C     2.712929    0.993125    0.898753   -0.007086   -0.012204    0.045639
C    -2.085235    0.407751    0.694404    0.036998    0.079710   -0.163132
C     1.952405   -0.007631    0.487357   -0.010909    0.011148   -0.007277
C    -0.106618   -0.997663   -0.005393   -0.004765    0.120994   -0.371039
C    -1.593450   -0.968663    0.241400   -0.009110   -0.109699    0.246880
O     0.596534    0.049181    0.554928   -0.014113   -0.066659    0.222712
H     2.277849    1.900730    1.296295   -0.009431   -0.082633    0.237741
H     3.786720    0.905779    0.837090   -0.004243    0.040541   -0.099105
H    -3.173886    0.394388    0.792225    0.037289   -0.005925    0.129019
H    -1.646355    0.686526    1.666473    0.309610    0.527852   -0.318290
H    -1.806045    1.190800   -0.030214   -0.191053   -0.123004   -0.600403
H     2.356897   -0.929150    0.073779   -0.008216    0.083903   -0.211485
H     0.443167   -1.944873   -0.142392    0.076210    0.113050   -1.002236
H    -1.884740   -1.733104    1.007244    0.321247    0.119944    0.823681
H    -2.120861   -1.278485   -0.694629   -0.368509   -0.687528    0.472349
15
* Frequency(6) -149.8369
C     2.713376    0.993894    0.895877   -0.007086   -0.012204    0.045639
C    -2.087567    0.402728    0.704684    0.036998    0.079710   -0.163132
C     1.953093   -0.008334    0.487816   -0.010909    0.011148   -0.007277
C    -0.106318   -1.005288    0.017989   -0.004765    0.120994   -0.371039
C    -1.592876   -0.961750    0.225842   -0.009110   -0.109699    0.246880
O     0.597424    0.053381    0.540893   -0.014113   -0.066659    0.222712
H     2.278443    1.905937    1.281313   -0.009431   -0.082633    0.237741
H     3.786988    0.903225    0.843335   -0.004243    0.040541   -0.099105
H    -3.176235    0.394761    0.784094    0.037289   -0.005925    0.129019
H    -1.665865    0.653262    1.686531    0.309610    0.527852   -0.318290
H    -1.794005    1.198552    0.007622   -0.191053   -0.123004   -0.600403
H     2.357414   -0.934438    0.087107   -0.008216    0.083903   -0.211485
H     0.438364   -1.951997   -0.079233    0.076210    0.113050   -1.002236
H    -1.904984   -1.740663    0.955338    0.321247    0.119944    0.823681
H    -2.097638   -1.235159   -0.724395   -0.368509   -0.687528    0.472349
15
* Frequency(6) -149.8369
C     2.714020    0.995004    0.891728   -0.007086   -0.012204    0.045639
C    -2.090931    0.395480    0.719517    0.036998    0.079710   -0.163132
C     1.954085   -0.009347    0.488478   -0.010909    0.011148   -0.007277
C    -0.105884   -1.016289    0.051724   -0.004765    0.120994   -0.371039
C    -1.592048   -0.951776    0.203396   -0.009110   -0.109699    0.246880
O     0.598707    0.059442    0.520644   -0.014113   -0.066659    0.222712
H     2.279301    1.913451    1.259697   -0.009431   -0.082633    0.237741
H     3.787373    0.899538    0.852346   -0.004243    0.040541   -0.099105
H    -3.179626    0.395300    0.772364    0.037289   -0.005925    0.129019
H    -1.694016    0.605269    1.715471    0.309610    0.527852   -0.318290
H    -1.776635    1.209735    0.062211   -0.191053   -0.123004   -0.600403
H     2.358161   -0.942066    0.106335   -0.008216    0.083903   -0.211485
H     0.431435   -1.962276    0.011892    0.076210    0.113050   -1.002236
H    -1.934192   -1.751568    0.880447    0.321247    0.119944    0.823681
H    -2.064133   -1.172648   -0.767342   -0.368509   -0.687528    0.472349
15
* Frequency(6) -149.8369
C     2.714792    0.996334    0.886754   -0.007086   -0.012204    0.045639
C    -2.094962    0.386794    0.737294    0.036998    0.079710   -0.163132
C     1.955273   -0.010562    0.489271   -0.010909    0.011148   -0.007277
C    -0.105365   -1.029474    0.092158   -0.004765    0.120994   -0.371039
C    -1.591055   -0.939822    0.176492   -0.009110   -0.109699    0.246880
O     0.600245    0.066706    0.496374   -0.014113   -0.066659    0.222712
H     2.280328    1.922455    1.233789   -0.009431   -0.082633    0.237741
H     3.787836    0.895121    0.863146   -0.004243    0.040541   -0.099105
H    -3.183689    0.395946    0.758304    0.037289   -0.005925    0.129019
H    -1.727755    0.547747    1.750156    0.309610    0.527852   -0.318290
H    -1.755815    1.223140    0.127639   -0.191053   -0.123004   -0.600403
H     2.359057   -0.951209    0.129381   -0.008216    0.083903   -0.211485
H     0.423130   -1.974596    0.121109    0.076210    0.113050   -1.002236
H    -1.969200   -1.764639    0.790688    0.321247    0.119944    0.823681
H    -2.023975   -1.097726   -0.818815   -0.368509   -0.687528    0.472349
15
* Frequency(6) -149.8369
C     2.715609    0.997740    0.881496   -0.007086   -0.012204    0.045639
C    -2.099225    0.377610    0.756089    0.036998    0.079710   -0.163132
C     1.956530   -0.011847    0.490109   -0.010909    0.011148   -0.007277
C    -0.104816   -1.043415    0.134907   -0.004765    0.120994   -0.371039
C    -1.590005   -0.927183    0.148048   -0.009110   -0.109699    0.246880
O     0.601871    0.074386    0.470714   -0.014113   -0.066659    0.222712
H     2.281415    1.931976    1.206398   -0.009431   -0.082633    0.237741
H     3.788325    0.890450    0.874564   -0.004243    0.040541   -0.099105
H    -3.187986    0.396628    0.743439    0.037289   -0.005925    0.129019
H    -1.763427    0.486930    1.786828    0.309610    0.527852   -0.318290
H    -1.733802    1.237312    0.196815   -0.191053   -0.123004   -0.600403
H     2.360003   -0.960876    0.153748   -0.008216    0.083903   -0.211485
H     0.414349   -1.987621    0.236583    0.076210    0.113050   -1.002236
H    -2.006212   -1.778459    0.695787    0.321247    0.119944    0.823681
H    -1.981517   -1.018511   -0.873238   -0.368509   -0.687528    0.472349
15
* Frequency(6) -149.8369
C     2.716381    0.999070    0.876522   -0.007086   -0.012204    0.045639
C    -2.103257    0.368924    0.773866    0.036998    0.079710   -0.163132
C     1.957719   -0.013062    0.490902   -0.010909    0.011148   -0.007277
C    -0.104297   -1.056600    0.175341   -0.004765    0.120994   -0.371039
C    -1.589013   -0.915229    0.121144   -0.009110   -0.109699    0.246880
O     0.603409    0.081650    0.446444   -0.014113   -0.066659    0.222712
H     2.282443    1.940981    1.180490   -0.009431   -0.082633    0.237741
H     3.788787    0.886032    0.885364   -0.004243    0.040541   -0.099105
H    -3.192049    0.397274    0.729379    0.037289   -0.005925    0.129019
H    -1.797166    0.429408    1.821513    0.309610    0.527852   -0.318290
H    -1.712983    1.250716    0.262243   -0.191053   -0.123004   -0.600403
H     2.360899   -0.970020    0.176794   -0.008216    0.083903   -0.211485
H     0.406044   -1.999940    0.345800    0.076210    0.113050   -1.002236
H    -2.041220   -1.791529    0.606027    0.321247    0.119944    0.823681
H    -1.941359   -0.943589   -0.924711   -0.368509   -0.687528    0.472349
15
* Frequency(6) -149.8369
C     2.717025    1.000179    0.872373   -0.007086   -0.012204    0.045639
C    -2.106621    0.361677    0.788699    0.036998    0.079710   -0.163132
C     1.958711   -0.014075    0.491564   -0.010909    0.011148   -0.007277
C    -0.103864   -1.067601    0.209076   -0.004765    0.120994   -0.371039
C    -1.588184   -0.905255    0.098698   -0.009110   -0.109699    0.246880
O     0.604692    0.087711    0.426195   -0.014113   -0.066659    0.222712
H     2.283300    1.948494    1.158874   -0.009431   -0.082633    0.237741
H     3.789173    0.882346    0.894375   -0.004243    0.040541   -0.099105
H    -3.195440    0.397813    0.717648    0.037289   -0.005925    0.129019
H    -1.825317    0.381415    1.850453    0.309610    0.527852   -0.318290
H    -1.695612    1.261900    0.316833   -0.191053   -0.123004   -0.600403
H     2.361646   -0.977648    0.196023   -0.008216    0.083903   -0.211485
H     0.399115   -2.010219    0.436925    0.076210    0.113050   -1.002236
H    -2.070428   -1.802435    0.531137    0.321247    0.119944    0.823681
H    -1.907854   -0.881078   -0.967658   -0.368509   -0.687528    0.472349
15
* Frequency(6) -149.8369
C     2.717472    1.000948    0.869497   -0.007086   -0.012204    0.045639
C    -2.108952    0.356654    0.798979    0.036998    0.079710   -0.163132
C     1.959398   -0.014778    0.492022   -0.010909    0.011148   -0.007277
C    -0.103564   -1.075226    0.232458   -0.004765    0.120994   -0.371039
C    -1.587610   -0.898342    0.083140   -0.009110   -0.109699    0.246880
O     0.605582    0.091912    0.412160   -0.014113   -0.066659    0.222712
H     2.283895    1.953701    1.143893   -0.009431   -0.082633    0.237741
H     3.789440    0.879791    0.900620   -0.004243    0.040541   -0.099105
H    -3.197789    0.398186    0.709518    0.037289   -0.005925    0.129019
H    -1.844828    0.348151    1.870510    0.309610    0.527852   -0.318290
H    -1.683572    1.269651    0.354669   -0.191053   -0.123004   -0.600403
H     2.362163   -0.982936    0.209350   -0.008216    0.083903   -0.211485
H     0.394313   -2.017343    0.500083    0.076210    0.113050   -1.002236
H    -2.090672   -1.809993    0.479231    0.321247    0.119944    0.823681
H    -1.884631   -0.837752   -0.997424   -0.368509   -0.687528    0.472349
15
* Frequency(6) -149.8369
C     2.717672    1.001294    0.868206   -0.007086   -0.012204    0.045639
C    -2.109999    0.354399    0.803593    0.036998    0.079710   -0.163132
C     1.959707   -0.015093    0.492228   -0.010909    0.011148   -0.007277
C    -0.103429   -1.078648    0.242953   -0.004765    0.120994   -0.371039
C    -1.587352   -0.895239    0.076157   -0.009110   -0.109699    0.246880
O     0.605981    0.093797    0.405861   -0.014113   -0.066659    0.222712
H     2.284161    1.956039    1.137168   -0.009431   -0.082633    0.237741
H     3.789560    0.878644    0.903423   -0.004243    0.040541   -0.099105
H    -3.198844    0.398354    0.705869    0.037289   -0.005925    0.129019
H    -1.853585    0.333221    1.879513    0.309610    0.527852   -0.318290
H    -1.678168    1.273130    0.371651   -0.191053   -0.123004   -0.600403
H     2.362396   -0.985309    0.215332   -0.008216    0.083903   -0.211485
H     0.392157   -2.020541    0.528431    0.076210    0.113050   -1.002236
H    -2.099758   -1.813386    0.455934    0.321247    0.119944    0.823681
H    -1.874208   -0.818306   -1.010784   -0.368509   -0.687528    0.472349
15
* Frequency(6) -149.8369
C     2.717605    1.001177    0.868640   -0.007086   -0.012204    0.045639
C    -2.109647    0.355157    0.802041    0.036998    0.079710   -0.163132
C     1.959603   -0.014987    0.492159   -0.010909    0.011148   -0.007277
C    -0.103474   -1.077497    0.239423   -0.004765    0.120994   -0.371039
C    -1.587439   -0.896283    0.078506   -0.009110   -0.109699    0.246880
O     0.605847    0.093163    0.407980   -0.014113   -0.066659    0.222712
H     2.284072    1.955252    1.139430   -0.009431   -0.082633    0.237741
H     3.789520    0.879030    0.902480   -0.004243    0.040541   -0.099105
H    -3.198489    0.398297    0.707096    0.037289   -0.005925    0.129019
H    -1.850639    0.338244    1.876485    0.309610    0.527852   -0.318290
H    -1.679986    1.271960    0.365938   -0.191053   -0.123004   -0.600403
H     2.362318   -0.984511    0.213319   -0.008216    0.083903   -0.211485
H     0.392882   -2.019465    0.518895    0.076210    0.113050   -1.002236
H    -2.096702   -1.812244    0.463771    0.321247    0.119944    0.823681
H    -1.877715   -0.824847   -1.006290   -0.368509   -0.687528    0.472349
15
* Frequency(6) -149.8369
C     2.717277    1.000613    0.870752   -0.007086   -0.012204    0.045639
C    -2.107934    0.358847    0.794491    0.036998    0.079710   -0.163132
C     1.959098   -0.014471    0.491822   -0.010909    0.011148   -0.007277
C    -0.103695   -1.071897    0.222250   -0.004765    0.120994   -0.371039
C    -1.587861   -0.901360    0.089932   -0.009110   -0.109699    0.246880
O     0.605193    0.090078    0.418287   -0.014113   -0.066659    0.222712
H     2.283635    1.951428    1.150433   -0.009431   -0.082633    0.237741
H     3.789324    0.880906    0.897893   -0.004243    0.040541   -0.099105
H    -3.196763    0.398023    0.713067    0.037289   -0.005925    0.129019
H    -1.836309    0.362673    1.861753    0.309610    0.527852   -0.318290
H    -1.688829    1.266267    0.338150   -0.191053   -0.123004   -0.600403
H     2.361937   -0.980627    0.203531   -0.008216    0.083903   -0.211485
H     0.396409   -2.014233    0.472509    0.076210    0.113050   -1.002236
H    -2.081834   -1.806693    0.501892    0.321247    0.119944    0.823681
H    -1.894770   -0.856667   -0.984429   -0.368509   -0.687528    0.472349
15
* Frequency(6) -149.8369
C     2.716724    0.999660    0.874314   -0.007086   -0.012204    0.045639
C    -2.105047    0.365067    0.781761    0.036998    0.079710   -0.163132
C     1.958247   -0.013601    0.491254   -0.010909    0.011148   -0.007277
C    -0.104066   -1.062455    0.193297   -0.004765    0.120994   -0.371039
C    -1.588572   -0.909920    0.109197   -0.009110   -0.109699    0.246880
O     0.604092    0.084876    0.435666   -0.014113   -0.066659    0.222712
H     2.282899    1.944980    1.168985   -0.009431   -0.082633    0.237741
H     3.788992    0.884070    0.890160   -0.004243    0.040541   -0.099105
H    -3.193854    0.397561    0.723135    0.037289   -0.005925    0.129019
H    -1.812149    0.403864    1.836916    0.309610    0.527852   -0.318290
H    -1.703737    1.256668    0.291299   -0.191053   -0.123004   -0.600403
H     2.361296   -0.974080    0.187028   -0.008216    0.083903   -0.211485
H     0.402356   -2.005411    0.394301    0.076210    0.113050   -1.002236
H    -2.056766   -1.797334    0.566167    0.321247    0.119944    0.823681
H    -1.923526   -0.910317   -0.947570   -0.368509   -0.687528    0.472349
15
* Frequency(6) -149.8369
C     2.716006    0.998424    0.878938   -0.007086   -0.012204    0.045639
C    -2.101298    0.373144    0.765231    0.036998    0.079710   -0.163132
C     1.957142   -0.012472    0.490517   -0.010909    0.011148   -0.007277
C    -0.104549   -1.050195    0.155699   -0.004765    0.120994   -0.371039
C    -1.589495   -0.921036    0.134213   -0.009110   -0.109699    0.246880
O     0.602662    0.078122    0.458234   -0.014113   -0.066659    0.222712
H     2.281944    1.936607    1.193076   -0.009431   -0.082633    0.237741
H     3.788562    0.888178    0.880118   -0.004243    0.040541   -0.099105
H    -3.190075    0.396960    0.736209    0.037289   -0.005925    0.129019
H    -1.780777    0.457351    1.804664    0.309610    0.527852   -0.318290
H    -1.723096    1.244204    0.230460   -0.191053   -0.123004   -0.600403
H     2.360464   -0.965578    0.165599   -0.008216    0.083903   -0.211485
H     0.410079   -1.993956    0.292745    0.076210    0.113050   -1.002236
H    -2.024214   -1.785180    0.649630    0.321247    0.119944    0.823681
H    -1.960867   -0.979984   -0.899707   -0.368509   -0.687528    0.472349
15
* Frequency(6) -149.8369
C     2.715200    0.997037    0.884125   -0.007086   -0.012204    0.045639
C    -2.097094    0.382202    0.746692    0.036998    0.079710   -0.163132
C     1.955902   -0.011205    0.489690   -0.010909    0.011148   -0.007277
C    -0.105091   -1.036445    0.113533   -0.004765    0.120994   -0.371039
C    -1.590530   -0.933502    0.162270   -0.009110   -0.109699    0.246880
O     0.601058    0.070546    0.483544   -0.014113   -0.066659    0.222712
H     2.280872    1.927216    1.220094   -0.009431   -0.082633    0.237741
H     3.788080    0.892785    0.868855   -0.004243    0.040541   -0.099105
H    -3.185837    0.396287    0.750871    0.037289   -0.005925    0.129019
H    -1.745591    0.517339    1.768492    0.309610    0.527852   -0.318290
H    -1.744809    1.230226    0.162227   -0.191053   -0.123004   -0.600403
H     2.359530   -0.956043    0.141565   -0.008216    0.083903   -0.211485
H     0.418740   -1.981108    0.178846    0.076210    0.113050   -1.002236
H    -1.987706   -1.771549    0.743237    0.321247    0.119944    0.823681
H    -2.002746   -1.058118   -0.846027   -0.368509   -0.687528    0.472349
