15
Coordinates from ORCA-job freq E -270.996903749699
  C          -2.59526783048598      0.66941588844764      0.09590489042753
  C          -1.54154730884143     -0.10918099275187      0.43123326586526
  C           0.12979342332949      0.21377997797245     -1.01186332263015
  C           1.16479465836903     -0.65851187402734     -0.45540706326874
  C           2.54831609841179     -0.19480476207213     -0.21829941290472
  O           1.63515147879720     -0.32355001112086      0.84920990274582
  H          -3.36354993030777      0.32098252021800     -0.58070298728217
  H          -2.67507971630050      1.68961984929863      0.44567756422543
  H          -1.54902207315724     -1.16434818544119      0.18757626473778
  H          -0.85622642793401      0.19002059911238      1.21349182977703
  H           0.25953449778935      1.27946347895279     -0.87779736914890
  H          -0.35406975639792     -0.09829593229741     -1.92622772003943
  H           1.02928870233563     -1.72552897770655     -0.60388286650997
  H           2.80655751750413      0.82321002387002     -0.48697492741175
  H           3.36132966688827     -0.91227160245455     -0.22531504858300
