15
Coordinates from ORCA-job scan E -270.816141463228
  C      -2.366501      0.725534      0.292825
  C      -1.190106     -0.041786      0.789925
  C       0.062237      0.208291     -1.417244
  C       1.255504     -0.570264     -0.931588
  C       2.071326     -0.153645      0.159508
  O       1.018827     -0.938382      0.499158
  H      -3.034621      0.062283     -0.265851
  H      -2.087047      1.615396     -0.303339
  H      -1.153728     -1.105545      0.631436
  H      -0.393502      0.502227      1.257250
  H       0.048799      1.268590     -1.242014
  H      -0.766733     -0.314444     -1.865738
  H       1.294039     -1.593091     -1.392402
  H       2.137115      0.938272      0.376830
  H       3.104393     -0.603436      0.247869
15
Coordinates from ORCA-job scan E -270.840840756546
  C      -2.324294      0.704940      0.293198
  C      -1.215265     -0.023642      0.771945
  C       0.070767      0.188014     -1.419818
  C       1.241871     -0.581608     -0.939645
  C       2.077824     -0.150797      0.156924
  O       1.022182     -0.947384      0.508700
  H      -3.026511      0.076460     -0.254357
  H      -2.078383      1.618138     -0.253596
  H      -1.181113     -1.087837      0.641513
  H      -0.414710      0.511431      1.244754
  H       0.047712      1.252884     -1.256776
  H      -0.749734     -0.333254     -1.876146
  H       1.321050     -1.568241     -1.412520
  H       2.118018      0.926216      0.383036
  H       3.090589     -0.585319      0.249410
15
Coordinates from ORCA-job scan E -270.855463057431
  C      -2.284478      0.684622      0.288090
  C      -1.239869     -0.009338      0.755500
  C       0.080377      0.169279     -1.418792
  C       1.229651     -0.590693     -0.945208
  C       2.084912     -0.146526      0.152810
  O       1.027774     -0.957210      0.519929
  H      -3.026544      0.099242     -0.250749
  H      -2.077365      1.630463     -0.205364
  H      -1.201609     -1.076891      0.652943
  H      -0.432314      0.514567      1.233657
  H       0.042268      1.236986     -1.266485
  H      -0.734937     -0.351539     -1.883767
  H       1.348429     -1.553591     -1.429751
  H       2.096773      0.921844      0.387221
  H       3.086935     -0.571214      0.246590
15
Coordinates from ORCA-job scan E -270.868979935326
  C      -2.289494      0.690341      0.260923
  C      -1.265373     -0.003353      0.746122
  C       0.090423      0.139358     -1.408862
  C       1.231916     -0.609772     -0.943445
  C       2.109280     -0.146365      0.139145
  O       1.068431     -0.981883      0.534622
  H      -3.066862      0.152781     -0.276766
  H      -2.121007      1.685440     -0.135869
  H      -1.223348     -1.075141      0.686201
  H      -0.447729      0.506171      1.228764
  H       0.024997      1.208353     -1.265978
  H      -0.715169     -0.384442     -1.887306
  H       1.413621     -1.542270     -1.455853
  H       2.077184      0.912844      0.392272
  H       3.113135     -0.552064      0.222652
15
Coordinates from ORCA-job scan E -270.882191412094
  C      -2.315982      0.708138      0.220412
  C      -1.303399      0.008951      0.729779
  C       0.105354      0.102557     -1.393698
  C       1.241817     -0.640706     -0.929226
  C       2.146446     -0.148330      0.116965
  O       1.136861     -1.019466      0.556364
  H      -3.129478      0.218836     -0.304060
  H      -2.193623      1.752727     -0.033867
  H      -1.262534     -1.066814      0.727851
  H      -0.472899      0.496249      1.216442
  H       0.010037      1.169561     -1.263829
  H      -0.685753     -0.418248     -1.903016
  H       1.504014     -1.534569     -1.479885
  H       2.055981      0.899582      0.399923
  H       3.163163     -0.528469      0.176469
15
Coordinates from ORCA-job scan E -270.888943202921
  C      -2.348028      0.725319      0.191863
  C      -1.341618      0.027149      0.707506
  C       0.121928      0.074262     -1.380151
  C       1.255362     -0.670598     -0.907787
  C       2.182275     -0.151181      0.097972
  O       1.203739     -1.051663      0.572681
  H      -3.187336      0.257672     -0.306998
  H      -2.269049      1.796530      0.060735
  H      -1.309715     -1.050831      0.746301
  H      -0.500903      0.497021      1.195327
  H       0.017918      1.139347     -1.262085
  H      -0.651930     -0.434829     -1.930276
  H       1.565927     -1.535974     -1.481879
  H       2.052314      0.886015      0.405269
  H       3.209118     -0.508239      0.128143
15
Coordinates from ORCA-job scan E -270.892389647178
  C      -2.394083      0.744878      0.177602
  C      -1.376930      0.047558      0.683170
  C       0.141012      0.052641     -1.365812
  C       1.273253     -0.697529     -0.884941
  C       2.221316     -0.156164      0.083866
  O       1.268140     -1.077659      0.580137
  H      -3.254321      0.275359     -0.280803
  H      -2.358130      1.825390      0.131252
  H      -1.358649     -1.031929      0.741413
  H      -0.529371      0.507827      1.169944
  H       0.049078      1.117854     -1.256273
  H      -0.611080     -0.439357     -1.961862
  H       1.603029     -1.546519     -1.473956
  H       2.072365      0.872863      0.408504
  H       3.254375     -0.495214      0.084382
15
Coordinates from ORCA-job scan E -270.894225694294
  C      -2.442560      0.760241      0.177424
  C      -1.411255      0.067523      0.660003
  C       0.157814      0.035946     -1.349854
  C       1.290146     -0.719889     -0.863211
  C       2.260597     -0.161180      0.073628
  O       1.324263     -1.093931      0.583343
  H      -3.313994      0.278325     -0.245496
  H      -2.444939      1.843026      0.185883
  H      -1.405307     -1.012658      0.718215
  H      -0.560745      0.526118      1.142750
  H       0.090392      1.103409     -1.246924
  H      -0.568896     -0.437584     -1.991375
  H       1.618854     -1.563829     -1.462166
  H       2.108835      0.864490      0.406355
  H       3.296798     -0.490009      0.048048
15
Coordinates from ORCA-job scan E -270.895158011045
  C      -2.489932      0.769834      0.186489
  C      -1.441692      0.083342      0.643192
  C       0.170438      0.025208     -1.331689
  C       1.304288     -0.735872     -0.845122
  C       2.297841     -0.166996      0.064867
  O       1.369161     -1.099240      0.587239
  H      -3.363411      0.273563     -0.215985
  H      -2.521743      1.851761      0.219304
  H      -1.441386     -0.997054      0.687346
  H      -0.592183      0.547590      1.121265
  H       0.131080      1.095223     -1.232384
  H      -0.531310     -0.431266     -2.011870
  H       1.619170     -1.580374     -1.451596
  H       2.156568      0.859662      0.396926
  H       3.333115     -0.495380      0.018642
15
Coordinates from ORCA-job scan E -270.895641082222
  C      -2.528576      0.771735      0.198001
  C      -1.467363      0.093559      0.633709
  C       0.178485      0.021055     -1.312679
  C       1.313281     -0.745507     -0.830973
  C       2.329691     -0.172650      0.055348
  O       1.401543     -1.093461      0.596521
  H      -3.396465      0.265995     -0.205438
  H      -2.579734      1.852570      0.238757
  H      -1.463666     -0.986704      0.657916
  H      -0.622423      0.567488      1.109196
  H       0.162242      1.092872     -1.213814
  H      -0.503412     -0.420742     -2.021565
  H       1.608438     -1.594631     -1.441371
  H       2.206905      0.858429      0.379149
  H       3.361057     -0.510009     -0.006134
15
Coordinates from ORCA-job scan E -270.896000419392
  C      -2.564333      0.767901      0.208348
  C      -1.490602      0.099816      0.627714
  C       0.185834      0.023418     -1.292240
  C       1.318923     -0.751576     -0.818225
  C       2.360380     -0.179179      0.042762
  O       1.427383     -1.077223      0.612111
  H      -3.421655      0.255954     -0.209989
  H      -2.629639      1.847694      0.250946
  H      -1.474456     -0.980141      0.629637
  H      -0.654575      0.586166      1.105334
  H       0.187321      1.095752     -1.188953
  H      -0.481170     -0.403024     -2.023829
  H       1.588744     -1.610061     -1.426696
  H       2.263214      0.859004      0.350816
  H       3.384633     -0.534500     -0.031114
15
Coordinates from ORCA-job scan E -270.896401916498
  C      -2.602251      0.757408      0.215834
  C      -1.515105      0.103615      0.621395
  C       0.195559      0.033752     -1.268380
  C       1.321433     -0.755860     -0.803375
  C       2.395157     -0.187696      0.024025
  O       1.451443     -1.045771      0.636273
  H      -3.442698      0.241050     -0.230425
  H      -2.681677      1.835945      0.264111
  H      -1.475317     -0.975221      0.598122
  H      -0.694073      0.605118      1.108344
  H       0.210165      1.105227     -1.152868
  H      -0.460471     -0.372736     -2.020584
  H       1.556074     -1.632225     -1.399571
  H       2.334354      0.860712      0.304579
  H       3.407412     -0.573319     -0.060858
15
Coordinates from ORCA-job scan E -270.896946578527
  C      -2.644773      0.738108      0.217367
  C      -1.541141      0.105371      0.611701
  C       0.210519      0.055831     -1.240792
  C       1.319562     -0.758101     -0.783971
  C       2.436906     -0.200294     -0.003367
  O       1.475093     -0.991613      0.669834
  H      -3.461251      0.217339     -0.266441
  H      -2.742845      1.814305      0.280898
  H      -1.463130     -0.970416      0.561274
  H      -0.743594      0.624418      1.118111
  H       0.232548      1.124173     -1.100718
  H      -0.439501     -0.322866     -2.012070
  H       1.504792     -1.663671     -1.351247
  H       2.427702      0.860609      0.232153
  H       3.429117     -0.633194     -0.096109
15
Coordinates from ORCA-job scan E -270.897571720812
  C      -2.681339      0.712178      0.208958
  C      -1.561398      0.104956      0.598139
  C       0.230461      0.088271     -1.216100
  C       1.311493     -0.757285     -0.762103
  C       2.475968     -0.216698     -0.035471
  O       1.494063     -0.919290      0.705291
  H      -3.472112      0.185855     -0.309893
  H      -2.803439      1.783977      0.300245
  H      -1.436623     -0.965366      0.526343
  H      -0.791304      0.639905      1.132651
  H       0.252319      1.150845     -1.040678
  H      -0.421109     -0.258094     -2.000408
  H       1.440354     -1.697733     -1.284635
  H       2.520846      0.854236      0.142780
  H       3.441823     -0.705756     -0.128498
15
Coordinates from ORCA-job scan E -270.898084780244
  C      -2.706271      0.687671      0.192809
  C      -1.573735      0.104164      0.582916
  C       0.250272      0.122732     -1.198980
  C       1.299724     -0.752561     -0.739875
  C       2.506604     -0.233710     -0.063749
  O       1.507623     -0.847113      0.732069
  H      -3.477335      0.151480     -0.344995
  H      -2.857384      1.752070      0.319429
  H      -1.408854     -0.959983      0.500066
  H      -0.828448      0.647568      1.144026
  H       0.271167      1.178061     -0.987771
  H      -0.407076     -0.194367     -1.990793
  H       1.377265     -1.723179     -1.214740
  H       2.601529      0.841957      0.057873
  H       3.444922     -0.774790     -0.151662
15
Coordinates from ORCA-job scan E -270.898482890928
  C      -2.723949      0.666787      0.174277
  C      -1.582438      0.103707      0.568907
  C       0.266471      0.155517     -1.186472
  C       1.287311     -0.743838     -0.716623
  C       2.531311     -0.250186     -0.086869
  O       1.520447     -0.782168      0.750207
  H      -3.481008      0.115520     -0.368062
  H      -2.907288      1.721444      0.334061
  H      -1.388856     -0.955160      0.480290
  H      -0.856012      0.651060      1.150577
  H       0.292965      1.203968     -0.944639
  H      -0.395177     -0.137534     -1.984281
  H       1.319700     -1.736826     -1.149615
  H       2.674085      0.824732     -0.016031
  H       3.442441     -0.837021     -0.169104
15
Coordinates from ORCA-job scan E -270.898809095425
  C      -2.734362      0.649118      0.156455
  C      -1.588703      0.101538      0.560149
  C       0.276621      0.185669     -1.176511
  C       1.275106     -0.731077     -0.693408
  C       2.549513     -0.264412     -0.105016
  O       1.532620     -0.727471      0.761977
  H      -3.481471      0.080845     -0.382220
  H      -2.947639      1.694351      0.338089
  H      -1.378809     -0.953912      0.467592
  H      -0.874485      0.650692      1.155105
  H       0.316675      1.228860     -0.912312
  H      -0.386330     -0.090511     -1.979306
  H       1.268682     -1.738892     -1.094185
  H       2.737633      0.805398     -0.076130
  H       3.434952     -0.890195     -0.183657
15
Coordinates from ORCA-job scan E -270.899082233328
  C      -2.739441      0.631632      0.141917
  C      -1.593895      0.095430      0.559286
  C       0.280356      0.214546     -1.165676
  C       1.262760     -0.715227     -0.670970
  C       2.563318     -0.276181     -0.120621
  O       1.544788     -0.680130      0.770838
  H      -3.477555      0.049652     -0.394808
  H      -2.976019      1.670787      0.328272
  H      -1.376102     -0.957960      0.461217
  H      -0.887986      0.647182      1.161061
  H       0.340184      1.254328     -0.888410
  H      -0.380047     -0.051004     -1.973304
  H       1.220028     -1.732313     -1.047504
  H       2.795589      0.785352     -0.126830
  H       3.424025     -0.936093     -0.197847
15
Coordinates from ORCA-job scan E -270.899316198288
  C      -2.737796      0.613141      0.129741
  C      -1.596777      0.084018      0.566853
  C       0.278925      0.243114     -1.153302
  C       1.249177     -0.697124     -0.650616
  C       2.571648     -0.285405     -0.135216
  O       1.555629     -0.638187      0.779171
  H      -3.467053      0.023913     -0.411437
  H      -2.988388      1.650888      0.304987
  H      -1.376974     -0.968598      0.463560
  H      -0.896962      0.639474      1.172179
  H       0.359970      1.281541     -0.873569
  H      -0.376718     -0.017956     -1.965149
  H       1.172440     -1.719500     -1.008794
  H       2.844194      0.765975     -0.169323
  H       3.408687     -0.975296     -0.212461
15
Coordinates from ORCA-job scan E -270.899507662022
  C      -2.735129      0.592751      0.119823
  C      -1.599523      0.069489      0.577937
  C       0.276076      0.272377     -1.137716
  C       1.234936     -0.678973     -0.631328
  C       2.579421     -0.294452     -0.151559
  O       1.568362     -0.596520      0.788520
  H      -3.452999      0.002333     -0.435219
  H      -2.993031      1.631776      0.277660
  H      -1.377787     -0.982448      0.470504
  H      -0.907934      0.630361      1.187234
  H       0.375644      1.310789     -0.863412
  H      -0.372270      0.014221     -1.955604
  H       1.123114     -1.704811     -0.970578
  H       2.888632      0.745735     -0.211654
  H       3.392492     -1.012630     -0.227985
15
Coordinates from ORCA-job scan E -270.899631074313
  C      -2.724703      0.580325      0.111777
  C      -1.598243      0.054663      0.591548
  C       0.271333      0.291557     -1.126318
  C       1.224246     -0.664672     -0.620138
  C       2.576925     -0.297832     -0.162182
  O       1.576342     -0.574812      0.796487
  H      -3.435588     -0.006108     -0.456250
  H      -2.977954      1.623742      0.250322
  H      -1.384531     -0.999715      0.488937
  H      -0.909648      0.617073      1.205090
  H       0.381484      1.333380     -0.870629
  H      -0.370572      0.028312     -1.948921
  H       1.093675     -1.690762     -0.952403
  H       2.901571      0.736292     -0.228597
  H       3.375665     -1.031443     -0.242100
15
Coordinates from ORCA-job scan E -270.899674474611
  C      -2.736470      0.559313      0.105555
  C      -1.607658      0.043504      0.591450
  C       0.275183      0.319760     -1.105928
  C       1.214094     -0.651639     -0.599787
  C       2.595806     -0.311434     -0.183706
  O       1.599484     -0.526737      0.805338
  H      -3.430587     -0.025419     -0.484423
  H      -2.996156      1.601577      0.242757
  H      -1.381588     -1.007860      0.486495
  H      -0.937658      0.612881      1.215852
  H       0.395255      1.360823     -0.854278
  H      -0.354850      0.068850     -1.941113
  H       1.043938     -1.681639     -0.899192
  H       2.952191      0.710727     -0.286827
  H       3.369019     -1.072707     -0.255570
15
Coordinates from ORCA-job scan E -270.899742393455
  C      -2.733937      0.567856      0.106788
  C      -1.606851      0.045429      0.590596
  C       0.275194      0.309782     -1.109558
  C       1.219297     -0.655944     -0.605756
  C       2.590296     -0.306580     -0.178640
  O       1.597690     -0.544044      0.804361
  H      -3.433360     -0.015577     -0.478120
  H      -2.985981      1.611616      0.246006
  H      -1.389661     -1.008644      0.493237
  H      -0.931986      0.610334      1.215817
  H       0.390045      1.353432     -0.865874
  H      -0.355511      0.054052     -1.944183
  H       1.062878     -1.685190     -0.915343
  H       2.929521      0.721475     -0.266743
  H       3.372367     -1.057996     -0.255964
15
Coordinates from ORCA-job scan E -270.899765816162
  C      -2.737140      0.569039      0.104869
  C      -1.609981      0.044795      0.587217
  C       0.277238      0.310430     -1.106992
  C       1.221136     -0.655328     -0.603312
  C       2.593039     -0.307415     -0.180689
  O       1.603620     -0.542089      0.804757
  H      -3.437192     -0.015645     -0.477955
  H      -2.987850      1.612358      0.248190
  H      -1.395040     -1.010209      0.493957
  H      -0.936431      0.607279      1.216459
  H       0.392639      1.354871     -0.865600
  H      -0.351990      0.056335     -1.943777
  H       1.063604     -1.685517     -0.909521
  H       2.930287      0.720770     -0.272101
  H       3.374063     -1.059673     -0.258879
15
Coordinates from ORCA-job scan E -270.899780707423
  C      -2.742447      0.568530      0.102371
  C      -1.615531      0.042598      0.583488
  C       0.279350      0.313389     -1.101326
  C       1.222465     -0.653364     -0.597823
  C       2.598528     -0.309276     -0.185184
  O       1.613515     -0.534897      0.806051
  H      -3.441971     -0.016868     -0.480314
  H      -2.991916      1.611498      0.248900
  H      -1.401812     -1.012948      0.492554
  H      -0.944371      0.602937      1.217178
  H       0.398013      1.358087     -0.861327
  H      -0.347346      0.062536     -1.941055
  H       1.059712     -1.684828     -0.897201
  H       2.937629      0.717463     -0.285837
  H       3.376183     -1.064857     -0.263851
15
Coordinates from ORCA-job scan E -270.899788693958
  C      -2.745830      0.567811      0.100479
  C      -1.620004      0.039724      0.581653
  C       0.280211      0.315783     -1.096285
  C       1.222916     -0.651675     -0.593093
  C       2.602528     -0.310238     -0.189001
  O       1.621369     -0.528266      0.807484
  H      -3.444972     -0.016515     -0.483728
  H      -2.993312      1.611045      0.247625
  H      -1.407074     -1.015995      0.490635
  H      -0.949899      0.598429      1.217783
  H       0.401973      1.360394     -0.856629
  H      -0.345218      0.066849     -1.937264
  H       1.055666     -1.683998     -0.887076
  H       2.943972      0.714969     -0.297939
  H       3.377678     -1.068318     -0.268021
15
Coordinates from ORCA-job scan E -270.899797762708
  C      -2.748904      0.567997      0.098350
  C      -1.625619      0.035265      0.579995
  C       0.280600      0.317159     -1.090144
  C       1.223629     -0.650365     -0.587599
  C       2.606657     -0.310082     -0.193322
  O       1.630876     -0.520907      0.809549
  H      -3.448643     -0.012693     -0.488765
  H      -2.991999      1.612176      0.245529
  H      -1.414541     -1.020670      0.487238
  H      -0.955039      0.591073      1.218072
  H       0.405401      1.361526     -0.850368
  H      -0.344688      0.069203     -1.931071
  H       1.052381     -1.683657     -0.875858
  H       2.949627      0.713653     -0.311886
  H       3.380266     -1.069680     -0.273096
15
Coordinates from ORCA-job scan E -270.899806115669
  C      -2.750391      0.570069      0.096814
  C      -1.630506      0.030711      0.578710
  C       0.280460      0.315894     -1.085436
  C       1.224894     -0.650523     -0.583622
  C       2.609391     -0.308176     -0.196324
  O       1.638706     -0.516019      0.811502
  H      -3.452323     -0.004892     -0.493332
  H      -2.987531      1.615559      0.244438
  H      -1.422765     -1.025591      0.482854
  H      -0.957287      0.582413      1.217562
  H       0.406010      1.360102     -0.845225
  H      -0.346426      0.066878     -1.924532
  H       1.052653     -1.684646     -0.868125
  H       2.951325      0.715164     -0.321642
  H       3.383792     -1.066943     -0.277018
15
Coordinates from ORCA-job scan E -270.899814458699
  C      -2.750457      0.574238      0.095883
  C      -1.634702      0.026146      0.577328
  C       0.280020      0.312001     -1.082379
  C       1.226928     -0.652052     -0.581086
  C       2.611150     -0.304547     -0.198080
  O       1.644925     -0.513014      0.813253
  H      -3.456292      0.006901     -0.496996
  H      -2.980433      1.621134      0.245467
  H      -1.432508     -1.030822      0.477045
  H      -0.956853      0.572018      1.216333
  H       0.403500      1.356320     -0.841941
  H      -0.349785      0.059769     -1.918215
  H       1.056513     -1.687025     -0.863317
  H       2.949697      0.719463     -0.327189
  H       3.388300     -1.060531     -0.279482
15
Coordinates from ORCA-job scan E -270.899822462259
  C      -2.749489      0.579934      0.095700
  C      -1.637964      0.021976      0.575568
  C       0.279475      0.306335     -1.081257
  C       1.229603     -0.654298     -0.579857
  C       2.612372     -0.299844     -0.198656
  O       1.649129     -0.511054      0.814529
  H      -3.460303      0.020850     -0.499077
  H      -2.972265      1.627908      0.249340
  H      -1.443411     -1.035950      0.469977
  H      -0.954576      0.560561      1.214880
  H       0.398407      1.351180     -0.841466
  H      -0.353367      0.049330     -1.913454
  H       1.062926     -1.690186     -0.860662
  H       2.946366      0.725499     -0.328942
  H       3.393100     -1.052240     -0.280001
15
Coordinates from ORCA-job scan E -270.899831849774
  C      -2.747790      0.587869      0.096325
  C      -1.641383      0.016944      0.572788
  C       0.278683      0.298449     -1.081479
  C       1.233343     -0.656962     -0.578953
  C       2.613892     -0.293484     -0.198555
  O       1.652655     -0.508286      0.815662
  H      -3.465149      0.039005     -0.500117
  H      -2.961854      1.636671      0.257135
  H      -1.458060     -1.042329      0.459913
  H      -0.951313      0.545219      1.213508
  H       0.390616      1.344415     -0.843971
  H      -0.356755      0.034798     -1.909845
  H       1.072051     -1.694148     -0.857816
  H       2.942289      0.733593     -0.329277
  H       3.398776     -1.041753     -0.278694
15
Coordinates from ORCA-job scan E -270.899843793339
  C      -2.745161      0.598969      0.098219
  C      -1.645788      0.009522      0.568351
  C       0.277248      0.287464     -1.083067
  C       1.238441     -0.659795     -0.577607
  C       2.616072     -0.284550     -0.197854
  O       1.656005     -0.502890      0.816995
  H      -3.471239      0.064231     -0.500496
  H      -2.946956      1.648382      0.270583
  H      -1.478781     -1.051382      0.444723
  H      -0.947595      0.522619      1.212542
  H       0.379623      1.335359     -0.850390
  H      -0.359672      0.014761     -1.907592
  H       1.084415     -1.699024     -0.852738
  H       2.937676      0.744458     -0.330069
  H       3.405715     -1.028123     -0.274976
15
Coordinates from ORCA-job scan E -270.899859618495
  C      -2.740800      0.614432      0.102354
  C      -1.651890     -0.002407      0.561390
  C       0.274535      0.271959     -1.086672
  C       1.244979     -0.662584     -0.575035
  C       2.618737     -0.271633     -0.196266
  O       1.658944     -0.492608      0.819066
  H      -3.478760      0.100893     -0.500369
  H      -2.923690      1.664135      0.292448
  H      -1.507991     -1.064834      0.421475
  H      -0.943625      0.488184      1.212045
  H       0.364554      1.322801     -0.862551
  H      -0.361834     -0.013115     -1.907547
  H       1.100849     -1.705017     -0.843217
  H       2.931861      0.759371     -0.333013
  H       3.414135     -1.009578     -0.267485
15
Coordinates from ORCA-job scan E -270.899878509196
  C      -2.734417      0.631344      0.109162
  C      -1.657857     -0.017317      0.553118
  C       0.270487      0.254333     -1.093149
  C       1.250929     -0.664511     -0.571783
  C       2.620099     -0.256650     -0.193165
  O       1.658728     -0.478665      0.821627
  H      -3.485211      0.143545     -0.499044
  H      -2.894127      1.680614      0.320205
  H      -1.539138     -1.080205      0.393572
  H      -0.939585      0.446943      1.212044
  H       0.348173      1.308544     -0.880208
  H      -0.362232     -0.044381     -1.911900
  H       1.118082     -1.710764     -0.830840
  H       2.924603      0.775934     -0.337224
  H       3.421469     -0.988764     -0.255794
15
Coordinates from ORCA-job scan E -270.899899677239
  C      -2.725205      0.649391      0.119487
  C      -1.662581     -0.034364      0.544074
  C       0.264887      0.234076     -1.103745
  C       1.255447     -0.666069     -0.568612
  C       2.618417     -0.239549     -0.187559
  O       1.653204     -0.462732      0.824550
  H      -3.489277      0.192145     -0.495880
  H      -2.857768      1.697267      0.353922
  H      -1.569582     -1.096173      0.361668
  H      -0.934070      0.400132      1.211997
  H       0.330698      1.291798     -0.904041
  H      -0.360644     -0.079591     -1.922129
  H       1.136249     -1.716501     -0.817469
  H       2.913212      0.794558     -0.340641
  H       3.427017     -0.964388     -0.238998
15
Coordinates from ORCA-job scan E -270.899917272613
  C      -2.717244      0.660601      0.128475
  C      -1.663401     -0.045461      0.539252
  C       0.260148      0.220284     -1.113575
  C       1.255989     -0.666908     -0.566852
  C       2.613914     -0.228125     -0.182119
  O       1.644915     -0.452415      0.826486
  H      -3.488371      0.224888     -0.493683
  H      -2.832196      1.707153      0.377969
  H      -1.584572     -1.105382      0.340396
  H      -0.928233      0.368568      1.212779
  H       0.320003      1.279969     -0.922718
  H      -0.357688     -0.103257     -1.933754
  H       1.146781     -1.720022     -0.809211
  H       2.901642      0.807012     -0.341650
  H       3.428315     -0.946906     -0.225170
15
Coordinates from ORCA-job scan E -270.899932076841
  C      -2.711405      0.668694      0.136078
  C      -1.664976     -0.054914      0.534350
  C       0.256880      0.209841     -1.120605
  C       1.255147     -0.668049     -0.563441
  C       2.609928     -0.219354     -0.178727
  O       1.640091     -0.441528      0.829246
  H      -3.487694      0.253003     -0.493318
  H      -2.811780      1.713566      0.398984
  H      -1.595470     -1.112524      0.320663
  H      -0.923486      0.341670      1.211717
  H       0.313036      1.270828     -0.935635
  H      -0.353958     -0.121408     -1.942949
  H       1.152867     -1.723604     -0.798442
  H       2.891183      0.816291     -0.346387
  H       3.429639     -0.932512     -0.214910
15
Coordinates from ORCA-job scan E -270.899942284381
  C      -2.707344      0.675051      0.142567
  C      -1.665812     -0.061885      0.529881
  C       0.255145      0.201960     -1.126262
  C       1.253741     -0.669482     -0.559708
  C       2.606324     -0.212784     -0.176441
  O       1.636717     -0.431323      0.831663
  H      -3.487606      0.275790     -0.492539
  H      -2.797888      1.717895      0.417490
  H      -1.603151     -1.117011      0.302179
  H      -0.918066      0.319187      1.209413
  H       0.308162      1.263654     -0.945054
  H      -0.349130     -0.136138     -1.950845
  H       1.156229     -1.727024     -0.787506
  H       2.882076      0.823105     -0.351641
  H       3.430604     -0.920996     -0.206573
15
Coordinates from ORCA-job scan E -270.899947056794
  C      -2.706785      0.677752      0.144871
  C      -1.667823     -0.065348      0.526124
  C       0.255595      0.199348     -1.127025
  C       1.253931     -0.670097     -0.556603
  C       2.606571     -0.210158     -0.176827
  O       1.638465     -0.424237      0.833227
  H      -3.489760      0.286136     -0.491627
  H      -2.792973      1.719086      0.426887
  H      -1.609830     -1.119257      0.291371
  H      -0.916693      0.308109      1.206180
  H       0.306277      1.261500     -0.947651
  H      -0.346390     -0.142270     -1.952062
  H       1.156858     -1.728763     -0.779298
  H       2.880501      0.825362     -0.356941
  H       3.432057     -0.917163     -0.204001
15
Coordinates from ORCA-job scan E -270.899949355999
  C      -2.708295      0.677325      0.145156
  C      -1.667447     -0.064763      0.525508
  C       0.257233      0.201549     -1.125912
  C       1.253077     -0.669743     -0.554236
  C       2.607230     -0.211409     -0.178382
  O       1.640550     -0.419738      0.833282
  H      -3.490305      0.284426     -0.491715
  H      -2.799309      1.717815      0.429883
  H      -1.609882     -1.117802      0.286588
  H      -0.914966      0.305710      1.204951
  H       0.307908      1.263353     -0.946659
  H      -0.342553     -0.141232     -1.952465
  H       1.152765     -1.728738     -0.773618
  H       2.882497      0.823165     -0.361687
  H       3.431498     -0.919920     -0.204070
15
Coordinates from ORCA-job scan E -270.899950529811
  C      -2.705778      0.685172      0.151017
  C      -1.672664     -0.073552      0.516250
  C       0.257002      0.192582     -1.129370
  C       1.256086     -0.670638     -0.549893
  C       2.608440     -0.203413     -0.177079
  O       1.641730     -0.406725      0.835960
  H      -3.496017      0.309888     -0.486317
  H      -2.781738      1.722145      0.450924
  H      -1.629057     -1.124263      0.263868
  H      -0.914301      0.281109      1.198113
  H       0.300851      1.256177     -0.956677
  H      -0.339280     -0.158043     -1.955142
  H       1.159811     -1.731808     -0.760299
  H       2.879739      0.830616     -0.369034
  H       3.435180     -0.909246     -0.195697
15
Coordinates from ORCA-job scan E -270.899952007267
  C      -2.706397      0.682462      0.148910
  C      -1.670659     -0.070522      0.519936
  C       0.256841      0.195687     -1.128207
  C       1.255256     -0.669966     -0.551852
  C       2.608033     -0.206150     -0.177295
  O       1.640756     -0.411637      0.834758
  H      -3.493319      0.300345     -0.488476
  H      -2.787857      1.720833      0.443173
  H      -1.622281     -1.122118      0.272544
  H      -0.914943      0.290006      1.201344
  H       0.303276      1.258719     -0.953762
  H      -0.340910     -0.151929     -1.954120
  H       1.157586     -1.730333     -0.765810
  H       2.881093      0.827962     -0.366238
  H       3.433529     -0.913358     -0.198282
15
Coordinates from ORCA-job scan E -270.899952348747
  C      -2.706444      0.682149      0.148674
  C      -1.670447     -0.070275      0.520461
  C       0.256832      0.196157     -1.127905
  C       1.255257     -0.669671     -0.552012
  C       2.608110     -0.206493     -0.177358
  O       1.640680     -0.411723      0.834576
  H      -3.492609      0.299074     -0.489068
  H      -2.788935      1.720585      0.442519
  H      -1.621550     -1.121843      0.273120
  H      -0.915205      0.290696      1.202098
  H       0.303722      1.259166     -0.953655
  H      -0.341262     -0.151057     -1.953707
  H       1.157088     -1.729969     -0.766158
  H       2.881624      0.827420     -0.366612
  H       3.433142     -0.914217     -0.198350
15
Coordinates from ORCA-job scan E -270.898292427091
  C      -2.711775      0.687487      0.140437
  C      -1.644946     -0.071407      0.505007
  C       0.228954      0.198726     -1.111473
  C       1.257345     -0.671960     -0.544170
  C       2.612982     -0.210550     -0.175510
  O       1.652257     -0.416394      0.840944
  H      -3.501178      0.303274     -0.492629
  H      -2.800486      1.724745      0.436699
  H      -1.614765     -1.132910      0.268448
  H      -0.901951      0.296252      1.206027
  H       0.292958      1.274968     -0.947325
  H      -0.357616     -0.154616     -1.958824
  H       1.164646     -1.732856     -0.761614
  H       2.885906      0.823650     -0.364046
  H       3.437671     -0.918412     -0.205348
15
Coordinates from ORCA-job scan E -270.899196144287
  C      -2.698537      0.683020      0.141144
  C      -1.647205     -0.069195      0.503564
  C       0.232298      0.195286     -1.107335
  C       1.250008     -0.670049     -0.544355
  C       2.603703     -0.206150     -0.178251
  O       1.643918     -0.416257      0.839206
  H      -3.485940      0.298908     -0.493662
  H      -2.783999      1.719960      0.437921
  H      -1.618103     -1.124506      0.269701
  H      -0.909283      0.293022      1.202990
  H       0.299024      1.260508     -0.947486
  H      -0.345011     -0.151404     -1.949301
  H       1.155114     -1.729877     -0.761974
  H       2.874042      0.828900     -0.366295
  H       3.429973     -0.912166     -0.209244
15
Coordinates from ORCA-job scan E -270.899273734432
  C      -2.692268      0.681826      0.140526
  C      -1.648302     -0.069056      0.503939
  C       0.233385      0.193339     -1.104751
  C       1.245903     -0.669969     -0.543518
  C       2.599437     -0.203888     -0.179771
  O       1.641325     -0.416552      0.839364
  H      -3.478602      0.298500     -0.496576
  H      -2.775809      1.719384      0.436709
  H      -1.617413     -1.123807      0.269941
  H      -0.909505      0.290201      1.203360
  H       0.300145      1.257488     -0.945661
  H      -0.343070     -0.150824     -1.946834
  H       1.150076     -1.729881     -0.761276
  H       2.867797      0.831653     -0.367616
  H       3.426905     -0.908415     -0.211213
15
Coordinates from ORCA-job scan E -270.899287946741
  C      -2.690447      0.682064      0.139650
  C      -1.648646     -0.069860      0.504896
  C       0.233140      0.192851     -1.103627
  C       1.244326     -0.670385     -0.542612
  C       2.598293     -0.203159     -0.180483
  O       1.641442     -0.416528      0.839960
  H      -3.476033      0.299690     -0.499123
  H      -2.773119      1.719979      0.435138
  H      -1.615540     -1.124679      0.270110
  H      -0.908288      0.287547      1.204075
  H       0.298872      1.257389     -0.944380
  H      -0.344173     -0.150058     -1.946068
  H       1.148274     -1.730381     -0.760177
  H       2.865603      0.832549     -0.368678
  H       3.426298     -0.907019     -0.212059
15
Coordinates from ORCA-job scan E -270.899302585678
  C      -2.687573      0.682722      0.137648
  C      -1.649220     -0.071961      0.507096
  C       0.232030      0.192637     -1.101743
  C       1.241827     -0.671113     -0.540605
  C       2.596844     -0.202248     -0.181790
  O       1.642285     -0.415616      0.841167
  H      -3.471407      0.302470     -0.504605
  H      -2.768726      1.721100      0.431951
  H      -1.611265     -1.126506      0.270149
  H      -0.905812      0.281780      1.205491
  H       0.294978      1.257625     -0.941720
  H      -0.347306     -0.147891     -1.944293
  H       1.145365     -1.731221     -0.757221
  H       2.862515      0.833553     -0.371462
  H       3.425468     -0.905331     -0.213438
15
Coordinates from ORCA-job scan E -270.899304728601
  C      -2.686879      0.682790      0.136971
  C      -1.649345     -0.072756      0.507731
  C       0.231495      0.193025     -1.101394
  C       1.241477     -0.671004     -0.539994
  C       2.596819     -0.202290     -0.182145
  O       1.642585     -0.414523      0.841327
  H      -3.470069      0.303176     -0.506365
  H      -2.767756      1.721106      0.431385
  H      -1.610161     -1.126941      0.269706
  H      -0.905459      0.280202      1.205931
  H       0.293359      1.257872     -0.940686
  H      -0.348516     -0.147166     -1.943518
  H       1.144738     -1.731175     -0.755864
  H       2.862496      0.833323     -0.372827
  H       3.425219     -0.905639     -0.213636
15
Coordinates from ORCA-job scan E -270.899306414633
  C      -2.686075      0.682678      0.136178
  C      -1.649447     -0.073713      0.508292
  C       0.230915      0.193697     -1.101121
  C       1.241301     -0.670483     -0.539363
  C       2.597042     -0.202496     -0.182609
  O       1.642846     -0.412536      0.841265
  H      -3.468484      0.303752     -0.508423
  H      -2.766823      1.720756      0.431288
  H      -1.609378     -1.127390      0.268698
  H      -0.905555      0.278752      1.206587
  H       0.291527      1.258256     -0.939200
  H      -0.349898     -0.146611     -1.942451
  H       1.143945     -1.730802     -0.754006
  H       2.863243      0.832706     -0.374821
  H       3.424844     -0.906566     -0.213692
15
Coordinates from ORCA-job scan E -270.899307348053
  C      -2.685425      0.682487      0.135583
  C      -1.649509     -0.074439      0.508537
  C       0.230620      0.194218     -1.100940
  C       1.241203     -0.669838     -0.538927
  C       2.597334     -0.202652     -0.183086
  O       1.643070     -0.410638      0.841107
  H      -3.467231      0.304099     -0.510037
  H      -2.766220      1.720284      0.431626
  H      -1.609233     -1.127750      0.267623
  H      -0.906033      0.277844      1.207300
  H       0.290374      1.258571     -0.937892
  H      -0.350818     -0.146520     -1.941562
  H       1.143090     -1.730337     -0.752440
  H       2.864259      0.832128     -0.376580
  H       3.424522     -0.907457     -0.213690
15
Coordinates from ORCA-job scan E -270.899308038777
  C      -2.684845      0.682283      0.135042
  C      -1.649589     -0.075110      0.508588
  C       0.230517      0.194634     -1.100736
  C       1.241080     -0.669116     -0.538493
  C       2.597708     -0.202730     -0.183692
  O       1.643482     -0.408693      0.840980
  H      -3.466069      0.304488     -0.511640
  H      -2.765818      1.719749      0.432242
  H      -1.609493     -1.128144      0.266448
  H      -0.906853      0.276988      1.208236
  H       0.289588      1.258843     -0.936644
  H      -0.351478     -0.146686     -1.940692
  H       1.142015     -1.729817     -0.750832
  H       2.865490      0.831598     -0.378412
  H       3.424268     -0.908288     -0.213772
15
Coordinates from ORCA-job scan E -270.897667948446
  C      -2.690022      0.687691      0.126726
  C      -1.624153     -0.076122      0.493244
  C       0.202494      0.197138     -1.084246
  C       1.243079     -0.671394     -0.530664
  C       2.602521     -0.206905     -0.181859
  O       1.655132     -0.413124      0.847200
  H      -3.474612      0.308681     -0.515182
  H      -2.777061      1.724087      0.426004
  H      -1.603305     -1.141820      0.261724
  H      -0.893266      0.282997      1.212223
  H       0.279424      1.277335     -0.930088
  H      -0.368058     -0.150674     -1.945693
  H       1.149421     -1.732758     -0.746103
  H       2.869896      0.827629     -0.376042
  H       3.428512     -0.912761     -0.220621
15
Coordinates from ORCA-job scan E -270.898616817859
  C      -2.677344      0.683313      0.127415
  C      -1.625968     -0.074198      0.491647
  C       0.206211      0.193795     -1.080322
  C       1.235841     -0.669353     -0.530902
  C       2.593328     -0.202296     -0.184758
  O       1.646973     -0.413161      0.845452
  H      -3.459897      0.304577     -0.516343
  H      -2.761246      1.719306      0.427491
  H      -1.606362     -1.130993      0.263717
  H      -0.901279      0.278783      1.209430
  H       0.285388      1.259886     -0.930480
  H      -0.354639     -0.146979     -1.936247
  H       1.139870     -1.729634     -0.746521
  H       2.858169      0.833166     -0.378046
  H       3.420956     -0.906212     -0.224911
15
Coordinates from ORCA-job scan E -270.898690387737
  C      -2.671360      0.682122      0.126824
  C      -1.626855     -0.074050      0.491745
  C       0.207537      0.192013     -1.077969
  C       1.231788     -0.669255     -0.529974
  C       2.589166     -0.200091     -0.186431
  O       1.644575     -0.413429      0.845617
  H      -3.452790      0.304154     -0.519191
  H      -2.753423      1.718658      0.426436
  H      -1.605913     -1.130312      0.264346
  H      -0.902034      0.275939      1.210155
  H       0.286610      1.256938     -0.928833
  H      -0.352210     -0.146303     -1.934052
  H       1.134754     -1.729641     -0.745567
  H       2.852227      0.835829     -0.379393
  H       3.417932     -0.902573     -0.227090
15
Coordinates from ORCA-job scan E -270.898703045951
  C      -2.669555      0.682255      0.125979
  C      -1.627180     -0.074795      0.492469
  C       0.207470      0.191643     -1.076880
  C       1.230156     -0.669630     -0.528933
  C       2.588041     -0.199400     -0.187313
  O       1.644822     -0.413294      0.846210
  H      -3.450151      0.305226     -0.521778
  H      -2.750761      1.719131      0.424967
  H      -1.604330     -1.131352      0.264721
  H      -0.901253      0.273327      1.211167
  H       0.285467      1.257076     -0.927566
  H      -0.352943     -0.145429     -1.933482
  H       1.132747     -1.730118     -0.744200
  H       2.850183      0.836639     -0.380636
  H       3.417288     -0.901278     -0.228102
15
Coordinates from ORCA-job scan E -270.898714491037
  C      -2.667210      0.682642      0.124247
  C      -1.627726     -0.076611      0.494031
  C       0.206780      0.191729     -1.075162
  C       1.227899     -0.670166     -0.526836
  C       2.586930     -0.198718     -0.188847
  O       1.645980     -0.412154      0.847267
  H      -3.446036      0.307525     -0.526821
  H      -2.747113      1.719907      0.422283
  H      -1.601066     -1.133256      0.265110
  H      -0.899919      0.268196      1.213007
  H       0.282226      1.257680     -0.925105
  H      -0.354997     -0.143171     -1.932243
  H       1.129810     -1.730782     -0.740990
  H       2.847885      0.837277     -0.383652
  H       3.416559     -0.900099     -0.229667
15
Coordinates from ORCA-job scan E -270.898716826973
  C      -2.666571      0.682654      0.123476
  C      -1.627977     -0.077545      0.494672
  C       0.206290      0.192237     -1.074554
  C       1.227415     -0.670032     -0.525926
  C       2.586982     -0.198789     -0.189488
  O       1.646632     -0.410793      0.847490
  H      -3.444524      0.308340     -0.529027
  H      -2.746141      1.719889      0.421540
  H      -1.599951     -1.133888      0.264800
  H      -0.899833      0.266217      1.213760
  H       0.280542      1.258075     -0.923774
  H      -0.355982     -0.142070     -1.931474
  H       1.128850     -1.730727     -0.739152
  H       2.847957      0.836952     -0.385573
  H       3.416315     -0.900520     -0.230147
15
Coordinates from ORCA-job scan E -270.898718607929
  C      -2.665992      0.682447      0.122627
  C      -1.628300     -0.078633      0.495235
  C       0.205760      0.193063     -1.073903
  C       1.227155     -0.669461     -0.524951
  C       2.587382     -0.199072     -0.190284
  O       1.647384     -0.408484      0.847487
  H      -3.442922      0.308960     -0.531482
  H      -2.745413      1.719479      0.421253
  H      -1.599263     -1.134504      0.263915
  H      -0.900302      0.264411      1.214679
  H       0.278828      1.258632     -0.921939
  H      -0.356953     -0.141023     -1.930444
  H       1.127724     -1.730320     -0.736746
  H       2.848918      0.836172     -0.388258
  H       3.415997     -0.901667     -0.230564
15
Coordinates from ORCA-job scan E -270.898719868322
  C      -2.665503      0.682094      0.121850
  C      -1.628656     -0.079648      0.495569
  C       0.205403      0.193900     -1.073247
  C       1.226999     -0.668624     -0.524053
  C       2.587959     -0.199384     -0.191184
  O       1.648196     -0.405828      0.847358
  H      -3.441470      0.309355     -0.533783
  H      -2.744973      1.718824      0.421443
  H      -1.599180     -1.135082      0.262688
  H      -0.901235      0.263003      1.215695
  H       0.277606      1.259228     -0.919979
  H      -0.357627     -0.140317     -1.929404
  H       1.126397     -1.729713     -0.734235
  H       2.850414      0.835248     -0.391141
  H       3.415674     -0.903058     -0.230955
15
Coordinates from ORCA-job scan E -270.898720954908
  C      -2.665091      0.681644      0.121056
  C      -1.629110     -0.080693      0.495696
  C       0.205228      0.194759     -1.072461
  C       1.226838     -0.667565     -0.523056
  C       2.588730     -0.199682     -0.192334
  O       1.649338     -0.402767      0.847233
  H      -3.440056      0.309716     -0.536220
  H      -2.744813      1.717961      0.422028
  H      -1.599622     -1.135732      0.261126
  H      -0.902694      0.261629      1.216973
  H       0.276797      1.259898     -0.917845
  H      -0.358014     -0.139800     -1.928284
  H       1.124666     -1.728946     -0.731329
  H       2.852428      0.834208     -0.394460
  H       3.415378     -0.904630     -0.231500
15
Coordinates from ORCA-job scan E -270.898721707713
  C      -2.664961      0.681291      0.120472
  C      -1.629573     -0.081469      0.495571
  C       0.205294      0.195385     -1.071721
  C       1.226704     -0.666708     -0.522147
  C       2.589472     -0.199866     -0.193425
  O       1.650661     -0.400322      0.847262
  H      -3.439157      0.310070     -0.538135
  H      -2.745070      1.717216      0.422752
  H      -1.600375     -1.136278      0.259783
  H      -0.904254      0.260473      1.218174
  H       0.276620      1.260461     -0.916310
  H      -0.357960     -0.139481     -1.927430
  H       1.123079     -1.728332     -0.728787
  H       2.854262      0.833401     -0.397271
  H       3.415259     -0.905840     -0.232165
15
Coordinates from ORCA-job scan E -270.898722360795
  C      -2.665119      0.681018      0.119988
  C      -1.630145     -0.082138      0.495256
  C       0.205525      0.195941     -1.070877
  C       1.226603     -0.666006     -0.521112
  C       2.590282     -0.200008     -0.194586
  O       1.652375     -0.398135      0.847470
  H      -3.438601      0.310554     -0.539914
  H      -2.745742      1.716533      0.423585
  H      -1.601325     -1.136793      0.258517
  H      -0.906045      0.259170      1.219445
  H       0.276838      1.261037     -0.915181
  H      -0.357554     -0.139109     -1.926677
  H       1.121556     -1.727845     -0.726141
  H       2.856057      0.832675     -0.400064
  H       3.415297     -0.906895     -0.233085
15
Coordinates from ORCA-job scan E -270.897297392901
  C      -2.665010      0.686149      0.109030
  C      -1.605047     -0.084549      0.482037
  C       0.175778      0.198528     -1.053525
  C       1.227547     -0.667803     -0.513439
  C       2.593950     -0.203495     -0.192939
  O       1.663488     -0.402748      0.853444
  H      -3.440255      0.314533     -0.548160
  H      -2.749424      1.721123      0.413465
  H      -1.595673     -1.152073      0.255994
  H      -0.892340      0.263956      1.228471
  H       0.261267      1.279887     -0.906016
  H      -0.379746     -0.142443     -1.931558
  H       1.128043     -1.730173     -0.722141
  H       2.858980      0.829593     -0.397346
  H       3.418445     -0.910486     -0.240696
15
Coordinates from ORCA-job scan E -270.898203018503
  C      -2.654096      0.682705      0.109616
  C      -1.606229     -0.083164      0.480795
  C       0.179884      0.195118     -1.049491
  C       1.220954     -0.666011     -0.513751
  C       2.585179     -0.198908     -0.196278
  O       1.655948     -0.402862      0.851516
  H      -3.427499      0.311817     -0.549393
  H      -2.735598      1.717380      0.414329
  H      -1.598363     -1.141608      0.259393
  H      -0.901512      0.257928      1.224017
  H       0.267806      1.261811     -0.906604
  H      -0.364604     -0.138204     -1.919253
  H       1.119358     -1.727341     -0.722499
  H       2.847374      0.835163     -0.399997
  H       3.411403     -0.903824     -0.245780
15
Coordinates from ORCA-job scan E -270.898260948659
  C      -2.649445      0.681836      0.109287
  C      -1.606980     -0.082990      0.480653
  C       0.181495      0.193357     -1.047224
  C       1.217490     -0.666107     -0.512844
  C       2.581412     -0.196810     -0.197997
  O       1.653959     -0.403290      0.851625
  H      -3.421891      0.311923     -0.551724
  H      -2.729268      1.717031      0.413371
  H      -1.598355     -1.140987      0.260359
  H      -0.902563      0.254910      1.224742
  H       0.270064      1.258862     -0.905245
  H      -0.361468     -0.137735     -1.917305
  H       1.115032     -1.727561     -0.721554
  H       2.841674      0.837752     -0.401407
  H       3.408849     -0.900191     -0.248112
15
Coordinates from ORCA-job scan E -270.898270452455
  C      -2.648160      0.681927      0.108816
  C      -1.607476     -0.083441      0.480961
  C       0.181724      0.192877     -1.046073
  C       1.216032     -0.666642     -0.511758
  C       2.580327     -0.196092     -0.198977
  O       1.654323     -0.403297      0.852172
  H      -3.419882      0.313017     -0.553768
  H      -2.727123      1.717469      0.412251
  H      -1.597401     -1.141849      0.260757
  H      -0.902198      0.252416      1.225731
  H       0.270046      1.258891     -0.904281
  H      -0.361330     -0.137002     -1.917119
  H       1.113274     -1.728208     -0.720149
  H       2.839467      0.838638     -0.402713
  H       3.408379     -0.898704     -0.249228
15
Coordinates from ORCA-job scan E -270.898276314110
  C      -2.647405      0.682179      0.108104
  C      -1.608206     -0.084342      0.481493
  C       0.181575      0.192842     -1.044701
  C       1.214697     -0.667324     -0.510062
  C       2.579737     -0.195642     -0.200254
  O       1.655573     -0.402608      0.852933
  H      -3.417998      0.314729     -0.556660
  H      -2.725483      1.717997      0.410897
  H      -1.595823     -1.142997      0.260942
  H      -0.901814      0.248840      1.226902
  H       0.269221      1.259296     -0.902964
  H      -0.361575     -0.135383     -1.916797
  H       1.111547     -1.728989     -0.717595
  H       2.837731      0.839094     -0.405122
  H       3.408226     -0.897692     -0.250493
15
Coordinates from ORCA-job scan E -270.898277942198
  C      -2.647424      0.682218      0.107683
  C      -1.608698     -0.084972      0.481753
  C       0.181341      0.193221     -1.043956
  C       1.214325     -0.667446     -0.508989
  C       2.579896     -0.195723     -0.201004
  O       1.656554     -0.401469      0.853221
  H      -3.417277      0.315544     -0.558326
  H      -2.725257      1.717999      0.410560
  H      -1.595048     -1.143473      0.260550
  H      -0.901984      0.246977      1.227419
  H       0.268563      1.259647     -0.902015
  H      -0.361664     -0.134205     -1.916431
  H       1.110770     -1.729185     -0.715626
  H       2.837665      0.838812     -0.407117
  H       3.408241     -0.897943     -0.251100
15
Coordinates from ORCA-job scan E -270.898279043781
  C      -2.647647      0.682069      0.107274
  C      -1.609257     -0.085634      0.481877
  C       0.181137      0.193836     -1.043182
  C       1.214168     -0.667224     -0.507867
  C       2.580368     -0.196014     -0.201832
  O       1.657632     -0.399626      0.853337
  H      -3.416714      0.316062     -0.559950
  H      -2.725491      1.717635      0.410760
  H      -1.594600     -1.143820      0.259595
  H      -0.902593      0.245469      1.227880
  H       0.268065      1.260123     -0.900779
  H      -0.361541     -0.133050     -1.915969
  H       1.109896     -1.729102     -0.713228
  H       2.838372      0.838115     -0.409656
  H       3.408206     -0.898840     -0.251639
15
Coordinates from ORCA-job scan E -270.898280266763
  C      -2.648032      0.681682      0.106752
  C      -1.610054     -0.086517      0.481856
  C       0.181005      0.194776     -1.042087
  C       1.214022     -0.666597     -0.506322
  C       2.581195     -0.196506     -0.203080
  O       1.659176     -0.396597      0.853383
  H      -3.416047      0.316474     -0.562068
  H      -2.726149      1.716817      0.411537
  H      -1.594386     -1.144230      0.257798
  H      -0.903828      0.243787      1.228534
  H       0.267747      1.260869     -0.898875
  H      -0.361074     -0.131650     -1.915319
  H       1.108397     -1.728734     -0.709642
  H       2.839956      0.836906     -0.413492
  H       3.408073     -0.900481     -0.252353
15
Coordinates from ORCA-job scan E -270.897335909555
  C      -2.616709      0.680165      0.087827
  C      -1.588712     -0.093864      0.478612
  C       0.139691      0.200851     -1.022103
  C       1.206646     -0.666105     -0.498647
  C       2.576171     -0.195919     -0.203134
  O       1.663903     -0.400779      0.858909
  H      -3.380063      0.317154     -0.587545
  H      -2.690371      1.717541      0.386143
  H      -1.594806     -1.162881      0.267421
  H      -0.896874      0.240475      1.248676
  H       0.237951      1.282837     -0.882321
  H      -0.398904     -0.131350     -1.914922
  H       1.106520     -1.728335     -0.706906
  H       2.832054      0.838730     -0.411007
  H       3.403505     -0.898520     -0.264381
15
Coordinates from ORCA-job scan E -270.898039901621
  C      -2.619582      0.682260      0.088403
  C      -1.587082     -0.094022      0.477048
  C       0.147828      0.195315     -1.017191
  C       1.203436     -0.664798     -0.499356
  C       2.570787     -0.192121     -0.207232
  O       1.659818     -0.401162      0.856415
  H      -3.383000      0.320490     -0.587438
  H      -2.693304      1.719115      0.388247
  H      -1.593639     -1.155880      0.269805
  H      -0.901692      0.233471      1.244858
  H       0.249648      1.262288     -0.882475
  H      -0.378206     -0.129460     -1.902150
  H       1.101185     -1.726179     -0.707714
  H       2.824056      0.843387     -0.414593
  H       3.399752     -0.892706     -0.270004
15
Coordinates from ORCA-job scan E -270.898087012338
  C      -2.622253      0.683210      0.089123
  C      -1.586641     -0.093369      0.475116
  C       0.152164      0.192828     -1.015194
  C       1.202182     -0.665051     -0.498631
  C       2.569390     -0.190983     -0.209113
  O       1.659747     -0.401116      0.856247
  H      -3.385468      0.321807     -0.586980
  H      -2.696102      1.719634      0.390060
  H      -1.593036     -1.154612      0.269214
  H      -0.902646      0.231401      1.244232
  H       0.254927      1.258597     -0.881735
  H      -0.371585     -0.129727     -1.900836
  H       1.098652     -1.726713     -0.706413
  H       2.821566      0.844689     -0.416724
  H       3.399106     -0.890594     -0.271742
15
Coordinates from ORCA-job scan E -270.898098409778
  C      -2.624830      0.683390      0.090078
  C      -1.586890     -0.092492      0.473118
  C       0.154446      0.192187     -1.014526
  C       1.201956     -0.665646     -0.497393
  C       2.569773     -0.191063     -0.210169
  O       1.661243     -0.400391      0.856755
  H      -3.387734      0.322013     -0.586325
  H      -2.698970      1.719422      0.392137
  H      -1.592759     -1.154006      0.267602
  H      -0.903435      0.230666      1.243677
  H       0.257142      1.258502     -0.881694
  H      -0.368706     -0.128897     -1.901609
  H       1.097489     -1.727573     -0.704031
  H       2.821661      0.844416     -0.418843
  H       3.399616     -0.890529     -0.272154
15
Coordinates from ORCA-job scan E -270.898106586499
  C      -2.628519      0.683122      0.091533
  C      -1.587692     -0.091264      0.470271
  C       0.156712      0.192380     -1.013972
  C       1.202181     -0.666386     -0.495238
  C       2.571182     -0.191837     -0.211464
  O       1.664116     -0.398501      0.857615
  H      -3.390838      0.321731     -0.585490
  H      -2.703354      1.718552      0.395396
  H      -1.592477     -1.153040      0.264536
  H      -0.904954      0.230050      1.242644
  H       0.259039      1.259266     -0.881756
  H      -0.365588     -0.126742     -1.902850
  H       1.096356     -1.728612     -0.699657
  H       2.823199      0.843075     -0.422505
  H       3.400640     -0.891794     -0.272441
15
Coordinates from ORCA-job scan E -270.898110378515
  C      -2.631274      0.682540      0.092558
  C      -1.588610     -0.090565      0.468240
  C       0.157926      0.193225     -1.013465
  C       1.202592     -0.666606     -0.493241
  C       2.572674     -0.192802     -0.212525
  O       1.666669     -0.396087      0.858189
  H      -3.392997      0.321273     -0.585220
  H      -2.706986      1.717429      0.398081
  H      -1.592252     -1.152246      0.261467
  H      -0.906488      0.229677      1.241740
  H       0.260114      1.260208     -0.881340
  H      -0.363418     -0.124631     -1.903494
  H       1.095478     -1.729053     -0.695393
  H       2.825262      0.841408     -0.426201
  H       3.401312     -0.893772     -0.272774
15
Coordinates from ORCA-job scan E -270.898113168489
  C      -2.633618      0.681726      0.093239
  C      -1.589663     -0.090342      0.466645
  C       0.158730      0.194486     -1.012670
  C       1.202967     -0.666305     -0.491083
  C       2.574235     -0.193887     -0.213757
  O       1.669209     -0.392804      0.858550
  H      -3.394640      0.320828     -0.585554
  H      -2.710525      1.715991      0.400634
  H      -1.591964     -1.151643      0.257962
  H      -0.908183      0.229212      1.240988
  H       0.261149      1.261309     -0.880142
  H      -0.361392     -0.122562     -1.903642
  H       1.094222     -1.729023     -0.690579
  H       2.827857      0.839397     -0.430622
  H       3.401619     -0.896384     -0.273348
15
Coordinates from ORCA-job scan E -270.898115990398
  C      -2.635914      0.680610      0.093588
  C      -1.590955     -0.090647      0.465203
  C       0.159441      0.196251     -1.011341
  C       1.203163     -0.665374     -0.488365
  C       2.576024     -0.195172     -0.215532
  O       1.672194     -0.388041      0.858803
  H      -3.395993      0.320442     -0.586680
  H      -2.714540      1.714017      0.403482
  H      -1.591512     -1.151277      0.253480
  H      -0.910288      0.228330      1.240433
  H       0.262527      1.262765     -0.877873
  H      -0.359026     -0.120276     -1.903339
  H       1.091969     -1.728494     -0.684313
  H       2.831366      0.836779     -0.436639
  H       3.401546     -0.899913     -0.274286
15
Coordinates from ORCA-job scan E -270.898118792861
  C      -2.637919      0.679245      0.093435
  C      -1.592368     -0.091614      0.463996
  C       0.160097      0.198479     -1.009467
  C       1.202976     -0.663742     -0.485128
  C       2.577903     -0.196560     -0.217934
  O       1.675586     -0.381821      0.859008
  H      -3.396796      0.320201     -0.588778
  H      -2.718728      1.711534      0.406486
  H      -1.590876     -1.151347      0.248261
  H      -0.912740      0.226746      1.240321
  H       0.264193      1.264634     -0.874597
  H      -0.356416     -0.117801     -1.902587
  H       1.088381     -1.727388     -0.676620
  H       2.835711      0.833632     -0.444221
  H       3.400999     -0.904197     -0.275551
15
Coordinates from ORCA-job scan E -270.898120817311
  C      -2.638748      0.678147      0.092754
  C      -1.593313     -0.092949      0.463454
  C       0.160470      0.200399     -1.007795
  C       1.202370     -0.662007     -0.482560
  C       2.579140     -0.197514     -0.220108
  O       1.678193     -0.376451      0.859192
  H      -3.396569      0.320192     -0.591196
  H      -2.721305      1.709471      0.408482
  H      -1.590316     -1.151953      0.244444
  H      -0.914676      0.224778      1.240874
  H       0.265345      1.266342     -0.871742
  H      -0.354649     -0.115894     -1.901712
  H       1.084589     -1.726099     -0.670263
  H       2.839297      0.831150     -0.450569
  H       3.400176     -0.907613     -0.276632
15
Coordinates from ORCA-job scan E -270.898122061462
  C      -2.638558      0.677464      0.091861
  C      -1.593700     -0.094231      0.463408
  C       0.160590      0.201775     -1.006704
  C       1.201617     -0.660624     -0.480989
  C       2.579682     -0.197985     -0.221633
  O       1.679770     -0.372856      0.859413
  H      -3.395594      0.320302     -0.593353
  H      -2.722070      1.708157      0.409344
  H      -1.589991     -1.152859      0.242591
  H      -0.915924      0.222788      1.241889
  H       0.265690      1.267698     -0.870080
  H      -0.353948     -0.114573     -1.901005
  H       1.081487     -1.724985     -0.666115
  H       2.841594      0.829635     -0.454687
  H       3.399359     -0.909705     -0.277319
15
Coordinates from ORCA-job scan E -270.898122761152
  C      -2.637974      0.677102      0.091117
  C      -1.593748     -0.095170      0.463519
  C       0.160577      0.202677     -1.006178
  C       1.201033     -0.659752     -0.480211
  C       2.579831     -0.198169     -0.222472
  O       1.680584     -0.370883      0.859635
  H      -3.394462      0.320405     -0.594930
  H      -2.721748      1.707486      0.409494
  H      -1.589935     -1.153721      0.242171
  H      -0.916693      0.221108      1.242973
  H       0.265435      1.268684     -0.869574
  H      -0.353967     -0.113627     -1.900554
  H       1.079490     -1.724235     -0.663838
  H       2.842808      0.828873     -0.456869
  H       3.398772     -0.910779     -0.277661
15
Coordinates from ORCA-job scan E -270.898123141003
  C      -2.637482      0.676896      0.090655
  C      -1.593717     -0.095760      0.463585
  C       0.160533      0.203294     -1.005956
  C       1.200734     -0.659262     -0.479838
  C       2.579894     -0.198264     -0.222873
  O       1.681041     -0.369832      0.859797
  H      -3.393545      0.320470     -0.595980
  H      -2.721148      1.707162      0.409387
  H      -1.590080     -1.154371      0.242338
  H      -0.917278      0.219842      1.243891
  H       0.264992      1.269398     -0.869684
  H      -0.354241     -0.112892     -1.900268
  H       1.078427     -1.723787     -0.662596
  H       2.843440      0.828464     -0.457997
  H       3.398433     -0.911358     -0.277839
15
Coordinates from ORCA-job scan E -270.897889215602
  C      -2.592787      0.678183      0.066501
  C      -1.569218     -0.108854      0.466162
  C       0.123106      0.202368     -0.979467
  C       1.183870     -0.661052     -0.470592
  C       2.562445     -0.189355     -0.228295
  O       1.680511     -0.378694      0.865086
  H      -3.340887      0.329088     -0.632706
  H      -2.665944      1.712186      0.375915
  H      -1.594710     -1.176864      0.259304
  H      -0.914036      0.205937      1.272600
  H       0.243167      1.281920     -0.845109
  H      -0.386408     -0.116544     -1.893455
  H       1.070789     -1.725706     -0.660603
  H       2.813273      0.841805     -0.458320
  H       3.386832     -0.894416     -0.300399
15
Coordinates from ORCA-job scan E -270.898332471394
  C      -2.603790      0.680185      0.070376
  C      -1.569542     -0.106523      0.460545
  C       0.128743      0.200050     -0.979075
  C       1.186914     -0.660323     -0.471496
  C       2.564839     -0.189617     -0.229793
  O       1.681130     -0.375902      0.863152
  H      -3.353683      0.331492     -0.626782
  H      -2.678882      1.712726      0.383552
  H      -1.593725     -1.169021      0.256838
  H      -0.917889      0.201881      1.265156
  H       0.249089      1.266579     -0.850703
  H      -0.370057     -0.112622     -1.885020
  H       1.071410     -1.724598     -0.659044
  H       2.816550      0.840836     -0.461748
  H       3.388895     -0.895143     -0.299336
15
Coordinates from ORCA-job scan E -270.898373359983
  C      -2.611759      0.681147      0.073499
  C      -1.570383     -0.104179      0.455706
  C       0.132694      0.198754     -0.979014
  C       1.189444     -0.660473     -0.470615
  C       2.567489     -0.190579     -0.230392
  O       1.683444     -0.373788      0.863039
  H      -3.362571      0.332495     -0.622503
  H      -2.687967      1.712617      0.389517
  H      -1.593511     -1.166078      0.252943
  H      -0.919355      0.200871      1.261268
  H       0.252670      1.264122     -0.852980
  H      -0.363535     -0.112371     -1.885241
  H       1.072218     -1.725064     -0.656081
  H       2.820026      0.839203     -0.464324
  H       3.391101     -0.896679     -0.298199
15
Coordinates from ORCA-job scan E -270.898388578034
  C      -2.618786      0.681495      0.076559
  C      -1.571682     -0.101934      0.450858
  C       0.136093      0.198076     -0.978884
  C       1.191664     -0.660662     -0.468788
  C       2.570281     -0.191765     -0.231068
  O       1.686601     -0.371065      0.863493
  H      -3.370031      0.332977     -0.618958
  H      -2.695756      1.711946      0.395514
  H      -1.593821     -1.164016      0.248104
  H      -0.920985      0.200128      1.258042
  H       0.255473      1.264151     -0.854649
  H      -0.358576     -0.112081     -1.886838
  H       1.072556     -1.725618     -0.651743
  H       2.823790      0.837151     -0.467672
  H       3.393181     -0.898781     -0.297344
15
Coordinates from ORCA-job scan E -270.898391434829
  C      -2.621161      0.681243      0.077699
  C      -1.572603     -0.101342      0.448852
  C       0.137206      0.198293     -0.978537
  C       1.192289     -0.660565     -0.467222
  C       2.571540     -0.192358     -0.231706
  O       1.688603     -0.368960      0.863953
  H      -3.372165      0.333105     -0.618284
  H      -2.698281      1.711212      0.398200
  H      -1.594279     -1.163538      0.245206
  H      -0.922127      0.199367      1.257036
  H       0.256212      1.264925     -0.854839
  H      -0.356709     -0.111468     -1.887580
  H       1.072018     -1.725704     -0.648445
  H       2.825645      0.835940     -0.470314
  H       3.393816     -0.900151     -0.297395
15
Coordinates from ORCA-job scan E -270.898392613447
  C      -2.622048      0.680871      0.078063
  C      -1.573393     -0.101551      0.447861
  C       0.137622      0.198821     -0.977927
  C       1.192341     -0.660233     -0.465662
  C       2.572294     -0.192719     -0.232538
  O       1.690272     -0.366662      0.864311
  H      -3.372563      0.333407     -0.618814
  H      -2.699226      1.710453      0.399846
  H      -1.594706     -1.163618      0.242803
  H      -0.923213      0.198149      1.256815
  H       0.256372      1.265678     -0.854288
  H      -0.355545     -0.110661     -1.887707
  H       1.070956     -1.725537     -0.645111
  H       2.826953      0.834951     -0.473208
  H       3.393885     -0.901349     -0.297822
15
Coordinates from ORCA-job scan E -270.898393686805
  C      -2.622604      0.680387      0.078076
  C      -1.574349     -0.102376      0.447046
  C       0.137902      0.199690     -0.976898
  C       1.192134     -0.659561     -0.463561
  C       2.573099     -0.193097     -0.233872
  O       1.692360     -0.363197      0.864654
  H      -3.372365      0.334097     -0.620223
  H      -2.699954      1.709418      0.401631
  H      -1.595179     -1.164066      0.239735
  H      -0.924678      0.196011      1.256960
  H       0.256417      1.266606     -0.853019
  H      -0.354170     -0.109487     -1.887467
  H       1.069139     -1.725118     -0.640388
  H       2.828579      0.833653     -0.477521
  H       3.393672     -0.902959     -0.298531
15
Coordinates from ORCA-job scan E -270.897533662547
  C      -2.670391      0.678861      0.103511
  C      -1.600732     -0.088399      0.444561
  C       0.177553      0.201277     -1.005275
  C       1.210021     -0.657548     -0.473315
  C       2.592107     -0.202840     -0.228100
  O       1.693216     -0.354034      0.859317
  H      -3.428678      0.324825     -0.581794
  H      -2.758990      1.704048      0.436601
  H      -1.590011     -1.140225      0.222290
  H      -0.927824      0.210796      1.226885
  H       0.279191      1.253546     -0.879338
  H      -0.320465     -0.105125     -1.894435
  H       1.077125     -1.722947     -0.642419
  H       2.861308      0.819182     -0.477288
  H       3.406572     -0.921417     -0.274578
15
Coordinates from ORCA-job scan E -270.898053928206
  C      -2.659312      0.676697      0.099869
  C      -1.600892     -0.090880      0.449856
  C       0.172114      0.203523     -1.005482
  C       1.207114     -0.658067     -0.472090
  C       2.589913     -0.202720     -0.226758
  O       1.692933     -0.355612      0.861092
  H      -3.415738      0.322557     -0.587342
  H      -2.746087      1.702974      0.429971
  H      -1.591584     -1.147971      0.223295
  H      -0.924557      0.214823      1.233933
  H       0.273648      1.269529     -0.873619
  H      -0.336530     -0.109515     -1.903462
  H       1.076286     -1.723873     -0.642732
  H       2.858561      0.819591     -0.474699
  H       3.404133     -0.921056     -0.275208
15
Coordinates from ORCA-job scan E -270.898099976877
  C      -2.651120      0.675750      0.096564
  C      -1.600359     -0.093778      0.454687
  C       0.168167      0.204912     -1.005221
  C       1.204597     -0.657693     -0.472472
  C       2.587433     -0.201749     -0.226478
  O       1.691136     -0.356516      0.861183
  H      -3.406549      0.322042     -0.592141
  H      -2.736802      1.702922      0.424535
  H      -1.592305     -1.151242      0.226094
  H      -0.923602      0.215173      1.237965
  H       0.270059      1.272317     -0.870795
  H      -0.343040     -0.109911     -1.903141
  H       1.075146     -1.723321     -0.644366
  H       2.855471      0.820979     -0.473352
  H       3.401771     -0.919883     -0.276440
15
Coordinates from ORCA-job scan E -270.898116579599
  C      -2.643849      0.675466      0.093166
  C      -1.599339     -0.096876      0.459588
  C       0.164704      0.205825     -1.004911
  C       1.202302     -0.657193     -0.473541
  C       2.584854     -0.200511     -0.226307
  O       1.688724     -0.357659      0.860806
  H      -3.398594      0.322386     -0.596719
  H      -2.728681      1.703469      0.418979
  H      -1.592570     -1.153996      0.229854
  H      -0.922645      0.214576      1.241753
  H       0.267145      1.272769     -0.868429
  H      -0.348005     -0.110150     -1.901346
  H       1.074230     -1.722641     -0.646863
  H       2.852185      0.822760     -0.471795
  H       3.399544     -0.918225     -0.277611
15
Coordinates from ORCA-job scan E -270.898120210326
  C      -2.640813      0.675722      0.091574
  C      -1.598500     -0.098307      0.461921
  C       0.163297      0.205917     -1.004963
  C       1.201390     -0.656979     -0.474624
  C       2.583540     -0.199763     -0.226094
  O       1.687063     -0.358667      0.860395
  H      -3.395434      0.322954     -0.598601
  H      -2.725242      1.704144      0.416147
  H      -1.592545     -1.155217      0.232483
  H      -0.922033      0.213990      1.243619
  H       0.266101      1.272175     -0.867722
  H      -0.350042     -0.110525     -1.900196
  H       1.074157     -1.722346     -0.648961
  H       2.850431      0.823913     -0.470436
  H       3.398633     -0.917011     -0.277919
15
Coordinates from ORCA-job scan E -270.898121048353
  C      -2.639980      0.676024      0.091182
  C      -1.597972     -0.098587      0.462637
  C       0.162944      0.205674     -1.005297
  C       1.201244     -0.657011     -0.475490
  C       2.583011     -0.199403     -0.225769
  O       1.686048     -0.359588      0.860148
  H      -3.394713      0.323263     -0.598845
  H      -2.724140      1.704669      0.415053
  H      -1.592567     -1.155574      0.234090
  H      -0.921679      0.213834      1.244306
  H       0.265923      1.271663     -0.867999
  H      -0.350805     -0.110997     -1.899912
  H       1.074576     -1.722332     -0.650597
  H       2.849628      0.824580     -0.469163
  H       3.398484     -0.916217     -0.277721
15
Coordinates from ORCA-job scan E -270.898121545657
  C      -2.639558      0.676327      0.091153
  C      -1.597511     -0.098481      0.462968
  C       0.162777      0.205290     -1.005821
  C       1.201307     -0.657187     -0.476410
  C       2.582618     -0.199101     -0.225275
  O       1.685084     -0.360749      0.859969
  H      -3.394484      0.323429     -0.598568
  H      -2.723360      1.705205      0.414324
  H      -1.592709     -1.155708      0.235586
  H      -0.921326      0.213973      1.244702
  H       0.265868      1.271220     -0.868722
  H      -0.351474     -0.111618     -1.899964
  H       1.075310     -1.722457     -0.652438
  H       2.848911      0.825236     -0.467546
  H       3.398551     -0.915379     -0.277335
15
Coordinates from ORCA-job scan E -270.898121542274
  C      -2.639558      0.676327      0.091153
  C      -1.597511     -0.098481      0.462968
  C       0.162777      0.205290     -1.005821
  C       1.201307     -0.657187     -0.476410
  C       2.582618     -0.199101     -0.225275
  O       1.685084     -0.360749      0.859969
  H      -3.394484      0.323429     -0.598568
  H      -2.723360      1.705205      0.414324
  H      -1.592709     -1.155708      0.235586
  H      -0.921326      0.213973      1.244702
  H       0.265868      1.271220     -0.868722
  H      -0.351474     -0.111618     -1.899964
  H       1.075310     -1.722457     -0.652438
  H       2.848911      0.825236     -0.467546
  H       3.398551     -0.915379     -0.277335
15
Coordinates from ORCA-job scan E -270.898032886099
  C      -2.638009      0.675707      0.087610
  C      -1.592482     -0.094819      0.458539
  C       0.162346      0.202613     -0.995681
  C       1.200146     -0.659751     -0.475486
  C       2.578899     -0.197537     -0.224950
  O       1.682390     -0.368711      0.862939
  H      -3.393890      0.318504     -0.598843
  H      -2.724020      1.705249      0.408074
  H      -1.589502     -1.157959      0.235373
  H      -0.917075      0.222170      1.246939
  H       0.275525      1.272775     -0.859704
  H      -0.349880     -0.107845     -1.898446
  H       1.071240     -1.726738     -0.652820
  H       2.837683      0.827507     -0.472312
  H       3.396633     -0.911164     -0.284609
15
Coordinates from ORCA-job scan E -270.897801355191
  C      -2.641090      0.676574      0.086182
  C      -1.584101     -0.090547      0.452172
  C       0.166594      0.198758     -0.987547
  C       1.200364     -0.665566     -0.476244
  C       2.573760     -0.195698     -0.226046
  O       1.678760     -0.377626      0.867910
  H      -3.399028      0.314632     -0.595381
  H      -2.731200      1.705889      0.406038
  H      -1.585096     -1.156826      0.234020
  H      -0.911737      0.230259      1.245999
  H       0.292608      1.271053     -0.851586
  H      -0.342438     -0.102777     -1.897368
  H       1.068905     -1.733407     -0.654460
  H       2.819637      0.830048     -0.480819
  H       3.394065     -0.904766     -0.286246
15
Coordinates from ORCA-job scan E -270.897454979420
  C      -2.642139      0.678068      0.086327
  C      -1.574101     -0.086838      0.445988
  C       0.170558      0.194374     -0.981718
  C       1.200614     -0.672970     -0.478057
  C       2.565804     -0.193790     -0.228810
  O       1.675568     -0.383565      0.874321
  H      -3.399997      0.312966     -0.593042
  H      -2.735386      1.706292      0.407617
  H      -1.580855     -1.154462      0.231236
  H      -0.906855      0.234130      1.243897
  H       0.310809      1.266348     -0.845326
  H      -0.335795     -0.096338     -1.897311
  H       1.068135     -1.740400     -0.654941
  H       2.793988      0.833005     -0.491594
  H       3.389656     -0.896822     -0.281963
15
Coordinates from ORCA-job scan E -270.897084349927
  C      -2.641133      0.683578      0.091023
  C      -1.564736     -0.085270      0.437931
  C       0.172000      0.187277     -0.981815
  C       1.202211     -0.679573     -0.479797
  C       2.558599     -0.191244     -0.229756
  O       1.673925     -0.382349      0.880966
  H      -3.398812      0.321383     -0.589488
  H      -2.733917      1.707947      0.423353
  H      -1.581202     -1.153766      0.218369
  H      -0.902802      0.228858      1.238408
  H       0.319153      1.258728     -0.850871
  H      -0.328651     -0.099829     -1.901891
  H       1.070121     -1.746310     -0.649834
  H       2.767648      0.837300     -0.498806
  H       3.387602     -0.886729     -0.271170
15
Coordinates from ORCA-job scan E -270.896703584193
  C      -2.641515      0.690053      0.097074
  C      -1.556670     -0.083056      0.429066
  C       0.170996      0.183491     -0.985496
  C       1.205364     -0.684724     -0.481815
  C       2.553441     -0.191927     -0.228982
  O       1.673179     -0.381841      0.886268
  H      -3.399152      0.325892     -0.581481
  H      -2.729300      1.709796      0.442108
  H      -1.580952     -1.152842      0.203740
  H      -0.899341      0.223615      1.230701
  H       0.320699      1.255152     -0.864866
  H      -0.322007     -0.105290     -1.909366
  H       1.071442     -1.749311     -0.643117
  H       2.745158      0.840277     -0.499467
  H       3.388660     -0.879286     -0.257744
15
Coordinates from ORCA-job scan E -270.896740416792
  C      -2.640518      0.684240      0.091327
  C      -1.564200     -0.085969      0.437325
  C       0.172388      0.184938     -0.978930
  C       1.201465     -0.683085     -0.481643
  C       2.556599     -0.188120     -0.235978
  O       1.673267     -0.383363      0.880540
  H      -3.400480      0.320265     -0.592513
  H      -2.734632      1.712309      0.425155
  H      -1.581630     -1.152876      0.217085
  H      -0.901725      0.226865      1.239925
  H       0.322885      1.259963     -0.845157
  H      -0.322995     -0.096539     -1.899587
  H       1.072863     -1.751867     -0.649263
  H       2.761375      0.835920     -0.508352
  H       3.385341     -0.882681     -0.263313
15
Coordinates from ORCA-job scan E -270.896319580824
  C      -2.643495      0.680429      0.088932
  C      -1.566574     -0.083676      0.441041
  C       0.175497      0.184605     -0.971008
  C       1.200747     -0.686355     -0.483910
  C       2.557939     -0.185693     -0.243394
  O       1.674683     -0.388687      0.878766
  H      -3.403826      0.315075     -0.594663
  H      -2.747099      1.712048      0.410300
  H      -1.581813     -1.152087      0.228295
  H      -0.904813      0.234821      1.242591
  H       0.332639      1.258972     -0.827253
  H      -0.317717     -0.084179     -1.894589
  H       1.075862     -1.755005     -0.654545
  H       2.766796      0.835789     -0.517782
  H       3.381176     -0.886057     -0.266158
15
Coordinates from ORCA-job scan E -270.895902128625
  C      -2.647930      0.677650      0.088371
  C      -1.564642     -0.078162      0.440352
  C       0.175951      0.183956     -0.963521
  C       1.202719     -0.691429     -0.487582
  C       2.559411     -0.184735     -0.249706
  O       1.678246     -0.396225      0.878637
  H      -3.408443      0.309084     -0.593187
  H      -2.762075      1.711294      0.399088
  H      -1.581489     -1.148997      0.237457
  H      -0.906050      0.245641      1.242108
  H       0.340618      1.256778     -0.814195
  H      -0.312691     -0.073187     -1.892624
  H       1.079952     -1.759004     -0.659687
  H       2.768288      0.837356     -0.520928
  H       3.378137     -0.890020     -0.267961
15
Coordinates from ORCA-job scan E -270.895539247697
  C      -2.652007      0.675415      0.087896
  C      -1.559392     -0.071833      0.436805
  C       0.174690      0.183080     -0.956780
  C       1.204839     -0.696218     -0.491694
  C       2.559587     -0.184819     -0.254559
  O       1.681392     -0.404208      0.879010
  H      -3.412959      0.301608     -0.590127
  H      -2.775902      1.710102      0.390829
  H      -1.579811     -1.144256      0.246002
  H      -0.906556      0.257921      1.240581
  H       0.349090      1.254371     -0.806109
  H      -0.308211     -0.064002     -1.890713
  H       1.083806     -1.762762     -0.665584
  H       2.766555      0.839498     -0.518468
  H       3.374884     -0.893897     -0.270466
15
Coordinates from ORCA-job scan E -270.895360080974
  C      -2.654916      0.673470      0.086406
  C      -1.552769     -0.065543      0.432859
  C       0.171886      0.182220     -0.950040
  C       1.205827     -0.699835     -0.495350
  C       2.558789     -0.185804     -0.257902
  O       1.683726     -0.412401      0.879002
  H      -3.415725      0.292721     -0.587657
  H      -2.786352      1.708954      0.382682
  H      -1.576901     -1.138964      0.256127
  H      -0.907756      0.270560      1.239311
  H       0.356644      1.251605     -0.799919
  H      -0.305349     -0.055775     -1.888864
  H       1.087176     -1.765660     -0.672457
  H       2.763557      0.841519     -0.511952
  H       3.372165     -0.897069     -0.275623
15
Coordinates from ORCA-job scan E -270.896532392131
  C      -2.648913      0.671972      0.080010
  C      -1.545819     -0.063084      0.431214
  C       0.157647      0.184917     -0.944326
  C       1.203639     -0.697618     -0.494842
  C       2.560086     -0.189613     -0.256507
  O       1.688083     -0.416852      0.875964
  H      -3.406104      0.285600     -0.592937
  H      -2.778482      1.707969      0.370845
  H      -1.574031     -1.136749      0.269212
  H      -0.910125      0.276214      1.240808
  H       0.340975      1.251011     -0.798110
  H      -0.318865     -0.053285     -1.884676
  H       1.087317     -1.762007     -0.678460
  H       2.769960      0.842718     -0.494056
  H       3.374636     -0.901193     -0.287516
15
Coordinates from ORCA-job scan E -270.896509166052
  C      -2.650432      0.673264      0.084801
  C      -1.555678     -0.067121      0.434898
  C       0.162946      0.185102     -0.953716
  C       1.205420     -0.695240     -0.493774
  C       2.563716     -0.189108     -0.254140
  O       1.686962     -0.408403      0.874793
  H      -3.408855      0.293726     -0.590194
  H      -2.775392      1.707786      0.381846
  H      -1.578020     -1.137852      0.258017
  H      -0.910306      0.266995      1.237778
  H       0.336160      1.251297     -0.806937
  H      -0.320211     -0.060896     -1.888291
  H       1.086907     -1.760184     -0.672350
  H       2.778237      0.841741     -0.496619
  H       3.378549     -0.901106     -0.279488
15
Coordinates from ORCA-job scan E -270.897071694202
  C      -2.647946      0.674806      0.086283
  C      -1.563658     -0.071704      0.438930
  C       0.161503      0.186431     -0.962278
  C       1.205779     -0.690099     -0.491106
  C       2.567753     -0.190289     -0.249100
  O       1.687321     -0.400784      0.871723
  H      -3.406091      0.300902     -0.591205
  H      -2.764604      1.708195      0.388701
  H      -1.580942     -1.139595      0.251398
  H      -0.910883      0.257645      1.236253
  H       0.320316      1.252140     -0.817588
  H      -0.329142     -0.071786     -1.889457
  H       1.086248     -1.755047     -0.668402
  H       2.790117      0.840848     -0.488565
  H       3.384231     -0.901662     -0.278964
15
Coordinates from ORCA-job scan E -270.897522394221
  C      -2.645345      0.676687      0.087425
  C      -1.571109     -0.076521      0.442988
  C       0.160119      0.187577     -0.970699
  C       1.205745     -0.684755     -0.488004
  C       2.570962     -0.191258     -0.243374
  O       1.687235     -0.393984      0.868794
  H      -3.403417      0.308326     -0.592476
  H      -2.753473      1.709038      0.395221
  H      -1.583504     -1.141881      0.245500
  H      -0.911260      0.248254      1.235478
  H       0.305291      1.253314     -0.828567
  H      -0.336974     -0.083516     -1.890473
  H       1.085779     -1.749745     -0.665149
  H       2.800559      0.839916     -0.480356
  H       3.389396     -0.901453     -0.279685
15
Coordinates from ORCA-job scan E -270.897812500609
  C      -2.643332      0.678693      0.089080
  C      -1.578591     -0.081485      0.447019
  C       0.159829      0.188616     -0.979537
  C       1.205600     -0.679604     -0.484895
  C       2.573658     -0.191889     -0.237515
  O       1.686520     -0.387327      0.866289
  H      -3.401733      0.316090     -0.593000
  H      -2.743321      1.709877      0.402497
  H      -1.586111     -1.144303      0.239364
  H      -0.911652      0.238644      1.234852
  H       0.292553      1.254622     -0.840001
  H      -0.342818     -0.095230     -1.892107
  H       1.085497     -1.744711     -0.662106
  H       2.809924      0.838834     -0.473881
  H       3.393982     -0.900827     -0.279436
15
Coordinates from ORCA-job scan E -270.897989956389
  C      -2.641602      0.680700      0.091165
  C      -1.585837     -0.086548      0.450893
  C       0.160154      0.189765     -0.988862
  C       1.205281     -0.674496     -0.481900
  C       2.576000     -0.192379     -0.231585
  O       1.685264     -0.380534      0.864203
  H      -3.400605      0.323912     -0.592829
  H      -2.733729      1.710557      0.410421
  H      -1.588798     -1.146784      0.233158
  H      -0.912086      0.228832      1.234318
  H       0.281292      1.256075     -0.852057
  H      -0.347409     -0.106789     -1.894348
  H       1.085277     -1.739746     -0.659325
  H       2.818723      0.837568     -0.468567
  H       3.398076     -0.900136     -0.278063
15
Coordinates from ORCA-job scan E -270.898077984719
  C      -2.640136      0.682567      0.093752
  C      -1.592753     -0.091703      0.454592
  C       0.161151      0.191166     -0.998781
  C       1.204790     -0.669382     -0.479195
  C       2.578043     -0.192758     -0.225763
  O       1.683377     -0.373322      0.862554
  H      -3.399993      0.331600     -0.591892
  H      -2.724822      1.710953      0.418996
  H      -1.591665     -1.149338      0.226927
  H      -0.912546      0.218817      1.233950
  H       0.271577      1.257803     -0.864770
  H      -0.350797     -0.117915     -1.897300
  H       1.085049     -1.734826     -0.656700
  H       2.827215      0.836038     -0.464502
  H       3.401514     -0.899701     -0.275246
15
Coordinates from ORCA-job scan E -270.898107120501
  C      -2.638511      0.684124      0.096667
  C      -1.598757     -0.097062      0.458061
  C       0.162423      0.193176     -1.009396
  C       1.203915     -0.663923     -0.476934
  C       2.579713     -0.193161     -0.220099
  O       1.680683     -0.365336      0.861360
  H      -3.399333      0.338790     -0.590398
  H      -2.716150      1.710947      0.427862
  H      -1.594790     -1.152214      0.221240
  H      -0.913018      0.208434      1.234185
  H       0.262947      1.260154     -0.878380
  H      -0.353441     -0.128418     -1.901014
  H       1.084643     -1.729609     -0.654319
  H       2.835746      0.834122     -0.461249
  H       3.403934     -0.900022     -0.270963
15
Coordinates from ORCA-job scan E -270.898111402524
  C      -2.637705      0.683863      0.096374
  C      -1.597615     -0.097404      0.457973
  C       0.161769      0.193897     -1.009705
  C       1.203380     -0.663199     -0.477109
  C       2.579446     -0.193358     -0.220031
  O       1.680165     -0.364717      0.861549
  H      -3.398347      0.338255     -0.590729
  H      -2.715246      1.710758      0.427315
  H      -1.594943     -1.152815      0.222340
  H      -0.913022      0.207898      1.235169
  H       0.262345      1.260939     -0.879068
  H      -0.353966     -0.128237     -1.901226
  H       1.084354     -1.728886     -0.654670
  H       2.836243      0.833832     -0.460814
  H       3.403145     -0.900825     -0.270744
15
Coordinates from ORCA-job scan E -270.898114213234
  C      -2.637277      0.683620      0.096646
  C      -1.597585     -0.098095      0.458350
  C       0.161924      0.194582     -1.010773
  C       1.203046     -0.662354     -0.477233
  C       2.579434     -0.193353     -0.219847
  O       1.679457     -0.363520      0.861501
  H      -3.397911      0.338422     -0.590686
  H      -2.714545      1.710528      0.427635
  H      -1.595552     -1.153493      0.222647
  H      -0.913231      0.206721      1.235986
  H       0.262121      1.261710     -0.880391
  H      -0.353944     -0.128473     -1.901846
  H       1.084141     -1.728122     -0.654491
  H       2.837415      0.833431     -0.461051
  H       3.402508     -0.901603     -0.269824
15
Coordinates from ORCA-job scan E -270.898116156694
  C      -2.636897      0.683404      0.096720
  C      -1.597313     -0.098508      0.458540
  C       0.161861      0.195066     -1.011269
  C       1.202823     -0.661810     -0.477411
  C       2.579378     -0.193360     -0.219835
  O       1.679047     -0.362823      0.861445
  H      -3.397441      0.338344     -0.590790
  H      -2.714035      1.710378      0.427549
  H      -1.595999     -1.153996      0.223165
  H      -0.913419      0.206067      1.236673
  H       0.262005      1.262216     -0.881096
  H      -0.354004     -0.128390     -1.902204
  H       1.083953     -1.727624     -0.654420
  H       2.838069      0.833232     -0.461079
  H       3.401975     -0.902195     -0.269365
