15
Coordinates from ORCA-job freq E -271.054471880566
  C          -1.94148974698944     -0.13924630081559      0.34278632213146
  C          -0.97968593172992      0.99989900585771      0.47004218901151
  C           0.21597910041375      1.09399611101655     -0.09665050455332
  C           0.84051351171606      0.03028926406600     -0.97372510493886
  O          -0.06255410624706     -0.61863294523277     -1.77777937799385
  C           1.72739101200169     -0.92860312862727     -0.17874850716132
  H          -2.34394511327248     -0.40478477875800      1.32112142353039
  H          -2.78599280980737      0.13760514798006     -0.29103440478117
  H          -1.48005456099421     -1.02325284986816     -0.09719883306017
  H          -1.30259988359722      1.82534466810333      1.09646684175654
  H           0.82968560573142      1.96615192460621      0.09674391561872
  H           1.46943647870514      0.55643966046468     -1.71778834119638
  H           1.11339718917764     -1.47576098094006      0.53667622119053
  H           2.20998286738253     -1.63763953188301     -0.84937402976969
  H           2.48993538750947     -0.38180626596967      0.37548719021560
