17
Coordinates from ORCA-job freq E -421.417368846722
  C           2.17382761047197      0.86344959184286     -0.27112583292427
  C          -1.52274960610012     -1.61206171889121     -0.17974019748993
  C           1.46217112166731      0.48520382906893      0.93472446902654
  C          -0.70632451322131     -0.34139103897279     -0.30796709705918
  C           0.09086115832282     -0.08144180602022      0.94365240207746
  O          -0.93278556925921      1.90787105287443     -0.71010706863164
  O           1.21070689547550     -0.91032392326290      1.14464410866404
  O          -1.65015602151036      0.69903994238212     -0.51184256156307
  H           2.18098116005865      0.21393249008465     -1.13133571410137
  H           2.69605278330126      1.80499843902049     -0.31577792784465
  H          -2.22460314038814     -1.52560258619746      0.64975439110471
  H          -0.85333629045652     -2.44906133179653      0.01206300672997
  H          -2.08230961700794     -1.80387311490969     -1.09339474764595
  H           1.74672416623715      1.01382041354719      1.83888425959568
  H          -0.03582947806149     -0.40053760842366     -1.16999752265822
  H          -0.52005021404428      0.09487152745978      1.82717265154408
  H          -1.03318044548527      2.04110784219396     -1.65960761882418
