15
* (null), Energy   -1000.0000000
C     2.357285   -0.285954   -0.192544   -0.014172    0.008283   -0.005218
C    -2.564679    0.126682    1.373152   -0.001640    0.027427   -0.015988
C     0.014736   -0.364660    0.687164    0.012213    0.021013    0.061048
C     1.403653    0.157780    0.911381    0.008606    0.043757    0.000927
C    -1.174055    0.424086    0.932475   -0.005542    0.030838   -0.031824
O    -0.751849    0.292023   -0.359384    0.000857   -0.112247   -0.013198
H     2.006088    0.069235   -1.161135   -0.030724   -0.023943   -0.010113
H     3.359917    0.106227   -0.028332   -0.011308    0.012866   -0.036248
H     2.424979   -1.373889   -0.237163   -0.017918    0.006324    0.028926
H    -2.585350   -0.747495    2.025437   -0.163714   -0.653879   -0.921008
H    -3.190219   -0.066438    0.501302   -0.253631    1.140376   -0.075163
H    -2.994987    0.962458    1.924195    0.410518   -0.405304    0.958743
H    -0.079192   -1.449075    0.637803    0.017137    0.015128    0.190945
H     1.752144   -0.199825    1.883441    0.036718    0.080329    0.003063
H     1.354846    1.246042    0.964830    0.005683    0.044944   -0.036252
15
* Frequency(6) -166.1417
C     2.355674   -0.285013   -0.193137   -0.014172    0.008283   -0.005218
C    -2.564865    0.129799    1.371335   -0.001640    0.027427   -0.015988
C     0.016124   -0.362272    0.694101    0.012213    0.021013    0.061048
C     1.404631    0.162753    0.911486    0.008606    0.043757    0.000927
C    -1.174685    0.427590    0.928858   -0.005542    0.030838   -0.031824
O    -0.751752    0.279267   -0.360883    0.000857   -0.112247   -0.013198
H     2.002597    0.066514   -1.162284   -0.030724   -0.023943   -0.010113
H     3.358631    0.107689   -0.032452   -0.011308    0.012866   -0.036248
H     2.422942   -1.373170   -0.233876   -0.017918    0.006324    0.028926
H    -2.603955   -0.821805    1.920769   -0.163714   -0.653879   -0.921008
H    -3.219043    0.063160    0.492760   -0.253631    1.140376   -0.075163
H    -2.948334    0.916398    2.033151    0.410518   -0.405304    0.958743
H    -0.077244   -1.447356    0.659503    0.017137    0.015128    0.190945
H     1.756317   -0.190696    1.883789    0.036718    0.080329    0.003063
H     1.355492    1.251149    0.960711    0.005683    0.044944   -0.036252
15
* Frequency(6) -166.1417
C     2.354238   -0.284174   -0.193666   -0.014172    0.008283   -0.005218
C    -2.565031    0.132578    1.369715   -0.001640    0.027427   -0.015988
C     0.017362   -0.360142    0.700287    0.012213    0.021013    0.061048
C     1.405503    0.167187    0.911580    0.008606    0.043757    0.000927
C    -1.175246    0.430715    0.925633   -0.005542    0.030838   -0.031824
O    -0.751665    0.267893   -0.362221    0.000857   -0.112247   -0.013198
H     1.999484    0.064088   -1.163309   -0.030724   -0.023943   -0.010113
H     3.357486    0.108993   -0.036125   -0.011308    0.012866   -0.036248
H     2.421127   -1.372529   -0.230945   -0.017918    0.006324    0.028926
H    -2.620544   -0.888062    1.827444   -0.163714   -0.653879   -0.921008
H    -3.244743    0.178714    0.485144   -0.253631    1.140376   -0.075163
H    -2.906736    0.875328    2.130300    0.410518   -0.405304    0.958743
H    -0.075508   -1.445823    0.678852    0.017137    0.015128    0.190945
H     1.760037   -0.182556    1.884099    0.036718    0.080329    0.003063
H     1.356068    1.255704    0.957037    0.005683    0.044944   -0.036252
15
* Frequency(6) -166.1417
C     2.353132   -0.283527   -0.194073   -0.014172    0.008283   -0.005218
C    -2.565159    0.134718    1.368467   -0.001640    0.027427   -0.015988
C     0.018315   -0.358503    0.705051    0.012213    0.021013    0.061048
C     1.406174    0.170602    0.911653    0.008606    0.043757    0.000927
C    -1.175679    0.433121    0.923150   -0.005542    0.030838   -0.031824
O    -0.751598    0.259134   -0.363251    0.000857   -0.112247   -0.013198
H     1.997086    0.062219   -1.164098   -0.030724   -0.023943   -0.010113
H     3.356603    0.109997   -0.038953   -0.011308    0.012866   -0.036248
H     2.419729   -1.372036   -0.228688   -0.017918    0.006324    0.028926
H    -2.633319   -0.939086    1.755574   -0.163714   -0.653879   -0.921008
H    -3.264535    0.267702    0.479279   -0.253631    1.140376   -0.075163
H    -2.874702    0.843701    2.205114    0.410518   -0.405304    0.958743
H    -0.074171   -1.444642    0.693752    0.017137    0.015128    0.190945
H     1.762902   -0.176288    1.884338    0.036718    0.080329    0.003063
H     1.356511    1.259211    0.954208    0.005683    0.044944   -0.036252
15
* Frequency(6) -166.1417
C     2.352477   -0.283144   -0.194314   -0.014172    0.008283   -0.005218
C    -2.565235    0.135988    1.367727   -0.001640    0.027427   -0.015988
C     0.018880   -0.357530    0.707877    0.012213    0.021013    0.061048
C     1.406573    0.172627    0.911696    0.008606    0.043757    0.000927
C    -1.175935    0.434549    0.921677   -0.005542    0.030838   -0.031824
O    -0.751558    0.253939   -0.363862    0.000857   -0.112247   -0.013198
H     1.995664    0.061111   -1.164566   -0.030724   -0.023943   -0.010113
H     3.356080    0.110592   -0.040631   -0.011308    0.012866   -0.036248
H     2.418899   -1.371743   -0.227349   -0.017918    0.006324    0.028926
H    -2.640896   -0.969349    1.712948   -0.163714   -0.653879   -0.921008
H    -3.276274    0.320480    0.475800   -0.253631    1.140376   -0.075163
H    -2.855702    0.824943    2.249486    0.410518   -0.405304    0.958743
H    -0.073378   -1.443942    0.702589    0.017137    0.015128    0.190945
H     1.764602   -0.172570    1.884480    0.036718    0.080329    0.003063
H     1.356774    1.261291    0.952531    0.005683    0.044944   -0.036252
15
* Frequency(6) -166.1417
C     2.352342   -0.283065   -0.194364   -0.014172    0.008283   -0.005218
C    -2.565251    0.136248    1.367575   -0.001640    0.027427   -0.015988
C     0.018996   -0.357330    0.708457    0.012213    0.021013    0.061048
C     1.406655    0.173043    0.911704    0.008606    0.043757    0.000927
C    -1.175988    0.434842    0.921374   -0.005542    0.030838   -0.031824
O    -0.751550    0.252871   -0.363987    0.000857   -0.112247   -0.013198
H     1.995372    0.060883   -1.164662   -0.030724   -0.023943   -0.010113
H     3.355972    0.110715   -0.040976   -0.011308    0.012866   -0.036248
H     2.418729   -1.371683   -0.227074   -0.017918    0.006324    0.028926
H    -2.642454   -0.975570    1.704185   -0.163714   -0.653879   -0.921008
H    -3.278687    0.331330    0.475085   -0.253631    1.140376   -0.075163
H    -2.851796    0.821086    2.258608    0.410518   -0.405304    0.958743
H    -0.073214   -1.443798    0.704406    0.017137    0.015128    0.190945
H     1.764951   -0.171806    1.884509    0.036718    0.080329    0.003063
H     1.356828    1.261718    0.952186    0.005683    0.044944   -0.036252
15
* Frequency(6) -166.1417
C     2.352743   -0.283299   -0.194217   -0.014172    0.008283   -0.005218
C    -2.565204    0.135473    1.368027   -0.001640    0.027427   -0.015988
C     0.018651   -0.357925    0.706731    0.012213    0.021013    0.061048
C     1.406411    0.171806    0.911678    0.008606    0.043757    0.000927
C    -1.175831    0.433970    0.922274   -0.005542    0.030838   -0.031824
O    -0.751575    0.256046   -0.363614    0.000857   -0.112247   -0.013198
H     1.996241    0.061561   -1.164376   -0.030724   -0.023943   -0.010113
H     3.356292    0.110351   -0.039950   -0.011308    0.012866   -0.036248
H     2.419236   -1.371862   -0.227892   -0.017918    0.006324    0.028926
H    -2.637823   -0.957076    1.730235   -0.163714   -0.653879   -0.921008
H    -3.271513    0.299076    0.477211   -0.253631    1.140376   -0.075163
H    -2.863407    0.832550    2.231491    0.410518   -0.405304    0.958743
H    -0.073699   -1.444226    0.699005    0.017137    0.015128    0.190945
H     1.763913   -0.174078    1.884422    0.036718    0.080329    0.003063
H     1.356668    1.260447    0.953211    0.005683    0.044944   -0.036252
15
* Frequency(6) -166.1417
C     2.353636   -0.283821   -0.193888   -0.014172    0.008283   -0.005218
C    -2.565101    0.133744    1.369035   -0.001640    0.027427   -0.015988
C     0.017881   -0.359249    0.702884    0.012213    0.021013    0.061048
C     1.405869    0.169048    0.911620    0.008606    0.043757    0.000927
C    -1.175482    0.432026    0.924280   -0.005542    0.030838   -0.031824
O    -0.751629    0.263119   -0.362782    0.000857   -0.112247   -0.013198
H     1.998177    0.063069   -1.163739   -0.030724   -0.023943   -0.010113
H     3.357005    0.109540   -0.037666   -0.011308    0.012866   -0.036248
H     2.420365   -1.372260   -0.229715   -0.017918    0.006324    0.028926
H    -2.627507   -0.915871    1.788274   -0.163714   -0.653879   -0.921008
H    -3.255530    0.227213    0.481948   -0.253631    1.140376   -0.075163
H    -2.889277    0.858091    2.171074    0.410518   -0.405304    0.958743
H    -0.074779   -1.445179    0.686972    0.017137    0.015128    0.190945
H     1.761599   -0.179140    1.884229    0.036718    0.080329    0.003063
H     1.356310    1.257615    0.955495    0.005683    0.044944   -0.036252
15
* Frequency(6) -166.1417
C     2.354924   -0.284574   -0.193413   -0.014172    0.008283   -0.005218
C    -2.564952    0.131251    1.370488   -0.001640    0.027427   -0.015988
C     0.016771   -0.361159    0.697333    0.012213    0.021013    0.061048
C     1.405086    0.165070    0.911536    0.008606    0.043757    0.000927
C    -1.174978    0.429223    0.927173   -0.005542    0.030838   -0.031824
O    -0.751707    0.273325   -0.361582    0.000857   -0.112247   -0.013198
H     2.000970    0.065246   -1.162820   -0.030724   -0.023943   -0.010113
H     3.358033    0.108370   -0.034371   -0.011308    0.012866   -0.036248
H     2.421994   -1.372835   -0.232345   -0.017918    0.006324    0.028926
H    -2.612621   -0.856419    1.872014   -0.163714   -0.653879   -0.921008
H    -3.232469    0.123528    0.488782   -0.253631    1.140376   -0.075163
H    -2.926602    0.894942    2.083903    0.410518   -0.405304    0.958743
H    -0.076337   -1.446555    0.669611    0.017137    0.015128    0.190945
H     1.758260   -0.186444    1.883951    0.036718    0.080329    0.003063
H     1.355793    1.253529    0.958792    0.005683    0.044944   -0.036252
15
* Frequency(6) -166.1417
C     2.356468   -0.285477   -0.192845   -0.014172    0.008283   -0.005218
C    -2.564773    0.128262    1.372231   -0.001640    0.027427   -0.015988
C     0.015440   -0.363449    0.690681    0.012213    0.021013    0.061048
C     1.404149    0.160301    0.911435    0.008606    0.043757    0.000927
C    -1.174374    0.425862    0.930641   -0.005542    0.030838   -0.031824
O    -0.751800    0.285557   -0.360144    0.000857   -0.112247   -0.013198
H     2.004318    0.067855   -1.161718   -0.030724   -0.023943   -0.010113
H     3.359265    0.106968   -0.030420   -0.011308    0.012866   -0.036248
H     2.423947   -1.373524   -0.235497   -0.017918    0.006324    0.028926
H    -2.594781   -0.785163    1.972379   -0.163714   -0.653879   -0.921008
H    -3.204830   -0.000743    0.496972   -0.253631    1.140376   -0.075163
H    -2.971338    0.939110    1.979426    0.410518   -0.405304    0.958743
H    -0.078205   -1.448203    0.648803    0.017137    0.015128    0.190945
H     1.754259   -0.195197    1.883617    0.036718    0.080329    0.003063
H     1.355174    1.248631    0.962742    0.005683    0.044944   -0.036252
15
* Frequency(6) -166.1417
C     2.358101   -0.286431   -0.192244   -0.014172    0.008283   -0.005218
C    -2.564584    0.125102    1.374073   -0.001640    0.027427   -0.015988
C     0.014033   -0.365870    0.683647    0.012213    0.021013    0.061048
C     1.403157    0.155260    0.911328    0.008606    0.043757    0.000927
C    -1.173736    0.422309    0.934308   -0.005542    0.030838   -0.031824
O    -0.751899    0.298490   -0.358623    0.000857   -0.112247   -0.013198
H     2.007858    0.070614   -1.160552   -0.030724   -0.023943   -0.010113
H     3.360568    0.105486   -0.026244   -0.011308    0.012866   -0.036248
H     2.426011   -1.374253   -0.238829   -0.017918    0.006324    0.028926
H    -2.575918   -0.709826    2.078494   -0.163714   -0.653879   -0.921008
H    -3.175608   -0.132133    0.505632   -0.253631    1.140376   -0.075163
H    -3.018636    0.985807    1.868963    0.410518   -0.405304    0.958743
H    -0.080179   -1.449946    0.626803    0.017137    0.015128    0.190945
H     1.750029   -0.204453    1.883264    0.036718    0.080329    0.003063
H     1.354519    1.243453    0.966919    0.005683    0.044944   -0.036252
15
* Frequency(6) -166.1417
C     2.359646   -0.287334   -0.191675   -0.014172    0.008283   -0.005218
C    -2.564406    0.122113    1.375815   -0.001640    0.027427   -0.015988
C     0.012702   -0.368160    0.676994    0.012213    0.021013    0.061048
C     1.402219    0.150491    0.911227    0.008606    0.043757    0.000927
C    -1.173132    0.418948    0.937776   -0.005542    0.030838   -0.031824
O    -0.751992    0.310722   -0.357185    0.000857   -0.112247   -0.013198
H     2.011206    0.073223   -1.159450   -0.030724   -0.023943   -0.010113
H     3.361800    0.104084   -0.022294   -0.011308    0.012866   -0.036248
H     2.427964   -1.374942   -0.241982   -0.017918    0.006324    0.028926
H    -2.558078   -0.638570    2.178860   -0.163714   -0.653879   -0.921008
H    -3.147969   -0.256403    0.513823   -0.253631    1.140376   -0.075163
H    -3.063372    1.029975    1.764486    0.410518   -0.405304    0.958743
H    -0.082047   -1.451595    0.605996    0.017137    0.015128    0.190945
H     1.746027   -0.213206    1.882930    0.036718    0.080329    0.003063
H     1.353900    1.238555    0.970869    0.005683    0.044944   -0.036252
15
* Frequency(6) -166.1417
C     2.360934   -0.288087   -0.191201   -0.014172    0.008283   -0.005218
C    -2.564257    0.119619    1.377269   -0.001640    0.027427   -0.015988
C     0.011591   -0.370070    0.671444    0.012213    0.021013    0.061048
C     1.401437    0.146513    0.911142    0.008606    0.043757    0.000927
C    -1.172628    0.416145    0.940669   -0.005542    0.030838   -0.031824
O    -0.752070    0.320927   -0.355985    0.000857   -0.112247   -0.013198
H     2.014000    0.075400   -1.158531   -0.030724   -0.023943   -0.010113
H     3.362828    0.102914   -0.018998   -0.011308    0.012866   -0.036248
H     2.429593   -1.375517   -0.244612   -0.017918    0.006324    0.028926
H    -2.543193   -0.579119    2.262599   -0.163714   -0.653879   -0.921008
H    -3.124908   -0.360088    0.520657   -0.253631    1.140376   -0.075163
H    -3.100697    1.066825    1.677315    0.410518   -0.405304    0.958743
H    -0.083605   -1.452970    0.588634    0.017137    0.015128    0.190945
H     1.742689   -0.220510    1.882652    0.036718    0.080329    0.003063
H     1.353383    1.234469    0.974165    0.005683    0.044944   -0.036252
15
* Frequency(6) -166.1417
C     2.361827   -0.288609   -0.190872   -0.014172    0.008283   -0.005218
C    -2.564153    0.117891    1.378276   -0.001640    0.027427   -0.015988
C     0.010822   -0.371395    0.667597    0.012213    0.021013    0.061048
C     1.400894    0.143755    0.911084    0.008606    0.043757    0.000927
C    -1.172279    0.414201    0.942675   -0.005542    0.030838   -0.031824
O    -0.752124    0.328001   -0.355153    0.000857   -0.112247   -0.013198
H     2.015936    0.076909   -1.157894   -0.030724   -0.023943   -0.010113
H     3.363541    0.102103   -0.016714   -0.011308    0.012866   -0.036248
H     2.430722   -1.375916   -0.246434   -0.017918    0.006324    0.028926
H    -2.532876   -0.537913    2.320639   -0.163714   -0.653879   -0.921008
H    -3.108925   -0.431952    0.525393   -0.253631    1.140376   -0.075163
H    -3.126566    1.092367    1.616898    0.410518   -0.405304    0.958743
H    -0.084685   -1.453924    0.576602    0.017137    0.015128    0.190945
H     1.740375   -0.225572    1.882459    0.036718    0.080329    0.003063
H     1.353025    1.231636    0.976450    0.005683    0.044944   -0.036252
15
* Frequency(6) -166.1417
C     2.362228   -0.288843   -0.190724   -0.014172    0.008283   -0.005218
C    -2.564107    0.117115    1.378729   -0.001640    0.027427   -0.015988
C     0.010476   -0.371989    0.665870    0.012213    0.021013    0.061048
C     1.400651    0.142518    0.911058    0.008606    0.043757    0.000927
C    -1.172122    0.413329    0.943575   -0.005542    0.030838   -0.031824
O    -0.752148    0.331175   -0.354780    0.000857   -0.112247   -0.013198
H     2.016805    0.077586   -1.157607   -0.030724   -0.023943   -0.010113
H     3.363861    0.101739   -0.015689   -0.011308    0.012866   -0.036248
H     2.431229   -1.376094   -0.247253   -0.017918    0.006324    0.028926
H    -2.528245   -0.519419    2.346688   -0.163714   -0.653879   -0.921008
H    -3.101751   -0.464206    0.527519   -0.253631    1.140376   -0.075163
H    -3.138178    1.103830    1.589781    0.410518   -0.405304    0.958743
H    -0.085169   -1.454352    0.571201    0.017137    0.015128    0.190945
H     1.739336   -0.227844    1.882372    0.036718    0.080329    0.003063
H     1.352864    1.230365    0.977475    0.005683    0.044944   -0.036252
15
* Frequency(6) -166.1417
C     2.362093   -0.288765   -0.190774   -0.014172    0.008283   -0.005218
C    -2.564123    0.117376    1.378576   -0.001640    0.027427   -0.015988
C     0.010593   -0.371789    0.666451    0.012213    0.021013    0.061048
C     1.400733    0.142934    0.911067    0.008606    0.043757    0.000927
C    -1.172175    0.413622    0.943272   -0.005542    0.030838   -0.031824
O    -0.752140    0.330107   -0.354906    0.000857   -0.112247   -0.013198
H     2.016513    0.077358   -1.157704   -0.030724   -0.023943   -0.010113
H     3.363753    0.101862   -0.016034   -0.011308    0.012866   -0.036248
H     2.431058   -1.376034   -0.246977   -0.017918    0.006324    0.028926
H    -2.529803   -0.525640    2.337926   -0.163714   -0.653879   -0.921008
H    -3.104165   -0.453356    0.526804   -0.253631    1.140376   -0.075163
H    -3.134272    1.099974    1.598903    0.410518   -0.405304    0.958743
H    -0.085006   -1.454208    0.573018    0.017137    0.015128    0.190945
H     1.739686   -0.227080    1.882401    0.036718    0.080329    0.003063
H     1.352918    1.230793    0.977130    0.005683    0.044944   -0.036252
15
* Frequency(6) -166.1417
C     2.361437   -0.288381   -0.191015   -0.014172    0.008283   -0.005218
C    -2.564198    0.118645    1.377836   -0.001640    0.027427   -0.015988
C     0.011158   -0.370817    0.669276    0.012213    0.021013    0.061048
C     1.401131    0.144959    0.911109    0.008606    0.043757    0.000927
C    -1.172431    0.415050    0.941799   -0.005542    0.030838   -0.031824
O    -0.752100    0.324913   -0.355517    0.000857   -0.112247   -0.013198
H     2.015091    0.076250   -1.158172   -0.030724   -0.023943   -0.010113
H     3.363230    0.102457   -0.017711   -0.011308    0.012866   -0.036248
H     2.430229   -1.375742   -0.245639   -0.017918    0.006324    0.028926
H    -2.537380   -0.555903    2.295300   -0.163714   -0.653879   -0.921008
H    -3.115903   -0.400577    0.523325   -0.253631    1.140376   -0.075163
H    -3.115272    1.081216    1.643275    0.410518   -0.405304    0.958743
H    -0.084213   -1.453507    0.581855    0.017137    0.015128    0.190945
H     1.741385   -0.223362    1.882543    0.036718    0.080329    0.003063
H     1.353181    1.232873    0.975452    0.005683    0.044944   -0.036252
15
* Frequency(6) -166.1417
C     2.360331   -0.287735   -0.191423   -0.014172    0.008283   -0.005218
C    -2.564326    0.120786    1.376589   -0.001640    0.027427   -0.015988
C     0.012111   -0.369177    0.674040    0.012213    0.021013    0.061048
C     1.401803    0.148374    0.911182    0.008606    0.043757    0.000927
C    -1.172864    0.417456    0.939316   -0.005542    0.030838   -0.031824
O    -0.752034    0.316153   -0.356546    0.000857   -0.112247   -0.013198
H     2.012693    0.074382   -1.158961   -0.030724   -0.023943   -0.010113
H     3.362347    0.103461   -0.020540   -0.011308    0.012866   -0.036248
H     2.428831   -1.375248   -0.243381   -0.017918    0.006324    0.028926
H    -2.550155   -0.606927    2.223430   -0.163714   -0.653879   -0.921008
H    -3.135695   -0.311589    0.517460   -0.253631    1.140376   -0.075163
H    -3.083238    1.049588    1.718089    0.410518   -0.405304    0.958743
H    -0.082876   -1.452327    0.596755    0.017137    0.015128    0.190945
H     1.744250   -0.217094    1.882782    0.036718    0.080329    0.003063
H     1.353625    1.236380    0.972624    0.005683    0.044944   -0.036252
15
* Frequency(6) -166.1417
C     2.358895   -0.286896   -0.191951   -0.014172    0.008283   -0.005218
C    -2.564493    0.123565    1.374969   -0.001640    0.027427   -0.015988
C     0.013348   -0.367048    0.680226    0.012213    0.021013    0.061048
C     1.402675    0.152808    0.911276    0.008606    0.043757    0.000927
C    -1.173425    0.420581    0.936091   -0.005542    0.030838   -0.031824
O    -0.751947    0.304780   -0.357884    0.000857   -0.112247   -0.013198
H     2.009580    0.071956   -1.159986   -0.030724   -0.023943   -0.010113
H     3.361202    0.104765   -0.024213   -0.011308    0.012866   -0.036248
H     2.427015   -1.374607   -0.240450   -0.017918    0.006324    0.028926
H    -2.566744   -0.673185    2.130105   -0.163714   -0.653879   -0.921008
H    -3.161395   -0.196036    0.509844   -0.253631    1.140376   -0.075163
H    -3.041640    1.008519    1.815238    0.410518   -0.405304    0.958743
H    -0.081140   -1.450794    0.616104    0.017137    0.015128    0.190945
H     1.747971   -0.208954    1.883093    0.036718    0.080329    0.003063
H     1.354201    1.240934    0.968950    0.005683    0.044944   -0.036252
15
* Frequency(6) -166.1417
C     2.357285   -0.285954   -0.192544   -0.014172    0.008283   -0.005218
C    -2.564679    0.126682    1.373152   -0.001640    0.027427   -0.015988
C     0.014736   -0.364660    0.687164    0.012213    0.021013    0.061048
C     1.403653    0.157780    0.911381    0.008606    0.043757    0.000927
C    -1.174055    0.424086    0.932475   -0.005542    0.030838   -0.031824
O    -0.751849    0.292023   -0.359384    0.000857   -0.112247   -0.013198
H     2.006088    0.069235   -1.161135   -0.030724   -0.023943   -0.010113
H     3.359917    0.106227   -0.028332   -0.011308    0.012866   -0.036248
H     2.424979   -1.373889   -0.237163   -0.017918    0.006324    0.028926
H    -2.585350   -0.747495    2.025437   -0.163714   -0.653879   -0.921008
H    -3.190219   -0.066438    0.501302   -0.253631    1.140376   -0.075163
H    -2.994987    0.962458    1.924195    0.410518   -0.405304    0.958743
H    -0.079192   -1.449075    0.637803    0.017137    0.015128    0.190945
H     1.752144   -0.199825    1.883441    0.036718    0.080329    0.003063
H     1.354846    1.246042    0.964830    0.005683    0.044944   -0.036252
