15
Coordinates from ORCA-job freq E -271.050737951238
  C           2.35728478419874     -0.28595424662845     -0.19254418180617
  C          -2.56467883978564      0.12668175088940      1.37315168310467
  C           0.01473634170976     -0.36465965612285      0.68716367682220
  C           1.40365279504997      0.15778046159838      0.91138112461031
  C          -1.17405497970975      0.42408551055354      0.93247451601252
  O          -0.75184929338784      0.29202325576123     -0.35938360762321
  H           2.00608836370976      0.06923474614906     -1.16113493518250
  H           3.35991653515806      0.10622708459689     -0.02833230210921
  H           2.42497881127937     -1.37388873861327     -0.23716309085626
  H          -2.58534964089796     -0.74749460554503      2.02543679057547
  H          -3.19021915307645     -0.06643787900003      0.50130223670393
  H          -2.99498692977690      0.96245833565395      1.92419461160602
  H          -0.07919197042388     -1.44907479300844      0.63780345235432
  H           1.75214380206549     -0.19982507288664      1.88344062082986
  H           1.35484637388724      1.24604184660226      0.96483040495801
