17
Coordinates from ORCA-job freq E -421.380790147669
  C           2.01904667270820     -0.34494738101309      0.67179913191225
  C           1.31519745935482     -0.35253225384428     -0.68191808422128
  C           0.28316532162867      0.73329085033178     -0.75156592795308
  O          -0.76288888805709      0.59463849621803     -1.73871518182007
  C          -1.12259658087470      0.52320989382235     -0.41500673374985
  C          -1.73951375370841     -0.71365998457073      0.17652133583587
  O          -1.92808651914946      1.60115081009860      0.00185634119915
  O          -2.25193091740164      1.26105818367371      1.31853931396402
  H           1.30645780768346     -0.50536037278548      1.48212406469947
  H           2.77576677274196     -1.12565370041943      0.72378426225567
  H           2.51109797186942      0.61140538215377      0.85085645042471
  H           0.83023168160884     -1.31327646499500     -0.86304058099652
  H           2.03811928897067     -0.20833434451350     -1.48716124069867
  H           0.63947111099353      1.75523570578339     -0.65959874054273
  H          -1.07972079030532     -1.47277806522568      0.57907476868115
  H          -2.60289359802738     -1.09213743628804     -0.36277007356790
  H          -2.23092304003553      0.04868768157360      1.15522089457778
