17
Coordinates from ORCA-job freq E -421.408693399620
  C          -2.37826940002649     -0.64256139052471      0.45106623627044
  C           0.58405842520600     -0.54042172355938     -1.02690062473678
  C           1.60377206025068     -0.65324444740502      0.08962765635140
  C          -0.40706217659361      0.53701818000274     -0.76899497709753
  C          -1.66819231161223      0.57869214128761     -0.05344172068277
  O           3.36731729645618      0.39927055190073      1.06597906424822
  O           2.38571330067210      0.52308915903258      0.04961530175988
  O          -1.54925680215613      0.68623109411406     -1.49705743339140
  H          -3.45643238012121     -0.53619581575219      0.32920773343720
  H          -2.05702473831956     -1.53083026767347     -0.08998532320069
  H          -2.17132948882212     -0.78449648339603      1.51240085582106
  H           0.06922550438455     -1.50351639715340     -1.12886395409171
  H           1.09356226840971     -0.34873471442227     -1.97281326250658
  H           1.10970290521988     -0.73892096003480      1.06300214204994
  H           2.24807143320593     -1.52264335601485     -0.05619603588356
  H          -1.94470123747065      1.51706253596037      0.41607095802019
  H           3.10170734131693      1.09686689363800      1.67568738363269
