15
Coordinates from ORCA-job freq E -271.060422973402
  C           2.47367176527648      0.36791240620421      0.43471745361333
  C          -1.75310588046062      0.71610700659694      2.28998065040417
  C           1.59933780467811     -0.34181164895314     -0.54738668049951
  C          -0.82471948692855     -0.08786968301199      1.46315959741104
  C           0.27940937165318     -0.27134167460524     -0.57642356613763
  O          -0.44154120957819      0.51451104392490      0.29753189160158
  H           1.88088320383598      0.95746954417566      1.13043876366666
  H           3.17243347154712      1.02987444550640     -0.07937937127269
  H           3.06891280740867     -0.34639116583474      1.00558165612853
  H          -1.91512897027702      0.23208383365831      3.25128069941844
  H          -2.72862855914018      0.84650097503004      1.80589325402903
  H          -1.34379719442915      1.71223695875711      2.46644923882051
  H           2.07080560875422     -0.96100501079652     -1.30103757593670
  H          -0.84887579343275     -1.17120666735079      1.45078512146594
  H          -0.32814893890737     -0.80203536330118     -1.30075413271284
