15
Coordinates from ORCA-job freq E -270.993658526266
  C      -2.659437      0.704119      0.094678
  C      -1.345572      0.980493      0.171668
  C      -0.059123     -0.926629     -0.465987
  O       0.837593     -0.721486     -1.488752
  C       1.346524     -1.014941     -0.139486
  C       2.092426      0.076322      0.556114
  H      -3.209352      0.815843     -0.830086
  H      -3.206866      0.303624      0.937438
  H      -0.830479      0.963459      1.122212
  H      -0.829287      1.474134     -0.639480
  H      -0.805294     -1.709657     -0.542366
  H       1.809881     -1.998583     -0.092346
  H       1.614112      1.038796      0.400421
  H       2.125793     -0.121822      1.628101
  H       3.119081      0.136329      0.196314
15
Coordinates from ORCA-job freq E -270.993349477942
  C      -2.622240      0.686204      0.095284
  C      -1.304917      0.951848      0.170326
  C      -0.086289     -0.913292     -0.467069
  O       0.819412     -0.709743     -1.476533
  C       1.322323     -1.003943     -0.140957
  C       2.068524      0.090987      0.555005
  H      -3.172760      0.813075     -0.826973
  H      -3.167594      0.280977      0.936918
  H      -0.792291      0.929953      1.122976
  H      -0.794636      1.461221     -0.636202
  H      -0.831611     -1.695922     -0.549511
  H       1.778361     -1.989622     -0.085895
  H       1.600010      1.054970      0.374222
  H       2.083603     -0.092429      1.629993
  H       3.100104      0.135719      0.206858
15
Coordinates from ORCA-job freq E -270.993375510256
  C      -2.597730      0.686584      0.092696
  C      -1.275072      0.932026      0.166591
  C      -0.104250     -0.920712     -0.460434
  O       0.800319     -0.698565     -1.463971
  C       1.310160     -0.999370     -0.143903
  C       2.046184      0.101485      0.558192
  H      -3.144662      0.816749     -0.831063
  H      -3.148570      0.299153      0.938893
  H      -0.768051      0.913011      1.123013
  H      -0.758107      1.431223     -0.642771
  H      -0.840082     -1.711724     -0.551013
  H       1.773777     -1.981166     -0.095523
  H       1.554386      1.057805      0.394912
  H       2.081090     -0.096577      1.630063
  H       3.070605      0.170079      0.192759
15
Coordinates from ORCA-job freq E -270.993391682842
  C      -2.592665      0.691042      0.097118
  C      -1.267738      0.923694      0.173482
  C      -0.103583     -0.927644     -0.467044
  O       0.802568     -0.705419     -1.467612
  C       1.310430     -1.000818     -0.146437
  C       2.036562      0.108194      0.554383
  H      -3.137893      0.835493     -0.825469
  H      -3.147272      0.302733      0.940392
  H      -0.759370      0.889977      1.129080
  H      -0.745973      1.424071     -0.632469
  H      -0.838497     -1.719381     -0.557314
  H       1.777385     -1.980495     -0.092689
  H       1.546965      1.061708      0.368093
  H       2.052027     -0.074557      1.629445
  H       3.067053      0.171403      0.205483
15
Coordinates from ORCA-job freq E -270.993387076772
  C      -2.593543      0.693202      0.091292
  C      -1.268337      0.921584      0.174623
  C      -0.105384     -0.929976     -0.458629
  O       0.795002     -0.702905     -1.463472
  C       1.310774     -1.000238     -0.146153
  C       2.038749      0.108442      0.553395
  H      -3.133408      0.838723     -0.834276
  H      -3.153929      0.307431      0.931914
  H      -0.765969      0.887206      1.133255
  H      -0.739887      1.419758     -0.628402
  H      -0.839203     -1.722893     -0.546902
  H       1.780625     -1.978809     -0.097609
  H       1.540939      1.060320      0.381007
  H       2.069348     -0.082505      1.626702
  H       3.064221      0.180661      0.191696
15
Coordinates from ORCA-job freq E -270.993392123143
  C      -2.593249      0.692855      0.090101
  C      -1.268206      0.921102      0.176704
  C      -0.105951     -0.929741     -0.457535
  O       0.793455     -0.703282     -1.463287
  C       1.310418     -0.999955     -0.146256
  C       2.039196      0.108851      0.552198
  H      -3.130874      0.839277     -0.836636
  H      -3.155659      0.306145      0.928936
  H      -0.767735      0.886140      1.136339
  H      -0.738512      1.420348     -0.624826
  H      -0.839676     -1.722864     -0.544858
  H       1.780091     -1.978606     -0.097496
  H       1.541951      1.060917      0.379397
  H       2.070175     -0.081402      1.625609
  H       3.064574      0.180216      0.190050
15
Coordinates from ORCA-job freq E -270.993397461442
  C      -2.593637      0.692839      0.089674
  C      -1.268678      0.921204      0.177461
  C      -0.105829     -0.929645     -0.457170
  O       0.793388     -0.703831     -1.463243
  C       1.310616     -1.000045     -0.146205
  C       2.039761      0.108898      0.551650
  H      -3.130623      0.840201     -0.837285
  H      -3.156584      0.305113      0.927683
  H      -0.768785      0.885284      1.137358
  H      -0.738617      1.421390     -0.623245
  H      -0.839718     -1.722684     -0.544003
  H       1.780083     -1.978778     -0.097188
  H       1.542956      1.061066      0.378076
  H       2.070415     -0.080598      1.625205
  H       3.065250      0.179585      0.189675
15
Coordinates from ORCA-job freq E -270.993393111500
  C      -2.593745      0.692889      0.089363
  C      -1.268837      0.921263      0.177723
  C      -0.105836     -0.929694     -0.456809
  O       0.793123     -0.703891     -1.463107
  C       1.310683     -1.000060     -0.146189
  C       2.039972      0.108903      0.551478
  H      -3.130358      0.840408     -0.837784
  H      -3.157022      0.305008      0.927077
  H      -0.769300      0.885138      1.137799
  H      -0.738458      1.421533     -0.622720
  H      -0.839750     -1.722735     -0.543435
  H       1.780172     -1.978790     -0.097267
  H       1.542951      1.061024      0.378265
  H       2.071113     -0.080767      1.624988
  H       3.065292      0.179771      0.189059
