15
* (null), Energy   -1000.0000000
C    -2.653568    0.843564    0.308401    0.197131   -0.188015   -0.065657
C    -1.328660    1.071938    0.396761    0.708594   -0.949895   -0.331297
C    -0.165659   -0.779020   -0.237771   -0.433756    0.794468    0.176881
O     0.733300   -0.553216   -1.244069   -0.156702    0.091650    0.098927
C     1.250860   -0.849386    0.072850   -0.307319    0.166848    0.082088
C     1.980150    0.259578    0.770516    0.023749    0.012196   -0.022641
H    -3.190181    0.991083   -0.618746    0.135818    0.025405    0.012835
H    -3.216845    0.455683    1.146116    0.205464   -0.083141   -0.020959
H    -0.829123    1.035812    1.356838    0.317868   -0.023595   -0.085792
H    -0.798280    1.572208   -0.403682    0.255783    0.112564    0.022830
H    -0.899572   -1.572060   -0.324397   -0.203103    0.545429    0.187656
H     1.720349   -1.828116    0.121771   -0.734805   -0.026886    0.336235
H     1.483128    1.211699    0.597303    0.205935    0.109440   -0.011914
H     2.011291    0.069908    1.844026    0.041093    0.033446   -0.018889
H     3.005469    0.330446    0.408097    0.018222   -0.188423   -0.078202
15
* Frequency(6) -440.4036
C    -2.631165    0.822197    0.300940    0.197131   -0.188015   -0.065657
C    -1.248132    0.963987    0.359111    0.708594   -0.949895   -0.331297
C    -0.214953   -0.688732   -0.217669   -0.433756    0.794468    0.176881
O     0.715492   -0.542800   -1.232826   -0.156702    0.091650    0.098927
C     1.215935   -0.830424    0.082179   -0.307319    0.166848    0.082088
C     1.982849    0.260964    0.767943    0.023749    0.012196   -0.022641
H    -3.174746    0.993970   -0.617287    0.135818    0.025405    0.012835
H    -3.193495    0.446234    1.143734    0.205464   -0.083141   -0.020959
H    -0.792999    1.033131    1.347088    0.317868   -0.023595   -0.085792
H    -0.769212    1.585000   -0.401087    0.255783    0.112564    0.022830
H    -0.922654   -1.510075   -0.303071   -0.203103    0.545429    0.187656
H     1.636842   -1.831171    0.159983   -0.734805   -0.026886    0.336235
H     1.506532    1.224136    0.595950    0.205935    0.109440   -0.011914
H     2.015961    0.073709    1.841880    0.041093    0.033446   -0.018889
H     3.007540    0.309033    0.399210    0.018222   -0.188423   -0.078202
15
* Frequency(6) -440.4036
C    -2.611190    0.803145    0.294287    0.197131   -0.188015   -0.065657
C    -1.176330    0.867735    0.325541    0.708594   -0.949895   -0.331297
C    -0.258905   -0.608229   -0.199746   -0.433756    0.794468    0.176881
O     0.699614   -0.533514   -1.222802   -0.156702    0.091650    0.098927
C     1.184795   -0.813518    0.090496   -0.307319    0.166848    0.082088
C     1.985255    0.262200    0.765649    0.023749    0.012196   -0.022641
H    -3.160984    0.996544   -0.615987    0.135818    0.025405    0.012835
H    -3.172675    0.437810    1.141610    0.205464   -0.083141   -0.020959
H    -0.760790    1.030740    1.338394    0.317868   -0.023595   -0.085792
H    -0.743294    1.596406   -0.398774    0.255783    0.112564    0.022830
H    -0.943234   -1.454806   -0.284056   -0.203103    0.545429    0.187656
H     1.562385   -1.833895    0.194053   -0.734805   -0.026886    0.336235
H     1.527399    1.235226    0.594742    0.205935    0.109440   -0.011914
H     2.020125    0.077098    1.839966    0.041093    0.033446   -0.018889
H     3.009387    0.289940    0.391285    0.018222   -0.188423   -0.078202
15
* Frequency(6) -440.4036
C    -2.595807    0.788474    0.289163    0.197131   -0.188015   -0.065657
C    -1.121036    0.793611    0.299689    0.708594   -0.949895   -0.331297
C    -0.292753   -0.546234   -0.185943   -0.433756    0.794468    0.176881
O     0.687386   -0.526362   -1.215082   -0.156702    0.091650    0.098927
C     1.160813   -0.800498    0.096902   -0.307319    0.166848    0.082088
C     1.987108    0.263151    0.763882    0.023749    0.012196   -0.022641
H    -3.150385    0.998527   -0.614985    0.135818    0.025405    0.012835
H    -3.156642    0.431322    1.139975    0.205464   -0.083141   -0.020959
H    -0.735985    1.028899    1.331700    0.317868   -0.023595   -0.085792
H    -0.723334    1.605190   -0.396992    0.255783    0.112564    0.022830
H    -0.959083   -1.412244   -0.269412   -0.203103    0.545429    0.187656
H     1.505045   -1.835993    0.220291   -0.734805   -0.026886    0.336235
H     1.543469    1.243766    0.593813    0.205935    0.109440   -0.011914
H     2.023331    0.079708    1.838492    0.041093    0.033446   -0.018889
H     3.010808    0.275236    0.385183    0.018222   -0.188423   -0.078202
15
* Frequency(6) -440.4036
C    -2.586683    0.779772    0.286124    0.197131   -0.188015   -0.065657
C    -1.088241    0.749648    0.284356    0.708594   -0.949895   -0.331297
C    -0.312828   -0.509464   -0.177757   -0.433756    0.794468    0.176881
O     0.680133   -0.522120   -1.210504   -0.156702    0.091650    0.098927
C     1.146590   -0.792776    0.100701   -0.307319    0.166848    0.082088
C     1.988208    0.263716    0.762834    0.023749    0.012196   -0.022641
H    -3.144099    0.999703   -0.614391    0.135818    0.025405    0.012835
H    -3.147133    0.427474    1.139005    0.205464   -0.083141   -0.020959
H    -0.721274    1.027807    1.327729    0.317868   -0.023595   -0.085792
H    -0.711496    1.610400   -0.395936    0.255783    0.112564    0.022830
H    -0.968483   -1.387001   -0.260727   -0.203103    0.545429    0.187656
H     1.471037   -1.837238    0.235853   -0.734805   -0.026886    0.336235
H     1.553000    1.248831    0.593261    0.205935    0.109440   -0.011914
H     2.025233    0.081256    1.837617    0.041093    0.033446   -0.018889
H     3.011652    0.266516    0.381564    0.018222   -0.188423   -0.078202
15
* Frequency(6) -440.4036
C    -2.584808    0.777983    0.285500    0.197131   -0.188015   -0.065657
C    -1.081499    0.740610    0.281203    0.708594   -0.949895   -0.331297
C    -0.316955   -0.501905   -0.176074   -0.433756    0.794468    0.176881
O     0.678642   -0.521248   -1.209562   -0.156702    0.091650    0.098927
C     1.143666   -0.791188    0.101482   -0.307319    0.166848    0.082088
C     1.988434    0.263832    0.762619    0.023749    0.012196   -0.022641
H    -3.142807    0.999944   -0.614269    0.135818    0.025405    0.012835
H    -3.145178    0.426683    1.138805    0.205464   -0.083141   -0.020959
H    -0.718249    1.027582    1.326913    0.317868   -0.023595   -0.085792
H    -0.709062    1.611471   -0.395718    0.255783    0.112564    0.022830
H    -0.970416   -1.381812   -0.258942   -0.203103    0.545429    0.187656
H     1.464046   -1.837494    0.239052   -0.734805   -0.026886    0.336235
H     1.554959    1.249872    0.593148    0.205935    0.109440   -0.011914
H     2.025624    0.081574    1.837438    0.041093    0.033446   -0.018889
H     3.011825    0.264723    0.380820    0.018222   -0.188423   -0.078202
15
* Frequency(6) -440.4036
C    -2.590384    0.783301    0.287357    0.197131   -0.188015   -0.065657
C    -1.101541    0.767477    0.290574    0.708594   -0.949895   -0.331297
C    -0.304686   -0.524376   -0.181077   -0.433756    0.794468    0.176881
O     0.683074   -0.523840   -1.212360   -0.156702    0.091650    0.098927
C     1.152358   -0.795907    0.099161   -0.307319    0.166848    0.082088
C     1.987762    0.263487    0.763259    0.023749    0.012196   -0.022641
H    -3.146648    0.999226   -0.614632    0.135818    0.025405    0.012835
H    -3.150989    0.429034    1.139398    0.205464   -0.083141   -0.020959
H    -0.727240    1.028250    1.329339    0.317868   -0.023595   -0.085792
H    -0.716297    1.608287   -0.396364    0.255783    0.112564    0.022830
H    -0.964671   -1.397238   -0.264249   -0.203103    0.545429    0.187656
H     1.484829   -1.836733    0.229542   -0.734805   -0.026886    0.336235
H     1.549135    1.246777    0.593485    0.205935    0.109440   -0.011914
H     2.024462    0.080628    1.837972    0.041093    0.033446   -0.018889
H     3.011310    0.270052    0.383032    0.018222   -0.188423   -0.078202
15
* Frequency(6) -440.4036
C    -2.602806    0.795149    0.291494    0.197131   -0.188015   -0.065657
C    -1.146194    0.827337    0.311451    0.708594   -0.949895   -0.331297
C    -0.277352   -0.574441   -0.192223   -0.433756    0.794468    0.176881
O     0.692949   -0.529616   -1.218595   -0.156702    0.091650    0.098927
C     1.171725   -0.806422    0.093988   -0.307319    0.166848    0.082088
C     1.986265    0.262718    0.764686    0.023749    0.012196   -0.022641
H    -3.155207    0.997625   -0.615441    0.135818    0.025405    0.012835
H    -3.163937    0.434274    1.140719    0.205464   -0.083141   -0.020959
H    -0.747271    1.029737    1.334746    0.317868   -0.023595   -0.085792
H    -0.732415    1.601194   -0.397803    0.255783    0.112564    0.022830
H    -0.951872   -1.431610   -0.276075   -0.203103    0.545429    0.187656
H     1.531134   -1.835039    0.208353   -0.734805   -0.026886    0.336235
H     1.536157    1.239880    0.594236    0.205935    0.109440   -0.011914
H     2.021872    0.078520    1.839162    0.041093    0.033446   -0.018889
H     3.010161    0.281926    0.387960    0.018222   -0.188423   -0.078202
15
* Frequency(6) -440.4036
C    -2.620730    0.812244    0.297464    0.197131   -0.188015   -0.065657
C    -1.210621    0.913703    0.341573    0.708594   -0.949895   -0.331297
C    -0.237914   -0.646676   -0.208306   -0.433756    0.794468    0.176881
O     0.707197   -0.537949   -1.227589   -0.156702    0.091650    0.098927
C     1.199667   -0.821592    0.086524   -0.307319    0.166848    0.082088
C     1.984106    0.261609    0.766745    0.023749    0.012196   -0.022641
H    -3.167556    0.995315   -0.616608    0.135818    0.025405    0.012835
H    -3.182618    0.441833    1.142624    0.205464   -0.083141   -0.020959
H    -0.776172    1.031882    1.342546    0.317868   -0.023595   -0.085792
H    -0.755672    1.590959   -0.399879    0.255783    0.112564    0.022830
H    -0.933406   -1.481201   -0.293137   -0.203103    0.545429    0.187656
H     1.597944   -1.832594    0.177782   -0.734805   -0.026886    0.336235
H     1.517433    1.229930    0.595319    0.205935    0.109440   -0.011914
H     2.018136    0.075480    1.840880    0.041093    0.033446   -0.018889
H     3.008505    0.299058    0.395070    0.018222   -0.188423   -0.078202
15
* Frequency(6) -440.4036
C    -2.642212    0.832733    0.304619    0.197131   -0.188015   -0.065657
C    -1.287839    1.017216    0.377676    0.708594   -0.949895   -0.331297
C    -0.190647   -0.733252   -0.227581   -0.433756    0.794468    0.176881
O     0.724273   -0.547936   -1.238370   -0.156702    0.091650    0.098927
C     1.233156   -0.839774    0.077579   -0.307319    0.166848    0.082088
C     1.981518    0.260280    0.769212    0.023749    0.012196   -0.022641
H    -3.182357    0.992546   -0.618007    0.135818    0.025405    0.012835
H    -3.205008    0.450893    1.144908    0.205464   -0.083141   -0.020959
H    -0.810811    1.034453    1.351895    0.317868   -0.023595   -0.085792
H    -0.783545    1.578693   -0.402366    0.255783    0.112564    0.022830
H    -0.911273   -1.540639   -0.313586   -0.203103    0.545429    0.187656
H     1.678018   -1.829665    0.141141   -0.734805   -0.026886    0.336235
H     1.494992    1.218004    0.596617    0.205935    0.109440   -0.011914
H     2.013658    0.071835    1.842938    0.041093    0.033446   -0.018889
H     3.006519    0.319591    0.403592    0.018222   -0.188423   -0.078202
15
* Frequency(6) -440.4036
C    -2.664924    0.854395    0.312184    0.197131   -0.188015   -0.065657
C    -1.369480    1.126659    0.415847    0.708594   -0.949895   -0.331297
C    -0.140671   -0.824787   -0.247961   -0.433756    0.794468    0.176881
O     0.742328   -0.558496   -1.249767   -0.156702    0.091650    0.098927
C     1.268564   -0.858998    0.068121   -0.307319    0.166848    0.082088
C     1.978782    0.258875    0.771820    0.023749    0.012196   -0.022641
H    -3.198005    0.989619   -0.619485    0.135818    0.025405    0.012835
H    -3.228681    0.460472    1.147323    0.205464   -0.083141   -0.020959
H    -0.847435    1.037172    1.361780    0.317868   -0.023595   -0.085792
H    -0.813015    1.565723   -0.404997    0.255783    0.112564    0.022830
H    -0.887872   -1.603481   -0.335207   -0.203103    0.545429    0.187656
H     1.762680   -1.826567    0.102402   -0.734805   -0.026886    0.336235
H     1.471264    1.205395    0.597990    0.205935    0.109440   -0.011914
H     2.008923    0.067981    1.845114    0.041093    0.033446   -0.018889
H     3.004420    0.341301    0.412602    0.018222   -0.188423   -0.078202
15
* Frequency(6) -440.4036
C    -2.686406    0.874884    0.319339    0.197131   -0.188015   -0.065657
C    -1.446698    1.230173    0.451949    0.708594   -0.949895   -0.331297
C    -0.093403   -0.911363   -0.267236   -0.433756    0.794468    0.176881
O     0.759404   -0.568483   -1.260548   -0.156702    0.091650    0.098927
C     1.302054   -0.877180    0.059175   -0.307319    0.166848    0.082088
C     1.976194    0.257546    0.774288    0.023749    0.012196   -0.022641
H    -3.212806    0.986851   -0.620884    0.135818    0.025405    0.012835
H    -3.251071    0.469533    1.149607    0.205464   -0.083141   -0.020959
H    -0.882074    1.039743    1.371129    0.317868   -0.023595   -0.085792
H    -0.840889    1.553457   -0.407485    0.255783    0.112564    0.022830
H    -0.865739   -1.662918   -0.355657   -0.203103    0.545429    0.187656
H     1.842754   -1.823637    0.065761   -0.734805   -0.026886    0.336235
H     1.448823    1.193469    0.599288    0.205935    0.109440   -0.011914
H     2.004445    0.064337    1.847173    0.041093    0.033446   -0.018889
H     3.002434    0.361834    0.421124    0.018222   -0.188423   -0.078202
15
* Frequency(6) -440.4036
C    -2.704330    0.891979    0.325308    0.197131   -0.188015   -0.065657
C    -1.511125    1.316539    0.482071    0.708594   -0.949895   -0.331297
C    -0.053965   -0.983598   -0.283318   -0.433756    0.794468    0.176881
O     0.773652   -0.576816   -1.269542   -0.156702    0.091650    0.098927
C     1.329996   -0.892350    0.051712   -0.307319    0.166848    0.082088
C     1.974034    0.256437    0.776346    0.023749    0.012196   -0.022641
H    -3.225155    0.984541   -0.622051    0.135818    0.025405    0.012835
H    -3.269753    0.477092    1.151513    0.205464   -0.083141   -0.020959
H    -0.910975    1.041888    1.378929    0.317868   -0.023595   -0.085792
H    -0.864145    1.543222   -0.409560    0.255783    0.112564    0.022830
H    -0.847273   -1.712510   -0.372719   -0.203103    0.545429    0.187656
H     1.909564   -1.821192    0.035190   -0.734805   -0.026886    0.336235
H     1.430099    1.183518    0.600371    0.205935    0.109440   -0.011914
H     2.000709    0.061296    1.848890    0.041093    0.033446   -0.018889
H     3.000777    0.378966    0.428234    0.018222   -0.188423   -0.078202
15
* Frequency(6) -440.4036
C    -2.716752    0.903827    0.329446    0.197131   -0.188015   -0.065657
C    -1.555779    1.376399    0.502949    0.708594   -0.949895   -0.331297
C    -0.026631   -1.033663   -0.294465   -0.433756    0.794468    0.176881
O     0.783527   -0.582592   -1.275777   -0.156702    0.091650    0.098927
C     1.349363   -0.902864    0.046539   -0.307319    0.166848    0.082088
C     1.972538    0.255669    0.777773    0.023749    0.012196   -0.022641
H    -3.233714    0.982940   -0.622860    0.135818    0.025405    0.012835
H    -3.282700    0.482331    1.152834    0.205464   -0.083141   -0.020959
H    -0.931006    1.043375    1.384336    0.317868   -0.023595   -0.085792
H    -0.880264    1.536129   -0.410999    0.255783    0.112564    0.022830
H    -0.834474   -1.746881   -0.384544   -0.203103    0.545429    0.187656
H     1.955869   -1.819498    0.014001   -0.734805   -0.026886    0.336235
H     1.417121    1.176621    0.601122    0.205935    0.109440   -0.011914
H     1.998119    0.059188    1.850081    0.041093    0.033446   -0.018889
H     2.999629    0.390840    0.433162    0.018222   -0.188423   -0.078202
15
* Frequency(6) -440.4036
C    -2.722328    0.909145    0.331303    0.197131   -0.188015   -0.065657
C    -1.575821    1.403265    0.512319    0.708594   -0.949895   -0.331297
C    -0.014363   -1.056134   -0.299468   -0.433756    0.794468    0.176881
O     0.787959   -0.585184   -1.278575   -0.156702    0.091650    0.098927
C     1.358055   -0.907583    0.044217   -0.307319    0.166848    0.082088
C     1.971866    0.255324    0.778413    0.023749    0.012196   -0.022641
H    -3.237555    0.982221   -0.623223    0.135818    0.025405    0.012835
H    -3.288512    0.484683    1.153426    0.205464   -0.083141   -0.020959
H    -0.939997    1.044042    1.386762    0.317868   -0.023595   -0.085792
H    -0.887499    1.532945   -0.411645    0.255783    0.112564    0.022830
H    -0.828729   -1.762308   -0.389852   -0.203103    0.545429    0.187656
H     1.976653   -1.818738    0.004491   -0.734805   -0.026886    0.336235
H     1.411297    1.173526    0.601459    0.205935    0.109440   -0.011914
H     1.996957    0.058242    1.850615    0.041093    0.033446   -0.018889
H     2.999114    0.396169    0.435374    0.018222   -0.188423   -0.078202
15
* Frequency(6) -440.4036
C    -2.720452    0.907356    0.330678    0.197131   -0.188015   -0.065657
C    -1.569079    1.394228    0.509167    0.708594   -0.949895   -0.331297
C    -0.018490   -1.048575   -0.297785   -0.433756    0.794468    0.176881
O     0.786468   -0.584312   -1.277633   -0.156702    0.091650    0.098927
C     1.355131   -0.905996    0.044998   -0.307319    0.166848    0.082088
C     1.972092    0.255440    0.778198    0.023749    0.012196   -0.022641
H    -3.236263    0.982463   -0.623101    0.135818    0.025405    0.012835
H    -3.286557    0.483892    1.153227    0.205464   -0.083141   -0.020959
H    -0.936973    1.043818    1.385946    0.317868   -0.023595   -0.085792
H    -0.885065    1.534016   -0.411428    0.255783    0.112564    0.022830
H    -0.830661   -1.757119   -0.388066   -0.203103    0.545429    0.187656
H     1.969661   -1.818994    0.007690   -0.734805   -0.026886    0.336235
H     1.413256    1.174567    0.601346    0.205935    0.109440   -0.011914
H     1.997348    0.058560    1.850435    0.041093    0.033446   -0.018889
H     2.999287    0.394376    0.434630    0.018222   -0.188423   -0.078202
15
* Frequency(6) -440.4036
C    -2.711329    0.898654    0.327639    0.197131   -0.188015   -0.065657
C    -1.536284    1.350265    0.493834    0.708594   -0.949895   -0.331297
C    -0.038565   -1.011805   -0.289598   -0.433756    0.794468    0.176881
O     0.779215   -0.580070   -1.273055   -0.156702    0.091650    0.098927
C     1.340907   -0.898274    0.048797   -0.307319    0.166848    0.082088
C     1.973191    0.256004    0.777150    0.023749    0.012196   -0.022641
H    -3.229977    0.983639   -0.622507    0.135818    0.025405    0.012835
H    -3.277048    0.480044    1.152257    0.205464   -0.083141   -0.020959
H    -0.922261    1.042726    1.381975    0.317868   -0.023595   -0.085792
H    -0.873227    1.539226   -0.410371    0.255783    0.112564    0.022830
H    -0.840061   -1.731875   -0.379381   -0.203103    0.545429    0.187656
H     1.935653   -1.820238    0.023252   -0.734805   -0.026886    0.336235
H     1.422787    1.179632    0.600794    0.205935    0.109440   -0.011914
H     1.999250    0.060108    1.849561    0.041093    0.033446   -0.018889
H     3.000130    0.385656    0.431011    0.018222   -0.188423   -0.078202
15
* Frequency(6) -440.4036
C    -2.695946    0.883982    0.322516    0.197131   -0.188015   -0.065657
C    -1.480989    1.276141    0.467982    0.708594   -0.949895   -0.331297
C    -0.072412   -0.949810   -0.275796   -0.433756    0.794468    0.176881
O     0.766987   -0.572918   -1.265335   -0.156702    0.091650    0.098927
C     1.316926   -0.885254    0.055203   -0.307319    0.166848    0.082088
C     1.975044    0.256956    0.775383    0.023749    0.012196   -0.022641
H    -3.219379    0.985621   -0.621505    0.135818    0.025405    0.012835
H    -3.261014    0.473556    1.150621    0.205464   -0.083141   -0.020959
H    -0.897457    1.040885    1.375281    0.317868   -0.023595   -0.085792
H    -0.853267    1.548010   -0.408589    0.255783    0.112564    0.022830
H    -0.855910   -1.689313   -0.364738   -0.203103    0.545429    0.187656
H     1.878313   -1.822336    0.049489   -0.734805   -0.026886    0.336235
H     1.438857    1.188172    0.599865    0.205935    0.109440   -0.011914
H     2.002457    0.062718    1.848087    0.041093    0.033446   -0.018889
H     3.001552    0.370952    0.424908    0.018222   -0.188423   -0.078202
15
* Frequency(6) -440.4036
C    -2.675971    0.864931    0.315863    0.197131   -0.188015   -0.065657
C    -1.409188    1.179888    0.434411    0.708594   -0.949895   -0.331297
C    -0.116365   -0.869307   -0.257872   -0.433756    0.794468    0.176881
O     0.751109   -0.563632   -1.255311   -0.156702    0.091650    0.098927
C     1.285786   -0.868347    0.063521   -0.307319    0.166848    0.082088
C     1.977451    0.258192    0.773089    0.023749    0.012196   -0.022641
H    -3.205616    0.988196   -0.620205    0.135818    0.025405    0.012835
H    -3.240195    0.465131    1.148498    0.205464   -0.083141   -0.020959
H    -0.865247    1.038494    1.366587    0.317868   -0.023595   -0.085792
H    -0.827349    1.559416   -0.406276    0.255783    0.112564    0.022830
H    -0.876491   -1.634045   -0.345723   -0.203103    0.545429    0.187656
H     1.803856   -1.825060    0.083560   -0.734805   -0.026886    0.336235
H     1.459725    1.199262    0.598657    0.205935    0.109440   -0.011914
H     2.006621    0.066107    1.846173    0.041093    0.033446   -0.018889
H     3.003399    0.351859    0.416984    0.018222   -0.188423   -0.078202
15
* Frequency(6) -440.4036
C    -2.653568    0.843564    0.308401    0.197131   -0.188015   -0.065657
C    -1.328660    1.071938    0.396761    0.708594   -0.949895   -0.331297
C    -0.165659   -0.779020   -0.237771   -0.433756    0.794468    0.176881
O     0.733300   -0.553216   -1.244069   -0.156702    0.091650    0.098927
C     1.250860   -0.849386    0.072850   -0.307319    0.166848    0.082088
C     1.980150    0.259578    0.770516    0.023749    0.012196   -0.022641
H    -3.190181    0.991083   -0.618746    0.135818    0.025405    0.012835
H    -3.216845    0.455683    1.146116    0.205464   -0.083141   -0.020959
H    -0.829123    1.035812    1.356838    0.317868   -0.023595   -0.085792
H    -0.798280    1.572208   -0.403682    0.255783    0.112564    0.022830
H    -0.899572   -1.572060   -0.324397   -0.203103    0.545429    0.187656
H     1.720349   -1.828116    0.121771   -0.734805   -0.026886    0.336235
H     1.483128    1.211699    0.597303    0.205935    0.109440   -0.011914
H     2.011291    0.069908    1.844026    0.041093    0.033446   -0.018889
H     3.005469    0.330446    0.408097    0.018222   -0.188423   -0.078202
