15
Coordinates from ORCA-job freq E -270.993393111500
  C          -2.59374534944992      0.69288916579682      0.08936292493726
  C          -1.26883705640153      0.92126310674553      0.17772293864237
  C          -0.10583603468171     -0.92969430363745     -0.45680914761964
  O           0.79312302847385     -0.70389070498100     -1.46310682470153
  C           1.31068299200910     -1.00006048253809     -0.14618867739294
  C           2.03997244258608      0.10890309265457      0.55147773948989
  H          -3.13035843742647      0.84040801956335     -0.83778431814918
  H          -3.15702224134455      0.30500800624555      0.92707746046076
  H          -0.76930042426586      0.88513769226835      1.13779924043755
  H          -0.73845771271271      1.42153327504285     -0.62271991598675
  H          -0.83974981135226     -1.72273451074471     -0.54343508644900
  H           1.78017174707165     -1.97879044084647     -0.09726690834056
  H           1.54295063669922      1.06102442755536      0.37826515597293
  H           2.07111325630867     -0.08076661412121      1.62498789642400
  H           3.06529196448643      0.17977127099652      0.18905852227482
