17
Coordinates from ORCA-job freq E -421.374796514137
  C          -2.12186986040699      0.89538698244506      0.25238862746267
  C          -1.61919256001994     -0.52926309972176      0.03981970861695
  C           2.27377500444530      0.11776781472979     -0.63602498009321
  C           0.94413073277032     -0.50957367263997     -0.22937413665028
  C          -0.38470824868092     -0.53449753083104     -0.81275051546078
  O           2.29042002474316      0.19247598012447      1.56646624070074
  O           3.09957410665430     -0.10695536831509      0.48144171330447
  O           0.48274110084060     -1.69176204548237     -0.71935237823449
  H           1.26355987639040     -0.30645233414648      1.05638975633844
  H          -3.02470476299531      0.90167205054049      0.86020350565825
  H          -1.36764093918199      1.49856896617481      0.75862014664696
  H          -2.35628502895805      1.37630312385424     -0.69810587467101
  H          -1.37890311807767     -0.99952883401873      0.99417577864817
  H          -2.38842582575200     -1.13753450866449     -0.43961369448223
  H           2.11415458308879      1.18651023306771     -0.80030697112687
  H           2.73550926387149     -0.35613067112201     -1.50074172450373
  H          -0.50147134873147     -0.18356908599465     -1.83518720215404
