15
Coordinates from ORCA-job freq E -271.095216531570
  C          -1.64459521598547      0.43669287871481      0.45546967074724
  C           1.18376754977794     -0.67371148155030      0.11421672356946
  C           2.02969166977761     -0.03370972544904      1.06822818904101
  C          -1.07981395580419     -0.14226926355269     -0.83521451796323
  C           0.44195877733707      0.04808975005415     -0.94663232010986
  O           2.63506672547030     -0.63183933963842      1.94702000634740
  H          -1.40852223927861      1.49905389300699      0.53862656184607
  H          -1.22653159151697     -0.06461113785117      1.32945420343404
  H          -2.72774583875477      0.32987393630289      0.49515559854992
  H           1.08131665179577     -1.74992207423337      0.20010154371768
  H           2.11722058548914      1.06412205237105      0.97801581008123
  H          -1.55162310607521      0.33329214295400     -1.69623117440989
  H          -1.31072657698860     -1.20795372364940     -0.89951417026516
  H           0.76992222812570     -0.31932858585490     -1.92477801884481
  H           0.68190733663030      1.11376167837541     -0.90655710574108
