17
Coordinates from ORCA-job freq E -421.423672173013
  C           1.72805656762102      0.99268114726907     -1.14536090030742
  C          -2.43160574702758      0.08209991900543      0.23850579186399
  C          -1.18961425829134     -0.06412348847783     -0.63567322747371
  C           0.00879181991069     -0.42079194847603      0.19371896913104
  C           1.36244960482746      0.11521648683362     -0.03896901843208
  O           2.20449760045212     -1.49076028252383      1.39203996055753
  O           0.56780253134391      0.63292229981916      1.00038005538006
  O           2.51000309313000     -0.57416874810409      0.36604734788039
  H           1.10894527884569      1.84199722883551     -1.37570791584405
  H           2.62595323428483      0.79356939677582     -1.70588661813845
  H          -2.65365656922459     -0.85016530305936      0.75909233092158
  H          -3.30233364348268      0.35036485219336     -0.35780802207860
  H          -2.27819004572091      0.85850157237199      0.98768823698644
  H          -1.00081471689072      0.86193361177104     -1.17850285818549
  H          -1.33698942093901     -0.85022379640113     -1.37943986891879
  H          -0.04403907482168     -1.36859717185590      0.71898590379202
  H           2.12074474598277     -0.91045377597682      2.16089083286552
