17
Coordinates from ORCA-job freq E -421.416124389571
  C          -2.18971284298668     -0.43397048649670     -1.08683956472477
  C          -1.79952529269543     -0.67033122082308      0.36684967005858
  C          -0.37864078832962     -1.21730133276393      0.51124619173811
  C           0.63445481312532     -0.24184496489814      0.03580343450557
  C           1.98663960476258      0.09068482425493      0.38724346041790
  O           3.79974637838063      1.33381074966062     -0.07393595228461
  O           0.86994019585547      0.96501051252391      0.64376333111356
  O           2.82382858589913      0.46090430026968     -0.62948411285713
  H          -3.20907685913771     -0.05813911253783     -1.16460021466510
  H          -1.52430208068962      0.29198273133182     -1.55502099063172
  H          -2.12697928846432     -1.36016257930652     -1.66036038670141
  H          -1.87476590446250      0.26179378966910      0.93039864135321
  H          -2.49166751781020     -1.37503793680900      0.82990162007239
  H          -0.17143032729746     -1.45462786887467      1.56224682620821
  H          -0.26611337017558     -2.14035896484232     -0.06000562237108
  H           2.49657624220094     -0.24074685398668      1.28514864043707
  H           3.39850245182506      2.19828241362882     -0.23015597166877
