
                                 *****************
                                 * O   R   C   A *
                                 *****************

                                            #,                                       
                                            ###                                      
                                            ####                                     
                                            #####                                    
                                            ######                                   
                                           ########,                                 
                                     ,,################,,,,,                         
                               ,,#################################,,                 
                          ,,##########################################,,             
                       ,#########################################, ''#####,          
                    ,#############################################,,   '####,        
                  ,##################################################,,,,####,       
                ,###########''''           ''''###############################       
              ,#####''   ,,,,##########,,,,          '''####'''          '####       
            ,##' ,,,,###########################,,,                        '##       
           ' ,,###''''                  '''############,,,                           
         ,,##''                                '''############,,,,        ,,,,,,###''
      ,#''                                            '''#######################'''  
     '                                                          ''''####''''         
             ,#######,   #######,   ,#######,      ##                                
            ,#'     '#,  ##    ##  ,#'     '#,    #''#        ,####,    ,#,          
            ##       ##  ##   ,#'  ##            #'  '#       #'       ,# #          
            ##       ##  #######   ##           ,######,      #####,      #          
            '#,     ,#'  ##    ##  '#,     ,#' ,#      #,     #,   #      #          
             '#######'   ##     ##  '#######'  #'      '#     '####' #    #          



                #########################################################
                #                        -***-                          #
                #          Department of theory and spectroscopy        #
                #                                                       #
                #                      Frank Neese                      #
                #                                                       #
                #     Directorship, Architecture, Infrastructure        #
                #                    SHARK, DRIVERS                     #
                #        Core code/Algorithms in most modules           #
                #                                                       #
                #        Max Planck Institute fuer Kohlenforschung      #
                #                Kaiser Wilhelm Platz 1                 #
                #                 D-45470 Muelheim/Ruhr                 #
                #                      Germany                          #
                #                                                       #
                #                  All rights reserved                  #
                #                        -***-                          #
                #########################################################


                         Program Version 6.1.1  -  RELEASE   -
                                (GIT: $487d211c$)
                          ($2025-11-21 10:33:24 +0100$)


 With contributions from (in alphabetic order):
[Max-Planck-Institut fuer Kohlenforschung]                               
  Daniel Aravena         : Magnetic Suceptibility                        
  Michael Atanasov       : Ab Initio Ligand Field Theory (pilot matlab implementation)
  Alexander A. Auer      : GIAO ZORA, VPT2 properties, NMR spectrum      
  Ute Becker             : All parallelization in ORCA, NUMFREQ, NUMCALC 
  Giovanni Bistoni       : ED, misc. LED, open-shell LED, HFLD           
  Dmytro Bykov           : pre 5.0 version of the SCF Hessian            
  Marcos Casanova-Páez   : Triplet and SCS-CIS(D). UHF-(DLPNO)-IP/EA/STEOM-CCSD. UHF-CVS-IP/STEOM-CCSD   
  Vijay G. Chilkuri      : MRCI spin determinant printing, contributions to CSF-ICE 
  Pauline Colinet        : FMM embedding                                 
  Dipayan Datta          : RHF DLPNO-CCSD density                        
  Achintya Kumar Dutta   : EOM-CC, STEOM-CC                              
  Nicolas Foglia         : Exact transition moments, OPA infrastructure, MCD improvements    
  Dmitry Ganyushin       : Spin-Orbit,Spin-Spin,Magnetic field MRCI      
  Miquel Garcia-Rates    : C-PCM and meta-GGA Hessian, CCSD/C-PCM, Gaussian charge scheme 
  Tiago L. C. Gouveia    : GS-ROHF, GS-ROCIS                             
  Yang Guo               : DLPNO-NEVPT2, F12-NEVPT2, CIM, IAO-localization        
  Andreas Hansen         : Spin unrestricted coupled pair/coupled cluster methods 
  Ingolf Harden          : AUTO-CI MPn and infrastructure                
  Benjamin Helmich-Paris : MC-RPA, TRAH-(SCF,CASSCF), AVAS, COSX integrals, SCF dyn. polar., MC-PDFT, srDFT 
  Lee Huntington         : MR-EOM, pCC                                   
  Robert Izsak           : Overlap fitted RIJCOSX, COSX-SCS-MP3, EOM     
  Riya Kayal             : Wick's Theorem for AUTO-CI, AUTO-CI UHF-CCSDT 
  Emily Kempfer          : AUTO-CI RHF CISDT and CCSDT, approximate NEVPT4
  Christian Kollmar      : KDIIS, OOCD, Brueckner-CCSD(T), CCSD density, CASPT2, CASPT2-K, improved NEVPT2 
  Axel Koslowski         : Symmetry handling                             
  Simone Kossmann        : meta-GGA functionals, TD-DFT gradient, OOMP2, (MP2 Hessian; deprecated post 5.0) 
  Lucas Lang             : DCDCAS, Hyperfine gauge corrections, ICE-SOC+SSC
  Marvin Lechner         : AUTO-CI (C++ implementation), FIC-MRCC        
  Spencer Leger          : CASSCF response                               
  Dagmar Lenk            : GEPOL surface, SMD, ORCA-2-JSON               
  Dimitrios Liakos       : Extrapolation schemes; Compound Job, Property file
  Dimitrios Manganas     : Further ROCIS development; embedding schemes. LFT, Crystal Embedding 
  Dimitrios Pantazis     : SARC Basis sets                               
  Anastasios Papadopoulos: AUTO-CI, single reference methods and gradients 
  Taras Petrenko         : pre 6.0 DFT Hessian and TD-DFT gradient,  ECA, NRVS 
  Petra Pikulova         : Analytic Raman intensities                    
  Peter Pinski           : DLPNO-MP2, DLPNO-MP2 Gradient                 
  Shashank Vittal Rao    : ES-AILFT, MagRelax                            
  Christoph Reimann      : Effective Core Potentials                     
  Marius Retegan         : Local ZFS, SOC                                
  Christoph Riplinger    : Optimizer, TS searches, QM/MM, DLPNO-CCSD(T), (RO)-DLPNO pert. Triples 
  Michael Roemelt        : Original ROCIS implementation, recursive CI coupling coefficients
  Masaaki Saitow         : Open-shell DLPNO-CCSD energy and density      
  Barbara Sandhoefer     : DKH picture change effects                    
  Yorick L. A. Schmerwitz: GMF and freeze-and-release deltaSCF, NEB S-IDPP initial path                    
  Kantharuban Sivalingam : CASSCF convergence/infrastructure, NEVPT2, NEVPT3, NEVPT4(SD), FIC-MRCI and CEPA variants
  Bernardo de Souza      : ESD, SOC TD-DFT                               
  Georgi L. Stoychev     : AutoAux, RI-MP2 NMR, DLPNO-MP2 response, X2C  
  Van Anh Tran           : RI-MP2 g-tensors                              
  Willem Van den Heuvel  : Paramagnetic NMR                              
  Zikuan Wang            : NOTCH, Electric field optimization            
  Frank Wennmohs         : Technical directorship and infrastructure     
  Hang Xu                : AUTO-CI-Response properties                   
                                                                         
[FACCTs GmbH]                                                            
  Markus Bursch, Nicolas Foglia, Miquel Garcia-Rates, Ingolf Harden, Hagen Neugebauer, Anastasios Papadopoulos, 
  Christoph Riplinger, Bernardo de Souza, Georgi L. Stoychev                                                    
                                                                 
  APM, various basis sets, CI-OPT, improved COSX, DLPNO-Multilevel,           
  DOCKER, DRACO, updates on ESD, Fragmentator, GOAT, IRC, LR-CPCM, L-BFGS, MBIS, meta-GGA TD-DFT gradient, ML-optimized integration grids, 
  MM, NACMEs, nearIR, NEB, NEB-TS, NL-DFT gradient (VV10), 2- and 3-layer-ONIOM, interface openCOSMO-RS, QMMM,   
  Crystal-QMMM, RESP, rigid body optimization, SF, symmetry and pop. for TD-DFT, various functionals, SOLVATOR                                   
                                                                         
[Other institutions]                                                     
  V. Asgeirsson          : NEB                                           
  Christoph Bannwarth    : sTDA-DFT, sTD-DFT, PBEh-3c, B97-3c, D3        
  Giovanni Bistoni       : ETS/NOCV, ADLD/ADEX, COVALED                  
  Martin Brehm           : Molecular dynamics                            
  Ronald Cardenas        : ETS/NOCV                                      
  Martina Colucci        : COVALED                                       
  Sebastian Ehlert       : rSCAN, r2SCAN, r2SCAN-3c, D4, dhf basis sets  
  Marvin Friede          : D4 for Fr, Ra, Ac-Lr                          
  Lars Goerigk           : TD-DFT with DH, B97 family of functionals     
  Stefan Grimme          : VdW corrections, initial TS optimization, DFT functionals, gCP, sTDA/sTD-DF 
  Waldemar Hujo          : DFT-NL                                        
  H. Jonsson             : NEB                                           
  Holger Kruse           : gCP                                           
  Marcel Mueller         : wB97X-3c, vDZP basis set                      
  Hagen Neugebauer       : wr2SCAN, Native XTB                           
  Gianluca Regni         : ADLD/ADEX                                     
  Tobias Risthaus        : pre 6.0 range-separated hybrid DFT and stability analysis
  Lukas Wittmann         : regularized MP2, r2SCAN double-hybrids, wr2SCAN        
                                                                         
We gratefully acknowledge several colleagues who have allowed us to      
interface, adapt or use parts of their codes:                            
  Ed Valeev, F. Pavosevic, A. Kumar             : LibInt (2-el integral package), F12 methods 
  Garnet Chan, S. Sharma, J. Yang, R. Olivares  : DMRG                   
  Ulf Ekstrom                                   : XCFun DFT Library      
  Mihaly Kallay                                 : mrcc  (arbitrary order and MRCC methods)
  Frank Weinhold                                : gennbo (NPA and NBO analysis)           
  Simon Mueller                                 : openCOSMO-RS                            
  Christopher J. Cramer and Donald G. Truhlar   : smd solvation model                     
  S Lehtola, MJT Oliveira, MAL Marques          : LibXC Library                           
  Liviu Ungur et al                             : ANISO software                          


 Your calculation uses the libint2 library for the computation of 2-el integrals
 For citations please refer to: http://libint.valeyev.net

 Your ORCA version has been built with support for libXC version: 7.0.0
 For citations please refer to: https://libxc.gitlab.io

 This ORCA versions uses:
   CBLAS   interface :  Fast vector & matrix operations
   LAPACKE interface :  Fast linear algebra routines
   SCALAPACK package :  Parallel linear algebra routines
   Shared memory     :  Shared parallel matrices
   BLAS/LAPACK       :  OpenBLAS 0.3.29  USE64BITINT DYNAMIC_ARCH NO_AFFINITY Zen SINGLE_THREADED
        Core in use  :  Zen
   Copyright (c) 2011-2014, The OpenBLAS Project


  ***********************************
  * Starting time: Tue Feb 17 15:17:58 2026
  * Host name:     d5-8
  * Process ID:    3269702
  * Working dir.:  /tmp/lscratch/tns97255/orca_42795686
  ***********************************

NOTE: MaxCore=4000 MB was set to SCF,MP2,MDCI,CIPSI,MRCI,RASCI and CIS
      => If you want to overwrite this, your respective input block should be placed after the MaxCore statement


***************************************
The coordinates will be read from file: guess.xyz
***************************************


Your calculation utilizes the semiempirical GFN2-xTB method
Please cite in your paper:
Bannwarth, C.; Ehlert S.; Grimme, S. J. Chem. Theory Comput. 2019, 15, 1652.
   

================================================================================

================================================================================
                                        WARNINGS
                       Please study these warnings very carefully!
================================================================================


================================================================================
 STARTING AUTOMATIC FRAGMENTATION: 
================================================================================

WARNING: Geometry Optimization
  ===> : Switching off AutoStart
         For restart on a previous wavefunction, please use MOREAD

WARNING: Found dipole moment calculation with XTB calculation
  ===> : Switching off dipole moment calculation


================================================================================
                                       INPUT FILE
================================================================================
NAME = goat.inp
|  1> %PAL NPROCS 8 END
|  2> %MAXCORE 4000
|  3> %base "goat"
|  4> ! XTB GOAT
|  5> 
|  6> *xyzfile 0 2 guess.xyz
|  7> 
|  8>                          ****END OF INPUT****
================================================================================

                       *****************************
                       * Geometry Optimization Run *
                       *****************************


                       *********************************
                       *              GOAT             *
                       * Global Optimization Algorithm *
                       *********************************

Geometry optimization settings:
Update method            Update   .... BFGS
Choice of coordinates    CoordSys .... (2022) Redundant Internals
Initial Hessian          InHess   .... Almloef's Model
Max. no of cycles        MaxIter  .... 51

Convergence Tolerances:
Energy Change            TolE     ....  5.0000e-06 Eh
Max. Gradient            TolMAXG  ....  3.0000e-04 Eh/bohr
RMS Gradient             TolRMSG  ....  1.0000e-04 Eh/bohr
Max. Displacement        TolMAXD  ....  4.0000e-03 bohr
RMS Displacement         TolRMSD  ....  2.0000e-03 bohr
Strict Convergence                .... True

------------------------------------------------------------------------------
                        ORCA OPTIMIZATION COORDINATE SETUP
------------------------------------------------------------------------------

The optimization will be done in redundant internal coordinates (2022)
Making redundant internal coordinates   ...  (2022 redundants) done
Evaluating the initial hessian          ...  (Almloef) done
Evaluating the coordinates              ...  done
Calculating the B-matrix                .... done
Calculating the G-matrix                .... done
The number of degrees of freedom        ....   76

    -----------------------------------------------------------------
                    Redundant Internal Coordinates


    -----------------------------------------------------------------
         Definition                    Initial Value    Approx d2E/dq
    -----------------------------------------------------------------
      1. B(C   1,C   0)                  1.5226         0.383802   
      2. B(C   2,C   1)                  1.5299         0.373747   
      3. B(C   3,C   2)                  1.4891         0.434085   
      4. B(C   4,C   3)                  1.4509         0.499627   
      5. B(O   6,C   4)                  1.4347         0.474937   
      6. B(O   6,C   3)                  1.3733         0.595055   
      7. B(O   7,C   4)                  1.4421         0.462034   
      8. B(O   7,O   5)                  1.4546         0.395363   
      9. B(H   8,C   0)                  1.0947         0.353889   
     10. B(H   9,C   0)                  1.0943         0.354460   
     11. B(H  10,C   0)                  1.0947         0.353952   
     12. B(H  11,C   1)                  1.0968         0.351226   
     13. B(H  12,C   1)                  1.0966         0.351428   
     14. B(H  13,C   2)                  1.0971         0.350771   
     15. B(H  14,C   2)                  1.0964         0.351770   
     16. B(H  15,C   4)                  1.0849         0.366964   
     17. B(H  16,O   5)                  0.9747         0.492637   
     18. A(H   8,C   0,H   9)          107.7472         0.289329   
     19. A(H   8,C   0,H  10)          107.9900         0.289264   
     20. A(C   1,C   0,H   8)          110.0607         0.324831   
     21. A(C   1,C   0,H  10)          110.9709         0.324841   
     22. A(H   9,C   0,H  10)          108.3979         0.289337   
     23. A(C   1,C   0,H   9)          111.5463         0.324917   
     24. A(C   0,C   1,H  12)          108.5145         0.324459   
     25. A(C   0,C   1,C   2)          113.2839         0.365063   
     26. A(C   2,C   1,H  12)          108.5809         0.323048   
     27. A(H  11,C   1,H  12)          106.7958         0.288598   
     28. A(C   0,C   1,H  11)          109.3120         0.324428   
     29. A(C   2,C   1,H  11)          110.1328         0.323018   
     30. A(C   3,C   2,H  13)          110.1302         0.331010   
     31. A(H  13,C   2,H  14)          101.7744         0.288584   
     32. A(C   3,C   2,H  14)          113.4793         0.331166   
     33. A(C   1,C   2,H  14)          109.5979         0.323100   
     34. A(C   1,C   2,H  13)          108.6789         0.322949   
     35. A(C   1,C   2,C   3)          112.5709         0.372863   
     36. A(C   2,C   3,C   4)          124.0284         0.392140   
     37. A(C   4,C   3,O   6)           60.9877         0.411893   
     38. A(C   2,C   3,O   6)          116.9523         0.401778   
     39. A(O   7,C   4,H  15)          116.2837         0.334932   
     40. A(O   6,C   4,H  15)          117.3713         0.336470   
     41. A(C   3,C   4,H  15)          115.4335         0.341401   
     42. A(C   3,C   4,O   6)           56.8354         0.395828   
     43. A(O   6,C   4,O   7)          115.5569         0.387963   
     44. A(C   3,C   4,O   7)          122.0717         0.393922   
     45. A(O   7,O   5,H  16)           95.9651         0.337711   
     46. A(C   3,O   6,C   4)           62.1769         0.405584   
     47. A(C   4,O   7,O   5)          104.8423         0.373402   
     48. D(H  11,C   1,C   0,H   9)     59.3042         0.011728   
     49. D(C   2,C   1,C   0,H  10)     57.0636         0.011728   
     50. D(H  11,C   1,C   0,H  10)   -179.7162         0.011728   
     51. D(C   2,C   1,C   0,H   9)    -63.9160         0.011728   
     52. D(H  11,C   1,C   0,H   8)    -60.2384         0.011728   
     53. D(C   2,C   1,C   0,H   8)    176.5414         0.011728   
     54. D(C   3,C   2,C   1,C   0)     65.0672         0.011153   
     55. D(H  13,C   2,C   1,H  12)    -52.0382         0.011153   
     56. D(H  13,C   2,C   1,C   0)   -172.6602         0.011153   
     57. D(C   3,C   2,C   1,H  12)   -174.3107         0.011153   
     58. D(H  13,C   2,C   1,H  11)     64.5727         0.011153   
     59. D(C   3,C   2,C   1,H  11)    -57.6998         0.011153   
     60. D(C   4,C   3,C   2,H  14)    -67.2647         0.013911   
     61. D(C   4,C   3,C   2,H  13)     46.0746         0.013911   
     62. D(C   4,C   3,C   2,C   1)    167.5246         0.013911   
     63. D(O   6,C   3,C   2,H  13)    -25.6746         0.013911   
     64. D(O   6,C   3,C   2,C   1)     95.7754         0.013911   
     65. D(H  15,C   4,C   3,O   6)    107.3009         0.018427   
     66. D(H  15,C   4,C   3,C   2)      2.7702         0.018427   
     67. D(O   7,C   4,C   3,O   6)   -101.4601         0.018427   
     68. D(O   7,C   4,C   3,C   2)    154.0092         0.018427   
     69. D(O   6,C   4,C   3,C   2)   -104.5307         0.018427   
     70. D(C   3,O   6,C   4,H  15)   -103.8502         0.017786   
     71. D(C   3,O   6,C   4,O   7)    112.9919         0.017786   
     72. D(C   4,O   6,C   3,C   2)    115.8411         0.025834   
     73. D(C   4,O   7,O   5,H  16)    -94.3490         0.011630   
     74. D(O   5,O   7,C   4,H  15)    -67.9833         0.016819   
     75. D(O   5,O   7,C   4,O   6)     75.5837         0.016819   
     76. D(O   5,O   7,C   4,C   3)    141.0050         0.016819   
    -----------------------------------------------------------------

Number of atoms                         .... 17
Number of degrees of freedom            .... 76


         *************************************************************
         *                GEOMETRY OPTIMIZATION CYCLE   1            *
         *************************************************************
---------------------------------
CARTESIAN COORDINATES (ANGSTROEM)
---------------------------------
  C    -2.266257   -0.560803   -1.102712
  C    -1.822451   -0.621168    0.352571
  C    -0.350607   -1.003212    0.520600
  C     0.573420    0.021530   -0.039402
  C     2.002742    0.047866    0.208246
  O     3.912220    1.319408    0.122583
  O     1.080393    0.948376    0.837993
  O     2.929181    0.652549   -0.716884
  H    -3.337852   -0.344313   -1.159830
  H    -1.737602    0.224345   -1.651850
  H    -2.086910   -1.515756   -1.606935
  H    -2.018646    0.345575    0.832017
  H    -2.438019   -1.364120    0.873828
  H    -0.146112   -1.152961    1.588066
  H    -0.183423   -2.009002    0.117531
  H     2.387108   -0.771443    0.806508
  H     3.480289    2.193077    0.109869

----------------------------
CARTESIAN COORDINATES (A.U.)
----------------------------
  NO LB    ZA    FRAG    MASS        X           Y           Z
   0 C   6.0000    1    12.011   -4.282605   -1.059764   -2.083824
   1 C   6.0000    1    12.011   -3.443933   -1.173837    0.666263
   2 C   6.0000    1    12.011   -0.662551   -1.895796    0.983791
   3 C   6.0000    1    12.011    1.083607    0.040686   -0.074459
   4 C   6.0000    1    12.011    3.784634    0.090454    0.393528
   5 O   8.0000    1    15.999    7.393024    2.493320    0.231648
   6 O   8.0000    1    15.999    2.041647    1.792171    1.583577
   7 O   8.0000    1    15.999    5.535350    1.233139   -1.354714
   8 H   1.0000    1     1.008   -6.307626   -0.650657   -2.191761
   9 H   1.0000    1     1.008   -3.283592    0.423951   -3.121544
  10 H   1.0000    1     1.008   -3.943688   -2.864364   -3.036667
  11 H   1.0000    1     1.008   -3.814688    0.653042    1.572284
  12 H   1.0000    1     1.008   -4.607188   -2.577813    1.651296
  13 H   1.0000    1     1.008   -0.276112   -2.178781    3.001010
  14 H   1.0000    1     1.008   -0.346619   -3.796464    0.222101
  15 H   1.0000    1     1.008    4.510980   -1.457816    1.524079
  16 H   1.0000    1     1.008    6.576793    4.144315    0.207622

      -----------------------------------------------------------      
     |                   =====================                   |     
     |                           x T B                           |     
     |                   =====================                   |     
     |                         S. Grimme                         |     
     |          Mulliken Center for Theoretical Chemistry        |     
     |                    University of Bonn                     |     
      -----------------------------------------------------------      

   * xtb version 6.7.1 (edcfbbe) compiled by 'albert@albert-system' on 2024-07-22

   xtb is free software: you can redistribute it and/or modify it under
   the terms of the GNU Lesser General Public License as published by
   the Free Software Foundation, either version 3 of the License, or
   (at your option) any later version.
   
   xtb is distributed in the hope that it will be useful,
   but WITHOUT ANY WARRANTY; without even the implied warranty of
   MERCHANTABILITY or FITNESS FOR A PARTICULAR PURPOSE.  See the
   GNU Lesser General Public License for more details.
   
   Cite this work as:
   * C. Bannwarth, E. Caldeweyher, S. Ehlert, A. Hansen, P. Pracht,
     J. Seibert, S. Spicher, S. Grimme, WIREs Comput. Mol. Sci., 2020, 11,
     e01493. DOI: 10.1002/wcms.1493
   
   for GFN2-xTB:
   * C. Bannwarth, S. Ehlert and S. Grimme., J. Chem. Theory Comput., 2019,
     15, 1652-1671. DOI: 10.1021/acs.jctc.8b01176
   for GFN1-xTB:
   * S. Grimme, C. Bannwarth, P. Shushkov, J. Chem. Theory Comput., 2017,
     13, 1989-2009. DOI: 10.1021/acs.jctc.7b00118
   for GFN0-xTB:
   * P. Pracht, E. Caldeweyher, S. Ehlert, S. Grimme, ChemRxiv, 2019, preprint.
     DOI: 10.26434/chemrxiv.8326202.v1
   for GFN-FF:
   * S. Spicher and S. Grimme, Angew. Chem. Int. Ed., 2020, 59, 15665-15673.
     DOI: 10.1002/anie.202004239
   
   for ALPB and GBSA implicit solvation:
   * S. Ehlert, M. Stahn, S. Spicher, S. Grimme, J. Chem. Theory Comput.,
     2021, 17, 4250-4261. DOI: 10.1021/acs.jctc.1c00471
   
   for ddCOSMO and CPCM-X implicit solvation:
   * M. Stahn, S. Ehlert, S. Grimme, J. Phys. Chem. A,
     2023, XX, XXXX-XXXX. DOI: 10.1021/acs.jpca.3c04382
   
   for DFT-D4:
   * E. Caldeweyher, C. Bannwarth and S. Grimme, J. Chem. Phys., 2017,
     147, 034112. DOI: 10.1063/1.4993215
   * E. Caldeweyher, S. Ehlert, A. Hansen, H. Neugebauer, S. Spicher,
     C. Bannwarth and S. Grimme, J. Chem. Phys., 2019, 150, 154122.
     DOI: 10.1063/1.5090222
   * E. Caldeweyher, J.-M. Mewes, S. Ehlert and S. Grimme, Phys. Chem. Chem. Phys.
     2020, 22, 8499-8512. DOI: 10.1039/D0CP00502A
   
   for sTDA-xTB:
   * S. Grimme and C. Bannwarth, J. Chem. Phys., 2016, 145, 054103.
     DOI: 10.1063/1.4959605
   
   in the mass-spec context:
   * V. Asgeirsson, C. Bauer and S. Grimme, Chem. Sci., 2017, 8, 4879.
     DOI: 10.1039/c7sc00601b
   * J. Koopman and S. Grimme, ACS Omega 2019, 4, 12, 15120-15133.
     DOI: 10.1021/acsomega.9b02011
   
   for metadynamics refer to:
   * S. Grimme, J. Chem. Theory Comput., 2019, 155, 2847-2862
     DOI: 10.1021/acs.jctc.9b00143
   
   for SPH calculations refer to:
   * S. Spicher and S. Grimme, J. Chem. Theory Comput., 2021, 17, 1701-1714
     DOI: 10.1021/acs.jctc.0c01306
   
   for ONIOM refer to:
   * C. Plett, A. Katbashev, S. Ehlert, S. Grimme, M. Bursch,
     Phys. Chem. Chem. Phys., 2023, 25, 17860-17868. DOI: 10.1039/D3CP02178E
   
   for DIPRO refer to:
   * J. Kohn, N. Gildemeister, S. Grimme, D. Fazzi, A. Hansen,
     J. Chem. Phys., 2023, just accepted.
   
   for PTB refer to:
   * S. Grimme, M. Mueller, A. Hansen, J. Chem. Phys., 2023, 158, 124111.
     DOI: 10.1063/5.0137838
   
   with help from (in alphabetical order)
   P. Atkinson, C. Bannwarth, F. Bohle, G. Brandenburg, E. Caldeweyher
   M. Checinski, S. Dohm, S. Ehlert, S. Ehrlich, I. Gerasimov, C. Hölzer
   A. Katbashev, J. Kohn, J. Koopman, C. Lavigne, S. Lehtola, F. März, M. Müller,
   F. Musil, H. Neugebauer, J. Pisarek, C. Plett, P. Pracht, F. Pultar,
   J. Seibert, P. Shushkov, S. Spicher, M. Stahn, M. Steiner, T. Strunk,
   J. Stückrath, T. Rose, and J. Unsleber
   
 * started run on 2026/02/17 at 15:18:00.284     
   ID    Z sym.   atoms
    1    6 C      1-5
    2    8 O      6-8
    3    1 H      9-17

           -------------------------------------------------
          |                Calculation Setup                |
           -------------------------------------------------

          program call               : /apps/eb/ORCA/6.1.1-gompi-2024a-avx2/bin/otool_xtb goat_XTB.xyz --grad -c 0 -u 1 -P 8 --namespace goat --input goat_XTB.input.tmp --acc 0.200000
          hostname                   : d5-8
          calculation namespace      : goat
          coordinate file            : goat_XTB.xyz
          omp threads                :                     8


           -------------------------------------------------
          |                 G F N 2 - x T B                 |
           -------------------------------------------------

        Reference                      10.1021/acs.jctc.8b01176
      * Hamiltonian:
        H0-scaling (s, p, d)           1.850000    2.230000    2.230000
        zeta-weighting                 0.500000
      * Dispersion:
        s8                             2.700000
        a1                             0.520000
        a2                             5.000000
        s9                             5.000000
      * Repulsion:
        kExp                           1.500000    1.000000
        rExp                           1.000000
      * Coulomb:
        alpha                          2.000000
        third order                    shell-resolved
        anisotropic                    true
        a3                             3.000000
        a5                             4.000000
        cn-shift                       1.200000
        cn-exp                         4.000000
        max-rad                        5.000000


          ...................................................
          :                      SETUP                      :
          :.................................................:
          :  # basis functions                  41          :
          :  # atomic orbitals                  41          :
          :  # shells                           25          :
          :  # electrons                        47          :
          :  max. iterations                   250          :
          :  Hamiltonian                  GFN2-xTB          :
          :  restarted?                      false          :
          :  GBSA solvation                  false          :
          :  PC potential                    false          :
          :  electronic temp.          300.0000000     K    :
          :  accuracy                    0.2000000          :
          :  -> integral cutoff          0.3198970E+02      :
          :  -> integral neglect         0.2000000E-08      :
          :  -> SCF convergence          0.2000000E-06 Eh   :
          :  -> wf. convergence          0.2000000E-04 e    :
          :  Broyden damping             0.4000000          :
          :  net charge                          0          :
          :  unpaired electrons                  1          :
          ...................................................

 iter      E             dE          RMSdq      gap      omega  full diag
   1    -27.5017552 -0.275018E+02  0.373E+00    4.44       0.0  T
   2    -27.5243815 -0.226263E-01  0.203E+00    4.64       1.0  T
   3    -27.5252591 -0.877591E-03  0.770E-01    4.39       1.0  T
   4    -27.5259609 -0.701740E-03  0.140E-01    4.35       1.0  T
   5    -27.5260305 -0.695869E-04  0.796E-02    4.32       1.0  T
   6    -27.5260382 -0.775872E-05  0.249E-02    4.35       1.0  T
   7    -27.5260411 -0.285056E-05  0.976E-03    4.35       2.5  T
   8    -27.5260414 -0.363371E-06  0.395E-03    4.35       6.1  T
   9    -27.5260415 -0.274489E-07  0.152E-03    4.35      15.9  T
  10    -27.5260415 -0.639991E-08  0.382E-04    4.35      63.6  T
  11    -27.5260415 -0.369958E-09  0.935E-05    4.35     259.4  T
  12    -27.5260415 -0.210498E-10  0.385E-05    4.35     629.9  T

   *** convergence criteria satisfied after 12 iterations ***

         #    Occupation            Energy/Eh            Energy/eV
      -------------------------------------------------------------
         1        2.0000           -0.7518432             -20.4587
       ...           ...                  ...                  ...
        18        2.0000           -0.4692411             -12.7687
        19        2.0000           -0.4683784             -12.7452
        20        2.0000           -0.4634875             -12.6121
        21        2.0000           -0.4575829             -12.4515
        22        2.0000           -0.4452873             -12.1169
        23        2.0000           -0.4410430             -12.0014
        24        1.0000           -0.3556648              -9.6781 (HOMO)
        25                         -0.1959352              -5.3317 (LUMO)
        26                         -0.0915836              -2.4921
        27                         -0.0155237              -0.4224
        28                          0.0570703               1.5530
        29                          0.0881986               2.4000
       ...                                ...                  ...
        41                          0.3437072               9.3527
      -------------------------------------------------------------
                  HL-Gap            0.1597296 Eh            4.3465 eV
             Fermi-level           -0.3370769 Eh           -9.1723 eV

 SCC (total)                   0 d,  0 h,  0 min,  0.022 sec
 SCC setup                      ...        0 min,  0.000 sec (  1.814%)
 Dispersion                     ...        0 min,  0.000 sec (  1.098%)
 classical contributions        ...        0 min,  0.000 sec (  0.605%)
 integral evaluation            ...        0 min,  0.001 sec (  2.745%)
 iterations                     ...        0 min,  0.017 sec ( 78.208%)
 molecular gradient             ...        0 min,  0.003 sec ( 12.845%)
 printout                       ...        0 min,  0.001 sec (  2.603%)

         :::::::::::::::::::::::::::::::::::::::::::::::::::::
         ::                     SUMMARY                     ::
         :::::::::::::::::::::::::::::::::::::::::::::::::::::
         :: total energy             -27.291488428205 Eh    ::
         :: gradient norm              0.077863497119 Eh/a0 ::
         :: HOMO-LUMO gap              4.346462941585 eV    ::
         ::.................................................::
         :: SCC energy               -27.526044072933 Eh    ::
         :: -> isotropic ES            0.043080682363 Eh    ::
         :: -> anisotropic ES         -0.002611211617 Eh    ::
         :: -> anisotropic XC         -0.002267951919 Eh    ::
         :: -> dispersion             -0.009471743080 Eh    ::
         :: repulsion energy           0.234555644728 Eh    ::
         :: add. restraining           0.000000000000 Eh    ::
         :: total charge              -0.000000000000 e     ::
         :::::::::::::::::::::::::::::::::::::::::::::::::::::


Property printout bound to 'properties.out'

           -------------------------------------------------
          | TOTAL ENERGY              -27.291488428205 Eh   |
          | GRADIENT NORM               0.077863497119 Eh/α |
          | HOMO-LUMO GAP               4.346462941585 eV   |
           -------------------------------------------------

------------------------------------------------------------------------
 * finished run on 2026/02/17 at 15:18:00.324     
------------------------------------------------------------------------
 total:
 * wall-time:     0 d,  0 h,  0 min,  0.039 sec
 *  cpu-time:     0 d,  0 h,  0 min,  0.222 sec
 * ratio c/w:     5.693 speedup
 SCF:
 * wall-time:     0 d,  0 h,  0 min,  0.022 sec
 *  cpu-time:     0 d,  0 h,  0 min,  0.130 sec
 * ratio c/w:     5.959 speedup


-------------------------   --------------------
FINAL SINGLE POINT ENERGY       -27.291488428200
-------------------------   --------------------


-------------
DIPOLE MOMENT
-------------
                                X             Y             Z
Total Dipole Moment    :     -0.93500      -0.37700       0.38600
                        -----------------------------------------
Magnitude (a.u.)       :      1.07951
Magnitude (Debye)      :      2.74391


------------------
CARTESIAN GRADIENT
------------------

   1   C   :    0.001634910   -0.000311791    0.005472408
   2   C   :    0.006534682   -0.000641888   -0.002854614
   3   C   :    0.009356117    0.013436721    0.002366696
   4   C   :    0.001924855    0.000301723   -0.008980228
   5   C   :   -0.012270784   -0.017316079    0.026967446
   6   O   :    0.023270331   -0.000277834    0.021564270
   7   O   :   -0.012867236    0.007106675    0.007397936
   8   O   :    0.014490847    0.018462583   -0.043827031
   9   H   :   -0.004196189    0.000976526   -0.000634831
  10   H   :    0.000163835    0.003663872   -0.003441125
  11   H   :   -0.000017856   -0.003907765   -0.002288078
  12   H   :   -0.003106301    0.002191407    0.001688623
  13   H   :   -0.002015033   -0.000862161    0.000689172
  14   H   :   -0.000858696   -0.008979507   -0.003515299
  15   H   :   -0.001063447   -0.005405122    0.011291949
  16   H   :   -0.009195151   -0.007437017   -0.004456619
  17   H   :   -0.011784883   -0.001000341   -0.007440673

Difference to translation invariance:
           :    0.0000000000    0.0000000000   -0.0000000000

Difference to rotation invariance:
           :   -0.0000000105    0.0000005118   -0.0000002350

Norm of the Cartesian gradient     ...    0.0778634971
RMS gradient                       ...    0.0109030704
MAX gradient                       ...    0.0438270310
------------------------------------------------------------------------------
                         ORCA GEOMETRY RELAXATION STEP
------------------------------------------------------------------------------

Reading the OPT-File                    .... done
Getting information on internals        .... done
Copying old internal coords+grads       .... done
Making the new internal coordinates     .... (2022 redundants) done
Validating the new internal coordinates .... (2022 redundants) done
Calculating the B-matrix                .... done
Calculating the G,G- and P matrices     .... done
Transforming gradient to internals      .... done
Projecting the internal gradient        .... done
Number of atoms                         ....  17
Number of internal coordinates          ....  76
Current Energy                          ....   -27.291488428 Eh
Current gradient norm                   ....     0.077863497 Eh/bohr
Maximum allowed component of the step   ....  0.300
Current trust radius                    ....  0.300
Evaluating the initial hessian          ....  (Almloef) done
Projecting the Hessian                  .... done
Forming the augmented Hessian           .... done
Diagonalizing the augmented Hessian     .... done
Last element of RFO vector              ....  0.969044686
Lowest eigenvalues of augmented Hessian:
 -0.012938121  0.011153301  0.011647151  0.011740406  0.013952931
Length of the computed step             ....  0.254771935
The final length of the internal step   ....  0.254771935
Converting the step to Cartesian space:
 Initial RMS(Int)=    0.0292243452
Transforming coordinates:
 Iter   0:  RMS(Cart)=    0.0734787351 RMS(Int)=    0.7205545523
 Iter   5:  RMS(Cart)=    0.0000002602 RMS(Int)=    0.0000001872
done
Storing new coordinates                 .... done

                                .--------------------.
          ----------------------|Geometry convergence|-------------------------
          Item                value                   Tolerance       Converged
          ---------------------------------------------------------------------
          RMS gradient        0.0074882297            0.0001000000      NO
          MAX gradient        0.0429470550            0.0003000000      NO
          RMS step            0.0292243452            0.0020000000      NO
          MAX step            0.0913923705            0.0040000000      NO
          -------------------------------------------------------------------------
          ........................................................
          Max(Bonds)      0.0478      Max(Angles)    3.99
          Max(Dihed)        5.24      Max(Improp)    0.00
          ---------------------------------------------------------------------

    ---------------------------------------------------------------------------
                         Redundant Internal Coordinates
                            (Angstroem and degrees)

        Definition                    Value    dE/dq     Step     New-Value
    ----------------------------------------------------------------------------
     1. B(C   1,C   0)                1.5226  0.001573 -0.0021    1.5205   
     2. B(C   2,C   1)                1.5299  0.001391 -0.0019    1.5280   
     3. B(C   3,C   2)                1.4891 -0.000802  0.0009    1.4901   
     4. B(C   4,C   3)                1.4509 -0.003761  0.0030    1.4538   
     5. B(O   6,C   4)                1.4347  0.011943 -0.0121    1.4225   
     6. B(O   6,C   3)                1.3733 -0.000478  0.0005    1.3738   
     7. B(O   7,C   4)                1.4421  0.042947 -0.0478    1.3943   
     8. B(O   7,O   5)                1.4546  0.015327 -0.0199    1.4347   
     9. B(H   8,C   0)                1.0947  0.004334 -0.0063    1.0885   
    10. B(H   9,C   0)                1.0943  0.004435 -0.0064    1.0879   
    11. B(H  10,C   0)                1.0947  0.004460 -0.0064    1.0883   
    12. B(H  11,C   1)                1.0968  0.003225 -0.0047    1.0921   
    13. B(H  12,C   1)                1.0966  0.002043 -0.0030    1.0937   
    14. B(H  13,C   2)                1.0971 -0.002355  0.0034    1.1006   
    15. B(H  14,C   2)                1.0964  0.000645 -0.0009    1.0954   
    16. B(H  15,C   4)                1.0849 -0.000099  0.0001    1.0850   
    17. B(H  16,O   5)                0.9747  0.004423 -0.0046    0.9701   
    18. A(H   8,C   0,H   9)          107.75 -0.001700    0.40    108.14   
    19. A(H   8,C   0,H  10)          107.99 -0.000651    0.23    108.22   
    20. A(C   1,C   0,H   8)          110.06 -0.000393    0.15    110.21   
    21. A(C   1,C   0,H  10)          110.97  0.000358   -0.11    110.86   
    22. A(H   9,C   0,H  10)          108.40 -0.000528   -0.10    108.30   
    23. A(C   1,C   0,H   9)          111.55  0.002751   -0.53    111.02   
    24. A(C   0,C   1,H  12)          108.51 -0.002523    0.57    109.08   
    25. A(C   0,C   1,C   2)          113.28  0.005251   -0.97    112.32   
    26. A(C   2,C   1,H  12)          108.58  0.000187    0.20    108.78   
    27. A(H  11,C   1,H  12)          106.80 -0.001245    0.59    107.38   
    28. A(C   0,C   1,H  11)          109.31 -0.002475    0.19    109.51   
    29. A(C   2,C   1,H  11)          110.13  0.000414   -0.47    109.66   
    30. A(C   3,C   2,H  13)          110.13  0.002723   -0.58    109.55   
    31. A(H  13,C   2,H  14)          101.77 -0.013372    3.34    105.12   
    32. A(C   3,C   2,H  14)          113.48  0.011796   -1.89    111.59   
    33. A(C   1,C   2,H  14)          109.60 -0.001289   -0.23    109.37   
    34. A(C   1,C   2,H  13)          108.68 -0.001912    0.23    108.91   
    35. A(C   1,C   2,C   3)          112.57  0.000376   -0.46    112.11   
    36. A(C   2,C   3,C   4)          124.03 -0.010921    1.98    126.01   
    37. A(C   4,C   3,O   6)           60.99  0.006197   -0.66     60.33   
    38. A(C   2,C   3,O   6)          116.95 -0.009877    2.65    119.61   
    39. A(O   7,C   4,H  15)          116.28  0.003064   -0.75    115.54   
    40. A(O   6,C   4,H  15)          117.37 -0.001962   -1.22    116.15   
    41. A(C   3,C   4,H  15)          115.43 -0.007748    2.95    118.38   
    42. A(C   3,C   4,O   6)           56.84 -0.001763    0.21     57.05   
    43. A(O   6,C   4,O   7)          115.56  0.001937    0.27    115.83   
    44. A(C   3,C   4,O   7)          122.07  0.004087   -1.27    120.80   
    45. A(O   7,O   5,H  16)           95.97 -0.024403    3.99     99.95   
    46. A(C   3,O   6,C   4)           62.18 -0.004434    0.45     62.62   
    47. A(C   4,O   7,O   5)          104.84 -0.015697    2.33    107.17   
    48. D(H  11,C   1,C   0,H   9)     59.30  0.000280    0.20     59.50   
    49. D(C   2,C   1,C   0,H  10)     57.06 -0.000636    0.78     57.84   
    50. D(H  11,C   1,C   0,H  10)   -179.72  0.001737   -0.37   -180.08   
    51. D(C   2,C   1,C   0,H   9)    -63.92 -0.002094    1.34    -62.57   
    52. D(H  11,C   1,C   0,H   8)    -60.24  0.000900   -0.06    -60.29   
    53. D(C   2,C   1,C   0,H   8)    176.54 -0.001473    1.09    177.63   
    54. D(C   3,C   2,C   1,C   0)     65.07 -0.001016    0.11     65.18   
    55. D(H  13,C   2,C   1,H  12)    -52.04  0.001668   -0.54    -52.58   
    56. D(H  13,C   2,C   1,C   0)   -172.66  0.001342   -0.77   -173.43   
    57. D(C   3,C   2,C   1,H  12)   -174.31 -0.000689    0.34   -173.97   
    58. D(H  13,C   2,C   1,H  11)     64.57  0.000510    0.02     64.59   
    59. D(C   3,C   2,C   1,H  11)    -57.70 -0.001847    0.90    -56.80   
    60. D(C   4,C   3,C   2,H  14)    -67.26  0.006513   -2.53    -69.79   
    61. D(C   4,C   3,C   2,H  13)     46.07 -0.001404    0.13     46.21   
    62. D(C   4,C   3,C   2,C   1)    167.52 -0.001659   -0.30    167.22   
    63. D(O   6,C   3,C   2,H  13)    -25.67 -0.000347   -1.10    -26.78   
    64. D(O   6,C   3,C   2,C   1)     95.78 -0.000602   -1.54     94.24   
    65. D(H  15,C   4,C   3,O   6)    107.30  0.001223   -3.02    104.28   
    66. D(H  15,C   4,C   3,C   2)      2.77  0.005994   -5.24     -2.47   
    67. D(O   7,C   4,C   3,O   6)   -101.46  0.000586   -1.14   -102.60   
    68. D(O   7,C   4,C   3,C   2)    154.01  0.005358   -3.36    150.65   
    69. D(O   6,C   4,C   3,C   2)   -104.53  0.004772   -2.22   -106.75   
    70. D(C   3,O   6,C   4,H  15)   -103.85  0.009280   -4.43   -108.28   
    71. D(C   3,O   6,C   4,O   7)    112.99  0.003572   -1.63    111.36   
    72. D(C   4,O   6,C   3,C   2)    115.84 -0.007410    1.16    117.00   
    73. D(C   4,O   7,O   5,H  16)    -94.35  0.000727   -1.70    -96.04   
    74. D(O   5,O   7,C   4,H  15)    -67.98 -0.003479    3.97    -64.01   
    75. D(O   5,O   7,C   4,O   6)     75.58  0.000278    1.01     76.60   
    76. D(O   5,O   7,C   4,C   3)    141.00  0.000043    1.09    142.10   
    ----------------------------------------------------------------------------

Geometry step timings:
Preparation and reading OPT file:      0.000 s ( 1.003 %)
Internal coordinates            :      0.000 s ( 1.103 %)
B/P matrices and projection     :      0.001 s (36.058 %)
Hessian update/contruction      :      0.000 s (11.735 %)
Making the step                 :      0.001 s (27.131 %)
Converting the step to Cartesian:      0.000 s ( 4.162 %)
Storing new data                :      0.000 s ( 1.103 %)
Checking convergence            :      0.000 s ( 1.153 %)
Final printing                  :      0.000 s (16.550 %)
Total time                      :      0.002 s

Time for energy+gradient        :      0.050 s
Time for complete geometry iter :      0.053 s

         *************************************************************
         *                GEOMETRY OPTIMIZATION CYCLE   2            *
         *************************************************************
---------------------------------
CARTESIAN COORDINATES (ANGSTROEM)
---------------------------------
  C    -2.235855   -0.539611   -1.104483
  C    -1.834135   -0.635510    0.358902
  C    -0.371432   -1.041355    0.533504
  C     0.563600   -0.006654    0.008659
  C     1.996882    0.048952    0.246440
  O     3.869651    1.325680    0.031405
  O     1.075556    0.940337    0.862424
  O     2.855036    0.616967   -0.694308
  H    -3.291957   -0.289988   -1.188956
  H    -1.663569    0.231033   -1.616483
  H    -2.067994   -1.485808   -1.615200
  H    -2.010021    0.324543    0.848859
  H    -2.466808   -1.376591    0.855526
  H    -0.173007   -1.208669    1.603031
  H    -0.205312   -2.013384    0.056492
  H     2.442167   -0.700154    0.892801
  H     3.494672    2.220159    0.013587

----------------------------
CARTESIAN COORDINATES (A.U.)
----------------------------
  NO LB    ZA    FRAG    MASS        X           Y           Z
   0 C   6.0000    1    12.011   -4.225155   -1.019717   -2.087170
   1 C   6.0000    1    12.011   -3.466012   -1.200939    0.678227
   2 C   6.0000    1    12.011   -0.701905   -1.967875    1.008176
   3 C   6.0000    1    12.011    1.065050   -0.012575    0.016364
   4 C   6.0000    1    12.011    3.773559    0.092507    0.465705
   5 O   8.0000    1    15.999    7.312581    2.505172    0.059347
   6 O   8.0000    1    15.999    2.032506    1.776979    1.629744
   7 O   8.0000    1    15.999    5.395237    1.165899   -1.312051
   8 H   1.0000    1     1.008   -6.220897   -0.547997   -2.246801
   9 H   1.0000    1     1.008   -3.143690    0.436589   -3.054710
  10 H   1.0000    1     1.008   -3.907942   -2.807771   -3.052286
  11 H   1.0000    1     1.008   -3.798389    0.613297    1.604111
  12 H   1.0000    1     1.008   -4.661592   -2.601380    1.616709
  13 H   1.0000    1     1.008   -0.326936   -2.284053    3.029290
  14 H   1.0000    1     1.008   -0.387983   -3.804744    0.106754
  15 H   1.0000    1     1.008    4.615026   -1.323099    1.687149
  16 H   1.0000    1     1.008    6.603972    4.195493    0.025675

      -----------------------------------------------------------      
     |                   =====================                   |     
     |                           x T B                           |     
     |                   =====================                   |     
     |                         S. Grimme                         |     
     |          Mulliken Center for Theoretical Chemistry        |     
     |                    University of Bonn                     |     
      -----------------------------------------------------------      

   * xtb version 6.7.1 (edcfbbe) compiled by 'albert@albert-system' on 2024-07-22

   xtb is free software: you can redistribute it and/or modify it under
   the terms of the GNU Lesser General Public License as published by
   the Free Software Foundation, either version 3 of the License, or
   (at your option) any later version.
   
   xtb is distributed in the hope that it will be useful,
   but WITHOUT ANY WARRANTY; without even the implied warranty of
   MERCHANTABILITY or FITNESS FOR A PARTICULAR PURPOSE.  See the
   GNU Lesser General Public License for more details.
   
   Cite this work as:
   * C. Bannwarth, E. Caldeweyher, S. Ehlert, A. Hansen, P. Pracht,
     J. Seibert, S. Spicher, S. Grimme, WIREs Comput. Mol. Sci., 2020, 11,
     e01493. DOI: 10.1002/wcms.1493
   
   for GFN2-xTB:
   * C. Bannwarth, S. Ehlert and S. Grimme., J. Chem. Theory Comput., 2019,
     15, 1652-1671. DOI: 10.1021/acs.jctc.8b01176
   for GFN1-xTB:
   * S. Grimme, C. Bannwarth, P. Shushkov, J. Chem. Theory Comput., 2017,
     13, 1989-2009. DOI: 10.1021/acs.jctc.7b00118
   for GFN0-xTB:
   * P. Pracht, E. Caldeweyher, S. Ehlert, S. Grimme, ChemRxiv, 2019, preprint.
     DOI: 10.26434/chemrxiv.8326202.v1
   for GFN-FF:
   * S. Spicher and S. Grimme, Angew. Chem. Int. Ed., 2020, 59, 15665-15673.
     DOI: 10.1002/anie.202004239
   
   for ALPB and GBSA implicit solvation:
   * S. Ehlert, M. Stahn, S. Spicher, S. Grimme, J. Chem. Theory Comput.,
     2021, 17, 4250-4261. DOI: 10.1021/acs.jctc.1c00471
   
   for ddCOSMO and CPCM-X implicit solvation:
   * M. Stahn, S. Ehlert, S. Grimme, J. Phys. Chem. A,
     2023, XX, XXXX-XXXX. DOI: 10.1021/acs.jpca.3c04382
   
   for DFT-D4:
   * E. Caldeweyher, C. Bannwarth and S. Grimme, J. Chem. Phys., 2017,
     147, 034112. DOI: 10.1063/1.4993215
   * E. Caldeweyher, S. Ehlert, A. Hansen, H. Neugebauer, S. Spicher,
     C. Bannwarth and S. Grimme, J. Chem. Phys., 2019, 150, 154122.
     DOI: 10.1063/1.5090222
   * E. Caldeweyher, J.-M. Mewes, S. Ehlert and S. Grimme, Phys. Chem. Chem. Phys.
     2020, 22, 8499-8512. DOI: 10.1039/D0CP00502A
   
   for sTDA-xTB:
   * S. Grimme and C. Bannwarth, J. Chem. Phys., 2016, 145, 054103.
     DOI: 10.1063/1.4959605
   
   in the mass-spec context:
   * V. Asgeirsson, C. Bauer and S. Grimme, Chem. Sci., 2017, 8, 4879.
     DOI: 10.1039/c7sc00601b
   * J. Koopman and S. Grimme, ACS Omega 2019, 4, 12, 15120-15133.
     DOI: 10.1021/acsomega.9b02011
   
   for metadynamics refer to:
   * S. Grimme, J. Chem. Theory Comput., 2019, 155, 2847-2862
     DOI: 10.1021/acs.jctc.9b00143
   
   for SPH calculations refer to:
   * S. Spicher and S. Grimme, J. Chem. Theory Comput., 2021, 17, 1701-1714
     DOI: 10.1021/acs.jctc.0c01306
   
   for ONIOM refer to:
   * C. Plett, A. Katbashev, S. Ehlert, S. Grimme, M. Bursch,
     Phys. Chem. Chem. Phys., 2023, 25, 17860-17868. DOI: 10.1039/D3CP02178E
   
   for DIPRO refer to:
   * J. Kohn, N. Gildemeister, S. Grimme, D. Fazzi, A. Hansen,
     J. Chem. Phys., 2023, just accepted.
   
   for PTB refer to:
   * S. Grimme, M. Mueller, A. Hansen, J. Chem. Phys., 2023, 158, 124111.
     DOI: 10.1063/5.0137838
   
   with help from (in alphabetical order)
   P. Atkinson, C. Bannwarth, F. Bohle, G. Brandenburg, E. Caldeweyher
   M. Checinski, S. Dohm, S. Ehlert, S. Ehrlich, I. Gerasimov, C. Hölzer
   A. Katbashev, J. Kohn, J. Koopman, C. Lavigne, S. Lehtola, F. März, M. Müller,
   F. Musil, H. Neugebauer, J. Pisarek, C. Plett, P. Pracht, F. Pultar,
   J. Seibert, P. Shushkov, S. Spicher, M. Stahn, M. Steiner, T. Strunk,
   J. Stückrath, T. Rose, and J. Unsleber
   
 * started run on 2026/02/17 at 15:18:00.338     
   ID    Z sym.   atoms
    1    6 C      1-5
    2    8 O      6-8
    3    1 H      9-17

           -------------------------------------------------
          |                Calculation Setup                |
           -------------------------------------------------

          program call               : /apps/eb/ORCA/6.1.1-gompi-2024a-avx2/bin/otool_xtb goat_XTB.xyz --grad -c 0 -u 1 -P 8 --namespace goat --input goat_XTB.input.tmp --acc 0.200000
          hostname                   : d5-8
          calculation namespace      : goat
          coordinate file            : goat_XTB.xyz
          omp threads                :                     8


           -------------------------------------------------
          |                 G F N 2 - x T B                 |
           -------------------------------------------------

        Reference                      10.1021/acs.jctc.8b01176
      * Hamiltonian:
        H0-scaling (s, p, d)           1.850000    2.230000    2.230000
        zeta-weighting                 0.500000
      * Dispersion:
        s8                             2.700000
        a1                             0.520000
        a2                             5.000000
        s9                             5.000000
      * Repulsion:
        kExp                           1.500000    1.000000
        rExp                           1.000000
      * Coulomb:
        alpha                          2.000000
        third order                    shell-resolved
        anisotropic                    true
        a3                             3.000000
        a5                             4.000000
        cn-shift                       1.200000
        cn-exp                         4.000000
        max-rad                        5.000000

q/qsh data taken from xtbrestart
CAMM data taken from xtbrestart

          ...................................................
          :                      SETUP                      :
          :.................................................:
          :  # basis functions                  41          :
          :  # atomic orbitals                  41          :
          :  # shells                           25          :
          :  # electrons                        47          :
          :  max. iterations                   250          :
          :  Hamiltonian                  GFN2-xTB          :
          :  restarted?                       true          :
          :  GBSA solvation                  false          :
          :  PC potential                    false          :
          :  electronic temp.          300.0000000     K    :
          :  accuracy                    0.2000000          :
          :  -> integral cutoff          0.3198970E+02      :
          :  -> integral neglect         0.2000000E-08      :
          :  -> SCF convergence          0.2000000E-06 Eh   :
          :  -> wf. convergence          0.2000000E-04 e    :
          :  Broyden damping             0.4000000          :
          :  net charge                          0          :
          :  unpaired electrons                  1          :
          ...................................................

 iter      E             dE          RMSdq      gap      omega  full diag
   1    -27.5426793 -0.275427E+02  0.329E-01    4.65       0.0  T
   2    -27.5427661 -0.867709E-04  0.200E-01    4.58       1.0  T
   3    -27.5427438  0.222447E-04  0.642E-02    4.59       1.0  T
   4    -27.5427817 -0.378481E-04  0.114E-02    4.57       2.1  T
   5    -27.5427825 -0.781718E-06  0.532E-03    4.57       4.6  T
   6    -27.5427826 -0.875613E-07  0.249E-03    4.57       9.7  T
   7    -27.5427826 -0.134721E-07  0.886E-04    4.57      27.4  T
   8    -27.5427826 -0.297868E-08  0.373E-04    4.57      65.0  T
   9    -27.5427826 -0.731671E-09  0.203E-04    4.57     119.5  T
  10    -27.5427826 -0.260172E-09  0.408E-05    4.57     593.8  T
  11    -27.5427826 -0.807532E-11  0.203E-05    4.57    1196.2  T

   *** convergence criteria satisfied after 11 iterations ***

         #    Occupation            Energy/Eh            Energy/eV
      -------------------------------------------------------------
         1        2.0000           -0.7518356             -20.4585
       ...           ...                  ...                  ...
        18        2.0000           -0.4683062             -12.7433
        19        2.0000           -0.4661578             -12.6848
        20        2.0000           -0.4609381             -12.5428
        21        2.0000           -0.4573176             -12.4442
        22        2.0000           -0.4447164             -12.1014
        23        2.0000           -0.4412571             -12.0072
        24        1.0000           -0.3511901              -9.5564 (HOMO)
        25                         -0.1831164              -4.9829 (LUMO)
        26                         -0.0774711              -2.1081
        27                          0.0338141               0.9201
        28                          0.0669084               1.8207
        29                          0.0954203               2.5965
       ...                                ...                  ...
        41                          0.3559096               9.6848
      -------------------------------------------------------------
                  HL-Gap            0.1680737 Eh            4.5735 eV
             Fermi-level           -0.3316884 Eh           -9.0257 eV

 SCC (total)                   0 d,  0 h,  0 min,  0.015 sec
 SCC setup                      ...        0 min,  0.001 sec (  5.365%)
 Dispersion                     ...        0 min,  0.000 sec (  2.122%)
 classical contributions        ...        0 min,  0.000 sec (  1.569%)
 integral evaluation            ...        0 min,  0.001 sec (  5.161%)
 iterations                     ...        0 min,  0.010 sec ( 66.851%)
 molecular gradient             ...        0 min,  0.002 sec ( 15.580%)
 printout                       ...        0 min,  0.000 sec (  3.218%)

         :::::::::::::::::::::::::::::::::::::::::::::::::::::
         ::                     SUMMARY                     ::
         :::::::::::::::::::::::::::::::::::::::::::::::::::::
         :: total energy             -27.301308462120 Eh    ::
         :: gradient norm              0.037111725815 Eh/a0 ::
         :: HOMO-LUMO gap              4.573517552438 eV    ::
         ::.................................................::
         :: SCC energy               -27.542783163874 Eh    ::
         :: -> isotropic ES            0.042741650059 Eh    ::
         :: -> anisotropic ES         -0.003200415549 Eh    ::
         :: -> anisotropic XC         -0.003852120732 Eh    ::
         :: -> dispersion             -0.009510248023 Eh    ::
         :: repulsion energy           0.241474701754 Eh    ::
         :: add. restraining           0.000000000000 Eh    ::
         :: total charge              -0.000000000000 e     ::
         :::::::::::::::::::::::::::::::::::::::::::::::::::::


Property printout bound to 'properties.out'

           -------------------------------------------------
          | TOTAL ENERGY              -27.301308462120 Eh   |
          | GRADIENT NORM               0.037111725815 Eh/α |
          | HOMO-LUMO GAP               4.573517552438 eV   |
           -------------------------------------------------

------------------------------------------------------------------------
 * finished run on 2026/02/17 at 15:18:00.374     
------------------------------------------------------------------------
 total:
 * wall-time:     0 d,  0 h,  0 min,  0.035 sec
 *  cpu-time:     0 d,  0 h,  0 min,  0.191 sec
 * ratio c/w:     5.492 speedup
 SCF:
 * wall-time:     0 d,  0 h,  0 min,  0.015 sec
 *  cpu-time:     0 d,  0 h,  0 min,  0.081 sec
 * ratio c/w:     5.298 speedup


-------------------------   --------------------
FINAL SINGLE POINT ENERGY       -27.301308462120
-------------------------   --------------------


-------------
DIPOLE MOMENT
-------------
                                X             Y             Z
Total Dipole Moment    :     -0.86300      -0.32700       0.35800
                        -----------------------------------------
Magnitude (a.u.)       :      0.98988
Magnitude (Debye)      :      2.51607


------------------
CARTESIAN GRADIENT
------------------

   1   C   :    0.001216033   -0.000345674    0.002576355
   2   C   :    0.003976482   -0.000192037   -0.001955062
   3   C   :    0.004597099    0.007791640    0.002258392
   4   C   :   -0.001637873    0.001073630   -0.009286732
   5   C   :   -0.005515467   -0.005943704    0.015491085
   6   O   :    0.009878372    0.000511057    0.010285131
   7   O   :   -0.001405471    0.002543230    0.002828729
   8   O   :    0.005870817    0.008898843   -0.018652944
   9   H   :   -0.000445322    0.000167406   -0.000201527
  10   H   :   -0.001147324    0.000519253   -0.001128021
  11   H   :   -0.000281029   -0.000211817   -0.000414993
  12   H   :   -0.001409926    0.000112301    0.000237685
  13   H   :   -0.000845010   -0.000071654    0.000113481
  14   H   :   -0.000571190   -0.004957493   -0.000100760
  15   H   :   -0.001419122   -0.004290039    0.005426346
  16   H   :   -0.004856770   -0.003381889   -0.003802883
  17   H   :   -0.006004300   -0.002223051   -0.003674282

Difference to translation invariance:
           :    0.0000000000   -0.0000000000    0.0000000000

Difference to rotation invariance:
           :    0.0000000939   -0.0000003517    0.0000001982

Norm of the Cartesian gradient     ...    0.0371117258
RMS gradient                       ...    0.0051966811
MAX gradient                       ...    0.0186529442
------------------------------------------------------------------------------
                         ORCA GEOMETRY RELAXATION STEP
------------------------------------------------------------------------------

Reading the OPT-File                    .... done
Getting information on internals        .... done
Copying old internal coords+grads       .... done
Making the new internal coordinates     .... (2022 redundants) done
Validating the new internal coordinates .... (2022 redundants) done
Calculating the B-matrix                .... done
Calculating the G,G- and P matrices     .... done
Transforming gradient to internals      .... done
Projecting the internal gradient        .... done
Number of atoms                         ....  17
Number of internal coordinates          ....  76
Current Energy                          ....   -27.301308462 Eh
Current gradient norm                   ....     0.037111726 Eh/bohr
Maximum allowed component of the step   ....  0.300
Current trust radius                    ....  0.300
Updating the Hessian (BFGS)             .... done
Forming the augmented Hessian           .... done
Diagonalizing the augmented Hessian     .... done
Last element of RFO vector              ....  0.951955375
Lowest eigenvalues of augmented Hessian:
 -0.007719163  0.011158580  0.011648985  0.011741211  0.013948923
Length of the computed step             ....  0.321692367
Warning: the length of the step is outside the trust region - taking restricted step instead
The input lambda is                     ....     0.010153
   iter:   5  x=   -0.008720  g=    7.055833 f(x)=     0.038331
   iter:  10  x=   -0.011196  g=    3.367957 f(x)=     0.000000
The output lambda is                    ....    -0.011196 (10 iterations)
The final length of the internal step   ....  0.300000000
Converting the step to Cartesian space:
 Initial RMS(Int)=    0.0344123601
Transforming coordinates:
 Iter   0:  RMS(Cart)=    0.0990153794 RMS(Int)=    0.0343064018
 Iter   5:  RMS(Cart)=    0.0000016016 RMS(Int)=    0.0000011326
done
Storing new coordinates                 .... done
The predicted energy change is          ....    -0.004195777
Previously predicted energy change      ....    -0.006888959
Actually observed energy change         ....    -0.009820034
Ratio of predicted to observed change   ....     1.425474262
New trust radius                        ....     0.300000000

                                .--------------------.
          ----------------------|Geometry convergence|-------------------------
          Item                value                   Tolerance       Converged
          ---------------------------------------------------------------------
          Energy change      -0.0098200339            0.0000050000      NO
          RMS gradient        0.0036482383            0.0001000000      NO
          MAX gradient        0.0170504365            0.0003000000      NO
          RMS step            0.0344123601            0.0020000000      NO
          MAX step            0.1057870664            0.0040000000      NO
          -------------------------------------------------------------------------
          ........................................................
          Max(Bonds)      0.0400      Max(Angles)    4.50
          Max(Dihed)        6.06      Max(Improp)    0.00
          ---------------------------------------------------------------------

    ---------------------------------------------------------------------------
                         Redundant Internal Coordinates
                            (Angstroem and degrees)

        Definition                    Value    dE/dq     Step     New-Value
    ----------------------------------------------------------------------------
     1. B(C   1,C   0)                1.5205 -0.000619  0.0014    1.5220   
     2. B(C   2,C   1)                1.5280 -0.000936  0.0023    1.5303   
     3. B(C   3,C   2)                1.4901  0.001122 -0.0025    1.4876   
     4. B(C   4,C   3)                1.4539 -0.001854  0.0019    1.4558   
     5. B(O   6,C   4)                1.4223  0.003415 -0.0044    1.4178   
     6. B(O   6,C   3)                1.3740  0.000611 -0.0022    1.3718   
     7. B(O   7,C   4)                1.3943  0.017050 -0.0400    1.3543   
     8. B(O   7,O   5)                1.4347  0.005238 -0.0144    1.4203   
     9. B(H   8,C   0)                1.0885  0.000486 -0.0018    1.0867   
    10. B(H   9,C   0)                1.0879  0.000295 -0.0013    1.0867   
    11. B(H  10,C   0)                1.0883  0.000336 -0.0014    1.0869   
    12. B(H  11,C   1)                1.0921  0.000432 -0.0015    1.0906   
    13. B(H  12,C   1)                1.0937  0.000589 -0.0018    1.0918   
    14. B(H  13,C   2)                1.1006  0.000553 -0.0013    1.0993   
    15. B(H  14,C   2)                1.0954  0.001229 -0.0035    1.0920   
    16. B(H  15,C   4)                1.0850 -0.001924  0.0051    1.0901   
    17. B(H  16,O   5)                0.9701  0.000339 -0.0010    0.9690   
    18. A(H   8,C   0,H   9)          108.14 -0.001118    0.51    108.65   
    19. A(H   8,C   0,H  10)          108.22 -0.000352    0.26    108.48   
    20. A(C   1,C   0,H   8)          110.21 -0.000430    0.24    110.45   
    21. A(C   1,C   0,H  10)          110.86  0.000290   -0.16    110.70   
    22. A(H   9,C   0,H  10)          108.29 -0.000526   -0.04    108.25   
    23. A(C   1,C   0,H   9)          111.02  0.002043   -0.77    110.25   
    24. A(C   0,C   1,H  12)          109.08 -0.001416    0.65    109.73   
    25. A(C   0,C   1,C   2)          112.31  0.002768   -1.03    111.28   
    26. A(C   2,C   1,H  12)          108.78  0.000179    0.18    108.96   
    27. A(H  11,C   1,H  12)          107.38 -0.000703    0.62    108.01   
    28. A(C   0,C   1,H  11)          109.50 -0.001292    0.22    109.72   
    29. A(C   2,C   1,H  11)          109.66  0.000313   -0.54    109.12   
    30. A(C   3,C   2,H  13)          109.56  0.001570   -0.76    108.80   
    31. A(H  13,C   2,H  14)          105.13 -0.007527    3.48    108.61   
    32. A(C   3,C   2,H  14)          111.57  0.007534   -2.45    109.11   
    33. A(C   1,C   2,H  14)          109.34 -0.001265    0.14    109.48   
    34. A(C   1,C   2,H  13)          108.91 -0.001191    0.35    109.25   
    35. A(C   1,C   2,C   3)          112.09  0.000239   -0.39    111.70   
    36. A(C   2,C   3,C   4)          125.98 -0.006544    2.87    128.85   
    37. A(C   4,C   3,O   6)           60.31  0.001796   -0.21     60.10   
    38. A(C   2,C   3,O   6)          119.57 -0.004863    3.21    122.78   
    39. A(O   7,C   4,H  15)          115.51  0.001149   -0.57    114.94   
    40. A(O   6,C   4,H  15)          116.14 -0.000687   -1.32    114.82   
    41. A(C   3,C   4,H  15)          118.40 -0.004021    2.94    121.34   
    42. A(C   3,C   4,O   6)           57.06 -0.000017   -0.05     57.01   
    43. A(O   6,C   4,O   7)          115.82  0.000145    1.13    116.96   
    44. A(C   3,C   4,O   7)          120.79  0.002775   -2.08    118.72   
    45. A(O   7,O   5,H  16)           99.95 -0.013515    4.50    104.45   
    46. A(C   3,O   6,C   4)           62.63 -0.001779    0.26     62.89   
    47. A(C   4,O   7,O   5)          107.17 -0.010887    3.25    110.42   
    48. D(H  11,C   1,C   0,H   9)     59.50  0.000066    0.39     59.89   
    49. D(C   2,C   1,C   0,H  10)     57.84 -0.000394    0.95     58.79   
    50. D(H  11,C   1,C   0,H  10)    179.92  0.000961   -0.29    179.63   
    51. D(C   2,C   1,C   0,H   9)    -62.57 -0.001288    1.63    -60.94   
    52. D(H  11,C   1,C   0,H   8)    -60.29  0.000429    0.09    -60.20   
    53. D(C   2,C   1,C   0,H   8)    177.63 -0.000926    1.34    178.96   
    54. D(C   3,C   2,C   1,C   0)     65.19 -0.000485   -0.20     64.99   
    55. D(H  13,C   2,C   1,H  12)    -52.58  0.000949   -0.89    -53.47   
    56. D(H  13,C   2,C   1,C   0)   -173.43  0.000832   -1.17   -174.59   
    57. D(C   3,C   2,C   1,H  12)   -173.96 -0.000368    0.08   -173.89   
    58. D(H  13,C   2,C   1,H  11)     64.59  0.000384   -0.34     64.25   
    59. D(C   3,C   2,C   1,H  11)    -56.80 -0.000933    0.63    -56.17   
    60. D(C   4,C   3,C   2,H  14)    -69.76  0.002411   -2.17    -71.93   
    61. D(C   4,C   3,C   2,H  13)     46.23 -0.001422    0.20     46.43   
    62. D(C   4,C   3,C   2,C   1)    167.24 -0.001692   -0.14    167.10   
    63. D(O   6,C   3,C   2,H  13)    -26.81  0.001543   -2.27    -29.08   
    64. D(O   6,C   3,C   2,C   1)     94.20  0.001273   -2.62     91.58   
    65. D(H  15,C   4,C   3,O   6)    104.27  0.001267   -3.21    101.06   
    66. D(H  15,C   4,C   3,C   2)     -2.48  0.004030   -6.06     -8.54   
    67. D(O   7,C   4,C   3,O   6)   -102.59  0.001295   -2.55   -105.15   
    68. D(O   7,C   4,C   3,C   2)    150.66  0.004058   -5.41    145.25   
    69. D(O   6,C   4,C   3,C   2)   -106.75  0.002763   -2.85   -109.60   
    70. D(C   3,O   6,C   4,H  15)   -108.26  0.004592   -4.33   -112.58   
    71. D(C   3,O   6,C   4,O   7)    111.36  0.003310   -3.12    108.24   
    72. D(C   4,O   6,C   3,C   2)    117.01 -0.005538    2.17    119.18   
    73. D(C   4,O   7,O   5,H  16)    -96.04  0.000299   -0.65    -96.70   
    74. D(O   5,O   7,C   4,H  15)    -64.03 -0.001666    4.38    -59.65   
    75. D(O   5,O   7,C   4,O   6)     76.61 -0.001123    2.88     79.49   
    76. D(O   5,O   7,C   4,C   3)    142.10 -0.000358    2.84    144.94   
    ----------------------------------------------------------------------------

Geometry step timings:
Preparation and reading OPT file:      0.000 s ( 0.538 %)
Internal coordinates            :      0.000 s ( 0.692 %)
B/P matrices and projection     :      0.001 s (27.374 %)
Hessian update/contruction      :      0.000 s (12.880 %)
Making the step                 :      0.001 s (40.946 %)
Converting the step to Cartesian:      0.000 s ( 2.845 %)
Storing new data                :      0.000 s ( 0.807 %)
Checking convergence            :      0.000 s ( 1.077 %)
Final printing                  :      0.000 s (12.803 %)
Total time                      :      0.003 s

Time for energy+gradient        :      0.046 s
Time for complete geometry iter :      0.049 s

         *************************************************************
         *                GEOMETRY OPTIMIZATION CYCLE   3            *
         *************************************************************
---------------------------------
CARTESIAN COORDINATES (ANGSTROEM)
---------------------------------
  C    -2.196546   -0.508765   -1.109962
  C    -1.851922   -0.659677    0.364781
  C    -0.395092   -1.088475    0.553325
  C     0.550522   -0.040762    0.083092
  C     1.985156    0.060227    0.311409
  O     3.834829    1.323789   -0.107902
  O     1.045933    0.934829    0.911649
  O     2.765650    0.575369   -0.668168
  H    -3.237914   -0.221924   -1.229165
  H    -1.571491    0.254244   -1.565960
  H    -2.033847   -1.443532   -1.640105
  H    -2.014612    0.288132    0.879125
  H    -2.503678   -1.407485    0.820944
  H    -0.209211   -1.281185    1.619489
  H    -0.213314   -2.009468   -0.004444
  H     2.497835   -0.607092    1.004397
  H     3.525176    2.241726   -0.130307

----------------------------
CARTESIAN COORDINATES (A.U.)
----------------------------
  NO LB    ZA    FRAG    MASS        X           Y           Z
   0 C   6.0000    1    12.011   -4.150871   -0.961427   -2.097525
   1 C   6.0000    1    12.011   -3.499625   -1.246610    0.689337
   2 C   6.0000    1    12.011   -0.746615   -2.056920    1.045633
   3 C   6.0000    1    12.011    1.040336   -0.077029    0.157022
   4 C   6.0000    1    12.011    3.751402    0.113813    0.588479
   5 O   8.0000    1    15.999    7.246777    2.501599   -0.203906
   6 O   8.0000    1    15.999    1.976526    1.766571    1.722768
   7 O   8.0000    1    15.999    5.226321    1.087289   -1.262655
   8 H   1.0000    1     1.008   -6.118770   -0.419377   -2.322785
   9 H   1.0000    1     1.008   -2.969688    0.480451   -2.959235
  10 H   1.0000    1     1.008   -3.843413   -2.727880   -3.099349
  11 H   1.0000    1     1.008   -3.807065    0.544491    1.661305
  12 H   1.0000    1     1.008   -4.731266   -2.659762    1.551359
  13 H   1.0000    1     1.008   -0.395352   -2.421090    3.060391
  14 H   1.0000    1     1.008   -0.403105   -3.797345   -0.008398
  15 H   1.0000    1     1.008    4.720224   -1.147238    1.898036
  16 H   1.0000    1     1.008    6.661616    4.236248   -0.246244

      -----------------------------------------------------------      
     |                   =====================                   |     
     |                           x T B                           |     
     |                   =====================                   |     
     |                         S. Grimme                         |     
     |          Mulliken Center for Theoretical Chemistry        |     
     |                    University of Bonn                     |     
      -----------------------------------------------------------      

   * xtb version 6.7.1 (edcfbbe) compiled by 'albert@albert-system' on 2024-07-22

   xtb is free software: you can redistribute it and/or modify it under
   the terms of the GNU Lesser General Public License as published by
   the Free Software Foundation, either version 3 of the License, or
   (at your option) any later version.
   
   xtb is distributed in the hope that it will be useful,
   but WITHOUT ANY WARRANTY; without even the implied warranty of
   MERCHANTABILITY or FITNESS FOR A PARTICULAR PURPOSE.  See the
   GNU Lesser General Public License for more details.
   
   Cite this work as:
   * C. Bannwarth, E. Caldeweyher, S. Ehlert, A. Hansen, P. Pracht,
     J. Seibert, S. Spicher, S. Grimme, WIREs Comput. Mol. Sci., 2020, 11,
     e01493. DOI: 10.1002/wcms.1493
   
   for GFN2-xTB:
   * C. Bannwarth, S. Ehlert and S. Grimme., J. Chem. Theory Comput., 2019,
     15, 1652-1671. DOI: 10.1021/acs.jctc.8b01176
   for GFN1-xTB:
   * S. Grimme, C. Bannwarth, P. Shushkov, J. Chem. Theory Comput., 2017,
     13, 1989-2009. DOI: 10.1021/acs.jctc.7b00118
   for GFN0-xTB:
   * P. Pracht, E. Caldeweyher, S. Ehlert, S. Grimme, ChemRxiv, 2019, preprint.
     DOI: 10.26434/chemrxiv.8326202.v1
   for GFN-FF:
   * S. Spicher and S. Grimme, Angew. Chem. Int. Ed., 2020, 59, 15665-15673.
     DOI: 10.1002/anie.202004239
   
   for ALPB and GBSA implicit solvation:
   * S. Ehlert, M. Stahn, S. Spicher, S. Grimme, J. Chem. Theory Comput.,
     2021, 17, 4250-4261. DOI: 10.1021/acs.jctc.1c00471
   
   for ddCOSMO and CPCM-X implicit solvation:
   * M. Stahn, S. Ehlert, S. Grimme, J. Phys. Chem. A,
     2023, XX, XXXX-XXXX. DOI: 10.1021/acs.jpca.3c04382
   
   for DFT-D4:
   * E. Caldeweyher, C. Bannwarth and S. Grimme, J. Chem. Phys., 2017,
     147, 034112. DOI: 10.1063/1.4993215
   * E. Caldeweyher, S. Ehlert, A. Hansen, H. Neugebauer, S. Spicher,
     C. Bannwarth and S. Grimme, J. Chem. Phys., 2019, 150, 154122.
     DOI: 10.1063/1.5090222
   * E. Caldeweyher, J.-M. Mewes, S. Ehlert and S. Grimme, Phys. Chem. Chem. Phys.
     2020, 22, 8499-8512. DOI: 10.1039/D0CP00502A
   
   for sTDA-xTB:
   * S. Grimme and C. Bannwarth, J. Chem. Phys., 2016, 145, 054103.
     DOI: 10.1063/1.4959605
   
   in the mass-spec context:
   * V. Asgeirsson, C. Bauer and S. Grimme, Chem. Sci., 2017, 8, 4879.
     DOI: 10.1039/c7sc00601b
   * J. Koopman and S. Grimme, ACS Omega 2019, 4, 12, 15120-15133.
     DOI: 10.1021/acsomega.9b02011
   
   for metadynamics refer to:
   * S. Grimme, J. Chem. Theory Comput., 2019, 155, 2847-2862
     DOI: 10.1021/acs.jctc.9b00143
   
   for SPH calculations refer to:
   * S. Spicher and S. Grimme, J. Chem. Theory Comput., 2021, 17, 1701-1714
     DOI: 10.1021/acs.jctc.0c01306
   
   for ONIOM refer to:
   * C. Plett, A. Katbashev, S. Ehlert, S. Grimme, M. Bursch,
     Phys. Chem. Chem. Phys., 2023, 25, 17860-17868. DOI: 10.1039/D3CP02178E
   
   for DIPRO refer to:
   * J. Kohn, N. Gildemeister, S. Grimme, D. Fazzi, A. Hansen,
     J. Chem. Phys., 2023, just accepted.
   
   for PTB refer to:
   * S. Grimme, M. Mueller, A. Hansen, J. Chem. Phys., 2023, 158, 124111.
     DOI: 10.1063/5.0137838
   
   with help from (in alphabetical order)
   P. Atkinson, C. Bannwarth, F. Bohle, G. Brandenburg, E. Caldeweyher
   M. Checinski, S. Dohm, S. Ehlert, S. Ehrlich, I. Gerasimov, C. Hölzer
   A. Katbashev, J. Kohn, J. Koopman, C. Lavigne, S. Lehtola, F. März, M. Müller,
   F. Musil, H. Neugebauer, J. Pisarek, C. Plett, P. Pracht, F. Pultar,
   J. Seibert, P. Shushkov, S. Spicher, M. Stahn, M. Steiner, T. Strunk,
   J. Stückrath, T. Rose, and J. Unsleber
   
 * started run on 2026/02/17 at 15:18:00.387     
   ID    Z sym.   atoms
    1    6 C      1-5
    2    8 O      6-8
    3    1 H      9-17

           -------------------------------------------------
          |                Calculation Setup                |
           -------------------------------------------------

          program call               : /apps/eb/ORCA/6.1.1-gompi-2024a-avx2/bin/otool_xtb goat_XTB.xyz --grad -c 0 -u 1 -P 8 --namespace goat --input goat_XTB.input.tmp --acc 0.200000
          hostname                   : d5-8
          calculation namespace      : goat
          coordinate file            : goat_XTB.xyz
          omp threads                :                     8


           -------------------------------------------------
          |                 G F N 2 - x T B                 |
           -------------------------------------------------

        Reference                      10.1021/acs.jctc.8b01176
      * Hamiltonian:
        H0-scaling (s, p, d)           1.850000    2.230000    2.230000
        zeta-weighting                 0.500000
      * Dispersion:
        s8                             2.700000
        a1                             0.520000
        a2                             5.000000
        s9                             5.000000
      * Repulsion:
        kExp                           1.500000    1.000000
        rExp                           1.000000
      * Coulomb:
        alpha                          2.000000
        third order                    shell-resolved
        anisotropic                    true
        a3                             3.000000
        a5                             4.000000
        cn-shift                       1.200000
        cn-exp                         4.000000
        max-rad                        5.000000

q/qsh data taken from xtbrestart
CAMM data taken from xtbrestart

          ...................................................
          :                      SETUP                      :
          :.................................................:
          :  # basis functions                  41          :
          :  # atomic orbitals                  41          :
          :  # shells                           25          :
          :  # electrons                        47          :
          :  max. iterations                   250          :
          :  Hamiltonian                  GFN2-xTB          :
          :  restarted?                       true          :
          :  GBSA solvation                  false          :
          :  PC potential                    false          :
          :  electronic temp.          300.0000000     K    :
          :  accuracy                    0.2000000          :
          :  -> integral cutoff          0.3198970E+02      :
          :  -> integral neglect         0.2000000E-08      :
          :  -> SCF convergence          0.2000000E-06 Eh   :
          :  -> wf. convergence          0.2000000E-04 e    :
          :  Broyden damping             0.4000000          :
          :  net charge                          0          :
          :  unpaired electrons                  1          :
          ...................................................

 iter      E             dE          RMSdq      gap      omega  full diag
   1    -27.5513548 -0.275514E+02  0.396E-01    4.70       0.0  T
   2    -27.5514140 -0.592244E-04  0.241E-01    4.64       1.0  T
   3    -27.5513976  0.163575E-04  0.494E-02    4.64       1.0  T
   4    -27.5514252 -0.275908E-04  0.120E-02    4.63       2.0  T
   5    -27.5514259 -0.713459E-06  0.569E-03    4.63       4.3  T
   6    -27.5514260 -0.657113E-07  0.241E-03    4.63      10.1  T
   7    -27.5514260 -0.830153E-08  0.531E-04    4.63      45.6  T
   8    -27.5514260 -0.731458E-09  0.146E-04    4.63     166.1  T
   9    -27.5514260 -0.753246E-10  0.784E-05    4.63     309.3  T

   *** convergence criteria satisfied after 9 iterations ***

         #    Occupation            Energy/Eh            Energy/eV
      -------------------------------------------------------------
         1        2.0000           -0.7522276             -20.4692
       ...           ...                  ...                  ...
        18        2.0000           -0.4675402             -12.7224
        19        2.0000           -0.4637827             -12.6202
        20        2.0000           -0.4579132             -12.4605
        21        2.0000           -0.4569637             -12.4346
        22        2.0000           -0.4440908             -12.0843
        23        2.0000           -0.4413415             -12.0095
        24        1.0000           -0.3448654              -9.3843 (HOMO)
        25                         -0.1746062              -4.7513 (LUMO)
        26                         -0.0684608              -1.8629
        27                          0.0600264               1.6334
        28                          0.0747630               2.0344
        29                          0.0982831               2.6744
       ...                                ...                  ...
        41                          0.3747064              10.1963
      -------------------------------------------------------------
                  HL-Gap            0.1702592 Eh            4.6330 eV
             Fermi-level           -0.3264196 Eh           -8.8823 eV

 SCC (total)                   0 d,  0 h,  0 min,  0.019 sec
 SCC setup                      ...        0 min,  0.000 sec (  2.632%)
 Dispersion                     ...        0 min,  0.000 sec (  1.362%)
 classical contributions        ...        0 min,  0.000 sec (  0.638%)
 integral evaluation            ...        0 min,  0.001 sec (  4.000%)
 iterations                     ...        0 min,  0.013 sec ( 71.195%)
 molecular gradient             ...        0 min,  0.003 sec ( 17.662%)
 printout                       ...        0 min,  0.000 sec (  2.421%)

         :::::::::::::::::::::::::::::::::::::::::::::::::::::
         ::                     SUMMARY                     ::
         :::::::::::::::::::::::::::::::::::::::::::::::::::::
         :: total energy             -27.305547083820 Eh    ::
         :: gradient norm              0.015774921257 Eh/a0 ::
         :: HOMO-LUMO gap              4.632987970505 eV    ::
         ::.................................................::
         :: SCC energy               -27.551423955325 Eh    ::
         :: -> isotropic ES            0.042581114274 Eh    ::
         :: -> anisotropic ES         -0.003669380437 Eh    ::
         :: -> anisotropic XC         -0.005037756899 Eh    ::
         :: -> dispersion             -0.009541173634 Eh    ::
         :: repulsion energy           0.245876871505 Eh    ::
         :: add. restraining           0.000000000000 Eh    ::
         :: total charge              -0.000000000000 e     ::
         :::::::::::::::::::::::::::::::::::::::::::::::::::::


Property printout bound to 'properties.out'

           -------------------------------------------------
          | TOTAL ENERGY              -27.305547083820 Eh   |
          | GRADIENT NORM               0.015774921257 Eh/α |
          | HOMO-LUMO GAP               4.632987970505 eV   |
           -------------------------------------------------

------------------------------------------------------------------------
 * finished run on 2026/02/17 at 15:18:00.425     
------------------------------------------------------------------------
 total:
 * wall-time:     0 d,  0 h,  0 min,  0.037 sec
 *  cpu-time:     0 d,  0 h,  0 min,  0.214 sec
 * ratio c/w:     5.747 speedup
 SCF:
 * wall-time:     0 d,  0 h,  0 min,  0.019 sec
 *  cpu-time:     0 d,  0 h,  0 min,  0.111 sec
 * ratio c/w:     5.975 speedup


-------------------------   --------------------
FINAL SINGLE POINT ENERGY       -27.305547083820
-------------------------   --------------------


-------------
DIPOLE MOMENT
-------------
                                X             Y             Z
Total Dipole Moment    :     -0.77800      -0.27500       0.33500
                        -----------------------------------------
Magnitude (a.u.)       :      0.89058
Magnitude (Debye)      :      2.26368


------------------
CARTESIAN GRADIENT
------------------

   1   C   :    0.000639547   -0.000279414    0.000242575
   2   C   :    0.000689072   -0.000028489   -0.000357055
   3   C   :    0.002014648    0.000916548    0.003199999
   4   C   :   -0.004139075    0.000657320   -0.007919074
   5   C   :    0.000538999    0.006218974   -0.000778574
   6   O   :   -0.002262993    0.000232554    0.000017178
   7   O   :    0.005546072   -0.002417516   -0.000483013
   8   O   :   -0.001593821   -0.002174493    0.007340764
   9   H   :    0.000325377   -0.000157158    0.000091015
  10   H   :   -0.000729124   -0.000278512   -0.000167537
  11   H   :    0.000047086    0.000538432    0.000094288
  12   H   :   -0.000065263   -0.000252671   -0.000231998
  13   H   :   -0.000137719    0.000120019    0.000020783
  14   H   :   -0.000114971   -0.000548709    0.000559258
  15   H   :   -0.000827396   -0.000595520    0.000540763
  16   H   :    0.000113158   -0.001176491   -0.002084834
  17   H   :   -0.000043595   -0.000774875   -0.000084537

Difference to translation invariance:
           :    0.0000000000   -0.0000000000    0.0000000000

Difference to rotation invariance:
           :   -0.0000004398    0.0000010588   -0.0000006851

Norm of the Cartesian gradient     ...    0.0157749213
RMS gradient                       ...    0.0022089308
MAX gradient                       ...    0.0079190738
------------------------------------------------------------------------------
                         ORCA GEOMETRY RELAXATION STEP
------------------------------------------------------------------------------

Reading the OPT-File                    .... done
Getting information on internals        .... done
Copying old internal coords+grads       .... done
Making the new internal coordinates     .... (2022 redundants) done
Validating the new internal coordinates .... (2022 redundants) done
Calculating the B-matrix                .... done
Calculating the G,G- and P matrices     .... done
Transforming gradient to internals      .... done
Projecting the internal gradient        .... done
Number of atoms                         ....  17
Number of internal coordinates          ....  76
Current Energy                          ....   -27.305547084 Eh
Current gradient norm                   ....     0.015774921 Eh/bohr
Maximum allowed component of the step   ....  0.300
Current trust radius                    ....  0.300
Updating the Hessian (BFGS)             .... done
Forming the augmented Hessian           .... done
Diagonalizing the augmented Hessian     .... done
Last element of RFO vector              ....  0.985820086
Lowest eigenvalues of augmented Hessian:
 -0.001059198  0.011154775  0.011648978  0.011724579  0.013867933
Length of the computed step             ....  0.170219410
The final length of the internal step   ....  0.170219410
Converting the step to Cartesian space:
 Initial RMS(Int)=    0.0195255054
Transforming coordinates:
 Iter   0:  RMS(Cart)=    0.0502273232 RMS(Int)=    0.7198921836
 Iter   5:  RMS(Cart)=    0.0000000145 RMS(Int)=    0.0000000087
done
Storing new coordinates                 .... done
The predicted energy change is          ....    -0.000544944
Previously predicted energy change      ....    -0.004195777
Actually observed energy change         ....    -0.004238622
Ratio of predicted to observed change   ....     1.010211446
New trust radius                        ....     0.450000000

                                .--------------------.
          ----------------------|Geometry convergence|-------------------------
          Item                value                   Tolerance       Converged
          ---------------------------------------------------------------------
          Energy change      -0.0042386217            0.0000050000      NO
          RMS gradient        0.0014220393            0.0001000000      NO
          MAX gradient        0.0085422411            0.0003000000      NO
          RMS step            0.0195255054            0.0020000000      NO
          MAX step            0.0612815001            0.0040000000      NO
          -------------------------------------------------------------------------
          ........................................................
          Max(Bonds)      0.0052      Max(Angles)    1.54
          Max(Dihed)        3.51      Max(Improp)    0.00
          ---------------------------------------------------------------------

    ---------------------------------------------------------------------------
                         Redundant Internal Coordinates
                            (Angstroem and degrees)

        Definition                    Value    dE/dq     Step     New-Value
    ----------------------------------------------------------------------------
     1. B(C   1,C   0)                1.5220 -0.000334  0.0005    1.5225   
     2. B(C   2,C   1)                1.5303 -0.000789  0.0014    1.5316   
     3. B(C   3,C   2)                1.4876  0.000490 -0.0008    1.4868   
     4. B(C   4,C   3)                1.4562  0.000009 -0.0009    1.4553   
     5. B(O   6,C   4)                1.4168 -0.002821  0.0052    1.4220   
     6. B(O   6,C   3)                1.3725  0.000403 -0.0019    1.3706   
     7. B(O   7,C   4)                1.3543 -0.008542  0.0036    1.3579   
     8. B(O   7,O   5)                1.4203 -0.002049  0.0002    1.4205   
     9. B(H   8,C   0)                1.0867 -0.000363 -0.0000    1.0867   
    10. B(H   9,C   0)                1.0867 -0.000545  0.0003    1.0870   
    11. B(H  10,C   0)                1.0869 -0.000502  0.0002    1.0871   
    12. B(H  11,C   1)                1.0906 -0.000319  0.0000    1.0906   
    13. B(H  12,C   1)                1.0918  0.000009 -0.0004    1.0914   
    14. B(H  13,C   2)                1.0993  0.000619 -0.0009    1.0983   
    15. B(H  14,C   2)                1.0920  0.000088 -0.0006    1.0914   
    16. B(H  15,C   4)                1.0901 -0.000552  0.0014    1.0915   
    17. B(H  16,O   5)                0.9690 -0.000718  0.0004    0.9694   
    18. A(H   8,C   0,H   9)          108.65 -0.000307    0.16    108.81   
    19. A(H   8,C   0,H  10)          108.48 -0.000017    0.06    108.54   
    20. A(C   1,C   0,H   8)          110.45 -0.000278    0.10    110.56   
    21. A(C   1,C   0,H  10)          110.70  0.000122   -0.06    110.64   
    22. A(H   9,C   0,H  10)          108.25 -0.000297    0.02    108.27   
    23. A(C   1,C   0,H   9)          110.24  0.000756   -0.28    109.96   
    24. A(C   0,C   1,H  12)          109.73 -0.000185    0.19    109.91   
    25. A(C   0,C   1,C   2)          111.27  0.000024   -0.19    111.08   
    26. A(C   2,C   1,H  12)          108.96  0.000164    0.03    108.99   
    27. A(H  11,C   1,H  12)          108.01 -0.000179    0.17    108.18   
    28. A(C   0,C   1,H  11)          109.70 -0.000057    0.02    109.71   
    29. A(C   2,C   1,H  11)          109.11  0.000230   -0.20    108.92   
    30. A(C   3,C   2,H  13)          108.82 -0.000073   -0.18    108.64   
    31. A(H  13,C   2,H  14)          108.63 -0.001241    0.77    109.40   
    32. A(C   3,C   2,H  14)          109.07  0.001495   -0.66    108.41   
    33. A(C   1,C   2,H  14)          109.38 -0.000538    0.20    109.58   
    34. A(C   1,C   2,H  13)          109.24  0.000005    0.01    109.26   
    35. A(C   1,C   2,C   3)          111.64  0.000308   -0.10    111.55   
    36. A(C   2,C   3,C   4)          128.72 -0.002385    1.29    130.01   
    37. A(C   4,C   3,O   6)           60.03 -0.001303    0.31     60.34   
    38. A(C   2,C   3,O   6)          122.63 -0.000995    1.54    124.17   
    39. A(O   7,C   4,H  15)          114.94 -0.000938    0.14    115.08   
    40. A(O   6,C   4,H  15)          114.86  0.000211   -0.63    114.22   
    41. A(C   3,C   4,H  15)          121.37 -0.000345    0.80    122.17   
    42. A(C   3,C   4,O   6)           57.05  0.000706   -0.18     56.88   
    43. A(O   6,C   4,O   7)          116.98 -0.000183    0.67    117.65   
    44. A(C   3,C   4,O   7)          118.73  0.001305   -0.99    117.75   
    45. A(O   7,O   5,H  16)          104.45 -0.000558    0.85    105.30   
    46. A(C   3,O   6,C   4)           62.92  0.000597   -0.13     62.79   
    47. A(C   4,O   7,O   5)          110.42 -0.002158    0.87    111.30   
    48. D(H  11,C   1,C   0,H   9)     59.89 -0.000117    0.75     60.64   
    49. D(C   2,C   1,C   0,H  10)     58.80 -0.000187    0.92     59.72   
    50. D(H  11,C   1,C   0,H  10)    179.63  0.000079    0.55    180.18   
    51. D(C   2,C   1,C   0,H   9)    -60.94 -0.000384    1.12    -59.83   
    52. D(H  11,C   1,C   0,H   8)    -60.20 -0.000044    0.66    -59.54   
    53. D(C   2,C   1,C   0,H   8)    178.97 -0.000310    1.03    180.00   
    54. D(C   3,C   2,C   1,C   0)     65.01  0.000124   -0.56     64.44   
    55. D(H  13,C   2,C   1,H  12)    -53.48  0.000125   -0.71    -54.19   
    56. D(H  13,C   2,C   1,C   0)   -174.59  0.000231   -0.85   -175.43   
    57. D(C   3,C   2,C   1,H  12)   -173.88  0.000017   -0.43   -174.31   
    58. D(H  13,C   2,C   1,H  11)     64.24  0.000134   -0.60     63.64   
    59. D(C   3,C   2,C   1,H  11)    -56.17  0.000026   -0.32    -56.49   
    60. D(C   4,C   3,C   2,H  14)    -71.84 -0.000608   -1.05    -72.89   
    61. D(C   4,C   3,C   2,H  13)     46.51 -0.001286   -0.60     45.91   
    62. D(C   4,C   3,C   2,C   1)    167.16 -0.001134   -0.77    166.39   
    63. D(O   6,C   3,C   2,H  13)    -29.19  0.002236   -2.35    -31.54   
    64. D(O   6,C   3,C   2,C   1)     91.46  0.002388   -2.52     88.94   
    65. D(H  15,C   4,C   3,O   6)    101.04  0.000808   -1.27     99.77   
    66. D(H  15,C   4,C   3,C   2)     -8.56  0.002186   -2.94    -11.50   
    67. D(O   7,C   4,C   3,O   6)   -105.14  0.000635   -1.30   -106.44   
    68. D(O   7,C   4,C   3,C   2)    145.26  0.002013   -2.96    142.29   
    69. D(O   6,C   4,C   3,C   2)   -109.60  0.001378   -1.67   -111.27   
    70. D(C   3,O   6,C   4,H  15)   -112.55  0.000362   -1.25   -113.80   
    71. D(C   3,O   6,C   4,O   7)    108.24  0.001933   -1.59    106.65   
    72. D(C   4,O   6,C   3,C   2)    119.22 -0.003158    1.10    120.32   
    73. D(C   4,O   7,O   5,H  16)    -96.70  0.000049   -0.34    -97.04   
    74. D(O   5,O   7,C   4,H  15)    -59.65 -0.000539    3.48    -56.18   
    75. D(O   5,O   7,C   4,O   6)     79.54 -0.001651    3.51     83.05   
    76. D(O   5,O   7,C   4,C   3)    144.90 -0.000482    3.34    148.24   
    ----------------------------------------------------------------------------

Geometry step timings:
Preparation and reading OPT file:      0.000 s ( 0.673 %)
Internal coordinates            :      0.000 s ( 0.880 %)
B/P matrices and projection     :      0.001 s (32.712 %)
Hessian update/contruction      :      0.000 s (14.855 %)
Making the step                 :      0.001 s (26.760 %)
Converting the step to Cartesian:      0.000 s ( 3.054 %)
Storing new data                :      0.000 s ( 1.087 %)
Checking convergence            :      0.000 s ( 1.449 %)
Final printing                  :      0.000 s (18.530 %)
Total time                      :      0.002 s

Time for energy+gradient        :      0.048 s
Time for complete geometry iter :      0.050 s

         *************************************************************
         *                GEOMETRY OPTIMIZATION CYCLE   4            *
         *************************************************************
---------------------------------
CARTESIAN COORDINATES (ANGSTROEM)
---------------------------------
  C    -2.184604   -0.492985   -1.110109
  C    -1.859045   -0.680108    0.365329
  C    -0.401800   -1.110724    0.557455
  C     0.543071   -0.053140    0.111107
  C     1.973251    0.080893    0.346563
  O     3.844604    1.304575   -0.166710
  O     1.007572    0.952066    0.919626
  O     2.738230    0.566089   -0.665009
  H    -3.219812   -0.187777   -1.236725
  H    -1.539410    0.269607   -1.538655
  H    -2.027747   -1.418975   -1.657580
  H    -2.024529    0.255912    0.900041
  H    -2.513614   -1.439232    0.797102
  H    -0.222031   -1.315942    1.621380
  H    -0.207936   -2.013724   -0.024072
  H     2.503588   -0.539649    1.071225
  H     3.567688    2.233064   -0.198770

----------------------------
CARTESIAN COORDINATES (A.U.)
----------------------------
  NO LB    ZA    FRAG    MASS        X           Y           Z
   0 C   6.0000    1    12.011   -4.128303   -0.931607   -2.097801
   1 C   6.0000    1    12.011   -3.513086   -1.285218    0.690373
   2 C   6.0000    1    12.011   -0.759293   -2.098965    1.053437
   3 C   6.0000    1    12.011    1.026255   -0.100420    0.209962
   4 C   6.0000    1    12.011    3.728903    0.152866    0.654910
   5 O   8.0000    1    15.999    7.265249    2.465289   -0.315035
   6 O   8.0000    1    15.999    1.904035    1.799144    1.737842
   7 O   8.0000    1    15.999    5.174504    1.069752   -1.256684
   8 H   1.0000    1     1.008   -6.084562   -0.354847   -2.337072
   9 H   1.0000    1     1.008   -2.909064    0.509484   -2.907637
  10 H   1.0000    1     1.008   -3.831886   -2.681475   -3.132372
  11 H   1.0000    1     1.008   -3.825806    0.483604    1.700830
  12 H   1.0000    1     1.008   -4.750043   -2.719755    1.506304
  13 H   1.0000    1     1.008   -0.419578   -2.486771    3.063964
  14 H   1.0000    1     1.008   -0.392942   -3.805387   -0.045489
  15 H   1.0000    1     1.008    4.731095   -1.019789    2.024323
  16 H   1.0000    1     1.008    6.741953    4.219880   -0.375621

      -----------------------------------------------------------      
     |                   =====================                   |     
     |                           x T B                           |     
     |                   =====================                   |     
     |                         S. Grimme                         |     
     |          Mulliken Center for Theoretical Chemistry        |     
     |                    University of Bonn                     |     
      -----------------------------------------------------------      

   * xtb version 6.7.1 (edcfbbe) compiled by 'albert@albert-system' on 2024-07-22

   xtb is free software: you can redistribute it and/or modify it under
   the terms of the GNU Lesser General Public License as published by
   the Free Software Foundation, either version 3 of the License, or
   (at your option) any later version.
   
   xtb is distributed in the hope that it will be useful,
   but WITHOUT ANY WARRANTY; without even the implied warranty of
   MERCHANTABILITY or FITNESS FOR A PARTICULAR PURPOSE.  See the
   GNU Lesser General Public License for more details.
   
   Cite this work as:
   * C. Bannwarth, E. Caldeweyher, S. Ehlert, A. Hansen, P. Pracht,
     J. Seibert, S. Spicher, S. Grimme, WIREs Comput. Mol. Sci., 2020, 11,
     e01493. DOI: 10.1002/wcms.1493
   
   for GFN2-xTB:
   * C. Bannwarth, S. Ehlert and S. Grimme., J. Chem. Theory Comput., 2019,
     15, 1652-1671. DOI: 10.1021/acs.jctc.8b01176
   for GFN1-xTB:
   * S. Grimme, C. Bannwarth, P. Shushkov, J. Chem. Theory Comput., 2017,
     13, 1989-2009. DOI: 10.1021/acs.jctc.7b00118
   for GFN0-xTB:
   * P. Pracht, E. Caldeweyher, S. Ehlert, S. Grimme, ChemRxiv, 2019, preprint.
     DOI: 10.26434/chemrxiv.8326202.v1
   for GFN-FF:
   * S. Spicher and S. Grimme, Angew. Chem. Int. Ed., 2020, 59, 15665-15673.
     DOI: 10.1002/anie.202004239
   
   for ALPB and GBSA implicit solvation:
   * S. Ehlert, M. Stahn, S. Spicher, S. Grimme, J. Chem. Theory Comput.,
     2021, 17, 4250-4261. DOI: 10.1021/acs.jctc.1c00471
   
   for ddCOSMO and CPCM-X implicit solvation:
   * M. Stahn, S. Ehlert, S. Grimme, J. Phys. Chem. A,
     2023, XX, XXXX-XXXX. DOI: 10.1021/acs.jpca.3c04382
   
   for DFT-D4:
   * E. Caldeweyher, C. Bannwarth and S. Grimme, J. Chem. Phys., 2017,
     147, 034112. DOI: 10.1063/1.4993215
   * E. Caldeweyher, S. Ehlert, A. Hansen, H. Neugebauer, S. Spicher,
     C. Bannwarth and S. Grimme, J. Chem. Phys., 2019, 150, 154122.
     DOI: 10.1063/1.5090222
   * E. Caldeweyher, J.-M. Mewes, S. Ehlert and S. Grimme, Phys. Chem. Chem. Phys.
     2020, 22, 8499-8512. DOI: 10.1039/D0CP00502A
   
   for sTDA-xTB:
   * S. Grimme and C. Bannwarth, J. Chem. Phys., 2016, 145, 054103.
     DOI: 10.1063/1.4959605
   
   in the mass-spec context:
   * V. Asgeirsson, C. Bauer and S. Grimme, Chem. Sci., 2017, 8, 4879.
     DOI: 10.1039/c7sc00601b
   * J. Koopman and S. Grimme, ACS Omega 2019, 4, 12, 15120-15133.
     DOI: 10.1021/acsomega.9b02011
   
   for metadynamics refer to:
   * S. Grimme, J. Chem. Theory Comput., 2019, 155, 2847-2862
     DOI: 10.1021/acs.jctc.9b00143
   
   for SPH calculations refer to:
   * S. Spicher and S. Grimme, J. Chem. Theory Comput., 2021, 17, 1701-1714
     DOI: 10.1021/acs.jctc.0c01306
   
   for ONIOM refer to:
   * C. Plett, A. Katbashev, S. Ehlert, S. Grimme, M. Bursch,
     Phys. Chem. Chem. Phys., 2023, 25, 17860-17868. DOI: 10.1039/D3CP02178E
   
   for DIPRO refer to:
   * J. Kohn, N. Gildemeister, S. Grimme, D. Fazzi, A. Hansen,
     J. Chem. Phys., 2023, just accepted.
   
   for PTB refer to:
   * S. Grimme, M. Mueller, A. Hansen, J. Chem. Phys., 2023, 158, 124111.
     DOI: 10.1063/5.0137838
   
   with help from (in alphabetical order)
   P. Atkinson, C. Bannwarth, F. Bohle, G. Brandenburg, E. Caldeweyher
   M. Checinski, S. Dohm, S. Ehlert, S. Ehrlich, I. Gerasimov, C. Hölzer
   A. Katbashev, J. Kohn, J. Koopman, C. Lavigne, S. Lehtola, F. März, M. Müller,
   F. Musil, H. Neugebauer, J. Pisarek, C. Plett, P. Pracht, F. Pultar,
   J. Seibert, P. Shushkov, S. Spicher, M. Stahn, M. Steiner, T. Strunk,
   J. Stückrath, T. Rose, and J. Unsleber
   
 * started run on 2026/02/17 at 15:18:00.437     
   ID    Z sym.   atoms
    1    6 C      1-5
    2    8 O      6-8
    3    1 H      9-17

           -------------------------------------------------
          |                Calculation Setup                |
           -------------------------------------------------

          program call               : /apps/eb/ORCA/6.1.1-gompi-2024a-avx2/bin/otool_xtb goat_XTB.xyz --grad -c 0 -u 1 -P 8 --namespace goat --input goat_XTB.input.tmp --acc 0.200000
          hostname                   : d5-8
          calculation namespace      : goat
          coordinate file            : goat_XTB.xyz
          omp threads                :                     8


           -------------------------------------------------
          |                 G F N 2 - x T B                 |
           -------------------------------------------------

        Reference                      10.1021/acs.jctc.8b01176
      * Hamiltonian:
        H0-scaling (s, p, d)           1.850000    2.230000    2.230000
        zeta-weighting                 0.500000
      * Dispersion:
        s8                             2.700000
        a1                             0.520000
        a2                             5.000000
        s9                             5.000000
      * Repulsion:
        kExp                           1.500000    1.000000
        rExp                           1.000000
      * Coulomb:
        alpha                          2.000000
        third order                    shell-resolved
        anisotropic                    true
        a3                             3.000000
        a5                             4.000000
        cn-shift                       1.200000
        cn-exp                         4.000000
        max-rad                        5.000000

q/qsh data taken from xtbrestart
CAMM data taken from xtbrestart

          ...................................................
          :                      SETUP                      :
          :.................................................:
          :  # basis functions                  41          :
          :  # atomic orbitals                  41          :
          :  # shells                           25          :
          :  # electrons                        47          :
          :  max. iterations                   250          :
          :  Hamiltonian                  GFN2-xTB          :
          :  restarted?                       true          :
          :  GBSA solvation                  false          :
          :  PC potential                    false          :
          :  electronic temp.          300.0000000     K    :
          :  accuracy                    0.2000000          :
          :  -> integral cutoff          0.3198970E+02      :
          :  -> integral neglect         0.2000000E-08      :
          :  -> SCF convergence          0.2000000E-06 Eh   :
          :  -> wf. convergence          0.2000000E-04 e    :
          :  Broyden damping             0.4000000          :
          :  net charge                          0          :
          :  unpaired electrons                  1          :
          ...................................................

 iter      E             dE          RMSdq      gap      omega  full diag
   1    -27.5516617 -0.275517E+02  0.171E-01    4.57       0.0  T
   2    -27.5516688 -0.711290E-05  0.105E-01    4.57       1.0  T
   3    -27.5516703 -0.151121E-05  0.142E-02    4.57       1.7  T
   4    -27.5516717 -0.138061E-05  0.643E-03    4.57       3.8  T
   5    -27.5516718 -0.109704E-06  0.206E-03    4.57      11.8  T
   6    -27.5516718 -0.228681E-07  0.936E-04    4.57      25.9  T
   7    -27.5516718 -0.470662E-08  0.569E-04    4.57      42.6  T
   8    -27.5516718 -0.171021E-08  0.179E-04    4.57     135.5  T
   9    -27.5516718 -0.321517E-09  0.611E-05    4.57     396.7  T

   *** convergence criteria satisfied after 9 iterations ***

         #    Occupation            Energy/Eh            Energy/eV
      -------------------------------------------------------------
         1        2.0000           -0.7511017             -20.4385
       ...           ...                  ...                  ...
        18        2.0000           -0.4675212             -12.7219
        19        2.0000           -0.4638035             -12.6207
        20        2.0000           -0.4579687             -12.4620
        21        2.0000           -0.4569567             -12.4344
        22        2.0000           -0.4436185             -12.0715
        23        2.0000           -0.4411567             -12.0045
        24        1.0000           -0.3418157              -9.3013 (HOMO)
        25                         -0.1739237              -4.7327 (LUMO)
        26                         -0.0716534              -1.9498
        27                          0.0564148               1.5351
        28                          0.0743836               2.0241
        29                          0.0979272               2.6647
       ...                                ...                  ...
        41                          0.3831710              10.4266
      -------------------------------------------------------------
                  HL-Gap            0.1678920 Eh            4.5686 eV
             Fermi-level           -0.3246779 Eh           -8.8349 eV

 SCC (total)                   0 d,  0 h,  0 min,  0.017 sec
 SCC setup                      ...        0 min,  0.000 sec (  2.629%)
 Dispersion                     ...        0 min,  0.000 sec (  1.222%)
 classical contributions        ...        0 min,  0.000 sec (  0.681%)
 integral evaluation            ...        0 min,  0.001 sec (  3.070%)
 iterations                     ...        0 min,  0.013 sec ( 73.213%)
 molecular gradient             ...        0 min,  0.003 sec ( 15.894%)
 printout                       ...        0 min,  0.001 sec (  3.186%)

         :::::::::::::::::::::::::::::::::::::::::::::::::::::
         ::                     SUMMARY                     ::
         :::::::::::::::::::::::::::::::::::::::::::::::::::::
         :: total energy             -27.306330507215 Eh    ::
         :: gradient norm              0.012760626826 Eh/a0 ::
         :: HOMO-LUMO gap              4.568573265034 eV    ::
         ::.................................................::
         :: SCC energy               -27.551669408789 Eh    ::
         :: -> isotropic ES            0.042624053611 Eh    ::
         :: -> anisotropic ES         -0.003695457802 Eh    ::
         :: -> anisotropic XC         -0.004887033022 Eh    ::
         :: -> dispersion             -0.009538596995 Eh    ::
         :: repulsion energy           0.245338901574 Eh    ::
         :: add. restraining           0.000000000000 Eh    ::
         :: total charge               0.000000000000 e     ::
         :::::::::::::::::::::::::::::::::::::::::::::::::::::


Property printout bound to 'properties.out'

           -------------------------------------------------
          | TOTAL ENERGY              -27.306330507215 Eh   |
          | GRADIENT NORM               0.012760626826 Eh/α |
          | HOMO-LUMO GAP               4.568573265034 eV   |
           -------------------------------------------------

------------------------------------------------------------------------
 * finished run on 2026/02/17 at 15:18:00.472     
------------------------------------------------------------------------
 total:
 * wall-time:     0 d,  0 h,  0 min,  0.035 sec
 *  cpu-time:     0 d,  0 h,  0 min,  0.232 sec
 * ratio c/w:     6.667 speedup
 SCF:
 * wall-time:     0 d,  0 h,  0 min,  0.017 sec
 *  cpu-time:     0 d,  0 h,  0 min,  0.120 sec
 * ratio c/w:     6.964 speedup


-------------------------   --------------------
FINAL SINGLE POINT ENERGY       -27.306330507220
-------------------------   --------------------


-------------
DIPOLE MOMENT
-------------
                                X             Y             Z
Total Dipole Moment    :     -0.73200      -0.25700       0.34700
                        -----------------------------------------
Magnitude (a.u.)       :      0.84987
Magnitude (Debye)      :      2.16020


------------------
CARTESIAN GRADIENT
------------------

   1   C   :    0.000314603   -0.000110084   -0.000157472
   2   C   :   -0.000414683   -0.000127850   -0.000025995
   3   C   :    0.001386654   -0.001185724    0.003271243
   4   C   :   -0.004013458    0.000954552   -0.006421796
   5   C   :   -0.000128494    0.004988759   -0.000843202
   6   O   :   -0.002097819    0.000979337   -0.001079410
   7   O   :    0.003800213   -0.002430459    0.000541350
   8   O   :   -0.000357103   -0.002829185    0.004929625
   9   H   :    0.000225885   -0.000157018    0.000090403
  10   H   :   -0.000338935   -0.000225673    0.000000119
  11   H   :    0.000125925    0.000367946    0.000116042
  12   H   :    0.000224176   -0.000151356   -0.000224698
  13   H   :    0.000025028    0.000107313   -0.000002764
  14   H   :   -0.000044528    0.000715182    0.000257468
  15   H   :   -0.000480744    0.000192573   -0.000557142
  16   H   :    0.000734398   -0.001108233   -0.000418053
  17   H   :    0.001038881    0.000019921    0.000524282

Difference to translation invariance:
           :   -0.0000000000    0.0000000000   -0.0000000000

Difference to rotation invariance:
           :   -0.0000002079    0.0000001382   -0.0000004853

Norm of the Cartesian gradient     ...    0.0127606268
RMS gradient                       ...    0.0017868452
MAX gradient                       ...    0.0064217958
------------------------------------------------------------------------------
                         ORCA GEOMETRY RELAXATION STEP
------------------------------------------------------------------------------

Reading the OPT-File                    .... done
Getting information on internals        .... done
Copying old internal coords+grads       .... done
Making the new internal coordinates     .... (2022 redundants) done
Validating the new internal coordinates .... (2022 redundants) done
Calculating the B-matrix                .... done
Calculating the G,G- and P matrices     .... done
Transforming gradient to internals      .... done
Projecting the internal gradient        .... done
Number of atoms                         ....  17
Number of internal coordinates          ....  76
Current Energy                          ....   -27.306330507 Eh
Current gradient norm                   ....     0.012760627 Eh/bohr
Maximum allowed component of the step   ....  0.300
Current trust radius                    ....  0.450
Updating the Hessian (BFGS)             .... done
Forming the augmented Hessian           .... done
Diagonalizing the augmented Hessian     .... done
Last element of RFO vector              ....  0.978333406
Lowest eigenvalues of augmented Hessian:
 -0.000756435  0.009985309  0.011294872  0.011701068  0.012395925
Length of the computed step             ....  0.211620719
The final length of the internal step   ....  0.211620719
Converting the step to Cartesian space:
 Initial RMS(Int)=    0.0242745613
Transforming coordinates:
 Iter   0:  RMS(Cart)=    0.0568127281 RMS(Int)=    0.7185565901
 Iter   5:  RMS(Cart)=    0.0000000276 RMS(Int)=    0.0000000159
done
Storing new coordinates                 .... done
The predicted energy change is          ....    -0.000395155
Previously predicted energy change      ....    -0.000544944
Actually observed energy change         ....    -0.000783423
Ratio of predicted to observed change   ....     1.437622373
New trust radius                        ....     0.450000000

                                .--------------------.
          ----------------------|Geometry convergence|-------------------------
          Item                value                   Tolerance       Converged
          ---------------------------------------------------------------------
          Energy change      -0.0007834234            0.0000050000      NO
          RMS gradient        0.0008851375            0.0001000000      NO
          MAX gradient        0.0047104030            0.0003000000      NO
          RMS step            0.0242745613            0.0020000000      NO
          MAX step            0.0794496755            0.0040000000      NO
          -------------------------------------------------------------------------
          ........................................................
          Max(Bonds)      0.0072      Max(Angles)    1.74
          Max(Dihed)        4.55      Max(Improp)    0.00
          ---------------------------------------------------------------------

    ---------------------------------------------------------------------------
                         Redundant Internal Coordinates
                            (Angstroem and degrees)

        Definition                    Value    dE/dq     Step     New-Value
    ----------------------------------------------------------------------------
     1. B(C   1,C   0)                1.5225 -0.000133  0.0004    1.5229   
     2. B(C   2,C   1)                1.5316 -0.000212  0.0009    1.5326   
     3. B(C   3,C   2)                1.4868  0.000589 -0.0016    1.4851   
     4. B(C   4,C   3)                1.4556  0.001041 -0.0034    1.4522   
     5. B(O   6,C   4)                1.4212 -0.001685  0.0072    1.4285   
     6. B(O   6,C   3)                1.3711  0.000356 -0.0025    1.3686   
     7. B(O   7,C   4)                1.3579 -0.004710  0.0066    1.3645   
     8. B(O   7,O   5)                1.4205 -0.000500 -0.0005    1.4200   
     9. B(H   8,C   0)                1.0867 -0.000270  0.0003    1.0869   
    10. B(H   9,C   0)                1.0870 -0.000360  0.0006    1.0876   
    11. B(H  10,C   0)                1.0871 -0.000354  0.0006    1.0877   
    12. B(H  11,C   1)                1.0906 -0.000274  0.0004    1.0910   
    13. B(H  12,C   1)                1.0914 -0.000091 -0.0001    1.0913   
    14. B(H  13,C   2)                1.0983  0.000108 -0.0004    1.0979   
    15. B(H  14,C   2)                1.0914  0.000052 -0.0005    1.0909   
    16. B(H  15,C   4)                1.0915  0.000709 -0.0013    1.0903   
    17. B(H  16,O   5)                0.9694 -0.000295  0.0004    0.9698   
    18. A(H   8,C   0,H   9)          108.81 -0.000054    0.11    108.92   
    19. A(H   8,C   0,H  10)          108.54  0.000051    0.03    108.57   
    20. A(C   1,C   0,H   8)          110.56 -0.000134    0.09    110.65   
    21. A(C   1,C   0,H  10)          110.64  0.000018   -0.04    110.60   
    22. A(H   9,C   0,H  10)          108.26 -0.000148    0.05    108.32   
    23. A(C   1,C   0,H   9)          109.96  0.000262   -0.24    109.72   
    24. A(C   0,C   1,H  12)          109.92  0.000086    0.11    110.02   
    25. A(C   0,C   1,C   2)          111.07 -0.000434   -0.02    111.06   
    26. A(C   2,C   1,H  12)          108.99  0.000116   -0.02    108.98   
    27. A(H  11,C   1,H  12)          108.18 -0.000017    0.08    108.26   
    28. A(C   0,C   1,H  11)          109.71  0.000141   -0.02    109.69   
    29. A(C   2,C   1,H  11)          108.91  0.000118   -0.14    108.77   
    30. A(C   3,C   2,H  13)          108.64 -0.000531    0.03    108.68   
    31. A(H  13,C   2,H  14)          109.42  0.000332    0.19    109.60   
    32. A(C   3,C   2,H  14)          108.40 -0.000061   -0.42    107.99   
    33. A(C   1,C   2,H  14)          109.56 -0.000350    0.32    109.88   
    34. A(C   1,C   2,H  13)          109.25  0.000208   -0.06    109.19   
    35. A(C   1,C   2,C   3)          111.53  0.000403   -0.09    111.44   
    36. A(C   2,C   3,C   4)          129.89 -0.001542    1.54    131.43   
    37. A(C   4,C   3,O   6)           60.28 -0.001049    0.48     60.76   
    38. A(C   2,C   3,O   6)          124.04 -0.000625    1.74    125.78   
    39. A(O   7,C   4,H  15)          115.09 -0.000802    0.33    115.42   
    40. A(O   6,C   4,H  15)          114.26 -0.000018   -0.54    113.72   
    41. A(C   3,C   4,H  15)          122.17 -0.000059    0.73    122.90   
    42. A(C   3,C   4,O   6)           56.91  0.000255   -0.19     56.73   
    43. A(O   6,C   4,O   7)          117.65  0.000490    0.29    117.95   
    44. A(C   3,C   4,O   7)          117.77  0.000759   -0.86    116.91   
    45. A(O   7,O   5,H  16)          105.30  0.002054    0.03    105.33   
    46. A(C   3,O   6,C   4)           62.81  0.000793   -0.29     62.51   
    47. A(C   4,O   7,O   5)          111.30  0.000723    0.33    111.63   
    48. D(H  11,C   1,C   0,H   9)     60.64 -0.000124    1.14     61.78   
    49. D(C   2,C   1,C   0,H  10)     59.72 -0.000090    1.22     60.94   
    50. D(H  11,C   1,C   0,H  10)   -179.82 -0.000128    1.03   -178.79   
    51. D(C   2,C   1,C   0,H   9)    -59.83 -0.000086    1.33    -58.50   
    52. D(H  11,C   1,C   0,H   8)    -59.54 -0.000140    1.10    -58.44   
    53. D(C   2,C   1,C   0,H   8)    180.00 -0.000103    1.29    181.29   
    54. D(C   3,C   2,C   1,C   0)     64.45  0.000235   -0.84     63.60   
    55. D(H  13,C   2,C   1,H  12)    -54.19 -0.000128   -0.79    -54.98   
    56. D(H  13,C   2,C   1,C   0)   -175.43 -0.000035   -0.90   -176.33   
    57. D(C   3,C   2,C   1,H  12)   -174.31  0.000142   -0.73   -175.04   
    58. D(H  13,C   2,C   1,H  11)     63.63 -0.000015   -0.79     62.85   
    59. D(C   3,C   2,C   1,H  11)    -56.49  0.000256   -0.73    -57.22   
    60. D(C   4,C   3,C   2,H  14)    -72.85 -0.000925   -1.35    -74.20   
    61. D(C   4,C   3,C   2,H  13)     45.96 -0.000862   -1.35     44.62   
    62. D(C   4,C   3,C   2,C   1)    166.45 -0.000701   -1.45    164.99   
    63. D(O   6,C   3,C   2,H  13)    -31.62  0.001829   -3.83    -35.44   
    64. D(O   6,C   3,C   2,C   1)     88.87  0.001990   -3.93     84.93   
    65. D(H  15,C   4,C   3,O   6)     99.76  0.000144   -1.20     98.56   
    66. D(H  15,C   4,C   3,C   2)    -11.52  0.001242   -3.29    -14.81   
    67. D(O   7,C   4,C   3,O   6)   -106.44 -0.000303   -0.72   -107.16   
    68. D(O   7,C   4,C   3,C   2)    142.28  0.000795   -2.82    139.47   
    69. D(O   6,C   4,C   3,C   2)   -111.28  0.001099   -2.09   -113.37   
    70. D(C   3,O   6,C   4,H  15)   -113.79  0.000010   -1.12   -114.90   
    71. D(C   3,O   6,C   4,O   7)    106.64  0.000779   -1.29    105.35   
    72. D(C   4,O   6,C   3,C   2)    120.37 -0.002210    1.55    121.92   
    73. D(C   4,O   7,O   5,H  16)    -97.04  0.000184   -1.85    -98.88   
    74. D(O   5,O   7,C   4,H  15)    -56.17 -0.000468    4.55    -51.62   
    75. D(O   5,O   7,C   4,O   6)     83.08 -0.000929    4.39     87.47   
    76. D(O   5,O   7,C   4,C   3)    148.20 -0.000209    3.94    152.14   
    ----------------------------------------------------------------------------

Geometry step timings:
Preparation and reading OPT file:      0.000 s ( 0.676 %)
Internal coordinates            :      0.000 s ( 0.832 %)
B/P matrices and projection     :      0.001 s (32.900 %)
Hessian update/contruction      :      0.000 s (14.709 %)
Making the step                 :      0.000 s (25.260 %)
Converting the step to Cartesian:      0.000 s ( 3.119 %)
Storing new data                :      0.000 s ( 1.040 %)
Checking convergence            :      0.000 s ( 1.611 %)
Final printing                  :      0.000 s (19.491 %)
Total time                      :      0.002 s

Time for energy+gradient        :      0.045 s
Time for complete geometry iter :      0.047 s

         *************************************************************
         *                GEOMETRY OPTIMIZATION CYCLE   5            *
         *************************************************************
---------------------------------
CARTESIAN COORDINATES (ANGSTROEM)
---------------------------------
  C    -2.173413   -0.473113   -1.107911
  C    -1.861985   -0.703651    0.364861
  C    -0.404604   -1.136520    0.558395
  C     0.539030   -0.071065    0.134170
  C     1.959208    0.106730    0.382042
  O     3.853959    1.276646   -0.207685
  O     0.957482    0.978318    0.907120
  O     2.716001    0.557768   -0.659984
  H    -3.201675   -0.144687   -1.235447
  H    -1.507840    0.287781   -1.509083
  H    -2.028938   -1.388402   -1.677531
  H    -2.032192    0.216928    0.925165
  H    -2.518264   -1.476194    0.769023
  H    -0.231528   -1.357346    1.619868
  H    -0.199400   -2.025913   -0.039038
  H     2.500943   -0.450106    1.146968
  H     3.610690    2.212773   -0.278734

----------------------------
CARTESIAN COORDINATES (A.U.)
----------------------------
  NO LB    ZA    FRAG    MASS        X           Y           Z
   0 C   6.0000    1    12.011   -4.107156   -0.894054   -2.093649
   1 C   6.0000    1    12.011   -3.518641   -1.329707    0.689488
   2 C   6.0000    1    12.011   -0.764590   -2.147712    1.055213
   3 C   6.0000    1    12.011    1.018618   -0.134293    0.253544
   4 C   6.0000    1    12.011    3.702366    0.201690    0.721954
   5 O   8.0000    1    15.999    7.282928    2.412512   -0.392468
   6 O   8.0000    1    15.999    1.809378    1.848754    1.714208
   7 O   8.0000    1    15.999    5.132499    1.054029   -1.247188
   8 H   1.0000    1     1.008   -6.050290   -0.273419   -2.334657
   9 H   1.0000    1     1.008   -2.849405    0.543827   -2.851754
  10 H   1.0000    1     1.008   -3.834138   -2.623699   -3.170074
  11 H   1.0000    1     1.008   -3.840286    0.409935    1.748309
  12 H   1.0000    1     1.008   -4.758829   -2.789603    1.453244
  13 H   1.0000    1     1.008   -0.437524   -2.565012    3.061108
  14 H   1.0000    1     1.008   -0.376810   -3.828421   -0.073771
  15 H   1.0000    1     1.008    4.726096   -0.850576    2.167455
  16 H   1.0000    1     1.008    6.823216    4.181535   -0.526731

      -----------------------------------------------------------      
     |                   =====================                   |     
     |                           x T B                           |     
     |                   =====================                   |     
     |                         S. Grimme                         |     
     |          Mulliken Center for Theoretical Chemistry        |     
     |                    University of Bonn                     |     
      -----------------------------------------------------------      

   * xtb version 6.7.1 (edcfbbe) compiled by 'albert@albert-system' on 2024-07-22

   xtb is free software: you can redistribute it and/or modify it under
   the terms of the GNU Lesser General Public License as published by
   the Free Software Foundation, either version 3 of the License, or
   (at your option) any later version.
   
   xtb is distributed in the hope that it will be useful,
   but WITHOUT ANY WARRANTY; without even the implied warranty of
   MERCHANTABILITY or FITNESS FOR A PARTICULAR PURPOSE.  See the
   GNU Lesser General Public License for more details.
   
   Cite this work as:
   * C. Bannwarth, E. Caldeweyher, S. Ehlert, A. Hansen, P. Pracht,
     J. Seibert, S. Spicher, S. Grimme, WIREs Comput. Mol. Sci., 2020, 11,
     e01493. DOI: 10.1002/wcms.1493
   
   for GFN2-xTB:
   * C. Bannwarth, S. Ehlert and S. Grimme., J. Chem. Theory Comput., 2019,
     15, 1652-1671. DOI: 10.1021/acs.jctc.8b01176
   for GFN1-xTB:
   * S. Grimme, C. Bannwarth, P. Shushkov, J. Chem. Theory Comput., 2017,
     13, 1989-2009. DOI: 10.1021/acs.jctc.7b00118
   for GFN0-xTB:
   * P. Pracht, E. Caldeweyher, S. Ehlert, S. Grimme, ChemRxiv, 2019, preprint.
     DOI: 10.26434/chemrxiv.8326202.v1
   for GFN-FF:
   * S. Spicher and S. Grimme, Angew. Chem. Int. Ed., 2020, 59, 15665-15673.
     DOI: 10.1002/anie.202004239
   
   for ALPB and GBSA implicit solvation:
   * S. Ehlert, M. Stahn, S. Spicher, S. Grimme, J. Chem. Theory Comput.,
     2021, 17, 4250-4261. DOI: 10.1021/acs.jctc.1c00471
   
   for ddCOSMO and CPCM-X implicit solvation:
   * M. Stahn, S. Ehlert, S. Grimme, J. Phys. Chem. A,
     2023, XX, XXXX-XXXX. DOI: 10.1021/acs.jpca.3c04382
   
   for DFT-D4:
   * E. Caldeweyher, C. Bannwarth and S. Grimme, J. Chem. Phys., 2017,
     147, 034112. DOI: 10.1063/1.4993215
   * E. Caldeweyher, S. Ehlert, A. Hansen, H. Neugebauer, S. Spicher,
     C. Bannwarth and S. Grimme, J. Chem. Phys., 2019, 150, 154122.
     DOI: 10.1063/1.5090222
   * E. Caldeweyher, J.-M. Mewes, S. Ehlert and S. Grimme, Phys. Chem. Chem. Phys.
     2020, 22, 8499-8512. DOI: 10.1039/D0CP00502A
   
   for sTDA-xTB:
   * S. Grimme and C. Bannwarth, J. Chem. Phys., 2016, 145, 054103.
     DOI: 10.1063/1.4959605
   
   in the mass-spec context:
   * V. Asgeirsson, C. Bauer and S. Grimme, Chem. Sci., 2017, 8, 4879.
     DOI: 10.1039/c7sc00601b
   * J. Koopman and S. Grimme, ACS Omega 2019, 4, 12, 15120-15133.
     DOI: 10.1021/acsomega.9b02011
   
   for metadynamics refer to:
   * S. Grimme, J. Chem. Theory Comput., 2019, 155, 2847-2862
     DOI: 10.1021/acs.jctc.9b00143
   
   for SPH calculations refer to:
   * S. Spicher and S. Grimme, J. Chem. Theory Comput., 2021, 17, 1701-1714
     DOI: 10.1021/acs.jctc.0c01306
   
   for ONIOM refer to:
   * C. Plett, A. Katbashev, S. Ehlert, S. Grimme, M. Bursch,
     Phys. Chem. Chem. Phys., 2023, 25, 17860-17868. DOI: 10.1039/D3CP02178E
   
   for DIPRO refer to:
   * J. Kohn, N. Gildemeister, S. Grimme, D. Fazzi, A. Hansen,
     J. Chem. Phys., 2023, just accepted.
   
   for PTB refer to:
   * S. Grimme, M. Mueller, A. Hansen, J. Chem. Phys., 2023, 158, 124111.
     DOI: 10.1063/5.0137838
   
   with help from (in alphabetical order)
   P. Atkinson, C. Bannwarth, F. Bohle, G. Brandenburg, E. Caldeweyher
   M. Checinski, S. Dohm, S. Ehlert, S. Ehrlich, I. Gerasimov, C. Hölzer
   A. Katbashev, J. Kohn, J. Koopman, C. Lavigne, S. Lehtola, F. März, M. Müller,
   F. Musil, H. Neugebauer, J. Pisarek, C. Plett, P. Pracht, F. Pultar,
   J. Seibert, P. Shushkov, S. Spicher, M. Stahn, M. Steiner, T. Strunk,
   J. Stückrath, T. Rose, and J. Unsleber
   
 * started run on 2026/02/17 at 15:18:00.484     
   ID    Z sym.   atoms
    1    6 C      1-5
    2    8 O      6-8
    3    1 H      9-17

           -------------------------------------------------
          |                Calculation Setup                |
           -------------------------------------------------

          program call               : /apps/eb/ORCA/6.1.1-gompi-2024a-avx2/bin/otool_xtb goat_XTB.xyz --grad -c 0 -u 1 -P 8 --namespace goat --input goat_XTB.input.tmp --acc 0.200000
          hostname                   : d5-8
          calculation namespace      : goat
          coordinate file            : goat_XTB.xyz
          omp threads                :                     8


           -------------------------------------------------
          |                 G F N 2 - x T B                 |
           -------------------------------------------------

        Reference                      10.1021/acs.jctc.8b01176
      * Hamiltonian:
        H0-scaling (s, p, d)           1.850000    2.230000    2.230000
        zeta-weighting                 0.500000
      * Dispersion:
        s8                             2.700000
        a1                             0.520000
        a2                             5.000000
        s9                             5.000000
      * Repulsion:
        kExp                           1.500000    1.000000
        rExp                           1.000000
      * Coulomb:
        alpha                          2.000000
        third order                    shell-resolved
        anisotropic                    true
        a3                             3.000000
        a5                             4.000000
        cn-shift                       1.200000
        cn-exp                         4.000000
        max-rad                        5.000000

q/qsh data taken from xtbrestart
CAMM data taken from xtbrestart

          ...................................................
          :                      SETUP                      :
          :.................................................:
          :  # basis functions                  41          :
          :  # atomic orbitals                  41          :
          :  # shells                           25          :
          :  # electrons                        47          :
          :  max. iterations                   250          :
          :  Hamiltonian                  GFN2-xTB          :
          :  restarted?                       true          :
          :  GBSA solvation                  false          :
          :  PC potential                    false          :
          :  electronic temp.          300.0000000     K    :
          :  accuracy                    0.2000000          :
          :  -> integral cutoff          0.3198970E+02      :
          :  -> integral neglect         0.2000000E-08      :
          :  -> SCF convergence          0.2000000E-06 Eh   :
          :  -> wf. convergence          0.2000000E-04 e    :
          :  Broyden damping             0.4000000          :
          :  net charge                          0          :
          :  unpaired electrons                  1          :
          ...................................................

 iter      E             dE          RMSdq      gap      omega  full diag
   1    -27.5518895 -0.275519E+02  0.184E-01    4.53       0.0  T
   2    -27.5518989 -0.939699E-05  0.111E-01    4.52       1.0  T
   3    -27.5518994 -0.587464E-06  0.169E-02    4.52       1.4  T
   4    -27.5519016 -0.214028E-05  0.646E-03    4.52       3.8  T
   5    -27.5519017 -0.913588E-07  0.330E-03    4.52       7.4  T
   6    -27.5519017 -0.510167E-07  0.136E-03    4.52      17.8  T
   7    -27.5519017 -0.145749E-07  0.642E-04    4.52      37.8  T
   8    -27.5519017 -0.216625E-08  0.293E-04    4.52      82.9  T
   9    -27.5519017 -0.490036E-09  0.652E-05    4.52     372.2  T
  10    -27.5519017 -0.916955E-11  0.210E-05    4.52    1153.6  T

   *** convergence criteria satisfied after 10 iterations ***

         #    Occupation            Energy/Eh            Energy/eV
      -------------------------------------------------------------
         1        2.0000           -0.7498373             -20.4041
       ...           ...                  ...                  ...
        18        2.0000           -0.4678930             -12.7320
        19        2.0000           -0.4647272             -12.6459
        20        2.0000           -0.4573872             -12.4461
        21        2.0000           -0.4570228             -12.4362
        22        2.0000           -0.4426660             -12.0456
        23        2.0000           -0.4405671             -11.9884
        24        1.0000           -0.3378564              -9.1935 (HOMO)
        25                         -0.1718526              -4.6763 (LUMO)
        26                         -0.0757929              -2.0624
        27                          0.0522154               1.4209
        28                          0.0734961               1.9999
        29                          0.0975707               2.6550
       ...                                ...                  ...
        41                          0.3968539              10.7989
      -------------------------------------------------------------
                  HL-Gap            0.1660039 Eh            4.5172 eV
             Fermi-level           -0.3220331 Eh           -8.7630 eV

 SCC (total)                   0 d,  0 h,  0 min,  0.020 sec
 SCC setup                      ...        0 min,  0.000 sec (  2.332%)
 Dispersion                     ...        0 min,  0.000 sec (  1.056%)
 classical contributions        ...        0 min,  0.000 sec (  0.641%)
 integral evaluation            ...        0 min,  0.001 sec (  4.981%)
 iterations                     ...        0 min,  0.014 sec ( 71.229%)
 molecular gradient             ...        0 min,  0.003 sec ( 17.435%)
 printout                       ...        0 min,  0.000 sec (  2.256%)

         :::::::::::::::::::::::::::::::::::::::::::::::::::::
         ::                     SUMMARY                     ::
         :::::::::::::::::::::::::::::::::::::::::::::::::::::
         :: total energy             -27.306823011992 Eh    ::
         :: gradient norm              0.007808346841 Eh/a0 ::
         :: HOMO-LUMO gap              4.517195358964 eV    ::
         ::.................................................::
         :: SCC energy               -27.551899131357 Eh    ::
         :: -> isotropic ES            0.042702911511 Eh    ::
         :: -> anisotropic ES         -0.003710361260 Eh    ::
         :: -> anisotropic XC         -0.004701472222 Eh    ::
         :: -> dispersion             -0.009540633377 Eh    ::
         :: repulsion energy           0.245076119365 Eh    ::
         :: add. restraining           0.000000000000 Eh    ::
         :: total charge              -0.000000000000 e     ::
         :::::::::::::::::::::::::::::::::::::::::::::::::::::


Property printout bound to 'properties.out'

           -------------------------------------------------
          | TOTAL ENERGY              -27.306823011992 Eh   |
          | GRADIENT NORM               0.007808346841 Eh/α |
          | HOMO-LUMO GAP               4.517195358964 eV   |
           -------------------------------------------------

------------------------------------------------------------------------
 * finished run on 2026/02/17 at 15:18:00.523     
------------------------------------------------------------------------
 total:
 * wall-time:     0 d,  0 h,  0 min,  0.039 sec
 *  cpu-time:     0 d,  0 h,  0 min,  0.221 sec
 * ratio c/w:     5.721 speedup
 SCF:
 * wall-time:     0 d,  0 h,  0 min,  0.020 sec
 *  cpu-time:     0 d,  0 h,  0 min,  0.118 sec
 * ratio c/w:     5.974 speedup


-------------------------   --------------------
FINAL SINGLE POINT ENERGY       -27.306823011990
-------------------------   --------------------


-------------
DIPOLE MOMENT
-------------
                                X             Y             Z
Total Dipole Moment    :     -0.67400      -0.24200       0.34600
                        -----------------------------------------
Magnitude (a.u.)       :      0.79533
Magnitude (Debye)      :      2.02158


------------------
CARTESIAN GRADIENT
------------------

   1   C   :   -0.000063436    0.000084869   -0.000236270
   2   C   :   -0.000935715   -0.000209733    0.000039727
   3   C   :    0.000946661   -0.002560644    0.002528826
   4   C   :   -0.002460812    0.001684364   -0.003813688
   5   C   :   -0.000202263    0.001847419    0.000908425
   6   O   :   -0.001188810    0.000551951   -0.001219213
   7   O   :    0.001229543   -0.001977362    0.001074541
   8   O   :    0.001018449   -0.001467492    0.000645498
   9   H   :   -0.000042795   -0.000071263    0.000016256
  10   H   :    0.000130433    0.000002115    0.000082478
  11   H   :    0.000122942   -0.000025895    0.000003572
  12   H   :    0.000278495    0.000063658   -0.000043860
  13   H   :    0.000126631    0.000028887   -0.000016383
  14   H   :   -0.000024655    0.001395119   -0.000124234
  15   H   :   -0.000125924    0.000639436   -0.000862661
  16   H   :    0.000228271   -0.000348686    0.000486518
  17   H   :    0.000962983    0.000363257    0.000530469

Difference to translation invariance:
           :    0.0000000000   -0.0000000000   -0.0000000000

Difference to rotation invariance:
           :    0.0000000249    0.0000000353   -0.0000002286

Norm of the Cartesian gradient     ...    0.0078083468
RMS gradient                       ...    0.0010933873
MAX gradient                       ...    0.0038136885
------------------------------------------------------------------------------
                         ORCA GEOMETRY RELAXATION STEP
------------------------------------------------------------------------------

Reading the OPT-File                    .... done
Getting information on internals        .... done
Copying old internal coords+grads       .... done
Making the new internal coordinates     .... (2022 redundants) done
Validating the new internal coordinates .... (2022 redundants) done
Calculating the B-matrix                .... done
Calculating the G,G- and P matrices     .... done
Transforming gradient to internals      .... done
Projecting the internal gradient        .... done
Number of atoms                         ....  17
Number of internal coordinates          ....  76
Current Energy                          ....   -27.306823012 Eh
Current gradient norm                   ....     0.007808347 Eh/bohr
Maximum allowed component of the step   ....  0.300
Current trust radius                    ....  0.450
Updating the Hessian (BFGS)             .... done
Forming the augmented Hessian           .... done
Diagonalizing the augmented Hessian     .... done
Last element of RFO vector              ....  0.991549258
Lowest eigenvalues of augmented Hessian:
 -0.000241956  0.007734309  0.011228273  0.011736596  0.012208437
Length of the computed step             ....  0.130836422
The final length of the internal step   ....  0.130836422
Converting the step to Cartesian space:
 Initial RMS(Int)=    0.0150079669
Transforming coordinates:
 Iter   0:  RMS(Cart)=    0.0315878964 RMS(Int)=    0.0150573077
done
Storing new coordinates                 .... done
The predicted energy change is          ....    -0.000123049
Previously predicted energy change      ....    -0.000395155
Actually observed energy change         ....    -0.000492505
Ratio of predicted to observed change   ....     1.246357282
New trust radius                        ....     0.675000000

                                .--------------------.
          ----------------------|Geometry convergence|-------------------------
          Item                value                   Tolerance       Converged
          ---------------------------------------------------------------------
          Energy change      -0.0004925048            0.0000050000      NO
          RMS gradient        0.0005365685            0.0001000000      NO
          MAX gradient        0.0021017983            0.0003000000      NO
          RMS step            0.0150079669            0.0020000000      NO
          MAX step            0.0536519115            0.0040000000      NO
          -------------------------------------------------------------------------
          ........................................................
          Max(Bonds)      0.0044      Max(Angles)    1.07
          Max(Dihed)        3.07      Max(Improp)    0.00
          ---------------------------------------------------------------------

    ---------------------------------------------------------------------------
                         Redundant Internal Coordinates
                            (Angstroem and degrees)

        Definition                    Value    dE/dq     Step     New-Value
    ----------------------------------------------------------------------------
     1. B(C   1,C   0)                1.5229  0.000098 -0.0000    1.5229   
     2. B(C   2,C   1)                1.5326  0.000348 -0.0002    1.5323   
     3. B(C   3,C   2)                1.4851  0.000603 -0.0016    1.4835   
     4. B(C   4,C   3)                1.4526  0.001007 -0.0030    1.4495   
     5. B(O   6,C   4)                1.4279 -0.000300  0.0044    1.4323   
     6. B(O   6,C   3)                1.3689 -0.000072 -0.0013    1.3676   
     7. B(O   7,C   4)                1.3645  0.000290  0.0022    1.3667   
     8. B(O   7,O   5)                1.4200  0.000063 -0.0001    1.4199   
     9. B(H   8,C   0)                1.0869  0.000017  0.0000    1.0870   
    10. B(H   9,C   0)                1.0876  0.000051  0.0001    1.0877   
    11. B(H  10,C   0)                1.0877  0.000036  0.0001    1.0878   
    12. B(H  11,C   1)                1.0910 -0.000012  0.0002    1.0912   
    13. B(H  12,C   1)                1.0913 -0.000103  0.0001    1.0914   
    14. B(H  13,C   2)                1.0979 -0.000405  0.0006    1.0985   
    15. B(H  14,C   2)                1.0909 -0.000073 -0.0000    1.0908   
    16. B(H  15,C   4)                1.0903  0.000633 -0.0014    1.0889   
    17. B(H  16,O   5)                0.9698  0.000070  0.0001    0.9699   
    18. A(H   8,C   0,H   9)          108.92  0.000129    0.00    108.92   
    19. A(H   8,C   0,H  10)          108.57  0.000051   -0.01    108.56   
    20. A(C   1,C   0,H   8)          110.65  0.000041    0.02    110.67   
    21. A(C   1,C   0,H  10)          110.60 -0.000058    0.00    110.61   
    22. A(H   9,C   0,H  10)          108.32  0.000029    0.03    108.35   
    23. A(C   1,C   0,H   9)          109.72 -0.000187   -0.05    109.67   
    24. A(C   0,C   1,H  12)          110.02  0.000198   -0.01    110.01   
    25. A(C   0,C   1,C   2)          111.06 -0.000428    0.09    111.15   
    26. A(C   2,C   1,H  12)          108.98 -0.000015   -0.03    108.95   
    27. A(H  11,C   1,H  12)          108.26  0.000100   -0.03    108.23   
    28. A(C   0,C   1,H  11)          109.70  0.000174   -0.02    109.68   
    29. A(C   2,C   1,H  11)          108.77 -0.000020   -0.01    108.76   
    30. A(C   3,C   2,H  13)          108.68 -0.000709    0.22    108.90   
    31. A(H  13,C   2,H  14)          109.62  0.001064   -0.34    109.29   
    32. A(C   3,C   2,H  14)          108.00 -0.000863   -0.04    107.96   
    33. A(C   1,C   2,H  14)          109.88 -0.000114    0.21    110.09   
    34. A(C   1,C   2,H  13)          109.20  0.000224   -0.05    109.15   
    35. A(C   1,C   2,C   3)          111.44  0.000405   -0.04    111.40   
    36. A(C   2,C   3,C   4)          131.32 -0.001024    1.07    132.39   
    37. A(C   4,C   3,O   6)           60.72 -0.000357    0.31     61.03   
    38. A(C   2,C   3,O   6)          125.66 -0.000486    0.99    126.65   
    39. A(O   7,C   4,H  15)          115.40 -0.000142    0.15    115.56   
    40. A(O   6,C   4,H  15)          113.73 -0.000271   -0.15    113.57   
    41. A(C   3,C   4,H  15)          122.89 -0.000077    0.35    123.24   
    42. A(C   3,C   4,O   6)           56.74 -0.000178   -0.08     56.66   
    43. A(O   6,C   4,O   7)          117.91  0.000734   -0.24    117.67   
    44. A(C   3,C   4,O   7)          116.90  0.000074   -0.22    116.68   
    45. A(O   7,O   5,H  16)          105.33  0.002102   -0.38    104.95   
    46. A(C   3,O   6,C   4)           62.54  0.000535   -0.23     62.31   
    47. A(C   4,O   7,O   5)          111.63  0.001570   -0.12    111.51   
    48. D(H  11,C   1,C   0,H   9)     61.78 -0.000071    0.71     62.49   
    49. D(C   2,C   1,C   0,H  10)     60.94 -0.000005    0.69     61.63   
    50. D(H  11,C   1,C   0,H  10)   -178.79 -0.000189    0.72   -178.06   
    51. D(C   2,C   1,C   0,H   9)    -58.50  0.000114    0.68    -57.82   
    52. D(H  11,C   1,C   0,H   8)    -58.44 -0.000136    0.73    -57.71   
    53. D(C   2,C   1,C   0,H   8)   -178.71  0.000048    0.70   -178.01   
    54. D(C   3,C   2,C   1,C   0)     63.60  0.000240   -0.45     63.15   
    55. D(H  13,C   2,C   1,H  12)    -54.98 -0.000278   -0.21    -55.18   
    56. D(H  13,C   2,C   1,C   0)   -176.33 -0.000242   -0.23   -176.56   
    57. D(C   3,C   2,C   1,H  12)   -175.05  0.000204   -0.42   -175.47   
    58. D(H  13,C   2,C   1,H  11)     62.85 -0.000177   -0.26     62.59   
    59. D(C   3,C   2,C   1,H  11)    -57.22  0.000304   -0.48    -57.70   
    60. D(C   4,C   3,C   2,H  14)    -74.19 -0.000728   -1.13    -75.32   
    61. D(C   4,C   3,C   2,H  13)     44.67 -0.000340   -1.43     43.24   
    62. D(C   4,C   3,C   2,C   1)    165.04 -0.000273   -1.37    163.68   
    63. D(O   6,C   3,C   2,H  13)    -35.50  0.001141   -3.07    -38.58   
    64. D(O   6,C   3,C   2,C   1)     84.87  0.001207   -3.01     81.87   
    65. D(H  15,C   4,C   3,O   6)     98.56 -0.000412   -0.45     98.11   
    66. D(H  15,C   4,C   3,C   2)    -14.82  0.000265   -1.66    -16.48   
    67. D(O   7,C   4,C   3,O   6)   -107.16 -0.000813    0.23   -106.93   
    68. D(O   7,C   4,C   3,C   2)    139.45 -0.000136   -0.98    138.48   
    69. D(O   6,C   4,C   3,C   2)   -113.38  0.000676   -1.21   -114.59   
    70. D(C   3,O   6,C   4,H  15)   -114.90 -0.000015   -0.49   -115.39   
    71. D(C   3,O   6,C   4,O   7)    105.35 -0.000365   -0.19    105.17   
    72. D(C   4,O   6,C   3,C   2)    121.96 -0.001352    1.19    123.15   
    73. D(C   4,O   7,O   5,H  16)    -98.88  0.000253   -2.27   -101.15   
    74. D(O   5,O   7,C   4,H  15)    -51.63 -0.000308    2.45    -49.18   
    75. D(O   5,O   7,C   4,O   6)     87.45  0.000006    2.03     89.49   
    76. D(O   5,O   7,C   4,C   3)    152.16  0.000051    1.72    153.88   
    ----------------------------------------------------------------------------

Geometry step timings:
Preparation and reading OPT file:      0.000 s ( 0.358 %)
Internal coordinates            :      0.000 s ( 0.537 %)
B/P matrices and projection     :      0.001 s (20.143 %)
Hessian update/contruction      :      0.002 s (42.229 %)
Making the step                 :      0.001 s (13.369 %)
Converting the step to Cartesian:      0.000 s ( 1.917 %)
Storing new data                :      0.000 s ( 0.639 %)
Checking convergence            :      0.000 s ( 0.895 %)
Final printing                  :      0.001 s (19.913 %)
Total time                      :      0.004 s

Time for energy+gradient        :      0.050 s
Time for complete geometry iter :      0.055 s

         *************************************************************
         *                GEOMETRY OPTIMIZATION CYCLE   6            *
         *************************************************************
---------------------------------
CARTESIAN COORDINATES (ANGSTROEM)
---------------------------------
  C    -2.168123   -0.460839   -1.105220
  C    -1.859966   -0.714094    0.364500
  C    -0.404446   -1.153040    0.556513
  C     0.541294   -0.088232    0.141063
  C     1.953151    0.117968    0.398300
  O     3.854601    1.267514   -0.209946
  O     0.928776    0.992432    0.884366
  O     2.711147    0.551778   -0.653010
  H    -3.191704   -0.116551   -1.228852
  H    -1.491728    0.296080   -1.496001
  H    -2.036286   -1.370892   -1.686414
  H    -2.029905    0.198439    0.938183
  H    -2.519025   -1.491074    0.755758
  H    -0.235038   -1.385688    1.616678
  H    -0.198064   -2.039584   -0.044648
  H     2.497174   -0.396884    1.188608
  H     3.625615    2.202618   -0.327682

----------------------------
CARTESIAN COORDINATES (A.U.)
----------------------------
  NO LB    ZA    FRAG    MASS        X           Y           Z
   0 C   6.0000    1    12.011   -4.097159   -0.870860   -2.088563
   1 C   6.0000    1    12.011   -3.514826   -1.349443    0.688806
   2 C   6.0000    1    12.011   -0.764293   -2.178931    1.051658
   3 C   6.0000    1    12.011    1.022897   -0.166734    0.266571
   4 C   6.0000    1    12.011    3.690921    0.222926    0.752678
   5 O   8.0000    1    15.999    7.284140    2.395255   -0.396740
   6 O   8.0000    1    15.999    1.755133    1.875424    1.671209
   7 O   8.0000    1    15.999    5.123326    1.042709   -1.234010
   8 H   1.0000    1     1.008   -6.031447   -0.220250   -2.322194
   9 H   1.0000    1     1.008   -2.818957    0.559511   -2.827032
  10 H   1.0000    1     1.008   -3.848024   -2.590610   -3.186860
  11 H   1.0000    1     1.008   -3.835965    0.374995    1.772909
  12 H   1.0000    1     1.008   -4.760267   -2.817722    1.428177
  13 H   1.0000    1     1.008   -0.444157   -2.618572    3.055078
  14 H   1.0000    1     1.008   -0.374286   -3.854256   -0.084372
  15 H   1.0000    1     1.008    4.718975   -0.750002    2.246144
  16 H   1.0000    1     1.008    6.851420    4.162344   -0.619230

      -----------------------------------------------------------      
     |                   =====================                   |     
     |                           x T B                           |     
     |                   =====================                   |     
     |                         S. Grimme                         |     
     |          Mulliken Center for Theoretical Chemistry        |     
     |                    University of Bonn                     |     
      -----------------------------------------------------------      

   * xtb version 6.7.1 (edcfbbe) compiled by 'albert@albert-system' on 2024-07-22

   xtb is free software: you can redistribute it and/or modify it under
   the terms of the GNU Lesser General Public License as published by
   the Free Software Foundation, either version 3 of the License, or
   (at your option) any later version.
   
   xtb is distributed in the hope that it will be useful,
   but WITHOUT ANY WARRANTY; without even the implied warranty of
   MERCHANTABILITY or FITNESS FOR A PARTICULAR PURPOSE.  See the
   GNU Lesser General Public License for more details.
   
   Cite this work as:
   * C. Bannwarth, E. Caldeweyher, S. Ehlert, A. Hansen, P. Pracht,
     J. Seibert, S. Spicher, S. Grimme, WIREs Comput. Mol. Sci., 2020, 11,
     e01493. DOI: 10.1002/wcms.1493
   
   for GFN2-xTB:
   * C. Bannwarth, S. Ehlert and S. Grimme., J. Chem. Theory Comput., 2019,
     15, 1652-1671. DOI: 10.1021/acs.jctc.8b01176
   for GFN1-xTB:
   * S. Grimme, C. Bannwarth, P. Shushkov, J. Chem. Theory Comput., 2017,
     13, 1989-2009. DOI: 10.1021/acs.jctc.7b00118
   for GFN0-xTB:
   * P. Pracht, E. Caldeweyher, S. Ehlert, S. Grimme, ChemRxiv, 2019, preprint.
     DOI: 10.26434/chemrxiv.8326202.v1
   for GFN-FF:
   * S. Spicher and S. Grimme, Angew. Chem. Int. Ed., 2020, 59, 15665-15673.
     DOI: 10.1002/anie.202004239
   
   for ALPB and GBSA implicit solvation:
   * S. Ehlert, M. Stahn, S. Spicher, S. Grimme, J. Chem. Theory Comput.,
     2021, 17, 4250-4261. DOI: 10.1021/acs.jctc.1c00471
   
   for ddCOSMO and CPCM-X implicit solvation:
   * M. Stahn, S. Ehlert, S. Grimme, J. Phys. Chem. A,
     2023, XX, XXXX-XXXX. DOI: 10.1021/acs.jpca.3c04382
   
   for DFT-D4:
   * E. Caldeweyher, C. Bannwarth and S. Grimme, J. Chem. Phys., 2017,
     147, 034112. DOI: 10.1063/1.4993215
   * E. Caldeweyher, S. Ehlert, A. Hansen, H. Neugebauer, S. Spicher,
     C. Bannwarth and S. Grimme, J. Chem. Phys., 2019, 150, 154122.
     DOI: 10.1063/1.5090222
   * E. Caldeweyher, J.-M. Mewes, S. Ehlert and S. Grimme, Phys. Chem. Chem. Phys.
     2020, 22, 8499-8512. DOI: 10.1039/D0CP00502A
   
   for sTDA-xTB:
   * S. Grimme and C. Bannwarth, J. Chem. Phys., 2016, 145, 054103.
     DOI: 10.1063/1.4959605
   
   in the mass-spec context:
   * V. Asgeirsson, C. Bauer and S. Grimme, Chem. Sci., 2017, 8, 4879.
     DOI: 10.1039/c7sc00601b
   * J. Koopman and S. Grimme, ACS Omega 2019, 4, 12, 15120-15133.
     DOI: 10.1021/acsomega.9b02011
   
   for metadynamics refer to:
   * S. Grimme, J. Chem. Theory Comput., 2019, 155, 2847-2862
     DOI: 10.1021/acs.jctc.9b00143
   
   for SPH calculations refer to:
   * S. Spicher and S. Grimme, J. Chem. Theory Comput., 2021, 17, 1701-1714
     DOI: 10.1021/acs.jctc.0c01306
   
   for ONIOM refer to:
   * C. Plett, A. Katbashev, S. Ehlert, S. Grimme, M. Bursch,
     Phys. Chem. Chem. Phys., 2023, 25, 17860-17868. DOI: 10.1039/D3CP02178E
   
   for DIPRO refer to:
   * J. Kohn, N. Gildemeister, S. Grimme, D. Fazzi, A. Hansen,
     J. Chem. Phys., 2023, just accepted.
   
   for PTB refer to:
   * S. Grimme, M. Mueller, A. Hansen, J. Chem. Phys., 2023, 158, 124111.
     DOI: 10.1063/5.0137838
   
   with help from (in alphabetical order)
   P. Atkinson, C. Bannwarth, F. Bohle, G. Brandenburg, E. Caldeweyher
   M. Checinski, S. Dohm, S. Ehlert, S. Ehrlich, I. Gerasimov, C. Hölzer
   A. Katbashev, J. Kohn, J. Koopman, C. Lavigne, S. Lehtola, F. März, M. Müller,
   F. Musil, H. Neugebauer, J. Pisarek, C. Plett, P. Pracht, F. Pultar,
   J. Seibert, P. Shushkov, S. Spicher, M. Stahn, M. Steiner, T. Strunk,
   J. Stückrath, T. Rose, and J. Unsleber
   
 * started run on 2026/02/17 at 15:18:00.540     
   ID    Z sym.   atoms
    1    6 C      1-5
    2    8 O      6-8
    3    1 H      9-17

           -------------------------------------------------
          |                Calculation Setup                |
           -------------------------------------------------

          program call               : /apps/eb/ORCA/6.1.1-gompi-2024a-avx2/bin/otool_xtb goat_XTB.xyz --grad -c 0 -u 1 -P 8 --namespace goat --input goat_XTB.input.tmp --acc 0.200000
          hostname                   : d5-8
          calculation namespace      : goat
          coordinate file            : goat_XTB.xyz
          omp threads                :                     8


           -------------------------------------------------
          |                 G F N 2 - x T B                 |
           -------------------------------------------------

        Reference                      10.1021/acs.jctc.8b01176
      * Hamiltonian:
        H0-scaling (s, p, d)           1.850000    2.230000    2.230000
        zeta-weighting                 0.500000
      * Dispersion:
        s8                             2.700000
        a1                             0.520000
        a2                             5.000000
        s9                             5.000000
      * Repulsion:
        kExp                           1.500000    1.000000
        rExp                           1.000000
      * Coulomb:
        alpha                          2.000000
        third order                    shell-resolved
        anisotropic                    true
        a3                             3.000000
        a5                             4.000000
        cn-shift                       1.200000
        cn-exp                         4.000000
        max-rad                        5.000000

q/qsh data taken from xtbrestart
CAMM data taken from xtbrestart

          ...................................................
          :                      SETUP                      :
          :.................................................:
          :  # basis functions                  41          :
          :  # atomic orbitals                  41          :
          :  # shells                           25          :
          :  # electrons                        47          :
          :  max. iterations                   250          :
          :  Hamiltonian                  GFN2-xTB          :
          :  restarted?                       true          :
          :  GBSA solvation                  false          :
          :  PC potential                    false          :
          :  electronic temp.          300.0000000     K    :
          :  accuracy                    0.2000000          :
          :  -> integral cutoff          0.3198970E+02      :
          :  -> integral neglect         0.2000000E-08      :
          :  -> SCF convergence          0.2000000E-06 Eh   :
          :  -> wf. convergence          0.2000000E-04 e    :
          :  Broyden damping             0.4000000          :
          :  net charge                          0          :
          :  unpaired electrons                  1          :
          ...................................................

 iter      E             dE          RMSdq      gap      omega  full diag
   1    -27.5524279 -0.275524E+02  0.105E-01    4.49       0.0  T
   2    -27.5524298 -0.192728E-05  0.632E-02    4.48       1.0  T
   3    -27.5524293  0.470232E-06  0.950E-03    4.48       2.6  T
   4    -27.5524304 -0.108251E-05  0.293E-03    4.48       8.3  T
   5    -27.5524304 -0.978966E-08  0.147E-03    4.48      16.5  T
   6    -27.5524304 -0.698144E-08  0.492E-04    4.48      49.3  T
   7    -27.5524304 -0.119426E-08  0.201E-04    4.48     120.9  T
   8    -27.5524304 -0.206093E-09  0.951E-05    4.48     255.1  T
   9    -27.5524304 -0.575469E-10  0.339E-05    4.48     714.9  T

   *** convergence criteria satisfied after 9 iterations ***

         #    Occupation            Energy/Eh            Energy/eV
      -------------------------------------------------------------
         1        2.0000           -0.7492401             -20.3879
       ...           ...                  ...                  ...
        18        2.0000           -0.4682786             -12.7425
        19        2.0000           -0.4655176             -12.6674
        20        2.0000           -0.4573215             -12.4444
        21        2.0000           -0.4561542             -12.4126
        22        2.0000           -0.4421064             -12.0303
        23        2.0000           -0.4400953             -11.9756
        24        1.0000           -0.3353547              -9.1255 (HOMO)
        25                         -0.1708601              -4.6493 (LUMO)
        26                         -0.0773444              -2.1046
        27                          0.0510885               1.3902
        28                          0.0728368               1.9820
        29                          0.0977207               2.6591
       ...                                ...                  ...
        41                          0.4068508              11.0710
      -------------------------------------------------------------
                  HL-Gap            0.1644946 Eh            4.4761 eV
             Fermi-level           -0.3204162 Eh           -8.7190 eV

 SCC (total)                   0 d,  0 h,  0 min,  0.011 sec
 SCC setup                      ...        0 min,  0.000 sec (  1.108%)
 Dispersion                     ...        0 min,  0.000 sec (  0.588%)
 classical contributions        ...        0 min,  0.000 sec (  0.144%)
 integral evaluation            ...        0 min,  0.000 sec (  3.963%)
 iterations                     ...        0 min,  0.009 sec ( 83.138%)
 molecular gradient             ...        0 min,  0.001 sec (  9.651%)
 printout                       ...        0 min,  0.000 sec (  1.229%)

         :::::::::::::::::::::::::::::::::::::::::::::::::::::
         ::                     SUMMARY                     ::
         :::::::::::::::::::::::::::::::::::::::::::::::::::::
         :: total energy             -27.306994950026 Eh    ::
         :: gradient norm              0.005246514926 Eh/a0 ::
         :: HOMO-LUMO gap              4.476124604897 eV    ::
         ::.................................................::
         :: SCC energy               -27.552427727535 Eh    ::
         :: -> isotropic ES            0.042782590711 Eh    ::
         :: -> anisotropic ES         -0.003758824552 Eh    ::
         :: -> anisotropic XC         -0.004637740098 Eh    ::
         :: -> dispersion             -0.009546118156 Eh    ::
         :: repulsion energy           0.245432777509 Eh    ::
         :: add. restraining           0.000000000000 Eh    ::
         :: total charge              -0.000000000000 e     ::
         :::::::::::::::::::::::::::::::::::::::::::::::::::::


Property printout bound to 'properties.out'

           -------------------------------------------------
          | TOTAL ENERGY              -27.306994950026 Eh   |
          | GRADIENT NORM               0.005246514926 Eh/α |
          | HOMO-LUMO GAP               4.476124604897 eV   |
           -------------------------------------------------

------------------------------------------------------------------------
 * finished run on 2026/02/17 at 15:18:00.558     
------------------------------------------------------------------------
 total:
 * wall-time:     0 d,  0 h,  0 min,  0.018 sec
 *  cpu-time:     0 d,  0 h,  0 min,  0.123 sec
 * ratio c/w:     7.019 speedup
 SCF:
 * wall-time:     0 d,  0 h,  0 min,  0.011 sec
 *  cpu-time:     0 d,  0 h,  0 min,  0.083 sec
 * ratio c/w:     7.455 speedup


-------------------------   --------------------
FINAL SINGLE POINT ENERGY       -27.306994950030
-------------------------   --------------------


-------------
DIPOLE MOMENT
-------------
                                X             Y             Z
Total Dipole Moment    :     -0.64300      -0.23800       0.32900
                        -----------------------------------------
Magnitude (a.u.)       :      0.76048
Magnitude (Debye)      :      1.93299


------------------
CARTESIAN GRADIENT
------------------

   1   C   :   -0.000187627    0.000136149   -0.000170421
   2   C   :   -0.000703344   -0.000134684   -0.000051291
   3   C   :    0.000561490   -0.002375220    0.001519584
   4   C   :   -0.001115365    0.001937242   -0.001952011
   5   C   :    0.000199685   -0.000209978    0.001445000
   6   O   :   -0.000526190   -0.000103349   -0.000770838
   7   O   :    0.000148703   -0.001333241    0.000676411
   8   O   :    0.000945258   -0.000171563   -0.000808132
   9   H   :   -0.000071030   -0.000032480   -0.000019732
  10   H   :    0.000226820    0.000042541    0.000116357
  11   H   :    0.000048216   -0.000113016   -0.000015663
  12   H   :    0.000173534    0.000071610    0.000048985
  13   H   :    0.000125109   -0.000022972   -0.000021245
  14   H   :   -0.000036435    0.001203885   -0.000141099
  15   H   :    0.000026909    0.000570772   -0.000585633
  16   H   :   -0.000246743    0.000187420    0.000454493
  17   H   :    0.000431009    0.000346883    0.000275236

Difference to translation invariance:
           :   -0.0000000000   -0.0000000000   -0.0000000000

Difference to rotation invariance:
           :    0.0000000149    0.0000007575   -0.0000006806

Norm of the Cartesian gradient     ...    0.0052465149
RMS gradient                       ...    0.0007346590
MAX gradient                       ...    0.0023752195
------------------------------------------------------------------------------
                         ORCA GEOMETRY RELAXATION STEP
------------------------------------------------------------------------------

Reading the OPT-File                    .... done
Getting information on internals        .... done
Copying old internal coords+grads       .... done
Making the new internal coordinates     .... (2022 redundants) done
Validating the new internal coordinates .... (2022 redundants) done
Calculating the B-matrix                .... done
Calculating the G,G- and P matrices     .... done
Transforming gradient to internals      .... done
Projecting the internal gradient        .... done
Number of atoms                         ....  17
Number of internal coordinates          ....  76
Current Energy                          ....   -27.306994950 Eh
Current gradient norm                   ....     0.005246515 Eh/bohr
Maximum allowed component of the step   ....  0.300
Current trust radius                    ....  0.675
Updating the Hessian (BFGS)             .... done
Forming the augmented Hessian           .... done
Diagonalizing the augmented Hessian     .... done
Last element of RFO vector              ....  0.993566844
Lowest eigenvalues of augmented Hessian:
 -0.000144837  0.005895021  0.011209196  0.011724797  0.012142756
Length of the computed step             ....  0.113980449
The final length of the internal step   ....  0.113980449
Converting the step to Cartesian space:
 Initial RMS(Int)=    0.0130744542
Transforming coordinates:
 Iter   0:  RMS(Cart)=    0.0258559667 RMS(Int)=    0.0131462749
done
Storing new coordinates                 .... done
The predicted energy change is          ....    -0.000073359
Previously predicted energy change      ....    -0.000123049
Actually observed energy change         ....    -0.000171938
Ratio of predicted to observed change   ....     1.397312068
New trust radius                        ....     0.675000000

                                .--------------------.
          ----------------------|Geometry convergence|-------------------------
          Item                value                   Tolerance       Converged
          ---------------------------------------------------------------------
          Energy change      -0.0001719380            0.0000050000      NO
          RMS gradient        0.0003972602            0.0001000000      NO
          MAX gradient        0.0014971098            0.0003000000      NO
          RMS step            0.0130744542            0.0020000000      NO
          MAX step            0.0555571305            0.0040000000      NO
          -------------------------------------------------------------------------
          ........................................................
          Max(Bonds)      0.0031      Max(Angles)    0.99
          Max(Dihed)        3.18      Max(Improp)    0.00
          ---------------------------------------------------------------------

    ---------------------------------------------------------------------------
                         Redundant Internal Coordinates
                            (Angstroem and degrees)

        Definition                    Value    dE/dq     Step     New-Value
    ----------------------------------------------------------------------------
     1. B(C   1,C   0)                1.5229  0.000089 -0.0001    1.5228   
     2. B(C   2,C   1)                1.5323  0.000368 -0.0007    1.5316   
     3. B(C   3,C   2)                1.4835  0.000555 -0.0020    1.4816   
     4. B(C   4,C   3)                1.4498  0.000462 -0.0025    1.4473   
     5. B(O   6,C   4)                1.4319  0.000133  0.0031    1.4350   
     6. B(O   6,C   3)                1.3677 -0.000325 -0.0005    1.3672   
     7. B(O   7,C   4)                1.3667  0.001497 -0.0000    1.3667   
     8. B(O   7,O   5)                1.4199 -0.000109  0.0006    1.4205   
     9. B(H   8,C   0)                1.0870  0.000059 -0.0000    1.0870   
    10. B(H   9,C   0)                1.0877  0.000129 -0.0001    1.0876   
    11. B(H  10,C   0)                1.0878  0.000109 -0.0001    1.0878   
    12. B(H  11,C   1)                1.0912  0.000059  0.0000    1.0912   
    13. B(H  12,C   1)                1.0914 -0.000067  0.0002    1.0916   
    14. B(H  13,C   2)                1.0985 -0.000397  0.0011    1.0996   
    15. B(H  14,C   2)                1.0908 -0.000136  0.0003    1.0911   
    16. B(H  15,C   4)                1.0889  0.000118 -0.0008    1.0881   
    17. B(H  16,O   5)                0.9699  0.000199 -0.0002    0.9697   
    18. A(H   8,C   0,H   9)          108.92  0.000151   -0.05    108.88   
    19. A(H   8,C   0,H  10)          108.56  0.000018   -0.02    108.55   
    20. A(C   1,C   0,H   8)          110.67  0.000102   -0.02    110.65   
    21. A(C   1,C   0,H  10)          110.61 -0.000058    0.02    110.63   
    22. A(H   9,C   0,H  10)          108.35  0.000092    0.02    108.37   
    23. A(C   1,C   0,H   9)          109.67 -0.000299    0.04    109.71   
    24. A(C   0,C   1,H  12)          110.01  0.000163   -0.06    109.95   
    25. A(C   0,C   1,C   2)          111.15 -0.000233    0.11    111.26   
    26. A(C   2,C   1,H  12)          108.95 -0.000084   -0.01    108.94   
    27. A(H  11,C   1,H  12)          108.23  0.000104   -0.07    108.16   
    28. A(C   0,C   1,H  11)          109.68  0.000118   -0.02    109.67   
    29. A(C   2,C   1,H  11)          108.76 -0.000063    0.04    108.80   
    30. A(C   3,C   2,H  13)          108.90 -0.000549    0.32    109.23   
    31. A(H  13,C   2,H  14)          109.30  0.000879   -0.54    108.77   
    32. A(C   3,C   2,H  14)          107.96 -0.000771    0.10    108.06   
    33. A(C   1,C   2,H  14)          110.09  0.000002    0.15    110.24   
    34. A(C   1,C   2,H  13)          109.15  0.000111   -0.01    109.14   
    35. A(C   1,C   2,C   3)          111.40  0.000333   -0.04    111.36   
    36. A(C   2,C   3,C   4)          132.31 -0.000759    0.99    133.30   
    37. A(C   4,C   3,O   6)           61.01  0.000013    0.22     61.23   
    38. A(C   2,C   3,O   6)          126.55 -0.000343    0.68    127.23   
    39. A(O   7,C   4,H  15)          115.55  0.000279   -0.00    115.54   
    40. A(O   6,C   4,H  15)          113.57 -0.000267    0.03    113.60   
    41. A(C   3,C   4,H  15)          123.23 -0.000082    0.20    123.43   
    42. A(C   3,C   4,O   6)           56.66 -0.000255   -0.03     56.63   
    43. A(O   6,C   4,O   7)          117.65  0.000381   -0.37    117.27   
    44. A(C   3,C   4,O   7)          116.66 -0.000251    0.05    116.71   
    45. A(O   7,O   5,H  16)          104.95  0.001056   -0.42    104.53   
    46. A(C   3,O   6,C   4)           62.33  0.000241   -0.19     62.14   
    47. A(C   4,O   7,O   5)          111.51  0.001033   -0.24    111.27   
    48. D(H  11,C   1,C   0,H   9)     62.49 -0.000015    0.43     62.92   
    49. D(C   2,C   1,C   0,H  10)     61.63  0.000025    0.39     62.02   
    50. D(H  11,C   1,C   0,H  10)   -178.07 -0.000126    0.50   -177.57   
    51. D(C   2,C   1,C   0,H   9)    -57.82  0.000136    0.32    -57.50   
    52. D(H  11,C   1,C   0,H   8)    -57.71 -0.000074    0.48    -57.23   
    53. D(C   2,C   1,C   0,H   8)   -178.01  0.000076    0.37   -177.65   
    54. D(C   3,C   2,C   1,C   0)     63.15  0.000153   -0.11     63.04   
    55. D(H  13,C   2,C   1,H  12)    -55.18 -0.000249    0.25    -54.93   
    56. D(H  13,C   2,C   1,C   0)   -176.56 -0.000248    0.26   -176.30   
    57. D(C   3,C   2,C   1,H  12)   -175.47  0.000152   -0.12   -175.60   
    58. D(H  13,C   2,C   1,H  11)     62.59 -0.000207    0.18     62.77   
    59. D(C   3,C   2,C   1,H  11)    -57.70  0.000193   -0.19    -57.89   
    60. D(C   4,C   3,C   2,H  14)    -75.30 -0.000371   -1.38    -76.68   
    61. D(C   4,C   3,C   2,H  13)     43.27 -0.000063   -1.79     41.49   
    62. D(C   4,C   3,C   2,C   1)    163.71 -0.000076   -1.61    162.10   
    63. D(O   6,C   3,C   2,H  13)    -38.62  0.000666   -3.18    -41.80   
    64. D(O   6,C   3,C   2,C   1)     81.82  0.000654   -3.01     78.81   
    65. D(H  15,C   4,C   3,O   6)     98.11 -0.000452   -0.11     98.00   
    66. D(H  15,C   4,C   3,C   2)    -16.49 -0.000139   -0.95    -17.44   
    67. D(O   7,C   4,C   3,O   6)   -106.93 -0.000524    0.50   -106.43   
    68. D(O   7,C   4,C   3,C   2)    138.47 -0.000211   -0.34    138.13   
    69. D(O   6,C   4,C   3,C   2)   -114.60  0.000313   -0.84   -115.44   
    70. D(C   3,O   6,C   4,H  15)   -115.39  0.000003   -0.22   -115.61   
    71. D(C   3,O   6,C   4,O   7)    105.17 -0.000612    0.24    105.41   
    72. D(C   4,O   6,C   3,C   2)    123.18 -0.000887    1.20    124.38   
    73. D(C   4,O   7,O   5,H  16)   -101.15  0.000181   -2.45   -103.60   
    74. D(O   5,O   7,C   4,H  15)    -49.19 -0.000070    1.19    -48.00   
    75. D(O   5,O   7,C   4,O   6)     89.46  0.000342    0.73     90.19   
    76. D(O   5,O   7,C   4,C   3)    153.92  0.000075    0.58    154.49   
    ----------------------------------------------------------------------------

Geometry step timings:
Preparation and reading OPT file:      0.000 s ( 0.376 %)
Internal coordinates            :      0.000 s ( 0.602 %)
B/P matrices and projection     :      0.001 s (19.032 %)
Hessian update/contruction      :      0.002 s (44.132 %)
Making the step                 :      0.001 s (15.246 %)
Converting the step to Cartesian:      0.000 s ( 1.906 %)
Storing new data                :      0.000 s ( 0.527 %)
Checking convergence            :      0.000 s ( 0.777 %)
Final printing                  :      0.001 s (17.352 %)
Total time                      :      0.004 s

Time for energy+gradient        :      0.028 s
Time for complete geometry iter :      0.034 s

         *************************************************************
         *                GEOMETRY OPTIMIZATION CYCLE   7            *
         *************************************************************
---------------------------------
CARTESIAN COORDINATES (ANGSTROEM)
---------------------------------
  C    -2.164996   -0.451209   -1.102387
  C    -1.855304   -0.717834    0.364540
  C    -0.403479   -1.168050    0.552647
  C     0.547430   -0.108650    0.142192
  C     1.951162    0.122317    0.409400
  O     3.849938    1.272166   -0.196217
  O     0.907940    0.999967    0.856589
  O     2.715427    0.543120   -0.642601
  H    -3.184476   -0.092985   -1.219977
  H    -1.481063    0.299871   -1.491034
  H    -2.047300   -1.358966   -1.690057
  H    -2.019774    0.190996    0.945681
  H    -2.519521   -1.493376    0.750467
  H    -0.236608   -1.414111    1.611276
  H    -0.202309   -2.055130   -0.049983
  H     2.493863   -0.357955    1.221065
  H     3.626544    2.199778   -0.369403

----------------------------
CARTESIAN COORDINATES (A.U.)
----------------------------
  NO LB    ZA    FRAG    MASS        X           Y           Z
   0 C   6.0000    1    12.011   -4.091250   -0.852662   -2.083209
   1 C   6.0000    1    12.011   -3.506017   -1.356510    0.688880
   2 C   6.0000    1    12.011   -0.762465   -2.207295    1.044352
   3 C   6.0000    1    12.011    1.034494   -0.205318    0.268704
   4 C   6.0000    1    12.011    3.687162    0.231145    0.773655
   5 O   8.0000    1    15.999    7.275329    2.404045   -0.370797
   6 O   8.0000    1    15.999    1.715757    1.889663    1.618718
   7 O   8.0000    1    15.999    5.131414    1.026348   -1.214340
   8 H   1.0000    1     1.008   -6.017788   -0.175715   -2.305423
   9 H   1.0000    1     1.008   -2.798803    0.566674   -2.817645
  10 H   1.0000    1     1.008   -3.868836   -2.568074   -3.193745
  11 H   1.0000    1     1.008   -3.816820    0.360929    1.787078
  12 H   1.0000    1     1.008   -4.761205   -2.822072    1.418177
  13 H   1.0000    1     1.008   -0.447124   -2.672283    3.044871
  14 H   1.0000    1     1.008   -0.382309   -3.883632   -0.094455
  15 H   1.0000    1     1.008    4.712719   -0.676437    2.307479
  16 H   1.0000    1     1.008    6.853176    4.156979   -0.698070

      -----------------------------------------------------------      
     |                   =====================                   |     
     |                           x T B                           |     
     |                   =====================                   |     
     |                         S. Grimme                         |     
     |          Mulliken Center for Theoretical Chemistry        |     
     |                    University of Bonn                     |     
      -----------------------------------------------------------      

   * xtb version 6.7.1 (edcfbbe) compiled by 'albert@albert-system' on 2024-07-22

   xtb is free software: you can redistribute it and/or modify it under
   the terms of the GNU Lesser General Public License as published by
   the Free Software Foundation, either version 3 of the License, or
   (at your option) any later version.
   
   xtb is distributed in the hope that it will be useful,
   but WITHOUT ANY WARRANTY; without even the implied warranty of
   MERCHANTABILITY or FITNESS FOR A PARTICULAR PURPOSE.  See the
   GNU Lesser General Public License for more details.
   
   Cite this work as:
   * C. Bannwarth, E. Caldeweyher, S. Ehlert, A. Hansen, P. Pracht,
     J. Seibert, S. Spicher, S. Grimme, WIREs Comput. Mol. Sci., 2020, 11,
     e01493. DOI: 10.1002/wcms.1493
   
   for GFN2-xTB:
   * C. Bannwarth, S. Ehlert and S. Grimme., J. Chem. Theory Comput., 2019,
     15, 1652-1671. DOI: 10.1021/acs.jctc.8b01176
   for GFN1-xTB:
   * S. Grimme, C. Bannwarth, P. Shushkov, J. Chem. Theory Comput., 2017,
     13, 1989-2009. DOI: 10.1021/acs.jctc.7b00118
   for GFN0-xTB:
   * P. Pracht, E. Caldeweyher, S. Ehlert, S. Grimme, ChemRxiv, 2019, preprint.
     DOI: 10.26434/chemrxiv.8326202.v1
   for GFN-FF:
   * S. Spicher and S. Grimme, Angew. Chem. Int. Ed., 2020, 59, 15665-15673.
     DOI: 10.1002/anie.202004239
   
   for ALPB and GBSA implicit solvation:
   * S. Ehlert, M. Stahn, S. Spicher, S. Grimme, J. Chem. Theory Comput.,
     2021, 17, 4250-4261. DOI: 10.1021/acs.jctc.1c00471
   
   for ddCOSMO and CPCM-X implicit solvation:
   * M. Stahn, S. Ehlert, S. Grimme, J. Phys. Chem. A,
     2023, XX, XXXX-XXXX. DOI: 10.1021/acs.jpca.3c04382
   
   for DFT-D4:
   * E. Caldeweyher, C. Bannwarth and S. Grimme, J. Chem. Phys., 2017,
     147, 034112. DOI: 10.1063/1.4993215
   * E. Caldeweyher, S. Ehlert, A. Hansen, H. Neugebauer, S. Spicher,
     C. Bannwarth and S. Grimme, J. Chem. Phys., 2019, 150, 154122.
     DOI: 10.1063/1.5090222
   * E. Caldeweyher, J.-M. Mewes, S. Ehlert and S. Grimme, Phys. Chem. Chem. Phys.
     2020, 22, 8499-8512. DOI: 10.1039/D0CP00502A
   
   for sTDA-xTB:
   * S. Grimme and C. Bannwarth, J. Chem. Phys., 2016, 145, 054103.
     DOI: 10.1063/1.4959605
   
   in the mass-spec context:
   * V. Asgeirsson, C. Bauer and S. Grimme, Chem. Sci., 2017, 8, 4879.
     DOI: 10.1039/c7sc00601b
   * J. Koopman and S. Grimme, ACS Omega 2019, 4, 12, 15120-15133.
     DOI: 10.1021/acsomega.9b02011
   
   for metadynamics refer to:
   * S. Grimme, J. Chem. Theory Comput., 2019, 155, 2847-2862
     DOI: 10.1021/acs.jctc.9b00143
   
   for SPH calculations refer to:
   * S. Spicher and S. Grimme, J. Chem. Theory Comput., 2021, 17, 1701-1714
     DOI: 10.1021/acs.jctc.0c01306
   
   for ONIOM refer to:
   * C. Plett, A. Katbashev, S. Ehlert, S. Grimme, M. Bursch,
     Phys. Chem. Chem. Phys., 2023, 25, 17860-17868. DOI: 10.1039/D3CP02178E
   
   for DIPRO refer to:
   * J. Kohn, N. Gildemeister, S. Grimme, D. Fazzi, A. Hansen,
     J. Chem. Phys., 2023, just accepted.
   
   for PTB refer to:
   * S. Grimme, M. Mueller, A. Hansen, J. Chem. Phys., 2023, 158, 124111.
     DOI: 10.1063/5.0137838
   
   with help from (in alphabetical order)
   P. Atkinson, C. Bannwarth, F. Bohle, G. Brandenburg, E. Caldeweyher
   M. Checinski, S. Dohm, S. Ehlert, S. Ehrlich, I. Gerasimov, C. Hölzer
   A. Katbashev, J. Kohn, J. Koopman, C. Lavigne, S. Lehtola, F. März, M. Müller,
   F. Musil, H. Neugebauer, J. Pisarek, C. Plett, P. Pracht, F. Pultar,
   J. Seibert, P. Shushkov, S. Spicher, M. Stahn, M. Steiner, T. Strunk,
   J. Stückrath, T. Rose, and J. Unsleber
   
 * started run on 2026/02/17 at 15:18:00.573     
   ID    Z sym.   atoms
    1    6 C      1-5
    2    8 O      6-8
    3    1 H      9-17

           -------------------------------------------------
          |                Calculation Setup                |
           -------------------------------------------------

          program call               : /apps/eb/ORCA/6.1.1-gompi-2024a-avx2/bin/otool_xtb goat_XTB.xyz --grad -c 0 -u 1 -P 8 --namespace goat --input goat_XTB.input.tmp --acc 0.200000
          hostname                   : d5-8
          calculation namespace      : goat
          coordinate file            : goat_XTB.xyz
          omp threads                :                     8


           -------------------------------------------------
          |                 G F N 2 - x T B                 |
           -------------------------------------------------

        Reference                      10.1021/acs.jctc.8b01176
      * Hamiltonian:
        H0-scaling (s, p, d)           1.850000    2.230000    2.230000
        zeta-weighting                 0.500000
      * Dispersion:
        s8                             2.700000
        a1                             0.520000
        a2                             5.000000
        s9                             5.000000
      * Repulsion:
        kExp                           1.500000    1.000000
        rExp                           1.000000
      * Coulomb:
        alpha                          2.000000
        third order                    shell-resolved
        anisotropic                    true
        a3                             3.000000
        a5                             4.000000
        cn-shift                       1.200000
        cn-exp                         4.000000
        max-rad                        5.000000

q/qsh data taken from xtbrestart
CAMM data taken from xtbrestart

          ...................................................
          :                      SETUP                      :
          :.................................................:
          :  # basis functions                  41          :
          :  # atomic orbitals                  41          :
          :  # shells                           25          :
          :  # electrons                        47          :
          :  max. iterations                   250          :
          :  Hamiltonian                  GFN2-xTB          :
          :  restarted?                       true          :
          :  GBSA solvation                  false          :
          :  PC potential                    false          :
          :  electronic temp.          300.0000000     K    :
          :  accuracy                    0.2000000          :
          :  -> integral cutoff          0.3198970E+02      :
          :  -> integral neglect         0.2000000E-08      :
          :  -> SCF convergence          0.2000000E-06 Eh   :
          :  -> wf. convergence          0.2000000E-04 e    :
          :  Broyden damping             0.4000000          :
          :  net charge                          0          :
          :  unpaired electrons                  1          :
          ...................................................

 iter      E             dE          RMSdq      gap      omega  full diag
   1    -27.5530402 -0.275530E+02  0.100E-01    4.43       0.0  T
   2    -27.5530422 -0.195710E-05  0.612E-02    4.42       1.0  T
   3    -27.5530417  0.496925E-06  0.105E-02    4.43       2.3  T
   4    -27.5530431 -0.139030E-05  0.334E-03    4.42       7.3  T
   5    -27.5530431 -0.650298E-08  0.105E-03    4.42      23.0  T
   6    -27.5530431 -0.190164E-08  0.267E-04    4.42      90.8  T
   7    -27.5530431 -0.274792E-09  0.134E-04    4.42     181.6  T
   8    -27.5530431 -0.617533E-10  0.610E-05    4.42     397.8  T

   *** convergence criteria satisfied after 8 iterations ***

         #    Occupation            Energy/Eh            Energy/eV
      -------------------------------------------------------------
         1        2.0000           -0.7488714             -20.3778
       ...           ...                  ...                  ...
        18        2.0000           -0.4684676             -12.7477
        19        2.0000           -0.4661594             -12.6848
        20        2.0000           -0.4574010             -12.4465
        21        2.0000           -0.4550301             -12.3820
        22        2.0000           -0.4418489             -12.0233
        23        2.0000           -0.4397400             -11.9659
        24        1.0000           -0.3333777              -9.0717 (HOMO)
        25                         -0.1709121              -4.6508 (LUMO)
        26                         -0.0777556              -2.1158
        27                          0.0508242               1.3830
        28                          0.0723452               1.9686
        29                          0.0979960               2.6666
       ...                                ...                  ...
        41                          0.4153856              11.3032
      -------------------------------------------------------------
                  HL-Gap            0.1624656 Eh            4.4209 eV
             Fermi-level           -0.3193519 Eh           -8.6900 eV

 SCC (total)                   0 d,  0 h,  0 min,  0.016 sec
 SCC setup                      ...        0 min,  0.000 sec (  2.860%)
 Dispersion                     ...        0 min,  0.000 sec (  1.810%)
 classical contributions        ...        0 min,  0.000 sec (  1.048%)
 integral evaluation            ...        0 min,  0.001 sec (  7.945%)
 iterations                     ...        0 min,  0.011 sec ( 66.480%)
 molecular gradient             ...        0 min,  0.003 sec ( 16.099%)
 printout                       ...        0 min,  0.001 sec (  3.659%)

         :::::::::::::::::::::::::::::::::::::::::::::::::::::
         ::                     SUMMARY                     ::
         :::::::::::::::::::::::::::::::::::::::::::::::::::::
         :: total energy             -27.307090970155 Eh    ::
         :: gradient norm              0.003460687581 Eh/a0 ::
         :: HOMO-LUMO gap              4.420913932288 eV    ::
         ::.................................................::
         :: SCC energy               -27.553040238686 Eh    ::
         :: -> isotropic ES            0.042870867989 Eh    ::
         :: -> anisotropic ES         -0.003824501570 Eh    ::
         :: -> anisotropic XC         -0.004610484356 Eh    ::
         :: -> dispersion             -0.009552676247 Eh    ::
         :: repulsion energy           0.245949268531 Eh    ::
         :: add. restraining           0.000000000000 Eh    ::
         :: total charge               0.000000000000 e     ::
         :::::::::::::::::::::::::::::::::::::::::::::::::::::


Property printout bound to 'properties.out'

           -------------------------------------------------
          | TOTAL ENERGY              -27.307090970155 Eh   |
          | GRADIENT NORM               0.003460687581 Eh/α |
          | HOMO-LUMO GAP               4.420913932288 eV   |
           -------------------------------------------------

------------------------------------------------------------------------
 * finished run on 2026/02/17 at 15:18:00.607     
------------------------------------------------------------------------
 total:
 * wall-time:     0 d,  0 h,  0 min,  0.033 sec
 *  cpu-time:     0 d,  0 h,  0 min,  0.172 sec
 * ratio c/w:     5.236 speedup
 SCF:
 * wall-time:     0 d,  0 h,  0 min,  0.017 sec
 *  cpu-time:     0 d,  0 h,  0 min,  0.094 sec
 * ratio c/w:     5.702 speedup


-------------------------   --------------------
FINAL SINGLE POINT ENERGY       -27.307090970160
-------------------------   --------------------


-------------
DIPOLE MOMENT
-------------
                                X             Y             Z
Total Dipole Moment    :     -0.62700      -0.24100       0.30100
                        -----------------------------------------
Magnitude (a.u.)       :      0.73608
Magnitude (Debye)      :      1.87096


------------------
CARTESIAN GRADIENT
------------------

   1   C   :   -0.000172972    0.000100868   -0.000075244
   2   C   :   -0.000188090   -0.000018800   -0.000133858
   3   C   :    0.000165659   -0.001396976    0.000452901
   4   C   :   -0.000082303    0.001616003   -0.000430294
   5   C   :    0.000560246   -0.001513841    0.001095499
   6   O   :   -0.000002007   -0.000433156   -0.000138855
   7   O   :   -0.000341079   -0.000419607    0.000096808
   8   O   :    0.000284292    0.000693087   -0.001011465
   9   H   :   -0.000023425   -0.000007356   -0.000029551
  10   H   :    0.000163091    0.000016202    0.000100341
  11   H   :   -0.000029799   -0.000073742   -0.000001726
  12   H   :    0.000014671   -0.000000140    0.000085201
  13   H   :    0.000068291   -0.000048588   -0.000015141
  14   H   :   -0.000060568    0.000644383   -0.000023932
  15   H   :    0.000104893    0.000280025   -0.000168974
  16   H   :   -0.000403781    0.000402148    0.000201094
  17   H   :   -0.000057119    0.000159490   -0.000002805

Difference to translation invariance:
           :    0.0000000000   -0.0000000000    0.0000000000

Difference to rotation invariance:
           :    0.0000004308   -0.0000009180    0.0000010787

Norm of the Cartesian gradient     ...    0.0034606876
RMS gradient                       ...    0.0004845932
MAX gradient                       ...    0.0016160034
------------------------------------------------------------------------------
                         ORCA GEOMETRY RELAXATION STEP
------------------------------------------------------------------------------

Reading the OPT-File                    .... done
Getting information on internals        .... done
Copying old internal coords+grads       .... done
Making the new internal coordinates     .... (2022 redundants) done
Validating the new internal coordinates .... (2022 redundants) done
Calculating the B-matrix                .... done
Calculating the G,G- and P matrices     .... done
Transforming gradient to internals      .... done
Projecting the internal gradient        .... done
Number of atoms                         ....  17
Number of internal coordinates          ....  76
Current Energy                          ....   -27.307090970 Eh
Current gradient norm                   ....     0.003460688 Eh/bohr
Maximum allowed component of the step   ....  0.300
Current trust radius                    ....  0.675
Updating the Hessian (BFGS)             .... done
Forming the augmented Hessian           .... done
Diagonalizing the augmented Hessian     .... done
Last element of RFO vector              ....  0.997187232
Lowest eigenvalues of augmented Hessian:
 -0.000052489  0.004853153  0.011127415  0.011656345  0.012103310
Length of the computed step             ....  0.075162223
The final length of the internal step   ....  0.075162223
Converting the step to Cartesian space:
 Initial RMS(Int)=    0.0086216982
Transforming coordinates:
 Iter   0:  RMS(Cart)=    0.0166078900 RMS(Int)=    0.0086495438
done
Storing new coordinates                 .... done
The predicted energy change is          ....    -0.000026393
Previously predicted energy change      ....    -0.000073359
Actually observed energy change         ....    -0.000096020
Ratio of predicted to observed change   ....     1.308899715
New trust radius                        ....     0.675000000

                                .--------------------.
          ----------------------|Geometry convergence|-------------------------
          Item                value                   Tolerance       Converged
          ---------------------------------------------------------------------
          Energy change      -0.0000960201            0.0000050000      NO
          RMS gradient        0.0002295866            0.0001000000      NO
          MAX gradient        0.0011426936            0.0003000000      NO
          RMS step            0.0086216982            0.0020000000      NO
          MAX step            0.0374440369            0.0040000000      NO
          -------------------------------------------------------------------------
          ........................................................
          Max(Bonds)      0.0014      Max(Angles)    0.59
          Max(Dihed)        2.15      Max(Improp)    0.00
          ---------------------------------------------------------------------

    ---------------------------------------------------------------------------
                         Redundant Internal Coordinates
                            (Angstroem and degrees)

        Definition                    Value    dE/dq     Step     New-Value
    ----------------------------------------------------------------------------
     1. B(C   1,C   0)                1.5228  0.000025 -0.0001    1.5227   
     2. B(C   2,C   1)                1.5316  0.000159 -0.0005    1.5311   
     3. B(C   3,C   2)                1.4816  0.000386 -0.0014    1.4801   
     4. B(C   4,C   3)                1.4475 -0.000079 -0.0010    1.4465   
     5. B(O   6,C   4)                1.4348  0.000301  0.0009    1.4357   
     6. B(O   6,C   3)                1.3672 -0.000309  0.0003    1.3675   
     7. B(O   7,C   4)                1.3667  0.001143 -0.0011    1.3656   
     8. B(O   7,O   5)                1.4205 -0.000232  0.0008    1.4213   
     9. B(H   8,C   0)                1.0870  0.000023 -0.0000    1.0870   
    10. B(H   9,C   0)                1.0876  0.000078 -0.0001    1.0875   
    11. B(H  10,C   0)                1.0878  0.000059 -0.0001    1.0877   
    12. B(H  11,C   1)                1.0912  0.000043 -0.0000    1.0912   
    13. B(H  12,C   1)                1.0916 -0.000012  0.0001    1.0917   
    14. B(H  13,C   2)                1.0996 -0.000176  0.0007    1.1003   
    15. B(H  14,C   2)                1.0911 -0.000115  0.0003    1.0914   
    16. B(H  15,C   4)                1.0881 -0.000229  0.0001    1.0882   
    17. B(H  16,O   5)                0.9697  0.000166 -0.0003    0.9695   
    18. A(H   8,C   0,H   9)          108.88  0.000099   -0.05    108.83   
    19. A(H   8,C   0,H  10)          108.55 -0.000016   -0.01    108.54   
    20. A(C   1,C   0,H   8)          110.65  0.000095   -0.03    110.62   
    21. A(C   1,C   0,H  10)          110.63 -0.000022    0.02    110.64   
    22. A(H   9,C   0,H  10)          108.37  0.000087    0.00    108.37   
    23. A(C   1,C   0,H   9)          109.71 -0.000238    0.07    109.78   
    24. A(C   0,C   1,H  12)          109.95  0.000076   -0.05    109.90   
    25. A(C   0,C   1,C   2)          111.26 -0.000022    0.05    111.31   
    26. A(C   2,C   1,H  12)          108.94 -0.000095    0.01    108.95   
    27. A(H  11,C   1,H  12)          108.16  0.000051   -0.04    108.12   
    28. A(C   0,C   1,H  11)          109.67  0.000040   -0.01    109.65   
    29. A(C   2,C   1,H  11)          108.80 -0.000051    0.04    108.84   
    30. A(C   3,C   2,H  13)          109.23 -0.000245    0.23    109.45   
    31. A(H  13,C   2,H  14)          108.77  0.000390   -0.36    108.41   
    32. A(C   3,C   2,H  14)          108.06 -0.000389    0.10    108.16   
    33. A(C   1,C   2,H  14)          110.24  0.000057    0.04    110.28   
    34. A(C   1,C   2,H  13)          109.14 -0.000021    0.02    109.16   
    35. A(C   1,C   2,C   3)          111.36  0.000211   -0.04    111.32   
    36. A(C   2,C   3,C   4)          133.27 -0.000472    0.59    133.86   
    37. A(C   4,C   3,O   6)           61.21  0.000214    0.06     61.28   
    38. A(C   2,C   3,O   6)          127.18 -0.000172    0.25    127.43   
    39. A(O   7,C   4,H  15)          115.54  0.000439   -0.12    115.42   
    40. A(O   6,C   4,H  15)          113.59 -0.000132    0.11    113.69   
    41. A(C   3,C   4,H  15)          123.43 -0.000023    0.03    123.46   
    42. A(C   3,C   4,O   6)           56.63 -0.000172    0.01     56.65   
    43. A(O   6,C   4,O   7)          117.27 -0.000105   -0.14    117.13   
    44. A(C   3,C   4,O   7)          116.70 -0.000359    0.14    116.84   
    45. A(O   7,O   5,H  16)          104.53 -0.000012   -0.18    104.35   
    46. A(C   3,O   6,C   4)           62.15 -0.000042   -0.08     62.08   
    47. A(C   4,O   7,O   5)          111.27  0.000207   -0.13    111.14   
    48. D(H  11,C   1,C   0,H   9)     62.92  0.000034    0.01     62.93   
    49. D(C   2,C   1,C   0,H  10)     62.02  0.000027   -0.01     62.00   
    50. D(H  11,C   1,C   0,H  10)   -177.57 -0.000024    0.06   -177.51   
    51. D(C   2,C   1,C   0,H   9)    -57.50  0.000085   -0.07    -57.56   
    52. D(H  11,C   1,C   0,H   8)    -57.23  0.000004    0.04    -57.19   
    53. D(C   2,C   1,C   0,H   8)   -177.65  0.000055   -0.03   -177.68   
    54. D(C   3,C   2,C   1,C   0)     63.03  0.000033    0.25     63.29   
    55. D(H  13,C   2,C   1,H  12)    -54.93 -0.000135    0.50    -54.43   
    56. D(H  13,C   2,C   1,C   0)   -176.30 -0.000153    0.53   -175.78   
    57. D(C   3,C   2,C   1,H  12)   -175.60  0.000051    0.23   -175.37   
    58. D(H  13,C   2,C   1,H  11)     62.77 -0.000156    0.48     63.26   
    59. D(C   3,C   2,C   1,H  11)    -57.89  0.000030    0.21    -57.68   
    60. D(C   4,C   3,C   2,H  14)    -76.67  0.000012   -1.24    -77.91   
    61. D(C   4,C   3,C   2,H  13)     41.51  0.000120   -1.48     40.02   
    62. D(C   4,C   3,C   2,C   1)    162.12  0.000066   -1.33    160.79   
    63. D(O   6,C   3,C   2,H  13)    -41.83  0.000251   -2.15    -43.97   
    64. D(O   6,C   3,C   2,C   1)     78.79  0.000196   -1.99     76.80   
    65. D(H  15,C   4,C   3,O   6)     98.01 -0.000260    0.12     98.13   
    66. D(H  15,C   4,C   3,C   2)    -17.44 -0.000266   -0.16    -17.59   
    67. D(O   7,C   4,C   3,O   6)   -106.43 -0.000005    0.23   -106.20   
    68. D(O   7,C   4,C   3,C   2)    138.12 -0.000011   -0.05    138.07   
    69. D(O   6,C   4,C   3,C   2)   -115.45 -0.000006   -0.28   -115.73   
    70. D(C   3,O   6,C   4,H  15)   -115.61 -0.000012    0.02   -115.59   
    71. D(C   3,O   6,C   4,O   7)    105.42 -0.000451    0.25    105.67   
    72. D(C   4,O   6,C   3,C   2)    124.39 -0.000455    0.74    125.13   
    73. D(C   4,O   7,O   5,H  16)   -103.60  0.000057   -1.31   -104.92   
    74. D(O   5,O   7,C   4,H  15)    -48.00  0.000140   -0.18    -48.18   
    75. D(O   5,O   7,C   4,O   6)     90.18  0.000353   -0.33     89.85   
    76. D(O   5,O   7,C   4,C   3)    154.50  0.000001   -0.30    154.20   
    ----------------------------------------------------------------------------

Geometry step timings:
Preparation and reading OPT file:      0.000 s ( 0.374 %)
Internal coordinates            :      0.000 s ( 0.534 %)
B/P matrices and projection     :      0.001 s (21.774 %)
Hessian update/contruction      :      0.001 s (23.324 %)
Making the step                 :      0.001 s (16.538 %)
Converting the step to Cartesian:      0.000 s ( 2.137 %)
Storing new data                :      0.000 s ( 0.561 %)
Checking convergence            :      0.000 s ( 0.721 %)
Final printing                  :      0.001 s (34.010 %)
Total time                      :      0.004 s

Time for energy+gradient        :      0.045 s
Time for complete geometry iter :      0.050 s

         *************************************************************
         *                GEOMETRY OPTIMIZATION CYCLE   8            *
         *************************************************************
---------------------------------
CARTESIAN COORDINATES (ANGSTROEM)
---------------------------------
  C    -2.164768   -0.446964   -1.100541
  C    -1.850780   -0.716074    0.364960
  C    -0.402310   -1.177288    0.548062
  C     0.553573   -0.123501    0.139887
  C     1.952144    0.122256    0.415729
  O     3.844358    1.283420   -0.181129
  O     0.898231    1.001053    0.837570
  O     2.724261    0.533968   -0.632674
  H    -3.182261   -0.081567   -1.213145
  H    -1.478263    0.299645   -1.492895
  H    -2.056387   -1.355261   -1.689025
  H    -2.007138    0.193663    0.946856
  H    -2.519842   -1.486549    0.752981
  H    -0.235773   -1.433719    1.605012
  H    -0.208637   -2.064939   -0.056769
  H     2.491550   -0.340670    1.239760
  H     3.619517    2.202475   -0.392440

----------------------------
CARTESIAN COORDINATES (A.U.)
----------------------------
  NO LB    ZA    FRAG    MASS        X           Y           Z
   0 C   6.0000    1    12.011   -4.090819   -0.844639   -2.079720
   1 C   6.0000    1    12.011   -3.497468   -1.353184    0.689674
   2 C   6.0000    1    12.011   -0.760256   -2.224751    1.035686
   3 C   6.0000    1    12.011    1.046101   -0.233384    0.264348
   4 C   6.0000    1    12.011    3.689018    0.231030    0.785614
   5 O   8.0000    1    15.999    7.264783    2.425312   -0.342285
   6 O   8.0000    1    15.999    1.697411    1.891716    1.582778
   7 O   8.0000    1    15.999    5.148107    1.009053   -1.195580
   8 H   1.0000    1     1.008   -6.013602   -0.154138   -2.292511
   9 H   1.0000    1     1.008   -2.793512    0.566247   -2.821163
  10 H   1.0000    1     1.008   -3.886009   -2.561073   -3.191794
  11 H   1.0000    1     1.008   -3.792940    0.365971    1.789299
  12 H   1.0000    1     1.008   -4.761811   -2.809171    1.422927
  13 H   1.0000    1     1.008   -0.445546   -2.709336    3.033033
  14 H   1.0000    1     1.008   -0.394266   -3.902169   -0.107278
  15 H   1.0000    1     1.008    4.708346   -0.643772    2.342807
  16 H   1.0000    1     1.008    6.839896    4.162074   -0.741604

      -----------------------------------------------------------      
     |                   =====================                   |     
     |                           x T B                           |     
     |                   =====================                   |     
     |                         S. Grimme                         |     
     |          Mulliken Center for Theoretical Chemistry        |     
     |                    University of Bonn                     |     
      -----------------------------------------------------------      

   * xtb version 6.7.1 (edcfbbe) compiled by 'albert@albert-system' on 2024-07-22

   xtb is free software: you can redistribute it and/or modify it under
   the terms of the GNU Lesser General Public License as published by
   the Free Software Foundation, either version 3 of the License, or
   (at your option) any later version.
   
   xtb is distributed in the hope that it will be useful,
   but WITHOUT ANY WARRANTY; without even the implied warranty of
   MERCHANTABILITY or FITNESS FOR A PARTICULAR PURPOSE.  See the
   GNU Lesser General Public License for more details.
   
   Cite this work as:
   * C. Bannwarth, E. Caldeweyher, S. Ehlert, A. Hansen, P. Pracht,
     J. Seibert, S. Spicher, S. Grimme, WIREs Comput. Mol. Sci., 2020, 11,
     e01493. DOI: 10.1002/wcms.1493
   
   for GFN2-xTB:
   * C. Bannwarth, S. Ehlert and S. Grimme., J. Chem. Theory Comput., 2019,
     15, 1652-1671. DOI: 10.1021/acs.jctc.8b01176
   for GFN1-xTB:
   * S. Grimme, C. Bannwarth, P. Shushkov, J. Chem. Theory Comput., 2017,
     13, 1989-2009. DOI: 10.1021/acs.jctc.7b00118
   for GFN0-xTB:
   * P. Pracht, E. Caldeweyher, S. Ehlert, S. Grimme, ChemRxiv, 2019, preprint.
     DOI: 10.26434/chemrxiv.8326202.v1
   for GFN-FF:
   * S. Spicher and S. Grimme, Angew. Chem. Int. Ed., 2020, 59, 15665-15673.
     DOI: 10.1002/anie.202004239
   
   for ALPB and GBSA implicit solvation:
   * S. Ehlert, M. Stahn, S. Spicher, S. Grimme, J. Chem. Theory Comput.,
     2021, 17, 4250-4261. DOI: 10.1021/acs.jctc.1c00471
   
   for ddCOSMO and CPCM-X implicit solvation:
   * M. Stahn, S. Ehlert, S. Grimme, J. Phys. Chem. A,
     2023, XX, XXXX-XXXX. DOI: 10.1021/acs.jpca.3c04382
   
   for DFT-D4:
   * E. Caldeweyher, C. Bannwarth and S. Grimme, J. Chem. Phys., 2017,
     147, 034112. DOI: 10.1063/1.4993215
   * E. Caldeweyher, S. Ehlert, A. Hansen, H. Neugebauer, S. Spicher,
     C. Bannwarth and S. Grimme, J. Chem. Phys., 2019, 150, 154122.
     DOI: 10.1063/1.5090222
   * E. Caldeweyher, J.-M. Mewes, S. Ehlert and S. Grimme, Phys. Chem. Chem. Phys.
     2020, 22, 8499-8512. DOI: 10.1039/D0CP00502A
   
   for sTDA-xTB:
   * S. Grimme and C. Bannwarth, J. Chem. Phys., 2016, 145, 054103.
     DOI: 10.1063/1.4959605
   
   in the mass-spec context:
   * V. Asgeirsson, C. Bauer and S. Grimme, Chem. Sci., 2017, 8, 4879.
     DOI: 10.1039/c7sc00601b
   * J. Koopman and S. Grimme, ACS Omega 2019, 4, 12, 15120-15133.
     DOI: 10.1021/acsomega.9b02011
   
   for metadynamics refer to:
   * S. Grimme, J. Chem. Theory Comput., 2019, 155, 2847-2862
     DOI: 10.1021/acs.jctc.9b00143
   
   for SPH calculations refer to:
   * S. Spicher and S. Grimme, J. Chem. Theory Comput., 2021, 17, 1701-1714
     DOI: 10.1021/acs.jctc.0c01306
   
   for ONIOM refer to:
   * C. Plett, A. Katbashev, S. Ehlert, S. Grimme, M. Bursch,
     Phys. Chem. Chem. Phys., 2023, 25, 17860-17868. DOI: 10.1039/D3CP02178E
   
   for DIPRO refer to:
   * J. Kohn, N. Gildemeister, S. Grimme, D. Fazzi, A. Hansen,
     J. Chem. Phys., 2023, just accepted.
   
   for PTB refer to:
   * S. Grimme, M. Mueller, A. Hansen, J. Chem. Phys., 2023, 158, 124111.
     DOI: 10.1063/5.0137838
   
   with help from (in alphabetical order)
   P. Atkinson, C. Bannwarth, F. Bohle, G. Brandenburg, E. Caldeweyher
   M. Checinski, S. Dohm, S. Ehlert, S. Ehrlich, I. Gerasimov, C. Hölzer
   A. Katbashev, J. Kohn, J. Koopman, C. Lavigne, S. Lehtola, F. März, M. Müller,
   F. Musil, H. Neugebauer, J. Pisarek, C. Plett, P. Pracht, F. Pultar,
   J. Seibert, P. Shushkov, S. Spicher, M. Stahn, M. Steiner, T. Strunk,
   J. Stückrath, T. Rose, and J. Unsleber
   
 * started run on 2026/02/17 at 15:18:00.624     
   ID    Z sym.   atoms
    1    6 C      1-5
    2    8 O      6-8
    3    1 H      9-17

           -------------------------------------------------
          |                Calculation Setup                |
           -------------------------------------------------

          program call               : /apps/eb/ORCA/6.1.1-gompi-2024a-avx2/bin/otool_xtb goat_XTB.xyz --grad -c 0 -u 1 -P 8 --namespace goat --input goat_XTB.input.tmp --acc 0.200000
          hostname                   : d5-8
          calculation namespace      : goat
          coordinate file            : goat_XTB.xyz
          omp threads                :                     8


           -------------------------------------------------
          |                 G F N 2 - x T B                 |
           -------------------------------------------------

        Reference                      10.1021/acs.jctc.8b01176
      * Hamiltonian:
        H0-scaling (s, p, d)           1.850000    2.230000    2.230000
        zeta-weighting                 0.500000
      * Dispersion:
        s8                             2.700000
        a1                             0.520000
        a2                             5.000000
        s9                             5.000000
      * Repulsion:
        kExp                           1.500000    1.000000
        rExp                           1.000000
      * Coulomb:
        alpha                          2.000000
        third order                    shell-resolved
        anisotropic                    true
        a3                             3.000000
        a5                             4.000000
        cn-shift                       1.200000
        cn-exp                         4.000000
        max-rad                        5.000000

q/qsh data taken from xtbrestart
CAMM data taken from xtbrestart

          ...................................................
          :                      SETUP                      :
          :.................................................:
          :  # basis functions                  41          :
          :  # atomic orbitals                  41          :
          :  # shells                           25          :
          :  # electrons                        47          :
          :  max. iterations                   250          :
          :  Hamiltonian                  GFN2-xTB          :
          :  restarted?                       true          :
          :  GBSA solvation                  false          :
          :  PC potential                    false          :
          :  electronic temp.          300.0000000     K    :
          :  accuracy                    0.2000000          :
          :  -> integral cutoff          0.3198970E+02      :
          :  -> integral neglect         0.2000000E-08      :
          :  -> SCF convergence          0.2000000E-06 Eh   :
          :  -> wf. convergence          0.2000000E-04 e    :
          :  Broyden damping             0.4000000          :
          :  net charge                          0          :
          :  unpaired electrons                  1          :
          ...................................................

 iter      E             dE          RMSdq      gap      omega  full diag
   1    -27.5533833 -0.275534E+02  0.760E-02    4.38       0.0  T
   2    -27.5533847 -0.143604E-05  0.473E-02    4.38       1.0  T
   3    -27.5533846  0.740536E-07  0.814E-03    4.38       3.0  T
   4    -27.5533854 -0.791521E-06  0.269E-03    4.38       9.0  T
   5    -27.5533854 -0.908876E-08  0.118E-03    4.38      20.6  T
   6    -27.5533854 -0.395276E-08  0.346E-04    4.38      70.1  T
   7    -27.5533854 -0.544379E-09  0.211E-04    4.38     114.9  T
   8    -27.5533854 -0.259131E-09  0.761E-05    4.38     318.9  T
   9    -27.5533854 -0.375131E-10  0.298E-05    4.38     814.5  T

   *** convergence criteria satisfied after 9 iterations ***

         #    Occupation            Energy/Eh            Energy/eV
      -------------------------------------------------------------
         1        2.0000           -0.7487398             -20.3742
       ...           ...                  ...                  ...
        18        2.0000           -0.4683290             -12.7439
        19        2.0000           -0.4664358             -12.6924
        20        2.0000           -0.4574204             -12.4470
        21        2.0000           -0.4544574             -12.3664
        22        2.0000           -0.4419047             -12.0248
        23        2.0000           -0.4396319             -11.9630
        24        1.0000           -0.3324806              -9.0473 (HOMO)
        25                         -0.1715906              -4.6692 (LUMO)
        26                         -0.0774504              -2.1075
        27                          0.0508034               1.3824
        28                          0.0723624               1.9691
        29                          0.0981466               2.6707
       ...                                ...                  ...
        41                          0.4193914              11.4122
      -------------------------------------------------------------
                  HL-Gap            0.1608900 Eh            4.3780 eV
             Fermi-level           -0.3190459 Eh           -8.6817 eV

 SCC (total)                   0 d,  0 h,  0 min,  0.011 sec
 SCC setup                      ...        0 min,  0.000 sec (  1.249%)
 Dispersion                     ...        0 min,  0.000 sec (  1.348%)
 classical contributions        ...        0 min,  0.000 sec (  0.659%)
 integral evaluation            ...        0 min,  0.001 sec (  4.411%)
 iterations                     ...        0 min,  0.009 sec ( 75.627%)
 molecular gradient             ...        0 min,  0.001 sec ( 13.208%)
 printout                       ...        0 min,  0.000 sec (  3.366%)

         :::::::::::::::::::::::::::::::::::::::::::::::::::::
         ::                     SUMMARY                     ::
         :::::::::::::::::::::::::::::::::::::::::::::::::::::
         :: total energy             -27.307127102619 Eh    ::
         :: gradient norm              0.002372294706 Eh/a0 ::
         :: HOMO-LUMO gap              4.378040317466 eV    ::
         ::.................................................::
         :: SCC energy               -27.553382453791 Eh    ::
         :: -> isotropic ES            0.042918251974 Eh    ::
         :: -> anisotropic ES         -0.003863403815 Eh    ::
         :: -> anisotropic XC         -0.004611109192 Eh    ::
         :: -> dispersion             -0.009556719978 Eh    ::
         :: repulsion energy           0.246255351172 Eh    ::
         :: add. restraining           0.000000000000 Eh    ::
         :: total charge              -0.000000000000 e     ::
         :::::::::::::::::::::::::::::::::::::::::::::::::::::


Property printout bound to 'properties.out'

           -------------------------------------------------
          | TOTAL ENERGY              -27.307127102619 Eh   |
          | GRADIENT NORM               0.002372294706 Eh/α |
          | HOMO-LUMO GAP               4.378040317466 eV   |
           -------------------------------------------------

------------------------------------------------------------------------
 * finished run on 2026/02/17 at 15:18:00.652     
------------------------------------------------------------------------
 total:
 * wall-time:     0 d,  0 h,  0 min,  0.027 sec
 *  cpu-time:     0 d,  0 h,  0 min,  0.153 sec
 * ratio c/w:     5.639 speedup
 SCF:
 * wall-time:     0 d,  0 h,  0 min,  0.011 sec
 *  cpu-time:     0 d,  0 h,  0 min,  0.068 sec
 * ratio c/w:     5.953 speedup


-------------------------   --------------------
FINAL SINGLE POINT ENERGY       -27.307127102620
-------------------------   --------------------


-------------
DIPOLE MOMENT
-------------
                                X             Y             Z
Total Dipole Moment    :     -0.62800      -0.24500       0.27900
                        -----------------------------------------
Magnitude (a.u.)       :      0.72955
Magnitude (Debye)      :      1.85438


------------------
CARTESIAN GRADIENT
------------------

   1   C   :   -0.000090753    0.000038501   -0.000017908
   2   C   :    0.000135251    0.000023219   -0.000140125
   3   C   :   -0.000000086   -0.000498232   -0.000099293
   4   C   :    0.000222992    0.000967030    0.000258112
   5   C   :    0.000612480   -0.001541536    0.000346139
   6   O   :    0.000172481   -0.000293562    0.000169113
   7   O   :   -0.000393117    0.000188771   -0.000142866
   8   O   :   -0.000239640    0.000668501   -0.000506655
   9   H   :    0.000013523    0.000005342   -0.000017183
  10   H   :    0.000065890   -0.000012378    0.000053854
  11   H   :   -0.000051551   -0.000013132    0.000008901
  12   H   :   -0.000077523   -0.000049008    0.000070065
  13   H   :    0.000009449   -0.000036411   -0.000005403
  14   H   :   -0.000083028    0.000211825    0.000058805
  15   H   :    0.000107405    0.000049501    0.000047759
  16   H   :   -0.000226352    0.000302853    0.000018265
  17   H   :   -0.000177421   -0.000011282   -0.000101580

Difference to translation invariance:
           :   -0.0000000000    0.0000000000    0.0000000000

Difference to rotation invariance:
           :    0.0000002852   -0.0000003357    0.0000002538

Norm of the Cartesian gradient     ...    0.0023722947
RMS gradient                       ...    0.0003321877
MAX gradient                       ...    0.0015415361
------------------------------------------------------------------------------
                         ORCA GEOMETRY RELAXATION STEP
------------------------------------------------------------------------------

Reading the OPT-File                    .... done
Getting information on internals        .... done
Copying old internal coords+grads       .... done
Making the new internal coordinates     .... (2022 redundants) done
Validating the new internal coordinates .... (2022 redundants) done
Calculating the B-matrix                .... done
Calculating the G,G- and P matrices     .... done
Transforming gradient to internals      .... done
Projecting the internal gradient        .... done
Number of atoms                         ....  17
Number of internal coordinates          ....  76
Current Energy                          ....   -27.307127103 Eh
Current gradient norm                   ....     0.002372295 Eh/bohr
Maximum allowed component of the step   ....  0.300
Current trust radius                    ....  0.675
Updating the Hessian (BFGS)             .... done
Forming the augmented Hessian           .... done
Diagonalizing the augmented Hessian     .... done
Last element of RFO vector              ....  0.997759554
Lowest eigenvalues of augmented Hessian:
 -0.000027753  0.003720207  0.009999907  0.011527512  0.011964347
Length of the computed step             ....  0.067052193
The final length of the internal step   ....  0.067052193
Converting the step to Cartesian space:
 Initial RMS(Int)=    0.0076914141
Transforming coordinates:
 Iter   0:  RMS(Cart)=    0.0143728255 RMS(Int)=    0.0077036908
done
Storing new coordinates                 .... done
The predicted energy change is          ....    -0.000013939
Previously predicted energy change      ....    -0.000026393
Actually observed energy change         ....    -0.000036132
Ratio of predicted to observed change   ....     1.369033067
New trust radius                        ....     0.675000000

                                .--------------------.
          ----------------------|Geometry convergence|-------------------------
          Item                value                   Tolerance       Converged
          ---------------------------------------------------------------------
          Energy change      -0.0000361325            0.0000050000      NO
          RMS gradient        0.0001338752            0.0001000000      NO
          MAX gradient        0.0003613347            0.0003000000      NO
          RMS step            0.0076914141            0.0020000000      NO
          MAX step            0.0299641397            0.0040000000      NO
          -------------------------------------------------------------------------
          ........................................................
          Max(Bonds)      0.0010      Max(Angles)    0.37
          Max(Dihed)        1.72      Max(Improp)    0.00
          ---------------------------------------------------------------------

    ---------------------------------------------------------------------------
                         Redundant Internal Coordinates
                            (Angstroem and degrees)

        Definition                    Value    dE/dq     Step     New-Value
    ----------------------------------------------------------------------------
     1. B(C   1,C   0)                1.5227 -0.000010 -0.0000    1.5227   
     2. B(C   2,C   1)                1.5311 -0.000012 -0.0002    1.5309   
     3. B(C   3,C   2)                1.4801  0.000170 -0.0010    1.4791   
     4. B(C   4,C   3)                1.4465 -0.000244 -0.0002    1.4464   
     5. B(O   6,C   4)                1.4356  0.000324 -0.0003    1.4353   
     6. B(O   6,C   3)                1.3675 -0.000127  0.0005    1.3680   
     7. B(O   7,C   4)                1.3656  0.000308 -0.0009    1.3646   
     8. B(O   7,O   5)                1.4213 -0.000143  0.0006    1.4220   
     9. B(H   8,C   0)                1.0870 -0.000009  0.0000    1.0870   
    10. B(H   9,C   0)                1.0875  0.000014 -0.0001    1.0874   
    11. B(H  10,C   0)                1.0877  0.000001 -0.0000    1.0877   
    12. B(H  11,C   1)                1.0912  0.000008 -0.0000    1.0912   
    13. B(H  12,C   1)                1.0917  0.000018  0.0000    1.0917   
    14. B(H  13,C   2)                1.1003 -0.000005  0.0004    1.1007   
    15. B(H  14,C   2)                1.0914 -0.000048  0.0003    1.0917   
    16. B(H  15,C   4)                1.0882 -0.000227  0.0004    1.0887   
    17. B(H  16,O   5)                0.9695  0.000053 -0.0002    0.9693   
    18. A(H   8,C   0,H   9)          108.83  0.000039   -0.04    108.79   
    19. A(H   8,C   0,H  10)          108.54 -0.000023    0.00    108.54   
    20. A(C   1,C   0,H   8)          110.62  0.000047   -0.03    110.59   
    21. A(C   1,C   0,H  10)          110.65  0.000009    0.01    110.65   
    22. A(H   9,C   0,H  10)          108.37  0.000044   -0.01    108.37   
    23. A(C   1,C   0,H   9)          109.78 -0.000115    0.06    109.84   
    24. A(C   0,C   1,H  12)          109.90  0.000012   -0.03    109.87   
    25. A(C   0,C   1,C   2)          111.31  0.000057    0.01    111.32   
    26. A(C   2,C   1,H  12)          108.95 -0.000051    0.02    108.97   
    27. A(H  11,C   1,H  12)          108.12 -0.000005   -0.01    108.11   
    28. A(C   0,C   1,H  11)          109.65 -0.000004   -0.01    109.64   
    29. A(C   2,C   1,H  11)          108.84 -0.000012    0.02    108.86   
    30. A(C   3,C   2,H  13)          109.46 -0.000033    0.14    109.60   
    31. A(H  13,C   2,H  14)          108.42  0.000065   -0.21    108.21   
    32. A(C   3,C   2,H  14)          108.16 -0.000112    0.08    108.23   
    33. A(C   1,C   2,H  14)          110.28  0.000043   -0.00    110.27   
    34. A(C   1,C   2,H  13)          109.16 -0.000075    0.04    109.20   
    35. A(C   1,C   2,C   3)          111.32  0.000111   -0.05    111.27   
    36. A(C   2,C   3,C   4)          133.85 -0.000227    0.37    134.22   
    37. A(C   4,C   3,O   6)           61.27  0.000227   -0.02     61.25   
    38. A(C   2,C   3,O   6)          127.41 -0.000062    0.06    127.48   
    39. A(O   7,C   4,H  15)          115.43  0.000299   -0.14    115.28   
    40. A(O   6,C   4,H  15)          113.69  0.000004    0.10    113.79   
    41. A(C   3,C   4,H  15)          123.46  0.000052   -0.06    123.40   
    42. A(C   3,C   4,O   6)           56.65 -0.000068    0.03     56.68   
    43. A(O   6,C   4,O   7)          117.14 -0.000286    0.05    117.19   
    44. A(C   3,C   4,O   7)          116.84 -0.000265    0.13    116.97   
    45. A(O   7,O   5,H  16)          104.35 -0.000361   -0.03    104.32   
    46. A(C   3,O   6,C   4)           62.08 -0.000159   -0.01     62.07   
    47. A(C   4,O   7,O   5)          111.14 -0.000173   -0.04    111.10   
    48. D(H  11,C   1,C   0,H   9)     62.93  0.000047   -0.21     62.71   
    49. D(C   2,C   1,C   0,H  10)     62.00  0.000015   -0.20     61.80   
    50. D(H  11,C   1,C   0,H  10)   -177.51  0.000035   -0.18   -177.68   
    51. D(C   2,C   1,C   0,H   9)    -57.56  0.000027   -0.24    -57.80   
    52. D(H  11,C   1,C   0,H   8)    -57.19  0.000042   -0.19    -57.38   
    53. D(C   2,C   1,C   0,H   8)   -177.68  0.000023   -0.21   -177.89   
    54. D(C   3,C   2,C   1,C   0)     63.29 -0.000034    0.42     63.71   
    55. D(H  13,C   2,C   1,H  12)    -54.43 -0.000037    0.58    -53.85   
    56. D(H  13,C   2,C   1,C   0)   -175.78 -0.000054    0.59   -175.18   
    57. D(C   3,C   2,C   1,H  12)   -175.37 -0.000017    0.40   -174.96   
    58. D(H  13,C   2,C   1,H  11)     63.26 -0.000078    0.59     63.84   
    59. D(C   3,C   2,C   1,H  11)    -57.68 -0.000058    0.41    -57.27   
    60. D(C   4,C   3,C   2,H  14)    -77.90  0.000189   -1.31    -79.21   
    61. D(C   4,C   3,C   2,H  13)     40.03  0.000184   -1.44     38.59   
    62. D(C   4,C   3,C   2,C   1)    160.80  0.000140   -1.32    159.47   
    63. D(O   6,C   3,C   2,H  13)    -43.98  0.000042   -1.72    -45.70   
    64. D(O   6,C   3,C   2,C   1)     76.79 -0.000003   -1.60     75.18   
    65. D(H  15,C   4,C   3,O   6)     98.14 -0.000062    0.18     98.32   
    66. D(H  15,C   4,C   3,C   2)    -17.59 -0.000190    0.16    -17.43   
    67. D(O   7,C   4,C   3,O   6)   -106.20  0.000235   -0.01   -106.21   
    68. D(O   7,C   4,C   3,C   2)    138.07  0.000107   -0.03    138.04   
    69. D(O   6,C   4,C   3,C   2)   -115.73 -0.000128   -0.02   -115.75   
    70. D(C   3,O   6,C   4,H  15)   -115.60 -0.000048    0.12   -115.48   
    71. D(C   3,O   6,C   4,O   7)    105.67 -0.000200    0.15    105.81   
    72. D(C   4,O   6,C   3,C   2)    125.12 -0.000154    0.46    125.58   
    73. D(C   4,O   7,O   5,H  16)   -104.92 -0.000029   -0.47   -105.39   
    74. D(O   5,O   7,C   4,H  15)    -48.18  0.000170   -0.67    -48.85   
    75. D(O   5,O   7,C   4,O   6)     89.86  0.000199   -0.61     89.25   
    76. D(O   5,O   7,C   4,C   3)    154.20 -0.000056   -0.50    153.70   
    ----------------------------------------------------------------------------

Geometry step timings:
Preparation and reading OPT file:      0.000 s ( 0.765 %)
Internal coordinates            :      0.000 s ( 0.918 %)
B/P matrices and projection     :      0.001 s (31.735 %)
Hessian update/contruction      :      0.000 s (13.980 %)
Making the step                 :      0.001 s (29.031 %)
Converting the step to Cartesian:      0.000 s ( 2.908 %)
Storing new data                :      0.000 s ( 1.071 %)
Checking convergence            :      0.000 s ( 1.429 %)
Final printing                  :      0.000 s (18.163 %)
Total time                      :      0.002 s

Time for energy+gradient        :      0.038 s
Time for complete geometry iter :      0.041 s

         *************************************************************
         *                GEOMETRY OPTIMIZATION CYCLE   9            *
         *************************************************************
---------------------------------
CARTESIAN COORDINATES (ANGSTROEM)
---------------------------------
  C    -2.166577   -0.445284   -1.098844
  C    -1.846361   -0.712547    0.365632
  C    -0.400679   -1.184114    0.542265
  C     0.559402   -0.135132    0.135217
  C     1.953745    0.122004    0.420934
  O     3.840298    1.294877   -0.167635
  O     0.891823    1.000633    0.821514
  O     2.735515    0.524004   -0.622841
  H    -3.183261   -0.076126   -1.206625
  H    -1.479953    0.297937   -1.497148
  H    -2.064992   -1.355201   -1.685982
  H    -1.993044    0.200001    0.945603
  H    -2.519446   -1.476708    0.759221
  H    -0.232639   -1.449052    1.597266
  H    -0.215252   -2.071472   -0.066032
  H     2.487915   -0.330029    1.254942
  H     3.610979    2.206158   -0.405288

----------------------------
CARTESIAN COORDINATES (A.U.)
----------------------------
  NO LB    ZA    FRAG    MASS        X           Y           Z
   0 C   6.0000    1    12.011   -4.094238   -0.841465   -2.076515
   1 C   6.0000    1    12.011   -3.489117   -1.346518    0.690945
   2 C   6.0000    1    12.011   -0.757174   -2.237652    1.024732
   3 C   6.0000    1    12.011    1.057116   -0.255363    0.255523
   4 C   6.0000    1    12.011    3.692044    0.230554    0.795449
   5 O   8.0000    1    15.999    7.257112    2.446963   -0.316784
   6 O   8.0000    1    15.999    1.685302    1.890922    1.552436
   7 O   8.0000    1    15.999    5.169375    0.990224   -1.176998
   8 H   1.0000    1     1.008   -6.015492   -0.143858   -2.280191
   9 H   1.0000    1     1.008   -2.796705    0.563020   -2.829200
  10 H   1.0000    1     1.008   -3.902269   -2.560958   -3.186044
  11 H   1.0000    1     1.008   -3.766307    0.377947    1.786931
  12 H   1.0000    1     1.008   -4.761063   -2.790573    1.434719
  13 H   1.0000    1     1.008   -0.439624   -2.738312    3.018395
  14 H   1.0000    1     1.008   -0.406767   -3.914515   -0.124782
  15 H   1.0000    1     1.008    4.701479   -0.623665    2.371497
  16 H   1.0000    1     1.008    6.823761    4.169034   -0.765883

      -----------------------------------------------------------      
     |                   =====================                   |     
     |                           x T B                           |     
     |                   =====================                   |     
     |                         S. Grimme                         |     
     |          Mulliken Center for Theoretical Chemistry        |     
     |                    University of Bonn                     |     
      -----------------------------------------------------------      

   * xtb version 6.7.1 (edcfbbe) compiled by 'albert@albert-system' on 2024-07-22

   xtb is free software: you can redistribute it and/or modify it under
   the terms of the GNU Lesser General Public License as published by
   the Free Software Foundation, either version 3 of the License, or
   (at your option) any later version.
   
   xtb is distributed in the hope that it will be useful,
   but WITHOUT ANY WARRANTY; without even the implied warranty of
   MERCHANTABILITY or FITNESS FOR A PARTICULAR PURPOSE.  See the
   GNU Lesser General Public License for more details.
   
   Cite this work as:
   * C. Bannwarth, E. Caldeweyher, S. Ehlert, A. Hansen, P. Pracht,
     J. Seibert, S. Spicher, S. Grimme, WIREs Comput. Mol. Sci., 2020, 11,
     e01493. DOI: 10.1002/wcms.1493
   
   for GFN2-xTB:
   * C. Bannwarth, S. Ehlert and S. Grimme., J. Chem. Theory Comput., 2019,
     15, 1652-1671. DOI: 10.1021/acs.jctc.8b01176
   for GFN1-xTB:
   * S. Grimme, C. Bannwarth, P. Shushkov, J. Chem. Theory Comput., 2017,
     13, 1989-2009. DOI: 10.1021/acs.jctc.7b00118
   for GFN0-xTB:
   * P. Pracht, E. Caldeweyher, S. Ehlert, S. Grimme, ChemRxiv, 2019, preprint.
     DOI: 10.26434/chemrxiv.8326202.v1
   for GFN-FF:
   * S. Spicher and S. Grimme, Angew. Chem. Int. Ed., 2020, 59, 15665-15673.
     DOI: 10.1002/anie.202004239
   
   for ALPB and GBSA implicit solvation:
   * S. Ehlert, M. Stahn, S. Spicher, S. Grimme, J. Chem. Theory Comput.,
     2021, 17, 4250-4261. DOI: 10.1021/acs.jctc.1c00471
   
   for ddCOSMO and CPCM-X implicit solvation:
   * M. Stahn, S. Ehlert, S. Grimme, J. Phys. Chem. A,
     2023, XX, XXXX-XXXX. DOI: 10.1021/acs.jpca.3c04382
   
   for DFT-D4:
   * E. Caldeweyher, C. Bannwarth and S. Grimme, J. Chem. Phys., 2017,
     147, 034112. DOI: 10.1063/1.4993215
   * E. Caldeweyher, S. Ehlert, A. Hansen, H. Neugebauer, S. Spicher,
     C. Bannwarth and S. Grimme, J. Chem. Phys., 2019, 150, 154122.
     DOI: 10.1063/1.5090222
   * E. Caldeweyher, J.-M. Mewes, S. Ehlert and S. Grimme, Phys. Chem. Chem. Phys.
     2020, 22, 8499-8512. DOI: 10.1039/D0CP00502A
   
   for sTDA-xTB:
   * S. Grimme and C. Bannwarth, J. Chem. Phys., 2016, 145, 054103.
     DOI: 10.1063/1.4959605
   
   in the mass-spec context:
   * V. Asgeirsson, C. Bauer and S. Grimme, Chem. Sci., 2017, 8, 4879.
     DOI: 10.1039/c7sc00601b
   * J. Koopman and S. Grimme, ACS Omega 2019, 4, 12, 15120-15133.
     DOI: 10.1021/acsomega.9b02011
   
   for metadynamics refer to:
   * S. Grimme, J. Chem. Theory Comput., 2019, 155, 2847-2862
     DOI: 10.1021/acs.jctc.9b00143
   
   for SPH calculations refer to:
   * S. Spicher and S. Grimme, J. Chem. Theory Comput., 2021, 17, 1701-1714
     DOI: 10.1021/acs.jctc.0c01306
   
   for ONIOM refer to:
   * C. Plett, A. Katbashev, S. Ehlert, S. Grimme, M. Bursch,
     Phys. Chem. Chem. Phys., 2023, 25, 17860-17868. DOI: 10.1039/D3CP02178E
   
   for DIPRO refer to:
   * J. Kohn, N. Gildemeister, S. Grimme, D. Fazzi, A. Hansen,
     J. Chem. Phys., 2023, just accepted.
   
   for PTB refer to:
   * S. Grimme, M. Mueller, A. Hansen, J. Chem. Phys., 2023, 158, 124111.
     DOI: 10.1063/5.0137838
   
   with help from (in alphabetical order)
   P. Atkinson, C. Bannwarth, F. Bohle, G. Brandenburg, E. Caldeweyher
   M. Checinski, S. Dohm, S. Ehlert, S. Ehrlich, I. Gerasimov, C. Hölzer
   A. Katbashev, J. Kohn, J. Koopman, C. Lavigne, S. Lehtola, F. März, M. Müller,
   F. Musil, H. Neugebauer, J. Pisarek, C. Plett, P. Pracht, F. Pultar,
   J. Seibert, P. Shushkov, S. Spicher, M. Stahn, M. Steiner, T. Strunk,
   J. Stückrath, T. Rose, and J. Unsleber
   
 * started run on 2026/02/17 at 15:18:00.665     
   ID    Z sym.   atoms
    1    6 C      1-5
    2    8 O      6-8
    3    1 H      9-17

           -------------------------------------------------
          |                Calculation Setup                |
           -------------------------------------------------

          program call               : /apps/eb/ORCA/6.1.1-gompi-2024a-avx2/bin/otool_xtb goat_XTB.xyz --grad -c 0 -u 1 -P 8 --namespace goat --input goat_XTB.input.tmp --acc 0.200000
          hostname                   : d5-8
          calculation namespace      : goat
          coordinate file            : goat_XTB.xyz
          omp threads                :                     8


           -------------------------------------------------
          |                 G F N 2 - x T B                 |
           -------------------------------------------------

        Reference                      10.1021/acs.jctc.8b01176
      * Hamiltonian:
        H0-scaling (s, p, d)           1.850000    2.230000    2.230000
        zeta-weighting                 0.500000
      * Dispersion:
        s8                             2.700000
        a1                             0.520000
        a2                             5.000000
        s9                             5.000000
      * Repulsion:
        kExp                           1.500000    1.000000
        rExp                           1.000000
      * Coulomb:
        alpha                          2.000000
        third order                    shell-resolved
        anisotropic                    true
        a3                             3.000000
        a5                             4.000000
        cn-shift                       1.200000
        cn-exp                         4.000000
        max-rad                        5.000000

q/qsh data taken from xtbrestart
CAMM data taken from xtbrestart

          ...................................................
          :                      SETUP                      :
          :.................................................:
          :  # basis functions                  41          :
          :  # atomic orbitals                  41          :
          :  # shells                           25          :
          :  # electrons                        47          :
          :  max. iterations                   250          :
          :  Hamiltonian                  GFN2-xTB          :
          :  restarted?                       true          :
          :  GBSA solvation                  false          :
          :  PC potential                    false          :
          :  electronic temp.          300.0000000     K    :
          :  accuracy                    0.2000000          :
          :  -> integral cutoff          0.3198970E+02      :
          :  -> integral neglect         0.2000000E-08      :
          :  -> SCF convergence          0.2000000E-06 Eh   :
          :  -> wf. convergence          0.2000000E-04 e    :
          :  Broyden damping             0.4000000          :
          :  net charge                          0          :
          :  unpaired electrons                  1          :
          ...................................................

 iter      E             dE          RMSdq      gap      omega  full diag
   1    -27.5535355 -0.275535E+02  0.685E-02    4.35       0.0  T
   2    -27.5535366 -0.107961E-05  0.429E-02    4.35       1.0  T
   3    -27.5535366 -0.436334E-07  0.669E-03    4.35       3.6  T
   4    -27.5535372 -0.539452E-06  0.238E-03    4.35      10.2  T
   5    -27.5535372 -0.923710E-08  0.950E-04    4.35      25.5  T
   6    -27.5535372 -0.294186E-08  0.330E-04    4.35      73.5  T
   7    -27.5535372 -0.541295E-09  0.198E-04    4.35     122.3  T
   8    -27.5535372 -0.242427E-09  0.620E-05    4.35     391.3  T

   *** convergence criteria satisfied after 8 iterations ***

         #    Occupation            Energy/Eh            Energy/eV
      -------------------------------------------------------------
         1        2.0000           -0.7486943             -20.3730
       ...           ...                  ...                  ...
        18        2.0000           -0.4681039             -12.7378
        19        2.0000           -0.4664712             -12.6933
        20        2.0000           -0.4574318             -12.4474
        21        2.0000           -0.4542692             -12.3613
        22        2.0000           -0.4420677             -12.0293
        23        2.0000           -0.4396393             -11.9632
        24        1.0000           -0.3320934              -9.0367 (HOMO)
        25                         -0.1722752              -4.6878 (LUMO)
        26                         -0.0769871              -2.0949
        27                          0.0507247               1.3803
        28                          0.0726484               1.9769
        29                          0.0982090               2.6724
       ...                                ...                  ...
        41                          0.4210257              11.4567
      -------------------------------------------------------------
                  HL-Gap            0.1598181 Eh            4.3489 eV
             Fermi-level           -0.3190253 Eh           -8.6811 eV

 SCC (total)                   0 d,  0 h,  0 min,  0.019 sec
 SCC setup                      ...        0 min,  0.000 sec (  0.799%)
 Dispersion                     ...        0 min,  0.000 sec (  0.862%)
 classical contributions        ...        0 min,  0.000 sec (  0.447%)
 integral evaluation            ...        0 min,  0.001 sec (  2.828%)
 iterations                     ...        0 min,  0.015 sec ( 81.247%)
 molecular gradient             ...        0 min,  0.002 sec ( 11.171%)
 printout                       ...        0 min,  0.000 sec (  2.553%)

         :::::::::::::::::::::::::::::::::::::::::::::::::::::
         ::                     SUMMARY                     ::
         :::::::::::::::::::::::::::::::::::::::::::::::::::::
         :: total energy             -27.307146363212 Eh    ::
         :: gradient norm              0.001640957151 Eh/a0 ::
         :: HOMO-LUMO gap              4.348872629681 eV    ::
         ::.................................................::
         :: SCC energy               -27.553534141899 Eh    ::
         :: -> isotropic ES            0.042934030903 Eh    ::
         :: -> anisotropic ES         -0.003875561465 Eh    ::
         :: -> anisotropic XC         -0.004620725805 Eh    ::
         :: -> dispersion             -0.009559375513 Eh    ::
         :: repulsion energy           0.246387778687 Eh    ::
         :: add. restraining           0.000000000000 Eh    ::
         :: total charge              -0.000000000000 e     ::
         :::::::::::::::::::::::::::::::::::::::::::::::::::::


Property printout bound to 'properties.out'

           -------------------------------------------------
          | TOTAL ENERGY              -27.307146363212 Eh   |
          | GRADIENT NORM               0.001640957151 Eh/α |
          | HOMO-LUMO GAP               4.348872629681 eV   |
           -------------------------------------------------

------------------------------------------------------------------------
 * finished run on 2026/02/17 at 15:18:00.691     
------------------------------------------------------------------------
 total:
 * wall-time:     0 d,  0 h,  0 min,  0.025 sec
 *  cpu-time:     0 d,  0 h,  0 min,  0.149 sec
 * ratio c/w:     5.873 speedup
 SCF:
 * wall-time:     0 d,  0 h,  0 min,  0.019 sec
 *  cpu-time:     0 d,  0 h,  0 min,  0.116 sec
 * ratio c/w:     6.055 speedup


-------------------------   --------------------
FINAL SINGLE POINT ENERGY       -27.307146363210
-------------------------   --------------------


-------------
DIPOLE MOMENT
-------------
                                X             Y             Z
Total Dipole Moment    :     -0.63600      -0.24700       0.26300
                        -----------------------------------------
Magnitude (a.u.)       :      0.73121
Magnitude (Debye)      :      1.85860


------------------
CARTESIAN GRADIENT
------------------

   1   C   :   -0.000007553   -0.000014311    0.000017721
   2   C   :    0.000243651    0.000008820   -0.000104443
   3   C   :   -0.000000125    0.000114408   -0.000340733
   4   C   :    0.000185073    0.000313970    0.000575402
   5   C   :    0.000452190   -0.000952103   -0.000304588
   6   O   :    0.000197081   -0.000020270    0.000245340
   7   O   :   -0.000316671    0.000454689   -0.000156465
   8   O   :   -0.000446481    0.000270085    0.000000639
   9   H   :    0.000022654    0.000012979    0.000000532
  10   H   :   -0.000006276   -0.000021284    0.000002059
  11   H   :   -0.000037841    0.000022844    0.000007610
  12   H   :   -0.000106631   -0.000055363    0.000037340
  13   H   :   -0.000032651   -0.000008588    0.000002287
  14   H   :   -0.000104107   -0.000045146    0.000081720
  15   H   :    0.000072151   -0.000085208    0.000115441
  16   H   :    0.000015643    0.000108779   -0.000081364
  17   H   :   -0.000130106   -0.000104302   -0.000098498

Difference to translation invariance:
           :    0.0000000000   -0.0000000000   -0.0000000000

Difference to rotation invariance:
           :    0.0000007269   -0.0000007875    0.0000008734

Norm of the Cartesian gradient     ...    0.0016409572
RMS gradient                       ...    0.0002297800
MAX gradient                       ...    0.0009521027
------------------------------------------------------------------------------
                         ORCA GEOMETRY RELAXATION STEP
------------------------------------------------------------------------------

Reading the OPT-File                    .... done
Getting information on internals        .... done
Copying old internal coords+grads       .... done
Making the new internal coordinates     .... (2022 redundants) done
Validating the new internal coordinates .... (2022 redundants) done
Calculating the B-matrix                .... done
Calculating the G,G- and P matrices     .... done
Transforming gradient to internals      .... done
Projecting the internal gradient        .... done
Number of atoms                         ....  17
Number of internal coordinates          ....  76
Current Energy                          ....   -27.307146363 Eh
Current gradient norm                   ....     0.001640957 Eh/bohr
Maximum allowed component of the step   ....  0.300
Current trust radius                    ....  0.675
Updating the Hessian (BFGS)             .... done
Forming the augmented Hessian           .... done
Diagonalizing the augmented Hessian     .... done
Last element of RFO vector              ....  0.998103075
Lowest eigenvalues of augmented Hessian:
 -0.000016867  0.002654846  0.008414240  0.011461621  0.011887119
Length of the computed step             ....  0.061682019
The final length of the internal step   ....  0.061682019
Converting the step to Cartesian space:
 Initial RMS(Int)=    0.0070754128
Transforming coordinates:
 Iter   0:  RMS(Cart)=    0.0131378630 RMS(Int)=    0.0070797849
done
Storing new coordinates                 .... done
The predicted energy change is          ....    -0.000008466
Previously predicted energy change      ....    -0.000013939
Actually observed energy change         ....    -0.000019261
Ratio of predicted to observed change   ....     1.381807778
New trust radius                        ....     0.675000000

                                .--------------------.
          ----------------------|Geometry convergence|-------------------------
          Item                value                   Tolerance       Converged
          ---------------------------------------------------------------------
          Energy change      -0.0000192606            0.0000050000      NO
          RMS gradient        0.0001054215            0.0001000000      NO
          MAX gradient        0.0003374398            0.0003000000      NO
          RMS step            0.0070754128            0.0020000000      NO
          MAX step            0.0249569421            0.0040000000      NO
          -------------------------------------------------------------------------
          ........................................................
          Max(Bonds)      0.0010      Max(Angles)    0.18
          Max(Dihed)        1.43      Max(Improp)    0.00
          ---------------------------------------------------------------------

    ---------------------------------------------------------------------------
                         Redundant Internal Coordinates
                            (Angstroem and degrees)

        Definition                    Value    dE/dq     Step     New-Value
    ----------------------------------------------------------------------------
     1. B(C   1,C   0)                1.5227 -0.000021  0.0000    1.5227   
     2. B(C   2,C   1)                1.5309 -0.000084 -0.0000    1.5309   
     3. B(C   3,C   2)                1.4791 -0.000028 -0.0005    1.4786   
     4. B(C   4,C   3)                1.4464 -0.000190  0.0002    1.4466   
     5. B(O   6,C   4)                1.4353  0.000282 -0.0010    1.4343   
     6. B(O   6,C   3)                1.3680  0.000036  0.0004    1.3684   
     7. B(O   7,C   4)                1.3646 -0.000287 -0.0003    1.3643   
     8. B(O   7,O   5)                1.4220  0.000031  0.0002    1.4222   
     9. B(H   8,C   0)                1.0870 -0.000017  0.0000    1.0870   
    10. B(H   9,C   0)                1.0874 -0.000019 -0.0000    1.0874   
    11. B(H  10,C   0)                1.0877 -0.000027  0.0000    1.0877   
    12. B(H  11,C   1)                1.0912 -0.000012 -0.0000    1.0912   
    13. B(H  12,C   1)                1.0917  0.000027 -0.0000    1.0917   
    14. B(H  13,C   2)                1.1007  0.000073  0.0001    1.1008   
    15. B(H  14,C   2)                1.0917  0.000017  0.0001    1.0918   
    16. B(H  15,C   4)                1.0887 -0.000100  0.0004    1.0891   
    17. B(H  16,O   5)                0.9693 -0.000043 -0.0001    0.9692   
    18. A(H   8,C   0,H   9)          108.79 -0.000006   -0.02    108.77   
    19. A(H   8,C   0,H  10)          108.54 -0.000014    0.00    108.54   
    20. A(C   1,C   0,H   8)          110.59 -0.000004   -0.02    110.57   
    21. A(C   1,C   0,H  10)          110.65  0.000023   -0.00    110.65   
    22. A(H   9,C   0,H  10)          108.37 -0.000001   -0.01    108.36   
    23. A(C   1,C   0,H   9)          109.84  0.000001    0.04    109.88   
    24. A(C   0,C   1,H  12)          109.87 -0.000026   -0.01    109.86   
    25. A(C   0,C   1,C   2)          111.32  0.000055   -0.01    111.32   
    26. A(C   2,C   1,H  12)          108.97  0.000008    0.02    108.98   
    27. A(H  11,C   1,H  12)          108.11 -0.000042    0.02    108.13   
    28. A(C   0,C   1,H  11)          109.64 -0.000023   -0.01    109.63   
    29. A(C   2,C   1,H  11)          108.86  0.000025   -0.01    108.85   
    30. A(C   3,C   2,H  13)          109.60  0.000089    0.05    109.65   
    31. A(H  13,C   2,H  14)          108.21 -0.000088   -0.08    108.13   
    32. A(C   3,C   2,H  14)          108.23  0.000045    0.05    108.28   
    33. A(C   1,C   2,H  14)          110.27  0.000001   -0.02    110.26   
    34. A(C   1,C   2,H  13)          109.20 -0.000082    0.04    109.24   
    35. A(C   1,C   2,C   3)          111.27  0.000033   -0.05    111.22   
    36. A(C   2,C   3,C   4)          134.22 -0.000006    0.18    134.40   
    37. A(C   4,C   3,O   6)           61.25  0.000162   -0.06     61.19   
    38. A(C   2,C   3,O   6)          127.48  0.000005   -0.03    127.45   
    39. A(O   7,C   4,H  15)          115.29  0.000063   -0.10    115.19   
    40. A(O   6,C   4,H  15)          113.79  0.000093    0.06    113.85   
    41. A(C   3,C   4,H  15)          123.40  0.000093   -0.09    123.31   
    42. A(C   3,C   4,O   6)           56.68 -0.000002    0.03     56.72   
    43. A(O   6,C   4,O   7)          117.19 -0.000230    0.14    117.33   
    44. A(C   3,C   4,O   7)          116.97 -0.000100    0.09    117.06   
    45. A(O   7,O   5,H  16)          104.32 -0.000337    0.05    104.37   
    46. A(C   3,O   6,C   4)           62.07 -0.000160    0.03     62.09   
    47. A(C   4,O   7,O   5)          111.10 -0.000244    0.01    111.11   
    48. D(H  11,C   1,C   0,H   9)     62.71  0.000038   -0.29     62.42   
    49. D(C   2,C   1,C   0,H  10)     61.80  0.000001   -0.25     61.55   
    50. D(H  11,C   1,C   0,H  10)   -177.68  0.000052   -0.27   -177.96   
    51. D(C   2,C   1,C   0,H   9)    -57.80 -0.000013   -0.27    -58.07   
    52. D(H  11,C   1,C   0,H   8)    -57.38  0.000048   -0.28    -57.66   
    53. D(C   2,C   1,C   0,H   8)   -177.89 -0.000004   -0.26   -178.15   
    54. D(C   3,C   2,C   1,C   0)     63.71 -0.000058    0.42     64.13   
    55. D(H  13,C   2,C   1,H  12)    -53.85  0.000029    0.48    -53.37   
    56. D(H  13,C   2,C   1,C   0)   -175.18  0.000020    0.49   -174.70   
    57. D(C   3,C   2,C   1,H  12)   -174.96 -0.000049    0.42   -174.54   
    58. D(H  13,C   2,C   1,H  11)     63.84 -0.000003    0.51     64.35   
    59. D(C   3,C   2,C   1,H  11)    -57.27 -0.000081    0.45    -56.82   
    60. D(C   4,C   3,C   2,H  14)    -79.21  0.000228   -1.37    -80.58   
    61. D(C   4,C   3,C   2,H  13)     38.59  0.000199   -1.41     37.19   
    62. D(C   4,C   3,C   2,C   1)    159.47  0.000177   -1.35    158.12   
    63. D(O   6,C   3,C   2,H  13)    -45.70 -0.000052   -1.43    -47.13   
    64. D(O   6,C   3,C   2,C   1)     75.18 -0.000074   -1.37     73.81   
    65. D(H  15,C   4,C   3,O   6)     98.32  0.000069    0.15     98.47   
    66. D(H  15,C   4,C   3,C   2)    -17.43 -0.000070    0.25    -17.18   
    67. D(O   7,C   4,C   3,O   6)   -106.21  0.000233   -0.14   -106.35   
    68. D(O   7,C   4,C   3,C   2)    138.04  0.000094   -0.04    138.00   
    69. D(O   6,C   4,C   3,C   2)   -115.75 -0.000139    0.10   -115.65   
    70. D(C   3,O   6,C   4,H  15)   -115.48 -0.000064    0.14   -115.35   
    71. D(C   3,O   6,C   4,O   7)    105.81 -0.000001    0.05    105.86   
    72. D(C   4,O   6,C   3,C   2)    125.58  0.000081    0.21    125.79   
    73. D(C   4,O   7,O   5,H  16)   -105.39 -0.000074    0.23   -105.16   
    74. D(O   5,O   7,C   4,H  15)    -48.85  0.000092   -0.64    -49.49   
    75. D(O   5,O   7,C   4,O   6)     89.25  0.000037   -0.49     88.76   
    76. D(O   5,O   7,C   4,C   3)    153.69 -0.000070   -0.37    153.32   
    ----------------------------------------------------------------------------

Geometry step timings:
Preparation and reading OPT file:      0.000 s ( 0.722 %)
Internal coordinates            :      0.000 s ( 0.825 %)
B/P matrices and projection     :      0.001 s (32.697 %)
Hessian update/contruction      :      0.000 s (12.223 %)
Making the step                 :      0.001 s (28.778 %)
Converting the step to Cartesian:      0.000 s ( 2.888 %)
Storing new data                :      0.000 s ( 1.031 %)
Checking convergence            :      0.000 s ( 1.599 %)
Final printing                  :      0.000 s (19.134 %)
Total time                      :      0.002 s

Time for energy+gradient        :      0.037 s
Time for complete geometry iter :      0.039 s

         *************************************************************
         *                GEOMETRY OPTIMIZATION CYCLE  10            *
         *************************************************************
---------------------------------
CARTESIAN COORDINATES (ANGSTROEM)
---------------------------------
  C    -2.170000   -0.445045   -1.096905
  C    -1.842272   -0.709176    0.366493
  C    -0.398521   -1.189300    0.535536
  C     0.564447   -0.143863    0.128034
  C     1.954796    0.122977    0.425139
  O     3.839242    1.302748   -0.156588
  O     0.886061    1.000923    0.805202
  O     2.747536    0.514309   -0.613989
  H    -3.186598   -0.074148   -1.199760
  H    -1.484587    0.295829   -1.501530
  H    -2.073556   -1.356724   -1.682201
  H    -1.979230    0.206516    0.943878
  H    -2.517883   -1.467489    0.766908
  H    -0.227197   -1.460118    1.588618
  H    -0.220888   -2.075859   -0.076447
  H     2.481819   -0.320139    1.268957
  H     3.604305    2.208507   -0.409147

----------------------------
CARTESIAN COORDINATES (A.U.)
----------------------------
  NO LB    ZA    FRAG    MASS        X           Y           Z
   0 C   6.0000    1    12.011   -4.100706   -0.841013   -2.072850
   1 C   6.0000    1    12.011   -3.481390   -1.340148    0.692571
   2 C   6.0000    1    12.011   -0.753096   -2.247450    1.012016
   3 C   6.0000    1    12.011    1.066651   -0.271862    0.241950
   4 C   6.0000    1    12.011    3.694028    0.232392    0.803396
   5 O   8.0000    1    15.999    7.255116    2.461837   -0.295909
   6 O   8.0000    1    15.999    1.674413    1.891470    1.521612
   7 O   8.0000    1    15.999    5.192091    0.971902   -1.160270
   8 H   1.0000    1     1.008   -6.021797   -0.140119   -2.267217
   9 H   1.0000    1     1.008   -2.805463    0.559036   -2.837481
  10 H   1.0000    1     1.008   -3.918453   -2.563837   -3.178899
  11 H   1.0000    1     1.008   -3.740203    0.390259    1.783671
  12 H   1.0000    1     1.008   -4.758109   -2.773152    1.449245
  13 H   1.0000    1     1.008   -0.429340   -2.759224    3.002054
  14 H   1.0000    1     1.008   -0.417418   -3.922805   -0.144464
  15 H   1.0000    1     1.008    4.689958   -0.604974    2.397982
  16 H   1.0000    1     1.008    6.811150    4.173473   -0.773175

      -----------------------------------------------------------      
     |                   =====================                   |     
     |                           x T B                           |     
     |                   =====================                   |     
     |                         S. Grimme                         |     
     |          Mulliken Center for Theoretical Chemistry        |     
     |                    University of Bonn                     |     
      -----------------------------------------------------------      

   * xtb version 6.7.1 (edcfbbe) compiled by 'albert@albert-system' on 2024-07-22

   xtb is free software: you can redistribute it and/or modify it under
   the terms of the GNU Lesser General Public License as published by
   the Free Software Foundation, either version 3 of the License, or
   (at your option) any later version.
   
   xtb is distributed in the hope that it will be useful,
   but WITHOUT ANY WARRANTY; without even the implied warranty of
   MERCHANTABILITY or FITNESS FOR A PARTICULAR PURPOSE.  See the
   GNU Lesser General Public License for more details.
   
   Cite this work as:
   * C. Bannwarth, E. Caldeweyher, S. Ehlert, A. Hansen, P. Pracht,
     J. Seibert, S. Spicher, S. Grimme, WIREs Comput. Mol. Sci., 2020, 11,
     e01493. DOI: 10.1002/wcms.1493
   
   for GFN2-xTB:
   * C. Bannwarth, S. Ehlert and S. Grimme., J. Chem. Theory Comput., 2019,
     15, 1652-1671. DOI: 10.1021/acs.jctc.8b01176
   for GFN1-xTB:
   * S. Grimme, C. Bannwarth, P. Shushkov, J. Chem. Theory Comput., 2017,
     13, 1989-2009. DOI: 10.1021/acs.jctc.7b00118
   for GFN0-xTB:
   * P. Pracht, E. Caldeweyher, S. Ehlert, S. Grimme, ChemRxiv, 2019, preprint.
     DOI: 10.26434/chemrxiv.8326202.v1
   for GFN-FF:
   * S. Spicher and S. Grimme, Angew. Chem. Int. Ed., 2020, 59, 15665-15673.
     DOI: 10.1002/anie.202004239
   
   for ALPB and GBSA implicit solvation:
   * S. Ehlert, M. Stahn, S. Spicher, S. Grimme, J. Chem. Theory Comput.,
     2021, 17, 4250-4261. DOI: 10.1021/acs.jctc.1c00471
   
   for ddCOSMO and CPCM-X implicit solvation:
   * M. Stahn, S. Ehlert, S. Grimme, J. Phys. Chem. A,
     2023, XX, XXXX-XXXX. DOI: 10.1021/acs.jpca.3c04382
   
   for DFT-D4:
   * E. Caldeweyher, C. Bannwarth and S. Grimme, J. Chem. Phys., 2017,
     147, 034112. DOI: 10.1063/1.4993215
   * E. Caldeweyher, S. Ehlert, A. Hansen, H. Neugebauer, S. Spicher,
     C. Bannwarth and S. Grimme, J. Chem. Phys., 2019, 150, 154122.
     DOI: 10.1063/1.5090222
   * E. Caldeweyher, J.-M. Mewes, S. Ehlert and S. Grimme, Phys. Chem. Chem. Phys.
     2020, 22, 8499-8512. DOI: 10.1039/D0CP00502A
   
   for sTDA-xTB:
   * S. Grimme and C. Bannwarth, J. Chem. Phys., 2016, 145, 054103.
     DOI: 10.1063/1.4959605
   
   in the mass-spec context:
   * V. Asgeirsson, C. Bauer and S. Grimme, Chem. Sci., 2017, 8, 4879.
     DOI: 10.1039/c7sc00601b
   * J. Koopman and S. Grimme, ACS Omega 2019, 4, 12, 15120-15133.
     DOI: 10.1021/acsomega.9b02011
   
   for metadynamics refer to:
   * S. Grimme, J. Chem. Theory Comput., 2019, 155, 2847-2862
     DOI: 10.1021/acs.jctc.9b00143
   
   for SPH calculations refer to:
   * S. Spicher and S. Grimme, J. Chem. Theory Comput., 2021, 17, 1701-1714
     DOI: 10.1021/acs.jctc.0c01306
   
   for ONIOM refer to:
   * C. Plett, A. Katbashev, S. Ehlert, S. Grimme, M. Bursch,
     Phys. Chem. Chem. Phys., 2023, 25, 17860-17868. DOI: 10.1039/D3CP02178E
   
   for DIPRO refer to:
   * J. Kohn, N. Gildemeister, S. Grimme, D. Fazzi, A. Hansen,
     J. Chem. Phys., 2023, just accepted.
   
   for PTB refer to:
   * S. Grimme, M. Mueller, A. Hansen, J. Chem. Phys., 2023, 158, 124111.
     DOI: 10.1063/5.0137838
   
   with help from (in alphabetical order)
   P. Atkinson, C. Bannwarth, F. Bohle, G. Brandenburg, E. Caldeweyher
   M. Checinski, S. Dohm, S. Ehlert, S. Ehrlich, I. Gerasimov, C. Hölzer
   A. Katbashev, J. Kohn, J. Koopman, C. Lavigne, S. Lehtola, F. März, M. Müller,
   F. Musil, H. Neugebauer, J. Pisarek, C. Plett, P. Pracht, F. Pultar,
   J. Seibert, P. Shushkov, S. Spicher, M. Stahn, M. Steiner, T. Strunk,
   J. Stückrath, T. Rose, and J. Unsleber
   
 * started run on 2026/02/17 at 15:18:00.704     
   ID    Z sym.   atoms
    1    6 C      1-5
    2    8 O      6-8
    3    1 H      9-17

           -------------------------------------------------
          |                Calculation Setup                |
           -------------------------------------------------

          program call               : /apps/eb/ORCA/6.1.1-gompi-2024a-avx2/bin/otool_xtb goat_XTB.xyz --grad -c 0 -u 1 -P 8 --namespace goat --input goat_XTB.input.tmp --acc 0.200000
          hostname                   : d5-8
          calculation namespace      : goat
          coordinate file            : goat_XTB.xyz
          omp threads                :                     8


           -------------------------------------------------
          |                 G F N 2 - x T B                 |
           -------------------------------------------------

        Reference                      10.1021/acs.jctc.8b01176
      * Hamiltonian:
        H0-scaling (s, p, d)           1.850000    2.230000    2.230000
        zeta-weighting                 0.500000
      * Dispersion:
        s8                             2.700000
        a1                             0.520000
        a2                             5.000000
        s9                             5.000000
      * Repulsion:
        kExp                           1.500000    1.000000
        rExp                           1.000000
      * Coulomb:
        alpha                          2.000000
        third order                    shell-resolved
        anisotropic                    true
        a3                             3.000000
        a5                             4.000000
        cn-shift                       1.200000
        cn-exp                         4.000000
        max-rad                        5.000000

q/qsh data taken from xtbrestart
CAMM data taken from xtbrestart

          ...................................................
          :                      SETUP                      :
          :.................................................:
          :  # basis functions                  41          :
          :  # atomic orbitals                  41          :
          :  # shells                           25          :
          :  # electrons                        47          :
          :  max. iterations                   250          :
          :  Hamiltonian                  GFN2-xTB          :
          :  restarted?                       true          :
          :  GBSA solvation                  false          :
          :  PC potential                    false          :
          :  electronic temp.          300.0000000     K    :
          :  accuracy                    0.2000000          :
          :  -> integral cutoff          0.3198970E+02      :
          :  -> integral neglect         0.2000000E-08      :
          :  -> SCF convergence          0.2000000E-06 Eh   :
          :  -> wf. convergence          0.2000000E-04 e    :
          :  Broyden damping             0.4000000          :
          :  net charge                          0          :
          :  unpaired electrons                  1          :
          ...................................................

 iter      E             dE          RMSdq      gap      omega  full diag
   1    -27.5535517 -0.275536E+02  0.604E-02    4.34       0.0  T
   2    -27.5535524 -0.746793E-06  0.376E-02    4.34       1.0  T
   3    -27.5535525 -0.465862E-07  0.542E-03    4.34       4.5  T
   4    -27.5535528 -0.343782E-06  0.209E-03    4.34      11.6  T
   5    -27.5535528 -0.753666E-08  0.795E-04    4.34      30.5  T
   6    -27.5535528 -0.205009E-08  0.268E-04    4.34      90.4  T
   7    -27.5535528 -0.409891E-09  0.158E-04    4.34     153.8  T
   8    -27.5535528 -0.159925E-09  0.434E-05    4.34     559.3  T

   *** convergence criteria satisfied after 8 iterations ***

         #    Occupation            Energy/Eh            Energy/eV
      -------------------------------------------------------------
         1        2.0000           -0.7487020             -20.3732
       ...           ...                  ...                  ...
        18        2.0000           -0.4679719             -12.7342
        19        2.0000           -0.4662959             -12.6886
        20        2.0000           -0.4574599             -12.4481
        21        2.0000           -0.4543829             -12.3644
        22        2.0000           -0.4422176             -12.0334
        23        2.0000           -0.4396892             -11.9646
        24        1.0000           -0.3320158              -9.0346 (HOMO)
        25                         -0.1726241              -4.6973 (LUMO)
        26                         -0.0765908              -2.0841
        27                          0.0506465               1.3782
        28                          0.0730040               1.9865
        29                          0.0982163               2.6726
       ...                                ...                  ...
        41                          0.4211403              11.4598
      -------------------------------------------------------------
                  HL-Gap            0.1593917 Eh            4.3373 eV
             Fermi-level           -0.3190862 Eh           -8.6828 eV

 SCC (total)                   0 d,  0 h,  0 min,  0.009 sec
 SCC setup                      ...        0 min,  0.000 sec (  1.430%)
 Dispersion                     ...        0 min,  0.000 sec (  1.178%)
 classical contributions        ...        0 min,  0.000 sec (  0.475%)
 integral evaluation            ...        0 min,  0.000 sec (  5.128%)
 iterations                     ...        0 min,  0.006 sec ( 69.053%)
 molecular gradient             ...        0 min,  0.002 sec ( 19.826%)
 printout                       ...        0 min,  0.000 sec (  2.753%)

         :::::::::::::::::::::::::::::::::::::::::::::::::::::
         ::                     SUMMARY                     ::
         :::::::::::::::::::::::::::::::::::::::::::::::::::::
         :: total energy             -27.307158439074 Eh    ::
         :: gradient norm              0.001368999879 Eh/a0 ::
         :: HOMO-LUMO gap              4.337268688576 eV    ::
         ::.................................................::
         :: SCC energy               -27.553549858741 Eh    ::
         :: -> isotropic ES            0.042925964421 Eh    ::
         :: -> anisotropic ES         -0.003863525079 Eh    ::
         :: -> anisotropic XC         -0.004634855209 Eh    ::
         :: -> dispersion             -0.009561502515 Eh    ::
         :: repulsion energy           0.246391419667 Eh    ::
         :: add. restraining           0.000000000000 Eh    ::
         :: total charge               0.000000000000 e     ::
         :::::::::::::::::::::::::::::::::::::::::::::::::::::


Property printout bound to 'properties.out'

           -------------------------------------------------
          | TOTAL ENERGY              -27.307158439074 Eh   |
          | GRADIENT NORM               0.001368999879 Eh/α |
          | HOMO-LUMO GAP               4.337268688576 eV   |
           -------------------------------------------------

------------------------------------------------------------------------
 * finished run on 2026/02/17 at 15:18:00.727     
------------------------------------------------------------------------
 total:
 * wall-time:     0 d,  0 h,  0 min,  0.023 sec
 *  cpu-time:     0 d,  0 h,  0 min,  0.153 sec
 * ratio c/w:     6.620 speedup
 SCF:
 * wall-time:     0 d,  0 h,  0 min,  0.009 sec
 *  cpu-time:     0 d,  0 h,  0 min,  0.063 sec
 * ratio c/w:     6.907 speedup


-------------------------   --------------------
FINAL SINGLE POINT ENERGY       -27.307158439070
-------------------------   --------------------


-------------
DIPOLE MOMENT
-------------
                                X             Y             Z
Total Dipole Moment    :     -0.64600      -0.24600       0.25800
                        -----------------------------------------
Magnitude (a.u.)       :      0.73783
Magnitude (Debye)      :      1.87542


------------------
CARTESIAN GRADIENT
------------------

   1   C   :    0.000043515   -0.000039020    0.000033953
   2   C   :    0.000173691   -0.000026933   -0.000051788
   3   C   :    0.000094465    0.000350957   -0.000386155
   4   C   :    0.000011962   -0.000123193    0.000695860
   5   C   :    0.000169767   -0.000201475   -0.000620657
   6   O   :    0.000156039    0.000180068    0.000184088
   7   O   :   -0.000164699    0.000382309   -0.000087572
   8   O   :   -0.000349145   -0.000124831    0.000249020
   9   H   :    0.000011757    0.000014008    0.000012840
  10   H   :   -0.000037840   -0.000013770   -0.000034423
  11   H   :   -0.000009195    0.000028500   -0.000000800
  12   H   :   -0.000081585   -0.000030953    0.000003512
  13   H   :   -0.000046545    0.000017627    0.000005291
  14   H   :   -0.000118804   -0.000126364    0.000059064
  15   H   :    0.000022128   -0.000117608    0.000092797
  16   H   :    0.000166275   -0.000054527   -0.000101219
  17   H   :   -0.000041784   -0.000114795   -0.000053813

Difference to translation invariance:
           :   -0.0000000000   -0.0000000000    0.0000000000

Difference to rotation invariance:
           :    0.0000005358   -0.0000005720    0.0000006156

Norm of the Cartesian gradient     ...    0.0013689999
RMS gradient                       ...    0.0001916983
MAX gradient                       ...    0.0006958604
------------------------------------------------------------------------------
                         ORCA GEOMETRY RELAXATION STEP
------------------------------------------------------------------------------

Reading the OPT-File                    .... done
Getting information on internals        .... done
Copying old internal coords+grads       .... done
Making the new internal coordinates     .... (2022 redundants) done
Validating the new internal coordinates .... (2022 redundants) done
Calculating the B-matrix                .... done
Calculating the G,G- and P matrices     .... done
Transforming gradient to internals      .... done
Projecting the internal gradient        .... done
Number of atoms                         ....  17
Number of internal coordinates          ....  76
Current Energy                          ....   -27.307158439 Eh
Current gradient norm                   ....     0.001369000 Eh/bohr
Maximum allowed component of the step   ....  0.300
Current trust radius                    ....  0.675
Updating the Hessian (BFGS)             .... done
Forming the augmented Hessian           .... done
Diagonalizing the augmented Hessian     .... done
Last element of RFO vector              ....  0.997898197
Lowest eigenvalues of augmented Hessian:
 -0.000013618  0.001819159  0.007725827  0.011420359  0.011824022
Length of the computed step             ....  0.064937630
The final length of the internal step   ....  0.064937630
Converting the step to Cartesian space:
 Initial RMS(Int)=    0.0074488571
Transforming coordinates:
 Iter   0:  RMS(Cart)=    0.0144634686 RMS(Int)=    0.0074464849
done
Storing new coordinates                 .... done
The predicted energy change is          ....    -0.000006838
Previously predicted energy change      ....    -0.000008466
Actually observed energy change         ....    -0.000012076
Ratio of predicted to observed change   ....     1.426463112
New trust radius                        ....     0.675000000

                                .--------------------.
          ----------------------|Geometry convergence|-------------------------
          Item                value                   Tolerance       Converged
          ---------------------------------------------------------------------
          Energy change      -0.0000120759            0.0000050000      NO
          RMS gradient        0.0000983238            0.0001000000      YES
          MAX gradient        0.0004424216            0.0003000000      NO
          RMS step            0.0074488571            0.0020000000      NO
          MAX step            0.0276547050            0.0040000000      NO
          -------------------------------------------------------------------------
          ........................................................
          Max(Bonds)      0.0013      Max(Angles)    0.14
          Max(Dihed)        1.58      Max(Improp)    0.00
          ---------------------------------------------------------------------

    ---------------------------------------------------------------------------
                         Redundant Internal Coordinates
                            (Angstroem and degrees)

        Definition                    Value    dE/dq     Step     New-Value
    ----------------------------------------------------------------------------
     1. B(C   1,C   0)                1.5227 -0.000015  0.0000    1.5228   
     2. B(C   2,C   1)                1.5309 -0.000063  0.0001    1.5309   
     3. B(C   3,C   2)                1.4786 -0.000147 -0.0001    1.4785   
     4. B(C   4,C   3)                1.4466 -0.000051  0.0004    1.4469   
     5. B(O   6,C   4)                1.4344  0.000154 -0.0013    1.4331   
     6. B(O   6,C   3)                1.3684  0.000097  0.0003    1.3687   
     7. B(O   7,C   4)                1.3643 -0.000442  0.0002    1.3645   
     8. B(O   7,O   5)                1.4222  0.000166 -0.0002    1.4220   
     9. B(H   8,C   0)                1.0870 -0.000007  0.0000    1.0870   
    10. B(H   9,C   0)                1.0874 -0.000020 -0.0000    1.0874   
    11. B(H  10,C   0)                1.0877 -0.000024  0.0000    1.0877   
    12. B(H  11,C   1)                1.0912 -0.000014  0.0000    1.0912   
    13. B(H  12,C   1)                1.0917  0.000018 -0.0001    1.0916   
    14. B(H  13,C   2)                1.1008  0.000069 -0.0000    1.1007   
    15. B(H  14,C   2)                1.0918  0.000047  0.0000    1.0918   
    16. B(H  15,C   4)                1.0891  0.000024  0.0003    1.0894   
    17. B(H  16,O   5)                0.9692 -0.000083  0.0001    0.9693   
    18. A(H   8,C   0,H   9)          108.77 -0.000028   -0.01    108.76   
    19. A(H   8,C   0,H  10)          108.54  0.000001    0.00    108.55   
    20. A(C   1,C   0,H   8)          110.57 -0.000035   -0.00    110.57   
    21. A(C   1,C   0,H  10)          110.65  0.000021   -0.01    110.64   
    22. A(H   9,C   0,H  10)          108.36 -0.000030   -0.00    108.36   
    23. A(C   1,C   0,H   9)          109.88  0.000070    0.02    109.90   
    24. A(C   0,C   1,H  12)          109.86 -0.000036    0.01    109.87   
    25. A(C   0,C   1,C   2)          111.32  0.000017   -0.01    111.30   
    26. A(C   2,C   1,H  12)          108.98  0.000050    0.01    108.99   
    27. A(H  11,C   1,H  12)          108.13 -0.000051    0.03    108.16   
    28. A(C   0,C   1,H  11)          109.63 -0.000023   -0.01    109.62   
    29. A(C   2,C   1,H  11)          108.85  0.000041   -0.02    108.83   
    30. A(C   3,C   2,H  13)          109.65  0.000128   -0.01    109.64   
    31. A(H  13,C   2,H  14)          108.13 -0.000102   -0.02    108.11   
    32. A(C   3,C   2,H  14)          108.28  0.000101    0.03    108.32   
    33. A(C   1,C   2,H  14)          110.26 -0.000043   -0.01    110.25   
    34. A(C   1,C   2,H  13)          109.24 -0.000066    0.04    109.29   
    35. A(C   1,C   2,C   3)          111.22 -0.000018   -0.04    111.18   
    36. A(C   2,C   3,C   4)          134.41  0.000163    0.03    134.44   
    37. A(C   4,C   3,O   6)           61.19  0.000060   -0.08     61.12   
    38. A(C   2,C   3,O   6)          127.46  0.000050   -0.08    127.38   
    39. A(O   7,C   4,H  15)          115.19 -0.000125   -0.04    115.15   
    40. A(O   6,C   4,H  15)          113.85  0.000113    0.01    113.86   
    41. A(C   3,C   4,H  15)          123.31  0.000083   -0.10    123.21   
    42. A(C   3,C   4,O   6)           56.71  0.000021    0.03     56.75   
    43. A(O   6,C   4,O   7)          117.33 -0.000065    0.14    117.48   
    44. A(C   3,C   4,O   7)          117.06  0.000049    0.05    117.12   
    45. A(O   7,O   5,H  16)          104.37 -0.000175    0.08    104.45   
    46. A(C   3,O   6,C   4)           62.09 -0.000080    0.04     62.14   
    47. A(C   4,O   7,O   5)          111.11 -0.000148    0.03    111.13   
    48. D(H  11,C   1,C   0,H   9)     62.42  0.000018   -0.29     62.13   
    49. D(C   2,C   1,C   0,H  10)     61.55 -0.000009   -0.24     61.31   
    50. D(H  11,C   1,C   0,H  10)   -177.96  0.000039   -0.29   -178.24   
    51. D(C   2,C   1,C   0,H   9)    -58.07 -0.000029   -0.25    -58.32   
    52. D(H  11,C   1,C   0,H   8)    -57.66  0.000030   -0.29    -57.95   
    53. D(C   2,C   1,C   0,H   8)   -178.15 -0.000017   -0.24   -178.40   
    54. D(C   3,C   2,C   1,C   0)     64.13 -0.000048    0.36     64.49   
    55. D(H  13,C   2,C   1,H  12)    -53.37  0.000056    0.35    -53.02   
    56. D(H  13,C   2,C   1,C   0)   -174.70  0.000056    0.35   -174.35   
    57. D(C   3,C   2,C   1,H  12)   -174.54 -0.000049    0.36   -174.18   
    58. D(H  13,C   2,C   1,H  11)     64.35  0.000046    0.38     64.73   
    59. D(C   3,C   2,C   1,H  11)    -56.82 -0.000058    0.39    -56.43   
    60. D(C   4,C   3,C   2,H  14)    -80.58  0.000179   -1.58    -82.16   
    61. D(C   4,C   3,C   2,H  13)     37.18  0.000186   -1.58     35.60   
    62. D(C   4,C   3,C   2,C   1)    158.12  0.000177   -1.57    156.56   
    63. D(O   6,C   3,C   2,H  13)    -47.12 -0.000062   -1.45    -48.57   
    64. D(O   6,C   3,C   2,C   1)     73.81 -0.000072   -1.43     72.39   
    65. D(H  15,C   4,C   3,O   6)     98.47  0.000114    0.09     98.56   
    66. D(H  15,C   4,C   3,C   2)    -17.18  0.000017    0.25    -16.93   
    67. D(O   7,C   4,C   3,O   6)   -106.35  0.000100   -0.16   -106.51   
    68. D(O   7,C   4,C   3,C   2)    138.00  0.000003   -0.00    138.00   
    69. D(O   6,C   4,C   3,C   2)   -115.65 -0.000097    0.16   -115.49   
    70. D(C   3,O   6,C   4,H  15)   -115.35 -0.000045    0.12   -115.22   
    71. D(C   3,O   6,C   4,O   7)    105.86  0.000104   -0.00    105.86   
    72. D(C   4,O   6,C   3,C   2)    125.78  0.000233    0.02    125.81   
    73. D(C   4,O   7,O   5,H  16)   -105.16 -0.000076    0.72   -104.44   
    74. D(O   5,O   7,C   4,H  15)    -49.49 -0.000010   -0.42    -49.91   
    75. D(O   5,O   7,C   4,O   6)     88.76 -0.000065   -0.27     88.49   
    76. D(O   5,O   7,C   4,C   3)    153.31 -0.000046   -0.17    153.14   
    ----------------------------------------------------------------------------

Geometry step timings:
Preparation and reading OPT file:      0.000 s ( 0.736 %)
Internal coordinates            :      0.000 s ( 0.893 %)
B/P matrices and projection     :      0.001 s (35.365 %)
Hessian update/contruction      :      0.000 s (11.456 %)
Making the step                 :      0.001 s (28.534 %)
Converting the step to Cartesian:      0.000 s ( 2.943 %)
Storing new data                :      0.000 s ( 1.051 %)
Checking convergence            :      0.000 s ( 1.471 %)
Final printing                  :      0.000 s (17.499 %)
Total time                      :      0.002 s

Time for energy+gradient        :      0.034 s
Time for complete geometry iter :      0.037 s

         *************************************************************
         *                GEOMETRY OPTIMIZATION CYCLE  11            *
         *************************************************************
---------------------------------
CARTESIAN COORDINATES (ANGSTROEM)
---------------------------------
  C    -2.174874   -0.445274   -1.094244
  C    -1.837983   -0.706540    0.367614
  C    -0.395600   -1.194083    0.527429
  C     0.569295   -0.151619    0.117285
  C     1.954869    0.125455    0.428625
  O     3.840985    1.306982   -0.145764
  O     0.878883    1.002885    0.784020
  O     2.760874    0.504195   -0.605233
  H    -3.191631   -0.073166   -1.191251
  H    -1.491255    0.293692   -1.505321
  H    -2.083538   -1.358527   -1.677978
  H    -1.964997    0.212022    0.942734
  H    -2.514802   -1.459708    0.775462
  H    -0.218988   -1.468598    1.578640
  H    -0.225781   -2.079932   -0.087803
  H     2.472048   -0.306714    1.284481
  H     3.599970    2.208879   -0.406497

----------------------------
CARTESIAN COORDINATES (A.U.)
----------------------------
  NO LB    ZA    FRAG    MASS        X           Y           Z
   0 C   6.0000    1    12.011   -4.109916   -0.841447   -2.067822
   1 C   6.0000    1    12.011   -3.473285   -1.335167    0.694689
   2 C   6.0000    1    12.011   -0.747576   -2.256491    0.996696
   3 C   6.0000    1    12.011    1.075812   -0.286518    0.221637
   4 C   6.0000    1    12.011    3.694167    0.237075    0.809983
   5 O   8.0000    1    15.999    7.258409    2.469837   -0.275454
   6 O   8.0000    1    15.999    1.660848    1.895179    1.481583
   7 O   8.0000    1    15.999    5.217296    0.952791   -1.143724
   8 H   1.0000    1     1.008   -6.031309   -0.138263   -2.251138
   9 H   1.0000    1     1.008   -2.818063    0.554997   -2.844644
  10 H   1.0000    1     1.008   -3.937316   -2.567244   -3.170919
  11 H   1.0000    1     1.008   -3.713305    0.400664    1.781509
  12 H   1.0000    1     1.008   -4.752287   -2.758449    1.465410
  13 H   1.0000    1     1.008   -0.413828   -2.775249    2.983198
  14 H   1.0000    1     1.008   -0.426664   -3.930502   -0.165924
  15 H   1.0000    1     1.008    4.671493   -0.579605    2.427318
  16 H   1.0000    1     1.008    6.802958    4.174176   -0.768168

      -----------------------------------------------------------      
     |                   =====================                   |     
     |                           x T B                           |     
     |                   =====================                   |     
     |                         S. Grimme                         |     
     |          Mulliken Center for Theoretical Chemistry        |     
     |                    University of Bonn                     |     
      -----------------------------------------------------------      

   * xtb version 6.7.1 (edcfbbe) compiled by 'albert@albert-system' on 2024-07-22

   xtb is free software: you can redistribute it and/or modify it under
   the terms of the GNU Lesser General Public License as published by
   the Free Software Foundation, either version 3 of the License, or
   (at your option) any later version.
   
   xtb is distributed in the hope that it will be useful,
   but WITHOUT ANY WARRANTY; without even the implied warranty of
   MERCHANTABILITY or FITNESS FOR A PARTICULAR PURPOSE.  See the
   GNU Lesser General Public License for more details.
   
   Cite this work as:
   * C. Bannwarth, E. Caldeweyher, S. Ehlert, A. Hansen, P. Pracht,
     J. Seibert, S. Spicher, S. Grimme, WIREs Comput. Mol. Sci., 2020, 11,
     e01493. DOI: 10.1002/wcms.1493
   
   for GFN2-xTB:
   * C. Bannwarth, S. Ehlert and S. Grimme., J. Chem. Theory Comput., 2019,
     15, 1652-1671. DOI: 10.1021/acs.jctc.8b01176
   for GFN1-xTB:
   * S. Grimme, C. Bannwarth, P. Shushkov, J. Chem. Theory Comput., 2017,
     13, 1989-2009. DOI: 10.1021/acs.jctc.7b00118
   for GFN0-xTB:
   * P. Pracht, E. Caldeweyher, S. Ehlert, S. Grimme, ChemRxiv, 2019, preprint.
     DOI: 10.26434/chemrxiv.8326202.v1
   for GFN-FF:
   * S. Spicher and S. Grimme, Angew. Chem. Int. Ed., 2020, 59, 15665-15673.
     DOI: 10.1002/anie.202004239
   
   for ALPB and GBSA implicit solvation:
   * S. Ehlert, M. Stahn, S. Spicher, S. Grimme, J. Chem. Theory Comput.,
     2021, 17, 4250-4261. DOI: 10.1021/acs.jctc.1c00471
   
   for ddCOSMO and CPCM-X implicit solvation:
   * M. Stahn, S. Ehlert, S. Grimme, J. Phys. Chem. A,
     2023, XX, XXXX-XXXX. DOI: 10.1021/acs.jpca.3c04382
   
   for DFT-D4:
   * E. Caldeweyher, C. Bannwarth and S. Grimme, J. Chem. Phys., 2017,
     147, 034112. DOI: 10.1063/1.4993215
   * E. Caldeweyher, S. Ehlert, A. Hansen, H. Neugebauer, S. Spicher,
     C. Bannwarth and S. Grimme, J. Chem. Phys., 2019, 150, 154122.
     DOI: 10.1063/1.5090222
   * E. Caldeweyher, J.-M. Mewes, S. Ehlert and S. Grimme, Phys. Chem. Chem. Phys.
     2020, 22, 8499-8512. DOI: 10.1039/D0CP00502A
   
   for sTDA-xTB:
   * S. Grimme and C. Bannwarth, J. Chem. Phys., 2016, 145, 054103.
     DOI: 10.1063/1.4959605
   
   in the mass-spec context:
   * V. Asgeirsson, C. Bauer and S. Grimme, Chem. Sci., 2017, 8, 4879.
     DOI: 10.1039/c7sc00601b
   * J. Koopman and S. Grimme, ACS Omega 2019, 4, 12, 15120-15133.
     DOI: 10.1021/acsomega.9b02011
   
   for metadynamics refer to:
   * S. Grimme, J. Chem. Theory Comput., 2019, 155, 2847-2862
     DOI: 10.1021/acs.jctc.9b00143
   
   for SPH calculations refer to:
   * S. Spicher and S. Grimme, J. Chem. Theory Comput., 2021, 17, 1701-1714
     DOI: 10.1021/acs.jctc.0c01306
   
   for ONIOM refer to:
   * C. Plett, A. Katbashev, S. Ehlert, S. Grimme, M. Bursch,
     Phys. Chem. Chem. Phys., 2023, 25, 17860-17868. DOI: 10.1039/D3CP02178E
   
   for DIPRO refer to:
   * J. Kohn, N. Gildemeister, S. Grimme, D. Fazzi, A. Hansen,
     J. Chem. Phys., 2023, just accepted.
   
   for PTB refer to:
   * S. Grimme, M. Mueller, A. Hansen, J. Chem. Phys., 2023, 158, 124111.
     DOI: 10.1063/5.0137838
   
   with help from (in alphabetical order)
   P. Atkinson, C. Bannwarth, F. Bohle, G. Brandenburg, E. Caldeweyher
   M. Checinski, S. Dohm, S. Ehlert, S. Ehrlich, I. Gerasimov, C. Hölzer
   A. Katbashev, J. Kohn, J. Koopman, C. Lavigne, S. Lehtola, F. März, M. Müller,
   F. Musil, H. Neugebauer, J. Pisarek, C. Plett, P. Pracht, F. Pultar,
   J. Seibert, P. Shushkov, S. Spicher, M. Stahn, M. Steiner, T. Strunk,
   J. Stückrath, T. Rose, and J. Unsleber
   
 * started run on 2026/02/17 at 15:18:00.741     
   ID    Z sym.   atoms
    1    6 C      1-5
    2    8 O      6-8
    3    1 H      9-17

           -------------------------------------------------
          |                Calculation Setup                |
           -------------------------------------------------

          program call               : /apps/eb/ORCA/6.1.1-gompi-2024a-avx2/bin/otool_xtb goat_XTB.xyz --grad -c 0 -u 1 -P 8 --namespace goat --input goat_XTB.input.tmp --acc 0.200000
          hostname                   : d5-8
          calculation namespace      : goat
          coordinate file            : goat_XTB.xyz
          omp threads                :                     8


           -------------------------------------------------
          |                 G F N 2 - x T B                 |
           -------------------------------------------------

        Reference                      10.1021/acs.jctc.8b01176
      * Hamiltonian:
        H0-scaling (s, p, d)           1.850000    2.230000    2.230000
        zeta-weighting                 0.500000
      * Dispersion:
        s8                             2.700000
        a1                             0.520000
        a2                             5.000000
        s9                             5.000000
      * Repulsion:
        kExp                           1.500000    1.000000
        rExp                           1.000000
      * Coulomb:
        alpha                          2.000000
        third order                    shell-resolved
        anisotropic                    true
        a3                             3.000000
        a5                             4.000000
        cn-shift                       1.200000
        cn-exp                         4.000000
        max-rad                        5.000000

q/qsh data taken from xtbrestart
CAMM data taken from xtbrestart

          ...................................................
          :                      SETUP                      :
          :.................................................:
          :  # basis functions                  41          :
          :  # atomic orbitals                  41          :
          :  # shells                           25          :
          :  # electrons                        47          :
          :  max. iterations                   250          :
          :  Hamiltonian                  GFN2-xTB          :
          :  restarted?                       true          :
          :  GBSA solvation                  false          :
          :  PC potential                    false          :
          :  electronic temp.          300.0000000     K    :
          :  accuracy                    0.2000000          :
          :  -> integral cutoff          0.3198970E+02      :
          :  -> integral neglect         0.2000000E-08      :
          :  -> SCF convergence          0.2000000E-06 Eh   :
          :  -> wf. convergence          0.2000000E-04 e    :
          :  Broyden damping             0.4000000          :
          :  net charge                          0          :
          :  unpaired electrons                  1          :
          ...................................................

 iter      E             dE          RMSdq      gap      omega  full diag
   1    -27.5534955 -0.275535E+02  0.634E-02    4.34       0.0  T
   2    -27.5534963 -0.789605E-06  0.391E-02    4.34       1.0  T
   3    -27.5534963 -0.362857E-07  0.533E-03    4.34       4.6  T
   4    -27.5534966 -0.302907E-06  0.214E-03    4.34      11.4  T
   5    -27.5534966 -0.753932E-08  0.952E-04    4.34      25.5  T
   6    -27.5534966 -0.296911E-08  0.294E-04    4.34      82.5  T
   7    -27.5534966 -0.447351E-09  0.131E-04    4.34     184.8  T
   8    -27.5534966 -0.973870E-10  0.534E-05    4.34     454.0  T

   *** convergence criteria satisfied after 8 iterations ***

         #    Occupation            Energy/Eh            Energy/eV
      -------------------------------------------------------------
         1        2.0000           -0.7487519             -20.3746
       ...           ...                  ...                  ...
        18        2.0000           -0.4679693             -12.7341
        19        2.0000           -0.4659805             -12.6800
        20        2.0000           -0.4575177             -12.4497
        21        2.0000           -0.4546922             -12.3728
        22        2.0000           -0.4423142             -12.0360
        23        2.0000           -0.4397373             -11.9659
        24        1.0000           -0.3321056              -9.0371 (HOMO)
        25                         -0.1726020              -4.6967 (LUMO)
        26                         -0.0763092              -2.0765
        27                          0.0506126               1.3772
        28                          0.0733616               1.9963
        29                          0.0981872               2.6718
       ...                                ...                  ...
        41                          0.4204185              11.4402
      -------------------------------------------------------------
                  HL-Gap            0.1595036 Eh            4.3403 eV
             Fermi-level           -0.3191376 Eh           -8.6842 eV

 SCC (total)                   0 d,  0 h,  0 min,  0.010 sec
 SCC setup                      ...        0 min,  0.000 sec (  1.279%)
 Dispersion                     ...        0 min,  0.000 sec (  0.628%)
 classical contributions        ...        0 min,  0.000 sec (  0.143%)
 integral evaluation            ...        0 min,  0.000 sec (  3.960%)
 iterations                     ...        0 min,  0.009 sec ( 82.848%)
 molecular gradient             ...        0 min,  0.001 sec (  9.658%)
 printout                       ...        0 min,  0.000 sec (  1.309%)

         :::::::::::::::::::::::::::::::::::::::::::::::::::::
         ::                     SUMMARY                     ::
         :::::::::::::::::::::::::::::::::::::::::::::::::::::
         :: total energy             -27.307168325552 Eh    ::
         :: gradient norm              0.001414062580 Eh/a0 ::
         :: HOMO-LUMO gap              4.340313106594 eV    ::
         ::.................................................::
         :: SCC energy               -27.553493940538 Eh    ::
         :: -> isotropic ES            0.042905635447 Eh    ::
         :: -> anisotropic ES         -0.003833660802 Eh    ::
         :: -> anisotropic XC         -0.004652920633 Eh    ::
         :: -> dispersion             -0.009564368384 Eh    ::
         :: repulsion energy           0.246325614985 Eh    ::
         :: add. restraining           0.000000000000 Eh    ::
         :: total charge              -0.000000000000 e     ::
         :::::::::::::::::::::::::::::::::::::::::::::::::::::


Property printout bound to 'properties.out'

           -------------------------------------------------
          | TOTAL ENERGY              -27.307168325552 Eh   |
          | GRADIENT NORM               0.001414062580 Eh/α |
          | HOMO-LUMO GAP               4.340313106594 eV   |
           -------------------------------------------------

------------------------------------------------------------------------
 * finished run on 2026/02/17 at 15:18:00.758     
------------------------------------------------------------------------
 total:
 * wall-time:     0 d,  0 h,  0 min,  0.017 sec
 *  cpu-time:     0 d,  0 h,  0 min,  0.116 sec
 * ratio c/w:     7.016 speedup
 SCF:
 * wall-time:     0 d,  0 h,  0 min,  0.011 sec
 *  cpu-time:     0 d,  0 h,  0 min,  0.078 sec
 * ratio c/w:     7.409 speedup


-------------------------   --------------------
FINAL SINGLE POINT ENERGY       -27.307168325550
-------------------------   --------------------


-------------
DIPOLE MOMENT
-------------
                                X             Y             Z
Total Dipole Moment    :     -0.65700      -0.24200       0.26000
                        -----------------------------------------
Magnitude (a.u.)       :      0.74687
Magnitude (Debye)      :      1.89839


------------------
CARTESIAN GRADIENT
------------------

   1   C   :    0.000061016   -0.000038049    0.000035933
   2   C   :    0.000006884   -0.000054476    0.000002383
   3   C   :    0.000212559    0.000309594   -0.000346244
   4   C   :   -0.000169799   -0.000343160    0.000722046
   5   C   :   -0.000159096    0.000469929   -0.000644221
   6   O   :    0.000087557    0.000243383    0.000069299
   7   O   :    0.000049545    0.000105531   -0.000025672
   8   O   :   -0.000074425   -0.000355193    0.000261978
   9   H   :   -0.000006006    0.000008057    0.000016399
  10   H   :   -0.000039945    0.000000645   -0.000050443
  11   H   :    0.000019290    0.000016155   -0.000010083
  12   H   :   -0.000022969    0.000005240   -0.000024602
  13   H   :   -0.000035776    0.000033234    0.000004865
  14   H   :   -0.000123846   -0.000096751    0.000020113
  15   H   :   -0.000026378   -0.000083230    0.000037623
  16   H   :    0.000195596   -0.000150315   -0.000065649
  17   H   :    0.000025792   -0.000070597   -0.000003726

Difference to translation invariance:
           :   -0.0000000000    0.0000000000   -0.0000000000

Difference to rotation invariance:
           :    0.0000006001   -0.0000008683    0.0000010398

Norm of the Cartesian gradient     ...    0.0014140626
RMS gradient                       ...    0.0001980084
MAX gradient                       ...    0.0007220464
------------------------------------------------------------------------------
                         ORCA GEOMETRY RELAXATION STEP
------------------------------------------------------------------------------

Reading the OPT-File                    .... done
Getting information on internals        .... done
Copying old internal coords+grads       .... done
Making the new internal coordinates     .... (2022 redundants) done
Validating the new internal coordinates .... (2022 redundants) done
Calculating the B-matrix                .... done
Calculating the G,G- and P matrices     .... done
Transforming gradient to internals      .... done
Projecting the internal gradient        .... done
Number of atoms                         ....  17
Number of internal coordinates          ....  76
Current Energy                          ....   -27.307168326 Eh
Current gradient norm                   ....     0.001414063 Eh/bohr
Maximum allowed component of the step   ....  0.300
Current trust radius                    ....  0.675
Updating the Hessian (BFGS)             .... done
Forming the augmented Hessian           .... done
Diagonalizing the augmented Hessian     .... done
Last element of RFO vector              ....  0.997442414
Lowest eigenvalues of augmented Hessian:
 -0.000012489  0.001267591  0.007685336  0.011277398  0.011646758
Length of the computed step             ....  0.071657965
The final length of the internal step   ....  0.071657965
Converting the step to Cartesian space:
 Initial RMS(Int)=    0.0082197323
Transforming coordinates:
 Iter   0:  RMS(Cart)=    0.0169743673 RMS(Int)=    0.0082073010
done
Storing new coordinates                 .... done
The predicted energy change is          ....    -0.000006277
Previously predicted energy change      ....    -0.000006838
Actually observed energy change         ....    -0.000009886
Ratio of predicted to observed change   ....     1.445854938
New trust radius                        ....     0.675000000

                                .--------------------.
          ----------------------|Geometry convergence|-------------------------
          Item                value                   Tolerance       Converged
          ---------------------------------------------------------------------
          Energy change      -0.0000098865            0.0000050000      NO
          RMS gradient        0.0000927940            0.0001000000      YES
          MAX gradient        0.0003099023            0.0003000000      NO
          RMS step            0.0082197323            0.0020000000      NO
          MAX step            0.0321714731            0.0040000000      NO
          -------------------------------------------------------------------------
          ........................................................
          Max(Bonds)      0.0012      Max(Angles)    0.12
          Max(Dihed)        1.84      Max(Improp)    0.00
          ---------------------------------------------------------------------

    ---------------------------------------------------------------------------
                         Redundant Internal Coordinates
                            (Angstroem and degrees)

        Definition                    Value    dE/dq     Step     New-Value
    ----------------------------------------------------------------------------
     1. B(C   1,C   0)                1.5228 -0.000002  0.0000    1.5228   
     2. B(C   2,C   1)                1.5309  0.000010  0.0000    1.5309   
     3. B(C   3,C   2)                1.4785 -0.000187  0.0002    1.4787   
     4. B(C   4,C   3)                1.4469  0.000082  0.0003    1.4472   
     5. B(O   6,C   4)                1.4332 -0.000052 -0.0012    1.4320   
     6. B(O   6,C   3)                1.3687  0.000073  0.0002    1.3689   
     7. B(O   7,C   4)                1.3645 -0.000276  0.0005    1.3651   
     8. B(O   7,O   5)                1.4220  0.000205 -0.0005    1.4216   
     9. B(H   8,C   0)                1.0870  0.000007  0.0000    1.0871   
    10. B(H   9,C   0)                1.0874 -0.000006 -0.0000    1.0874   
    11. B(H  10,C   0)                1.0877 -0.000007  0.0000    1.0878   
    12. B(H  11,C   1)                1.0912 -0.000006  0.0000    1.0912   
    13. B(H  12,C   1)                1.0916  0.000001 -0.0001    1.0916   
    14. B(H  13,C   2)                1.1007  0.000023 -0.0001    1.1007   
    15. B(H  14,C   2)                1.0918  0.000042 -0.0001    1.0918   
    16. B(H  15,C   4)                1.0894  0.000101  0.0001    1.0895   
    17. B(H  16,O   5)                0.9693 -0.000071  0.0001    0.9694   
    18. A(H   8,C   0,H   9)          108.76 -0.000030   -0.00    108.76   
    19. A(H   8,C   0,H  10)          108.55  0.000012    0.00    108.55   
    20. A(C   1,C   0,H   8)          110.57 -0.000043    0.01    110.57   
    21. A(C   1,C   0,H  10)          110.64  0.000008   -0.01    110.64   
    22. A(H   9,C   0,H  10)          108.36 -0.000041    0.00    108.36   
    23. A(C   1,C   0,H   9)          109.90  0.000093   -0.00    109.90   
    24. A(C   0,C   1,H  12)          109.87 -0.000027    0.01    109.88   
    25. A(C   0,C   1,C   2)          111.30 -0.000024   -0.01    111.30   
    26. A(C   2,C   1,H  12)          108.99  0.000064   -0.01    108.99   
    27. A(H  11,C   1,H  12)          108.16 -0.000035    0.04    108.20   
    28. A(C   0,C   1,H  11)          109.62 -0.000012   -0.01    109.62   
    29. A(C   2,C   1,H  11)          108.83  0.000035   -0.03    108.79   
    30. A(C   3,C   2,H  13)          109.64  0.000115   -0.06    109.58   
    31. A(H  13,C   2,H  14)          108.11 -0.000046    0.00    108.11   
    32. A(C   3,C   2,H  14)          108.32  0.000099    0.02    108.34   
    33. A(C   1,C   2,H  14)          110.25 -0.000071    0.01    110.26   
    34. A(C   1,C   2,H  13)          109.29 -0.000046    0.05    109.33   
    35. A(C   1,C   2,C   3)          111.18 -0.000048   -0.03    111.16   
    36. A(C   2,C   3,C   4)          134.45  0.000279   -0.10    134.35   
    37. A(C   4,C   3,O   6)           61.12 -0.000057   -0.07     61.05   
    38. A(C   2,C   3,O   6)          127.39  0.000093   -0.12    127.27   
    39. A(O   7,C   4,H  15)          115.15 -0.000218    0.02    115.16   
    40. A(O   6,C   4,H  15)          113.86  0.000077   -0.02    113.83   
    41. A(C   3,C   4,H  15)          123.21  0.000029   -0.08    123.13   
    42. A(C   3,C   4,O   6)           56.75  0.000024    0.03     56.77   
    43. A(O   6,C   4,O   7)          117.48  0.000102    0.09    117.57   
    44. A(C   3,C   4,O   7)          117.11  0.000150    0.02    117.13   
    45. A(O   7,O   5,H  16)          104.45 -0.000007    0.08    104.52   
    46. A(C   3,O   6,C   4)           62.13  0.000033    0.04     62.18   
    47. A(C   4,O   7,O   5)          111.13 -0.000012    0.02    111.16   
    48. D(H  11,C   1,C   0,H   9)     62.13 -0.000005   -0.22     61.91   
    49. D(C   2,C   1,C   0,H  10)     61.31 -0.000012   -0.17     61.14   
    50. D(H  11,C   1,C   0,H  10)   -178.24  0.000008   -0.22   -178.46   
    51. D(C   2,C   1,C   0,H   9)    -58.32 -0.000026   -0.17    -58.49   
    52. D(H  11,C   1,C   0,H   8)    -57.95  0.000000   -0.22    -58.17   
    53. D(C   2,C   1,C   0,H   8)   -178.40 -0.000020   -0.17   -178.57   
    54. D(C   3,C   2,C   1,C   0)     64.49 -0.000021    0.22     64.71   
    55. D(H  13,C   2,C   1,H  12)    -53.02  0.000054    0.17    -52.85   
    56. D(H  13,C   2,C   1,C   0)   -174.35  0.000061    0.16   -174.19   
    57. D(C   3,C   2,C   1,H  12)   -174.18 -0.000028    0.23   -173.95   
    58. D(H  13,C   2,C   1,H  11)     64.73  0.000067    0.19     64.93   
    59. D(C   3,C   2,C   1,H  11)    -56.43 -0.000014    0.25    -56.18   
    60. D(C   4,C   3,C   2,H  14)    -82.16  0.000090   -1.83    -83.99   
    61. D(C   4,C   3,C   2,H  13)     35.59  0.000157   -1.84     33.75   
    62. D(C   4,C   3,C   2,C   1)    156.55  0.000144   -1.84    154.71   
    63. D(O   6,C   3,C   2,H  13)    -48.56 -0.000026   -1.60    -50.16   
    64. D(O   6,C   3,C   2,C   1)     72.39 -0.000039   -1.60     70.79   
    65. D(H  15,C   4,C   3,O   6)     98.56  0.000099    0.03     98.59   
    66. D(H  15,C   4,C   3,C   2)    -16.93  0.000054    0.22    -16.71   
    67. D(O   7,C   4,C   3,O   6)   -106.51 -0.000055   -0.11   -106.61   
    68. D(O   7,C   4,C   3,C   2)    138.00 -0.000100    0.08    138.08   
    69. D(O   6,C   4,C   3,C   2)   -115.49 -0.000045    0.19   -115.30   
    70. D(C   3,O   6,C   4,H  15)   -115.22  0.000000    0.08   -115.14   
    71. D(C   3,O   6,C   4,O   7)    105.86  0.000141   -0.01    105.84   
    72. D(C   4,O   6,C   3,C   2)    125.80  0.000310   -0.14    125.67   
    73. D(C   4,O   7,O   5,H  16)   -104.44 -0.000043    0.95   -103.49   
    74. D(O   5,O   7,C   4,H  15)    -49.92 -0.000087   -0.12    -50.03   
    75. D(O   5,O   7,C   4,O   6)     88.49 -0.000110   -0.03     88.46   
    76. D(O   5,O   7,C   4,C   3)    153.14  0.000001    0.03    153.17   
    ----------------------------------------------------------------------------

Geometry step timings:
Preparation and reading OPT file:      0.000 s ( 0.700 %)
Internal coordinates            :      0.000 s ( 0.850 %)
B/P matrices and projection     :      0.001 s (32.200 %)
Hessian update/contruction      :      0.000 s (14.700 %)
Making the step                 :      0.001 s (25.450 %)
Converting the step to Cartesian:      0.000 s ( 3.250 %)
Storing new data                :      0.000 s ( 1.250 %)
Checking convergence            :      0.000 s ( 1.750 %)
Final printing                  :      0.000 s (19.850 %)
Total time                      :      0.002 s

Time for energy+gradient        :      0.028 s
Time for complete geometry iter :      0.031 s

         *************************************************************
         *                GEOMETRY OPTIMIZATION CYCLE  12            *
         *************************************************************
---------------------------------
CARTESIAN COORDINATES (ANGSTROEM)
---------------------------------
  C    -2.180737   -0.445249   -1.090640
  C    -1.833256   -0.705062    0.369020
  C    -0.391891   -1.199026    0.518051
  C     0.574186   -0.159443    0.102589
  C     1.953660    0.129237    0.431397
  O     3.844766    1.308057   -0.133560
  O     0.869399    1.006712    0.755758
  O     2.775413    0.493463   -0.595947
  H    -3.197529   -0.071442   -1.180596
  H    -1.498898    0.291888   -1.507894
  H    -2.095407   -1.359597   -1.673644
  H    -1.950504    0.215561    0.942953
  H    -2.510094   -1.454166    0.784112
  H    -0.207982   -1.475159    1.567511
  H    -0.229975   -2.084792   -0.099320
  H     2.457993   -0.288029    1.302304
  H     3.598329    2.206997   -0.399894

----------------------------
CARTESIAN COORDINATES (A.U.)
----------------------------
  NO LB    ZA    FRAG    MASS        X           Y           Z
   0 C   6.0000    1    12.011   -4.120996   -0.841399   -2.061011
   1 C   6.0000    1    12.011   -3.464353   -1.332374    0.697347
   2 C   6.0000    1    12.011   -0.740566   -2.265830    0.978974
   3 C   6.0000    1    12.011    1.085053   -0.301303    0.193864
   4 C   6.0000    1    12.011    3.691882    0.244222    0.815221
   5 O   8.0000    1    15.999    7.265555    2.471869   -0.252392
   6 O   8.0000    1    15.999    1.642926    1.902410    1.428176
   7 O   8.0000    1    15.999    5.244771    0.932510   -1.126176
   8 H   1.0000    1     1.008   -6.042453   -0.135006   -2.231003
   9 H   1.0000    1     1.008   -2.832506    0.551589   -2.849507
  10 H   1.0000    1     1.008   -3.959745   -2.569266   -3.162729
  11 H   1.0000    1     1.008   -3.685918    0.407351    1.781923
  12 H   1.0000    1     1.008   -4.743391   -2.747976    1.481757
  13 H   1.0000    1     1.008   -0.393028   -2.787647    2.962166
  14 H   1.0000    1     1.008   -0.434590   -3.939686   -0.187688
  15 H   1.0000    1     1.008    4.644934   -0.544296    2.460998
  16 H   1.0000    1     1.008    6.799857    4.170620   -0.755690

      -----------------------------------------------------------      
     |                   =====================                   |     
     |                           x T B                           |     
     |                   =====================                   |     
     |                         S. Grimme                         |     
     |          Mulliken Center for Theoretical Chemistry        |     
     |                    University of Bonn                     |     
      -----------------------------------------------------------      

   * xtb version 6.7.1 (edcfbbe) compiled by 'albert@albert-system' on 2024-07-22

   xtb is free software: you can redistribute it and/or modify it under
   the terms of the GNU Lesser General Public License as published by
   the Free Software Foundation, either version 3 of the License, or
   (at your option) any later version.
   
   xtb is distributed in the hope that it will be useful,
   but WITHOUT ANY WARRANTY; without even the implied warranty of
   MERCHANTABILITY or FITNESS FOR A PARTICULAR PURPOSE.  See the
   GNU Lesser General Public License for more details.
   
   Cite this work as:
   * C. Bannwarth, E. Caldeweyher, S. Ehlert, A. Hansen, P. Pracht,
     J. Seibert, S. Spicher, S. Grimme, WIREs Comput. Mol. Sci., 2020, 11,
     e01493. DOI: 10.1002/wcms.1493
   
   for GFN2-xTB:
   * C. Bannwarth, S. Ehlert and S. Grimme., J. Chem. Theory Comput., 2019,
     15, 1652-1671. DOI: 10.1021/acs.jctc.8b01176
   for GFN1-xTB:
   * S. Grimme, C. Bannwarth, P. Shushkov, J. Chem. Theory Comput., 2017,
     13, 1989-2009. DOI: 10.1021/acs.jctc.7b00118
   for GFN0-xTB:
   * P. Pracht, E. Caldeweyher, S. Ehlert, S. Grimme, ChemRxiv, 2019, preprint.
     DOI: 10.26434/chemrxiv.8326202.v1
   for GFN-FF:
   * S. Spicher and S. Grimme, Angew. Chem. Int. Ed., 2020, 59, 15665-15673.
     DOI: 10.1002/anie.202004239
   
   for ALPB and GBSA implicit solvation:
   * S. Ehlert, M. Stahn, S. Spicher, S. Grimme, J. Chem. Theory Comput.,
     2021, 17, 4250-4261. DOI: 10.1021/acs.jctc.1c00471
   
   for ddCOSMO and CPCM-X implicit solvation:
   * M. Stahn, S. Ehlert, S. Grimme, J. Phys. Chem. A,
     2023, XX, XXXX-XXXX. DOI: 10.1021/acs.jpca.3c04382
   
   for DFT-D4:
   * E. Caldeweyher, C. Bannwarth and S. Grimme, J. Chem. Phys., 2017,
     147, 034112. DOI: 10.1063/1.4993215
   * E. Caldeweyher, S. Ehlert, A. Hansen, H. Neugebauer, S. Spicher,
     C. Bannwarth and S. Grimme, J. Chem. Phys., 2019, 150, 154122.
     DOI: 10.1063/1.5090222
   * E. Caldeweyher, J.-M. Mewes, S. Ehlert and S. Grimme, Phys. Chem. Chem. Phys.
     2020, 22, 8499-8512. DOI: 10.1039/D0CP00502A
   
   for sTDA-xTB:
   * S. Grimme and C. Bannwarth, J. Chem. Phys., 2016, 145, 054103.
     DOI: 10.1063/1.4959605
   
   in the mass-spec context:
   * V. Asgeirsson, C. Bauer and S. Grimme, Chem. Sci., 2017, 8, 4879.
     DOI: 10.1039/c7sc00601b
   * J. Koopman and S. Grimme, ACS Omega 2019, 4, 12, 15120-15133.
     DOI: 10.1021/acsomega.9b02011
   
   for metadynamics refer to:
   * S. Grimme, J. Chem. Theory Comput., 2019, 155, 2847-2862
     DOI: 10.1021/acs.jctc.9b00143
   
   for SPH calculations refer to:
   * S. Spicher and S. Grimme, J. Chem. Theory Comput., 2021, 17, 1701-1714
     DOI: 10.1021/acs.jctc.0c01306
   
   for ONIOM refer to:
   * C. Plett, A. Katbashev, S. Ehlert, S. Grimme, M. Bursch,
     Phys. Chem. Chem. Phys., 2023, 25, 17860-17868. DOI: 10.1039/D3CP02178E
   
   for DIPRO refer to:
   * J. Kohn, N. Gildemeister, S. Grimme, D. Fazzi, A. Hansen,
     J. Chem. Phys., 2023, just accepted.
   
   for PTB refer to:
   * S. Grimme, M. Mueller, A. Hansen, J. Chem. Phys., 2023, 158, 124111.
     DOI: 10.1063/5.0137838
   
   with help from (in alphabetical order)
   P. Atkinson, C. Bannwarth, F. Bohle, G. Brandenburg, E. Caldeweyher
   M. Checinski, S. Dohm, S. Ehlert, S. Ehrlich, I. Gerasimov, C. Hölzer
   A. Katbashev, J. Kohn, J. Koopman, C. Lavigne, S. Lehtola, F. März, M. Müller,
   F. Musil, H. Neugebauer, J. Pisarek, C. Plett, P. Pracht, F. Pultar,
   J. Seibert, P. Shushkov, S. Spicher, M. Stahn, M. Steiner, T. Strunk,
   J. Stückrath, T. Rose, and J. Unsleber
   
 * started run on 2026/02/17 at 15:18:00.771     
   ID    Z sym.   atoms
    1    6 C      1-5
    2    8 O      6-8
    3    1 H      9-17

           -------------------------------------------------
          |                Calculation Setup                |
           -------------------------------------------------

          program call               : /apps/eb/ORCA/6.1.1-gompi-2024a-avx2/bin/otool_xtb goat_XTB.xyz --grad -c 0 -u 1 -P 8 --namespace goat --input goat_XTB.input.tmp --acc 0.200000
          hostname                   : d5-8
          calculation namespace      : goat
          coordinate file            : goat_XTB.xyz
          omp threads                :                     8


           -------------------------------------------------
          |                 G F N 2 - x T B                 |
           -------------------------------------------------

        Reference                      10.1021/acs.jctc.8b01176
      * Hamiltonian:
        H0-scaling (s, p, d)           1.850000    2.230000    2.230000
        zeta-weighting                 0.500000
      * Dispersion:
        s8                             2.700000
        a1                             0.520000
        a2                             5.000000
        s9                             5.000000
      * Repulsion:
        kExp                           1.500000    1.000000
        rExp                           1.000000
      * Coulomb:
        alpha                          2.000000
        third order                    shell-resolved
        anisotropic                    true
        a3                             3.000000
        a5                             4.000000
        cn-shift                       1.200000
        cn-exp                         4.000000
        max-rad                        5.000000

q/qsh data taken from xtbrestart
CAMM data taken from xtbrestart

          ...................................................
          :                      SETUP                      :
          :.................................................:
          :  # basis functions                  41          :
          :  # atomic orbitals                  41          :
          :  # shells                           25          :
          :  # electrons                        47          :
          :  max. iterations                   250          :
          :  Hamiltonian                  GFN2-xTB          :
          :  restarted?                       true          :
          :  GBSA solvation                  false          :
          :  PC potential                    false          :
          :  electronic temp.          300.0000000     K    :
          :  accuracy                    0.2000000          :
          :  -> integral cutoff          0.3198970E+02      :
          :  -> integral neglect         0.2000000E-08      :
          :  -> SCF convergence          0.2000000E-06 Eh   :
          :  -> wf. convergence          0.2000000E-04 e    :
          :  Broyden damping             0.4000000          :
          :  net charge                          0          :
          :  unpaired electrons                  1          :
          ...................................................

 iter      E             dE          RMSdq      gap      omega  full diag
   1    -27.5534092 -0.275534E+02  0.728E-02    4.35       0.0  T
   2    -27.5534102 -0.960919E-06  0.446E-02    4.35       1.0  T
   3    -27.5534102 -0.528883E-07  0.556E-03    4.36       4.4  T
   4    -27.5534105 -0.304457E-06  0.230E-03    4.35      10.5  T
   5    -27.5534105 -0.745552E-08  0.108E-03    4.35      22.5  T
   6    -27.5534105 -0.407257E-08  0.302E-04    4.35      80.4  T
   7    -27.5534105 -0.428653E-09  0.120E-04    4.35     202.6  T
   8    -27.5534105 -0.636540E-10  0.682E-05    4.35     355.8  T

   *** convergence criteria satisfied after 8 iterations ***

         #    Occupation            Energy/Eh            Energy/eV
      -------------------------------------------------------------
         1        2.0000           -0.7488296             -20.3767
       ...           ...                  ...                  ...
        18        2.0000           -0.4680770             -12.7370
        19        2.0000           -0.4656332             -12.6705
        20        2.0000           -0.4576093             -12.4522
        21        2.0000           -0.4550759             -12.3832
        22        2.0000           -0.4423418             -12.0367
        23        2.0000           -0.4397538             -11.9663
        24        1.0000           -0.3322938              -9.0422 (HOMO)
        25                         -0.1722721              -4.6878 (LUMO)
        26                         -0.0761857              -2.0731
        27                          0.0506150               1.3773
        28                          0.0737030               2.0056
        29                          0.0981307               2.6703
       ...                                ...                  ...
        41                          0.4192362              11.4080
      -------------------------------------------------------------
                  HL-Gap            0.1600217 Eh            4.3544 eV
             Fermi-level           -0.3191533 Eh           -8.6846 eV

 SCC (total)                   0 d,  0 h,  0 min,  0.016 sec
 SCC setup                      ...        0 min,  0.000 sec (  1.090%)
 Dispersion                     ...        0 min,  0.000 sec (  2.598%)
 classical contributions        ...        0 min,  0.000 sec (  0.839%)
 integral evaluation            ...        0 min,  0.001 sec (  4.478%)
 iterations                     ...        0 min,  0.012 sec ( 73.250%)
 molecular gradient             ...        0 min,  0.002 sec ( 13.661%)
 printout                       ...        0 min,  0.001 sec (  3.974%)

         :::::::::::::::::::::::::::::::::::::::::::::::::::::
         ::                     SUMMARY                     ::
         :::::::::::::::::::::::::::::::::::::::::::::::::::::
         :: total energy             -27.307177385207 Eh    ::
         :: gradient norm              0.001560651853 Eh/a0 ::
         :: HOMO-LUMO gap              4.354411989389 eV    ::
         ::.................................................::
         :: SCC energy               -27.553408264189 Eh    ::
         :: -> isotropic ES            0.042881913734 Eh    ::
         :: -> anisotropic ES         -0.003794475467 Eh    ::
         :: -> anisotropic XC         -0.004672707708 Eh    ::
         :: -> dispersion             -0.009568957032 Eh    ::
         :: repulsion energy           0.246230878983 Eh    ::
         :: add. restraining           0.000000000000 Eh    ::
         :: total charge               0.000000000000 e     ::
         :::::::::::::::::::::::::::::::::::::::::::::::::::::


Property printout bound to 'properties.out'

           -------------------------------------------------
          | TOTAL ENERGY              -27.307177385207 Eh   |
          | GRADIENT NORM               0.001560651853 Eh/α |
          | HOMO-LUMO GAP               4.354411989389 eV   |
           -------------------------------------------------

------------------------------------------------------------------------
 * finished run on 2026/02/17 at 15:18:00.803     
------------------------------------------------------------------------
 total:
 * wall-time:     0 d,  0 h,  0 min,  0.031 sec
 *  cpu-time:     0 d,  0 h,  0 min,  0.176 sec
 * ratio c/w:     5.696 speedup
 SCF:
 * wall-time:     0 d,  0 h,  0 min,  0.016 sec
 *  cpu-time:     0 d,  0 h,  0 min,  0.095 sec
 * ratio c/w:     5.960 speedup


-------------------------   --------------------
FINAL SINGLE POINT ENERGY       -27.307177385210
-------------------------   --------------------


-------------
DIPOLE MOMENT
-------------
                                X             Y             Z
Total Dipole Moment    :     -0.66700      -0.23700       0.26800
                        -----------------------------------------
Magnitude (a.u.)       :      0.75689
Magnitude (Debye)      :      1.92386


------------------
CARTESIAN GRADIENT
------------------

   1   C   :    0.000049293   -0.000018361    0.000027723
   2   C   :   -0.000171774   -0.000053841    0.000043044
   3   C   :    0.000290308    0.000103199   -0.000278728
   4   C   :   -0.000275738   -0.000374745    0.000666530
   5   C   :   -0.000433238    0.000866420   -0.000456672
   6   O   :    0.000005437    0.000162483   -0.000046632
   7   O   :    0.000268577   -0.000204774    0.000002881
   8   O   :    0.000241207   -0.000361828    0.000116967
   9   H   :   -0.000019919   -0.000003541    0.000010804
  10   H   :   -0.000023603    0.000013435   -0.000043789
  11   H   :    0.000035951   -0.000001915   -0.000015330
  12   H   :    0.000045515    0.000034773   -0.000040284
  13   H   :   -0.000007440    0.000032605    0.000002505
  14   H   :   -0.000114110   -0.000013101   -0.000010031
  15   H   :   -0.000055724   -0.000015644   -0.000011907
  16   H   :    0.000114876   -0.000166190   -0.000002045
  17   H   :    0.000050381    0.000001026    0.000034964

Difference to translation invariance:
           :    0.0000000000    0.0000000000   -0.0000000000

Difference to rotation invariance:
           :    0.0000007609   -0.0000012143    0.0000016272

Norm of the Cartesian gradient     ...    0.0015606519
RMS gradient                       ...    0.0002185350
MAX gradient                       ...    0.0008664196
------------------------------------------------------------------------------
                         ORCA GEOMETRY RELAXATION STEP
------------------------------------------------------------------------------

Reading the OPT-File                    .... done
Getting information on internals        .... done
Copying old internal coords+grads       .... done
Making the new internal coordinates     .... (2022 redundants) done
Validating the new internal coordinates .... (2022 redundants) done
Calculating the B-matrix                .... done
Calculating the G,G- and P matrices     .... done
Transforming gradient to internals      .... done
Projecting the internal gradient        .... done
Number of atoms                         ....  17
Number of internal coordinates          ....  76
Current Energy                          ....   -27.307177385 Eh
Current gradient norm                   ....     0.001560652 Eh/bohr
Maximum allowed component of the step   ....  0.300
Current trust radius                    ....  0.675
Updating the Hessian (BFGS)             .... done
Forming the augmented Hessian           .... done
Diagonalizing the augmented Hessian     .... done
Last element of RFO vector              ....  0.997384225
Lowest eigenvalues of augmented Hessian:
 -0.000011130  0.000955681  0.008008937  0.010340475  0.011587421
Length of the computed step             ....  0.072471707
The final length of the internal step   ....  0.072471707
Converting the step to Cartesian space:
 Initial RMS(Int)=    0.0083130749
Transforming coordinates:
 Iter   0:  RMS(Cart)=    0.0180115693 RMS(Int)=    0.0082918460
done
Storing new coordinates                 .... done
The predicted energy change is          ....    -0.000005594
Previously predicted energy change      ....    -0.000006277
Actually observed energy change         ....    -0.000009060
Ratio of predicted to observed change   ....     1.443407969
New trust radius                        ....     0.675000000

                                .--------------------.
          ----------------------|Geometry convergence|-------------------------
          Item                value                   Tolerance       Converged
          ---------------------------------------------------------------------
          Energy change      -0.0000090597            0.0000050000      NO
          RMS gradient        0.0000965627            0.0001000000      YES
          MAX gradient        0.0003205587            0.0003000000      NO
          RMS step            0.0083130749            0.0020000000      NO
          MAX step            0.0336975309            0.0040000000      NO
          -------------------------------------------------------------------------
          ........................................................
          Max(Bonds)      0.0006      Max(Angles)    0.21
          Max(Dihed)        1.93      Max(Improp)    0.00
          ---------------------------------------------------------------------

    ---------------------------------------------------------------------------
                         Redundant Internal Coordinates
                            (Angstroem and degrees)

        Definition                    Value    dE/dq     Step     New-Value
    ----------------------------------------------------------------------------
     1. B(C   1,C   0)                1.5228  0.000008  0.0000    1.5228   
     2. B(C   2,C   1)                1.5309  0.000089 -0.0002    1.5308   
     3. B(C   3,C   2)                1.4787 -0.000162  0.0005    1.4792   
     4. B(C   4,C   3)                1.4472  0.000146  0.0002    1.4474   
     5. B(O   6,C   4)                1.4321 -0.000268 -0.0006    1.4315   
     6. B(O   6,C   3)                1.3688  0.000010  0.0001    1.3689   
     7. B(O   7,C   4)                1.3651  0.000047  0.0005    1.3655   
     8. B(O   7,O   5)                1.4216  0.000132 -0.0005    1.4210   
     9. B(H   8,C   0)                1.0871  0.000017 -0.0000    1.0870   
    10. B(H   9,C   0)                1.0874  0.000011 -0.0000    1.0874   
    11. B(H  10,C   0)                1.0878  0.000013  0.0000    1.0878   
    12. B(H  11,C   1)                1.0912  0.000003  0.0000    1.0912   
    13. B(H  12,C   1)                1.0916 -0.000017 -0.0000    1.0916   
    14. B(H  13,C   2)                1.1007 -0.000025 -0.0000    1.1006   
    15. B(H  14,C   2)                1.0918  0.000011 -0.0001    1.0917   
    16. B(H  15,C   4)                1.0895  0.000115 -0.0001    1.0894   
    17. B(H  16,O   5)                0.9694 -0.000021  0.0002    0.9696   
    18. A(H   8,C   0,H   9)          108.76 -0.000019    0.00    108.77   
    19. A(H   8,C   0,H  10)          108.55  0.000014   -0.00    108.55   
    20. A(C   1,C   0,H   8)          110.57 -0.000029    0.01    110.59   
    21. A(C   1,C   0,H  10)          110.64 -0.000006   -0.01    110.63   
    22. A(H   9,C   0,H  10)          108.36 -0.000034    0.01    108.37   
    23. A(C   1,C   0,H   9)          109.90  0.000073   -0.02    109.88   
    24. A(C   0,C   1,H  12)          109.88 -0.000007    0.01    109.90   
    25. A(C   0,C   1,C   2)          111.30 -0.000047    0.01    111.30   
    26. A(C   2,C   1,H  12)          108.99  0.000044   -0.02    108.97   
    27. A(H  11,C   1,H  12)          108.20 -0.000003    0.03    108.23   
    28. A(C   0,C   1,H  11)          109.62  0.000005   -0.00    109.61   
    29. A(C   2,C   1,H  11)          108.79  0.000009   -0.03    108.77   
    30. A(C   3,C   2,H  13)          109.58  0.000073   -0.08    109.50   
    31. A(H  13,C   2,H  14)          108.11  0.000028   -0.01    108.10   
    32. A(C   3,C   2,H  14)          108.34  0.000065    0.01    108.35   
    33. A(C   1,C   2,H  14)          110.26 -0.000070    0.04    110.30   
    34. A(C   1,C   2,H  13)          109.33 -0.000032    0.06    109.39   
    35. A(C   1,C   2,C   3)          111.16 -0.000059   -0.01    111.15   
    36. A(C   2,C   3,C   4)          134.36  0.000321   -0.21    134.15   
    37. A(C   4,C   3,O   6)           61.06 -0.000154   -0.03     61.02   
    38. A(C   2,C   3,O   6)          127.28  0.000128   -0.15    127.14   
    39. A(O   7,C   4,H  15)          115.16 -0.000197    0.06    115.22   
    40. A(O   6,C   4,H  15)          113.84  0.000008   -0.04    113.79   
    41. A(C   3,C   4,H  15)          123.13 -0.000045   -0.04    123.09   
    42. A(C   3,C   4,O   6)           56.77  0.000027    0.01     56.78   
    43. A(O   6,C   4,O   7)          117.57  0.000195   -0.01    117.56   
    44. A(C   3,C   4,O   7)          117.13  0.000180   -0.01    117.12   
    45. A(O   7,O   5,H  16)          104.52  0.000105    0.05    104.57   
    46. A(C   3,O   6,C   4)           62.17  0.000127    0.02     62.20   
    47. A(C   4,O   7,O   5)          111.16  0.000083    0.01    111.17   
    48. D(H  11,C   1,C   0,H   9)     61.91 -0.000025   -0.08     61.83   
    49. D(C   2,C   1,C   0,H  10)     61.14 -0.000009   -0.05     61.09   
    50. D(H  11,C   1,C   0,H  10)   -178.46 -0.000024   -0.08   -178.55   
    51. D(C   2,C   1,C   0,H   9)    -58.49 -0.000010   -0.05    -58.54   
    52. D(H  11,C   1,C   0,H   8)    -58.17 -0.000030   -0.08    -58.25   
    53. D(C   2,C   1,C   0,H   8)   -178.57 -0.000015   -0.05   -178.62   
    54. D(C   3,C   2,C   1,C   0)     64.71  0.000011    0.02     64.73   
    55. D(H  13,C   2,C   1,H  12)    -52.85  0.000033   -0.04    -52.89   
    56. D(H  13,C   2,C   1,C   0)   -174.19  0.000042   -0.05   -174.24   
    57. D(C   3,C   2,C   1,H  12)   -173.95  0.000002    0.03   -173.92   
    58. D(H  13,C   2,C   1,H  11)     64.93  0.000060   -0.03     64.90   
    59. D(C   3,C   2,C   1,H  11)    -56.18  0.000028    0.04    -56.14   
    60. D(C   4,C   3,C   2,H  14)    -83.99  0.000003   -1.87    -85.87   
    61. D(C   4,C   3,C   2,H  13)     33.75  0.000115   -1.93     31.81   
    62. D(C   4,C   3,C   2,C   1)    154.71  0.000085   -1.92    152.79   
    63. D(O   6,C   3,C   2,H  13)    -50.16  0.000026   -1.64    -51.80   
    64. D(O   6,C   3,C   2,C   1)     70.80 -0.000004   -1.63     69.17   
    65. D(H  15,C   4,C   3,O   6)     98.59  0.000051   -0.02     98.56   
    66. D(H  15,C   4,C   3,C   2)    -16.71  0.000045    0.16    -16.56   
    67. D(O   7,C   4,C   3,O   6)   -106.61 -0.000157    0.00   -106.61   
    68. D(O   7,C   4,C   3,C   2)    138.08 -0.000163    0.18    138.27   
    69. D(O   6,C   4,C   3,C   2)   -115.30 -0.000006    0.18   -115.12   
    70. D(C   3,O   6,C   4,H  15)   -115.14  0.000054    0.02   -115.11   
    71. D(C   3,O   6,C   4,O   7)    105.84  0.000130   -0.01    105.84   
    72. D(C   4,O   6,C   3,C   2)    125.67  0.000305   -0.25    125.42   
    73. D(C   4,O   7,O   5,H  16)   -103.49  0.000012    0.76   -102.73   
    74. D(O   5,O   7,C   4,H  15)    -50.03 -0.000111    0.17    -49.86   
    75. D(O   5,O   7,C   4,O   6)     88.46 -0.000103    0.16     88.62   
    76. D(O   5,O   7,C   4,C   3)    153.17  0.000051    0.16    153.33   
    ----------------------------------------------------------------------------

Geometry step timings:
Preparation and reading OPT file:      0.000 s ( 0.646 %)
Internal coordinates            :      0.000 s ( 0.795 %)
B/P matrices and projection     :      0.001 s (30.999 %)
Hessian update/contruction      :      0.000 s (16.344 %)
Making the step                 :      0.001 s (26.875 %)
Converting the step to Cartesian:      0.000 s ( 3.676 %)
Storing new data                :      0.000 s ( 1.242 %)
Checking convergence            :      0.000 s ( 1.888 %)
Final printing                  :      0.000 s (17.486 %)
Total time                      :      0.002 s

Time for energy+gradient        :      0.043 s
Time for complete geometry iter :      0.045 s

         *************************************************************
         *                GEOMETRY OPTIMIZATION CYCLE  13            *
         *************************************************************
---------------------------------
CARTESIAN COORDINATES (ANGSTROEM)
---------------------------------
  C    -2.186378   -0.444428   -1.086468
  C    -1.828491   -0.705035    0.370546
  C    -0.387909   -1.203941    0.508722
  C     0.578768   -0.167236    0.085848
  C     1.951240    0.133416    0.433440
  O     3.848934    1.307227   -0.119933
  O     0.858402    1.011528    0.723187
  O     2.789356    0.483152   -0.586338
  H    -3.202789   -0.067900   -1.168927
  H    -1.505635    0.290870   -1.508687
  H    -2.107873   -1.359119   -1.669934
  H    -1.937572    0.216321    0.944944
  H    -2.504485   -1.451740    0.791267
  H    -0.195702   -1.479870    1.556712
  H    -0.233200   -2.090555   -0.109182
  H     2.441205   -0.266060    1.320636
  H     3.599603    2.203317   -0.393632

----------------------------
CARTESIAN COORDINATES (A.U.)
----------------------------
  NO LB    ZA    FRAG    MASS        X           Y           Z
   0 C   6.0000    1    12.011   -4.131657   -0.839846   -2.053126
   1 C   6.0000    1    12.011   -3.455348   -1.332323    0.700230
   2 C   6.0000    1    12.011   -0.733043   -2.275120    0.961345
   3 C   6.0000    1    12.011    1.093713   -0.316030    0.162229
   4 C   6.0000    1    12.011    3.687309    0.252120    0.819083
   5 O   8.0000    1    15.999    7.273432    2.470301   -0.226641
   6 O   8.0000    1    15.999    1.622146    1.911511    1.366625
   7 O   8.0000    1    15.999    5.271120    0.913026   -1.108018
   8 H   1.0000    1     1.008   -6.052395   -0.128312   -2.208952
   9 H   1.0000    1     1.008   -2.845237    0.549665   -2.851006
  10 H   1.0000    1     1.008   -3.983303   -2.568363   -3.155717
  11 H   1.0000    1     1.008   -3.661480    0.408787    1.785685
  12 H   1.0000    1     1.008   -4.732792   -2.743391    1.495278
  13 H   1.0000    1     1.008   -0.369823   -2.796549    2.941759
  14 H   1.0000    1     1.008   -0.440685   -3.950576   -0.206325
  15 H   1.0000    1     1.008    4.613209   -0.502781    2.495640
  16 H   1.0000    1     1.008    6.802264    4.163666   -0.743858

      -----------------------------------------------------------      
     |                   =====================                   |     
     |                           x T B                           |     
     |                   =====================                   |     
     |                         S. Grimme                         |     
     |          Mulliken Center for Theoretical Chemistry        |     
     |                    University of Bonn                     |     
      -----------------------------------------------------------      

   * xtb version 6.7.1 (edcfbbe) compiled by 'albert@albert-system' on 2024-07-22

   xtb is free software: you can redistribute it and/or modify it under
   the terms of the GNU Lesser General Public License as published by
   the Free Software Foundation, either version 3 of the License, or
   (at your option) any later version.
   
   xtb is distributed in the hope that it will be useful,
   but WITHOUT ANY WARRANTY; without even the implied warranty of
   MERCHANTABILITY or FITNESS FOR A PARTICULAR PURPOSE.  See the
   GNU Lesser General Public License for more details.
   
   Cite this work as:
   * C. Bannwarth, E. Caldeweyher, S. Ehlert, A. Hansen, P. Pracht,
     J. Seibert, S. Spicher, S. Grimme, WIREs Comput. Mol. Sci., 2020, 11,
     e01493. DOI: 10.1002/wcms.1493
   
   for GFN2-xTB:
   * C. Bannwarth, S. Ehlert and S. Grimme., J. Chem. Theory Comput., 2019,
     15, 1652-1671. DOI: 10.1021/acs.jctc.8b01176
   for GFN1-xTB:
   * S. Grimme, C. Bannwarth, P. Shushkov, J. Chem. Theory Comput., 2017,
     13, 1989-2009. DOI: 10.1021/acs.jctc.7b00118
   for GFN0-xTB:
   * P. Pracht, E. Caldeweyher, S. Ehlert, S. Grimme, ChemRxiv, 2019, preprint.
     DOI: 10.26434/chemrxiv.8326202.v1
   for GFN-FF:
   * S. Spicher and S. Grimme, Angew. Chem. Int. Ed., 2020, 59, 15665-15673.
     DOI: 10.1002/anie.202004239
   
   for ALPB and GBSA implicit solvation:
   * S. Ehlert, M. Stahn, S. Spicher, S. Grimme, J. Chem. Theory Comput.,
     2021, 17, 4250-4261. DOI: 10.1021/acs.jctc.1c00471
   
   for ddCOSMO and CPCM-X implicit solvation:
   * M. Stahn, S. Ehlert, S. Grimme, J. Phys. Chem. A,
     2023, XX, XXXX-XXXX. DOI: 10.1021/acs.jpca.3c04382
   
   for DFT-D4:
   * E. Caldeweyher, C. Bannwarth and S. Grimme, J. Chem. Phys., 2017,
     147, 034112. DOI: 10.1063/1.4993215
   * E. Caldeweyher, S. Ehlert, A. Hansen, H. Neugebauer, S. Spicher,
     C. Bannwarth and S. Grimme, J. Chem. Phys., 2019, 150, 154122.
     DOI: 10.1063/1.5090222
   * E. Caldeweyher, J.-M. Mewes, S. Ehlert and S. Grimme, Phys. Chem. Chem. Phys.
     2020, 22, 8499-8512. DOI: 10.1039/D0CP00502A
   
   for sTDA-xTB:
   * S. Grimme and C. Bannwarth, J. Chem. Phys., 2016, 145, 054103.
     DOI: 10.1063/1.4959605
   
   in the mass-spec context:
   * V. Asgeirsson, C. Bauer and S. Grimme, Chem. Sci., 2017, 8, 4879.
     DOI: 10.1039/c7sc00601b
   * J. Koopman and S. Grimme, ACS Omega 2019, 4, 12, 15120-15133.
     DOI: 10.1021/acsomega.9b02011
   
   for metadynamics refer to:
   * S. Grimme, J. Chem. Theory Comput., 2019, 155, 2847-2862
     DOI: 10.1021/acs.jctc.9b00143
   
   for SPH calculations refer to:
   * S. Spicher and S. Grimme, J. Chem. Theory Comput., 2021, 17, 1701-1714
     DOI: 10.1021/acs.jctc.0c01306
   
   for ONIOM refer to:
   * C. Plett, A. Katbashev, S. Ehlert, S. Grimme, M. Bursch,
     Phys. Chem. Chem. Phys., 2023, 25, 17860-17868. DOI: 10.1039/D3CP02178E
   
   for DIPRO refer to:
   * J. Kohn, N. Gildemeister, S. Grimme, D. Fazzi, A. Hansen,
     J. Chem. Phys., 2023, just accepted.
   
   for PTB refer to:
   * S. Grimme, M. Mueller, A. Hansen, J. Chem. Phys., 2023, 158, 124111.
     DOI: 10.1063/5.0137838
   
   with help from (in alphabetical order)
   P. Atkinson, C. Bannwarth, F. Bohle, G. Brandenburg, E. Caldeweyher
   M. Checinski, S. Dohm, S. Ehlert, S. Ehrlich, I. Gerasimov, C. Hölzer
   A. Katbashev, J. Kohn, J. Koopman, C. Lavigne, S. Lehtola, F. März, M. Müller,
   F. Musil, H. Neugebauer, J. Pisarek, C. Plett, P. Pracht, F. Pultar,
   J. Seibert, P. Shushkov, S. Spicher, M. Stahn, M. Steiner, T. Strunk,
   J. Stückrath, T. Rose, and J. Unsleber
   
 * started run on 2026/02/17 at 15:18:00.817     
   ID    Z sym.   atoms
    1    6 C      1-5
    2    8 O      6-8
    3    1 H      9-17

           -------------------------------------------------
          |                Calculation Setup                |
           -------------------------------------------------

          program call               : /apps/eb/ORCA/6.1.1-gompi-2024a-avx2/bin/otool_xtb goat_XTB.xyz --grad -c 0 -u 1 -P 8 --namespace goat --input goat_XTB.input.tmp --acc 0.200000
          hostname                   : d5-8
          calculation namespace      : goat
          coordinate file            : goat_XTB.xyz
          omp threads                :                     8


           -------------------------------------------------
          |                 G F N 2 - x T B                 |
           -------------------------------------------------

        Reference                      10.1021/acs.jctc.8b01176
      * Hamiltonian:
        H0-scaling (s, p, d)           1.850000    2.230000    2.230000
        zeta-weighting                 0.500000
      * Dispersion:
        s8                             2.700000
        a1                             0.520000
        a2                             5.000000
        s9                             5.000000
      * Repulsion:
        kExp                           1.500000    1.000000
        rExp                           1.000000
      * Coulomb:
        alpha                          2.000000
        third order                    shell-resolved
        anisotropic                    true
        a3                             3.000000
        a5                             4.000000
        cn-shift                       1.200000
        cn-exp                         4.000000
        max-rad                        5.000000

q/qsh data taken from xtbrestart
CAMM data taken from xtbrestart

          ...................................................
          :                      SETUP                      :
          :.................................................:
          :  # basis functions                  41          :
          :  # atomic orbitals                  41          :
          :  # shells                           25          :
          :  # electrons                        47          :
          :  max. iterations                   250          :
          :  Hamiltonian                  GFN2-xTB          :
          :  restarted?                       true          :
          :  GBSA solvation                  false          :
          :  PC potential                    false          :
          :  electronic temp.          300.0000000     K    :
          :  accuracy                    0.2000000          :
          :  -> integral cutoff          0.3198970E+02      :
          :  -> integral neglect         0.2000000E-08      :
          :  -> SCF convergence          0.2000000E-06 Eh   :
          :  -> wf. convergence          0.2000000E-04 e    :
          :  Broyden damping             0.4000000          :
          :  net charge                          0          :
          :  unpaired electrons                  1          :
          ...................................................

 iter      E             dE          RMSdq      gap      omega  full diag
   1    -27.5533277 -0.275533E+02  0.770E-02    4.37       0.0  T
   2    -27.5533287 -0.928998E-06  0.469E-02    4.37       1.0  T
   3    -27.5533288 -0.104355E-06  0.521E-03    4.37       4.7  T
   4    -27.5533290 -0.244706E-06  0.232E-03    4.37      10.5  T
   5    -27.5533290 -0.586769E-08  0.104E-03    4.37      23.3  T
   6    -27.5533290 -0.443422E-08  0.277E-04    4.37      87.6  T
   7    -27.5533290 -0.373095E-09  0.115E-04    4.37     211.5  T
   8    -27.5533290 -0.558771E-10  0.685E-05    4.37     354.1  T

   *** convergence criteria satisfied after 8 iterations ***

         #    Occupation            Energy/Eh            Energy/eV
      -------------------------------------------------------------
         1        2.0000           -0.7488987             -20.3786
       ...           ...                  ...                  ...
        18        2.0000           -0.4682402             -12.7415
        19        2.0000           -0.4653879             -12.6638
        20        2.0000           -0.4577242             -12.4553
        21        2.0000           -0.4553506             -12.3907
        22        2.0000           -0.4423048             -12.0357
        23        2.0000           -0.4397201             -11.9654
        24        1.0000           -0.3325159              -9.0482 (HOMO)
        25                         -0.1718342              -4.6758 (LUMO)
        26                         -0.0762509              -2.0749
        27                          0.0506167               1.3774
        28                          0.0740188               2.0142
        29                          0.0980633               2.6684
       ...                                ...                  ...
        41                          0.4179565              11.3732
      -------------------------------------------------------------
                  HL-Gap            0.1606817 Eh            4.3724 eV
             Fermi-level           -0.3191465 Eh           -8.6844 eV

 SCC (total)                   0 d,  0 h,  0 min,  0.018 sec
 SCC setup                      ...        0 min,  0.000 sec (  0.837%)
 Dispersion                     ...        0 min,  0.000 sec (  0.472%)
 classical contributions        ...        0 min,  0.000 sec (  0.091%)
 integral evaluation            ...        0 min,  0.000 sec (  2.436%)
 iterations                     ...        0 min,  0.014 sec ( 81.330%)
 molecular gradient             ...        0 min,  0.002 sec ( 11.623%)
 printout                       ...        0 min,  0.001 sec (  3.106%)

         :::::::::::::::::::::::::::::::::::::::::::::::::::::
         ::                     SUMMARY                     ::
         :::::::::::::::::::::::::::::::::::::::::::::::::::::
         :: total energy             -27.307185252991 Eh    ::
         :: gradient norm              0.001479892636 Eh/a0 ::
         :: HOMO-LUMO gap              4.372371337674 eV    ::
         ::.................................................::
         :: SCC energy               -27.553327301365 Eh    ::
         :: -> isotropic ES            0.042864717661 Eh    ::
         :: -> anisotropic ES         -0.003761438862 Eh    ::
         :: -> anisotropic XC         -0.004687961400 Eh    ::
         :: -> dispersion             -0.009575293073 Eh    ::
         :: repulsion energy           0.246142048374 Eh    ::
         :: add. restraining           0.000000000000 Eh    ::
         :: total charge              -0.000000000000 e     ::
         :::::::::::::::::::::::::::::::::::::::::::::::::::::


Property printout bound to 'properties.out'

           -------------------------------------------------
          | TOTAL ENERGY              -27.307185252991 Eh   |
          | GRADIENT NORM               0.001479892636 Eh/α |
          | HOMO-LUMO GAP               4.372371337674 eV   |
           -------------------------------------------------

------------------------------------------------------------------------
 * finished run on 2026/02/17 at 15:18:00.842     
------------------------------------------------------------------------
 total:
 * wall-time:     0 d,  0 h,  0 min,  0.025 sec
 *  cpu-time:     0 d,  0 h,  0 min,  0.169 sec
 * ratio c/w:     6.775 speedup
 SCF:
 * wall-time:     0 d,  0 h,  0 min,  0.018 sec
 *  cpu-time:     0 d,  0 h,  0 min,  0.124 sec
 * ratio c/w:     7.013 speedup


-------------------------   --------------------
FINAL SINGLE POINT ENERGY       -27.307185252990
-------------------------   --------------------


-------------
DIPOLE MOMENT
-------------
                                X             Y             Z
Total Dipole Moment    :     -0.67400      -0.23200       0.27600
                        -----------------------------------------
Magnitude (a.u.)       :      0.76438
Magnitude (Debye)      :      1.94290


------------------
CARTESIAN GRADIENT
------------------

   1   C   :    0.000020333    0.000006765    0.000015411
   2   C   :   -0.000267806   -0.000021656    0.000053812
   3   C   :    0.000271462   -0.000115422   -0.000205884
   4   C   :   -0.000249351   -0.000272647    0.000513100
   5   C   :   -0.000525160    0.000838205   -0.000176453
   6   O   :   -0.000071435   -0.000006059   -0.000117061
   7   O   :    0.000382789   -0.000355173    0.000000933
   8   O   :    0.000436191   -0.000180306   -0.000069178
   9   H   :   -0.000022990   -0.000015330   -0.000000569
  10   H   :   -0.000001072    0.000018109   -0.000019470
  11   H   :    0.000033324   -0.000014525   -0.000013850
  12   H   :    0.000091593    0.000042599   -0.000036785
  13   H   :    0.000023144    0.000015718    0.000000146
  14   H   :   -0.000086077    0.000062473   -0.000015470
  15   H   :   -0.000050994    0.000043611   -0.000031081
  16   H   :   -0.000019083   -0.000113347    0.000051412
  17   H   :    0.000035133    0.000066983    0.000050987

Difference to translation invariance:
           :    0.0000000000    0.0000000000    0.0000000000

Difference to rotation invariance:
           :    0.0000007697   -0.0000012218    0.0000017652

Norm of the Cartesian gradient     ...    0.0014798926
RMS gradient                       ...    0.0002072264
MAX gradient                       ...    0.0008382048
------------------------------------------------------------------------------
                         ORCA GEOMETRY RELAXATION STEP
------------------------------------------------------------------------------

Reading the OPT-File                    .... done
Getting information on internals        .... done
Copying old internal coords+grads       .... done
Making the new internal coordinates     .... (2022 redundants) done
Validating the new internal coordinates .... (2022 redundants) done
Calculating the B-matrix                .... done
Calculating the G,G- and P matrices     .... done
Transforming gradient to internals      .... done
Projecting the internal gradient        .... done
Number of atoms                         ....  17
Number of internal coordinates          ....  76
Current Energy                          ....   -27.307185253 Eh
Current gradient norm                   ....     0.001479893 Eh/bohr
Maximum allowed component of the step   ....  0.300
Current trust radius                    ....  0.675
Updating the Hessian (BFGS)             .... done
Forming the augmented Hessian           .... done
Diagonalizing the augmented Hessian     .... done
Last element of RFO vector              ....  0.998556671
Lowest eigenvalues of augmented Hessian:
 -0.000007727  0.000838760  0.008482152  0.008839784  0.011619946
Length of the computed step             ....  0.053785871
The final length of the internal step   ....  0.053785871
Converting the step to Cartesian space:
 Initial RMS(Int)=    0.0061696625
Transforming coordinates:
 Iter   0:  RMS(Cart)=    0.0137229219 RMS(Int)=    0.0061540636
done
Storing new coordinates                 .... done
The predicted energy change is          ....    -0.000003875
Previously predicted energy change      ....    -0.000005594
Actually observed energy change         ....    -0.000007868
Ratio of predicted to observed change   ....     1.406423058
New trust radius                        ....     0.675000000

                                .--------------------.
          ----------------------|Geometry convergence|-------------------------
          Item                value                   Tolerance       Converged
          ---------------------------------------------------------------------
          Energy change      -0.0000078678            0.0000050000      NO
          RMS gradient        0.0000960343            0.0001000000      YES
          MAX gradient        0.0003754425            0.0003000000      NO
          RMS step            0.0061696625            0.0020000000      NO
          MAX step            0.0253308547            0.0040000000      NO
          -------------------------------------------------------------------------
          ........................................................
          Max(Bonds)      0.0005      Max(Angles)    0.23
          Max(Dihed)        1.45      Max(Improp)    0.00
          ---------------------------------------------------------------------

    ---------------------------------------------------------------------------
                         Redundant Internal Coordinates
                            (Angstroem and degrees)

        Definition                    Value    dE/dq     Step     New-Value
    ----------------------------------------------------------------------------
     1. B(C   1,C   0)                1.5228  0.000010 -0.0000    1.5228   
     2. B(C   2,C   1)                1.5308  0.000127 -0.0003    1.5305   
     3. B(C   3,C   2)                1.4792 -0.000095  0.0005    1.4797   
     4. B(C   4,C   3)                1.4474  0.000114  0.0000    1.4474   
     5. B(O   6,C   4)                1.4315 -0.000375  0.0003    1.4318   
     6. B(O   6,C   3)                1.3689 -0.000033  0.0000    1.3689   
     7. B(O   7,C   4)                1.3655  0.000316  0.0001    1.3656   
     8. B(O   7,O   5)                1.4210 -0.000013 -0.0003    1.4208   
     9. B(H   8,C   0)                1.0870  0.000016 -0.0000    1.0870   
    10. B(H   9,C   0)                1.0874  0.000019 -0.0000    1.0873   
    11. B(H  10,C   0)                1.0878  0.000022 -0.0000    1.0878   
    12. B(H  11,C   1)                1.0912  0.000007  0.0000    1.0912   
    13. B(H  12,C   1)                1.0916 -0.000025  0.0000    1.0916   
    14. B(H  13,C   2)                1.1006 -0.000045  0.0000    1.1006   
    15. B(H  14,C   2)                1.0917 -0.000025  0.0000    1.0917   
    16. B(H  15,C   4)                1.0894  0.000075 -0.0002    1.0892   
    17. B(H  16,O   5)                0.9696  0.000038  0.0001    0.9696   
    18. A(H   8,C   0,H   9)          108.77 -0.000002   -0.00    108.76   
    19. A(H   8,C   0,H  10)          108.55  0.000007   -0.00    108.54   
    20. A(C   1,C   0,H   8)          110.59 -0.000003    0.01    110.59   
    21. A(C   1,C   0,H  10)          110.63 -0.000014    0.00    110.63   
    22. A(H   9,C   0,H  10)          108.37 -0.000014    0.01    108.38   
    23. A(C   1,C   0,H   9)          109.88  0.000026   -0.02    109.87   
    24. A(C   0,C   1,H  12)          109.90  0.000013    0.00    109.90   
    25. A(C   0,C   1,C   2)          111.30 -0.000040    0.02    111.32   
    26. A(C   2,C   1,H  12)          108.97  0.000002   -0.02    108.95   
    27. A(H  11,C   1,H  12)          108.23  0.000029    0.00    108.23   
    28. A(C   0,C   1,H  11)          109.61  0.000019   -0.00    109.61   
    29. A(C   2,C   1,H  11)          108.77 -0.000022   -0.00    108.77   
    30. A(C   3,C   2,H  13)          109.50  0.000026   -0.06    109.44   
    31. A(H  13,C   2,H  14)          108.09  0.000073   -0.04    108.05   
    32. A(C   3,C   2,H  14)          108.35  0.000019   -0.00    108.35   
    33. A(C   1,C   2,H  14)          110.30 -0.000037    0.04    110.34   
    34. A(C   1,C   2,H  13)          109.39 -0.000028    0.05    109.45   
    35. A(C   1,C   2,C   3)          111.15 -0.000049    0.01    111.16   
    36. A(C   2,C   3,C   4)          134.16  0.000266   -0.23    133.93   
    37. A(C   4,C   3,O   6)           61.03 -0.000185    0.01     61.04   
    38. A(C   2,C   3,O   6)          127.15  0.000133   -0.13    127.02   
    39. A(O   7,C   4,H  15)          115.22 -0.000086    0.06    115.28   
    40. A(O   6,C   4,H  15)          113.79 -0.000057   -0.03    113.76   
    41. A(C   3,C   4,H  15)          123.09 -0.000103    0.02    123.11   
    42. A(C   3,C   4,O   6)           56.78  0.000036   -0.01     56.77   
    43. A(O   6,C   4,O   7)          117.55  0.000173   -0.09    117.47   
    44. A(C   3,C   4,O   7)          117.12  0.000135   -0.03    117.09   
    45. A(O   7,O   5,H  16)          104.57  0.000136    0.00    104.57   
    46. A(C   3,O   6,C   4)           62.19  0.000148   -0.00     62.19   
    47. A(C   4,O   7,O   5)          111.17  0.000091   -0.01    111.16   
    48. D(H  11,C   1,C   0,H   9)     61.83 -0.000033    0.08     61.91   
    49. D(C   2,C   1,C   0,H  10)     61.09 -0.000002    0.08     61.16   
    50. D(H  11,C   1,C   0,H  10)   -178.55 -0.000043    0.09   -178.46   
    51. D(C   2,C   1,C   0,H   9)    -58.54  0.000008    0.07    -58.46   
    52. D(H  11,C   1,C   0,H   8)    -58.25 -0.000045    0.09    -58.16   
    53. D(C   2,C   1,C   0,H   8)   -178.62 -0.000004    0.08   -178.54   
    54. D(C   3,C   2,C   1,C   0)     64.73  0.000031   -0.15     64.58   
    55. D(H  13,C   2,C   1,H  12)    -52.89  0.000006   -0.18    -53.07   
    56. D(H  13,C   2,C   1,C   0)   -174.24  0.000014   -0.18   -174.42   
    57. D(C   3,C   2,C   1,H  12)   -173.92  0.000024   -0.15   -174.07   
    58. D(H  13,C   2,C   1,H  11)     64.90  0.000029   -0.19     64.71   
    59. D(C   3,C   2,C   1,H  11)    -56.14  0.000047   -0.16    -56.30   
    60. D(C   4,C   3,C   2,H  14)    -85.87 -0.000045   -1.36    -87.23   
    61. D(C   4,C   3,C   2,H  13)     31.81  0.000068   -1.45     30.36   
    62. D(C   4,C   3,C   2,C   1)    152.78  0.000019   -1.41    151.37   
    63. D(O   6,C   3,C   2,H  13)    -51.79  0.000060   -1.23    -53.02   
    64. D(O   6,C   3,C   2,C   1)     69.18  0.000011   -1.19     67.99   
    65. D(H  15,C   4,C   3,O   6)     98.56  0.000004   -0.05     98.51   
    66. D(H  15,C   4,C   3,C   2)    -16.56  0.000008    0.07    -16.48   
    67. D(O   7,C   4,C   3,O   6)   -106.61 -0.000156    0.10   -106.51   
    68. D(O   7,C   4,C   3,C   2)    138.27 -0.000151    0.22    138.49   
    69. D(O   6,C   4,C   3,C   2)   -115.12  0.000004    0.13   -114.99   
    70. D(C   3,O   6,C   4,H  15)   -115.11  0.000089   -0.04   -115.15   
    71. D(C   3,O   6,C   4,O   7)    105.84  0.000089    0.01    105.84   
    72. D(C   4,O   6,C   3,C   2)    125.42  0.000218   -0.26    125.16   
    73. D(C   4,O   7,O   5,H  16)   -102.73  0.000064    0.13   -102.60   
    74. D(O   5,O   7,C   4,H  15)    -49.86 -0.000077    0.28    -49.58   
    75. D(O   5,O   7,C   4,O   6)     88.62 -0.000063    0.20     88.81   
    76. D(O   5,O   7,C   4,C   3)    153.34  0.000080    0.15    153.48   
    ----------------------------------------------------------------------------

Geometry step timings:
Preparation and reading OPT file:      0.000 s ( 0.754 %)
Internal coordinates            :      0.000 s ( 0.955 %)
B/P matrices and projection     :      0.001 s (32.981 %)
Hessian update/contruction      :      0.000 s (13.575 %)
Making the step                 :      0.001 s (29.613 %)
Converting the step to Cartesian:      0.000 s ( 2.866 %)
Storing new data                :      0.000 s ( 1.006 %)
Checking convergence            :      0.000 s ( 1.408 %)
Final printing                  :      0.000 s (16.742 %)
Total time                      :      0.002 s

Time for energy+gradient        :      0.037 s
Time for complete geometry iter :      0.039 s

         *************************************************************
         *                GEOMETRY OPTIMIZATION CYCLE  14            *
         *************************************************************
---------------------------------
CARTESIAN COORDINATES (ANGSTROEM)
---------------------------------
  C    -2.189911   -0.442944   -1.083126
  C    -1.825088   -0.706208    0.371687
  C    -0.384974   -1.207552    0.502302
  C     0.581845   -0.173014    0.072760
  C     1.948648    0.136321    0.434838
  O     3.851290    1.306450   -0.108160
  O     0.849291    1.015359    0.697325
  O     2.798728    0.476089   -0.578516
  H    -3.205591   -0.063320   -1.159925
  H    -1.509167    0.290895   -1.507812
  H    -2.117164   -1.357208   -1.667996
  H    -1.929913    0.214483    0.947964
  H    -2.500059   -1.452578    0.794749
  H    -0.186219   -1.482399    1.549382
  H    -0.234872   -2.095523   -0.114815
  H     2.427444   -0.248443    1.334334
  H     3.603188    2.199540   -0.392793

----------------------------
CARTESIAN COORDINATES (A.U.)
----------------------------
  NO LB    ZA    FRAG    MASS        X           Y           Z
   0 C   6.0000    1    12.011   -4.138332   -0.837043   -2.046811
   1 C   6.0000    1    12.011   -3.448917   -1.334540    0.702387
   2 C   6.0000    1    12.011   -0.727496   -2.281942    0.949213
   3 C   6.0000    1    12.011    1.099527   -0.326949    0.137496
   4 C   6.0000    1    12.011    3.682412    0.257609    0.821724
   5 O   8.0000    1    15.999    7.277882    2.468832   -0.204392
   6 O   8.0000    1    15.999    1.604927    1.918750    1.317753
   7 O   8.0000    1    15.999    5.288829    0.899678   -1.093237
   8 H   1.0000    1     1.008   -6.057690   -0.119657   -2.191941
   9 H   1.0000    1     1.008   -2.851913    0.549712   -2.849352
  10 H   1.0000    1     1.008   -4.000861   -2.564751   -3.152055
  11 H   1.0000    1     1.008   -3.647007    0.405314    1.791392
  12 H   1.0000    1     1.008   -4.724426   -2.744975    1.501858
  13 H   1.0000    1     1.008   -0.351903   -2.801327    2.927909
  14 H   1.0000    1     1.008   -0.443843   -3.959964   -0.216969
  15 H   1.0000    1     1.008    4.587205   -0.469490    2.521526
  16 H   1.0000    1     1.008    6.809039    4.156528   -0.742271

      -----------------------------------------------------------      
     |                   =====================                   |     
     |                           x T B                           |     
     |                   =====================                   |     
     |                         S. Grimme                         |     
     |          Mulliken Center for Theoretical Chemistry        |     
     |                    University of Bonn                     |     
      -----------------------------------------------------------      

   * xtb version 6.7.1 (edcfbbe) compiled by 'albert@albert-system' on 2024-07-22

   xtb is free software: you can redistribute it and/or modify it under
   the terms of the GNU Lesser General Public License as published by
   the Free Software Foundation, either version 3 of the License, or
   (at your option) any later version.
   
   xtb is distributed in the hope that it will be useful,
   but WITHOUT ANY WARRANTY; without even the implied warranty of
   MERCHANTABILITY or FITNESS FOR A PARTICULAR PURPOSE.  See the
   GNU Lesser General Public License for more details.
   
   Cite this work as:
   * C. Bannwarth, E. Caldeweyher, S. Ehlert, A. Hansen, P. Pracht,
     J. Seibert, S. Spicher, S. Grimme, WIREs Comput. Mol. Sci., 2020, 11,
     e01493. DOI: 10.1002/wcms.1493
   
   for GFN2-xTB:
   * C. Bannwarth, S. Ehlert and S. Grimme., J. Chem. Theory Comput., 2019,
     15, 1652-1671. DOI: 10.1021/acs.jctc.8b01176
   for GFN1-xTB:
   * S. Grimme, C. Bannwarth, P. Shushkov, J. Chem. Theory Comput., 2017,
     13, 1989-2009. DOI: 10.1021/acs.jctc.7b00118
   for GFN0-xTB:
   * P. Pracht, E. Caldeweyher, S. Ehlert, S. Grimme, ChemRxiv, 2019, preprint.
     DOI: 10.26434/chemrxiv.8326202.v1
   for GFN-FF:
   * S. Spicher and S. Grimme, Angew. Chem. Int. Ed., 2020, 59, 15665-15673.
     DOI: 10.1002/anie.202004239
   
   for ALPB and GBSA implicit solvation:
   * S. Ehlert, M. Stahn, S. Spicher, S. Grimme, J. Chem. Theory Comput.,
     2021, 17, 4250-4261. DOI: 10.1021/acs.jctc.1c00471
   
   for ddCOSMO and CPCM-X implicit solvation:
   * M. Stahn, S. Ehlert, S. Grimme, J. Phys. Chem. A,
     2023, XX, XXXX-XXXX. DOI: 10.1021/acs.jpca.3c04382
   
   for DFT-D4:
   * E. Caldeweyher, C. Bannwarth and S. Grimme, J. Chem. Phys., 2017,
     147, 034112. DOI: 10.1063/1.4993215
   * E. Caldeweyher, S. Ehlert, A. Hansen, H. Neugebauer, S. Spicher,
     C. Bannwarth and S. Grimme, J. Chem. Phys., 2019, 150, 154122.
     DOI: 10.1063/1.5090222
   * E. Caldeweyher, J.-M. Mewes, S. Ehlert and S. Grimme, Phys. Chem. Chem. Phys.
     2020, 22, 8499-8512. DOI: 10.1039/D0CP00502A
   
   for sTDA-xTB:
   * S. Grimme and C. Bannwarth, J. Chem. Phys., 2016, 145, 054103.
     DOI: 10.1063/1.4959605
   
   in the mass-spec context:
   * V. Asgeirsson, C. Bauer and S. Grimme, Chem. Sci., 2017, 8, 4879.
     DOI: 10.1039/c7sc00601b
   * J. Koopman and S. Grimme, ACS Omega 2019, 4, 12, 15120-15133.
     DOI: 10.1021/acsomega.9b02011
   
   for metadynamics refer to:
   * S. Grimme, J. Chem. Theory Comput., 2019, 155, 2847-2862
     DOI: 10.1021/acs.jctc.9b00143
   
   for SPH calculations refer to:
   * S. Spicher and S. Grimme, J. Chem. Theory Comput., 2021, 17, 1701-1714
     DOI: 10.1021/acs.jctc.0c01306
   
   for ONIOM refer to:
   * C. Plett, A. Katbashev, S. Ehlert, S. Grimme, M. Bursch,
     Phys. Chem. Chem. Phys., 2023, 25, 17860-17868. DOI: 10.1039/D3CP02178E
   
   for DIPRO refer to:
   * J. Kohn, N. Gildemeister, S. Grimme, D. Fazzi, A. Hansen,
     J. Chem. Phys., 2023, just accepted.
   
   for PTB refer to:
   * S. Grimme, M. Mueller, A. Hansen, J. Chem. Phys., 2023, 158, 124111.
     DOI: 10.1063/5.0137838
   
   with help from (in alphabetical order)
   P. Atkinson, C. Bannwarth, F. Bohle, G. Brandenburg, E. Caldeweyher
   M. Checinski, S. Dohm, S. Ehlert, S. Ehrlich, I. Gerasimov, C. Hölzer
   A. Katbashev, J. Kohn, J. Koopman, C. Lavigne, S. Lehtola, F. März, M. Müller,
   F. Musil, H. Neugebauer, J. Pisarek, C. Plett, P. Pracht, F. Pultar,
   J. Seibert, P. Shushkov, S. Spicher, M. Stahn, M. Steiner, T. Strunk,
   J. Stückrath, T. Rose, and J. Unsleber
   
 * started run on 2026/02/17 at 15:18:00.856     
   ID    Z sym.   atoms
    1    6 C      1-5
    2    8 O      6-8
    3    1 H      9-17

           -------------------------------------------------
          |                Calculation Setup                |
           -------------------------------------------------

          program call               : /apps/eb/ORCA/6.1.1-gompi-2024a-avx2/bin/otool_xtb goat_XTB.xyz --grad -c 0 -u 1 -P 8 --namespace goat --input goat_XTB.input.tmp --acc 0.200000
          hostname                   : d5-8
          calculation namespace      : goat
          coordinate file            : goat_XTB.xyz
          omp threads                :                     8


           -------------------------------------------------
          |                 G F N 2 - x T B                 |
           -------------------------------------------------

        Reference                      10.1021/acs.jctc.8b01176
      * Hamiltonian:
        H0-scaling (s, p, d)           1.850000    2.230000    2.230000
        zeta-weighting                 0.500000
      * Dispersion:
        s8                             2.700000
        a1                             0.520000
        a2                             5.000000
        s9                             5.000000
      * Repulsion:
        kExp                           1.500000    1.000000
        rExp                           1.000000
      * Coulomb:
        alpha                          2.000000
        third order                    shell-resolved
        anisotropic                    true
        a3                             3.000000
        a5                             4.000000
        cn-shift                       1.200000
        cn-exp                         4.000000
        max-rad                        5.000000

q/qsh data taken from xtbrestart
CAMM data taken from xtbrestart

          ...................................................
          :                      SETUP                      :
          :.................................................:
          :  # basis functions                  41          :
          :  # atomic orbitals                  41          :
          :  # shells                           25          :
          :  # electrons                        47          :
          :  max. iterations                   250          :
          :  Hamiltonian                  GFN2-xTB          :
          :  restarted?                       true          :
          :  GBSA solvation                  false          :
          :  PC potential                    false          :
          :  electronic temp.          300.0000000     K    :
          :  accuracy                    0.2000000          :
          :  -> integral cutoff          0.3198970E+02      :
          :  -> integral neglect         0.2000000E-08      :
          :  -> SCF convergence          0.2000000E-06 Eh   :
          :  -> wf. convergence          0.2000000E-04 e    :
          :  Broyden damping             0.4000000          :
          :  net charge                          0          :
          :  unpaired electrons                  1          :
          ...................................................

 iter      E             dE          RMSdq      gap      omega  full diag
   1    -27.5532857 -0.275533E+02  0.591E-02    4.38       0.0  T
   2    -27.5532861 -0.451643E-06  0.360E-02    4.38       1.0  T
   3    -27.5532862 -0.114355E-06  0.344E-03    4.38       7.1  T
   4    -27.5532863 -0.850440E-07  0.175E-03    4.38      13.8  T
   5    -27.5532863 -0.283303E-08  0.686E-04    4.38      35.4  T
   6    -27.5532863 -0.238211E-08  0.192E-04    4.38     126.5  T
   7    -27.5532863 -0.200554E-09  0.934E-05    4.38     259.8  T

   *** convergence criteria satisfied after 7 iterations ***

         #    Occupation            Energy/Eh            Energy/eV
      -------------------------------------------------------------
         1        2.0000           -0.7489146             -20.3790
       ...           ...                  ...                  ...
        18        2.0000           -0.4683537             -12.7446
        19        2.0000           -0.4653543             -12.6629
        20        2.0000           -0.4578204             -12.4579
        21        2.0000           -0.4553511             -12.3907
        22        2.0000           -0.4422387             -12.0339
        23        2.0000           -0.4396476             -11.9634
        24        1.0000           -0.3326805              -9.0527 (HOMO)
        25                         -0.1716073              -4.6697 (LUMO)
        26                         -0.0764528              -2.0804
        27                          0.0505831               1.3764
        28                          0.0742890               2.0215
        29                          0.0980152               2.6671
       ...                                ...                  ...
        41                          0.4170566              11.3487
      -------------------------------------------------------------
                  HL-Gap            0.1610732 Eh            4.3830 eV
             Fermi-level           -0.3191540 Eh           -8.6846 eV

 SCC (total)                   0 d,  0 h,  0 min,  0.017 sec
 SCC setup                      ...        0 min,  0.000 sec (  0.814%)
 Dispersion                     ...        0 min,  0.000 sec (  0.373%)
 classical contributions        ...        0 min,  0.000 sec (  0.091%)
 integral evaluation            ...        0 min,  0.000 sec (  2.509%)
 iterations                     ...        0 min,  0.014 sec ( 77.502%)
 molecular gradient             ...        0 min,  0.003 sec ( 15.437%)
 printout                       ...        0 min,  0.001 sec (  3.161%)

         :::::::::::::::::::::::::::::::::::::::::::::::::::::
         ::                     SUMMARY                     ::
         :::::::::::::::::::::::::::::::::::::::::::::::::::::
         :: total energy             -27.307190487503 Eh    ::
         :: gradient norm              0.001003228345 Eh/a0 ::
         :: HOMO-LUMO gap              4.383024787577 eV    ::
         ::.................................................::
         :: SCC energy               -27.553284998366 Eh    ::
         :: -> isotropic ES            0.042861185344 Eh    ::
         :: -> anisotropic ES         -0.003752943227 Eh    ::
         :: -> anisotropic XC         -0.004690933160 Eh    ::
         :: -> dispersion             -0.009581210341 Eh    ::
         :: repulsion energy           0.246094510863 Eh    ::
         :: add. restraining           0.000000000000 Eh    ::
         :: total charge               0.000000000000 e     ::
         :::::::::::::::::::::::::::::::::::::::::::::::::::::


Property printout bound to 'properties.out'

           -------------------------------------------------
          | TOTAL ENERGY              -27.307190487503 Eh   |
          | GRADIENT NORM               0.001003228345 Eh/α |
          | HOMO-LUMO GAP               4.383024787577 eV   |
           -------------------------------------------------

------------------------------------------------------------------------
 * finished run on 2026/02/17 at 15:18:00.881     
------------------------------------------------------------------------
 total:
 * wall-time:     0 d,  0 h,  0 min,  0.024 sec
 *  cpu-time:     0 d,  0 h,  0 min,  0.163 sec
 * ratio c/w:     6.726 speedup
 SCF:
 * wall-time:     0 d,  0 h,  0 min,  0.018 sec
 *  cpu-time:     0 d,  0 h,  0 min,  0.123 sec
 * ratio c/w:     7.020 speedup


-------------------------   --------------------
FINAL SINGLE POINT ENERGY       -27.307190487500
-------------------------   --------------------


-------------
DIPOLE MOMENT
-------------
                                X             Y             Z
Total Dipole Moment    :     -0.67400      -0.22900       0.27900
                        -----------------------------------------
Magnitude (a.u.)       :      0.76456
Magnitude (Debye)      :      1.94337


------------------
CARTESIAN GRADIENT
------------------

   1   C   :   -0.000003985    0.000019806    0.000006208
   2   C   :   -0.000222899    0.000017584    0.000029761
   3   C   :    0.000155054   -0.000188059   -0.000132507
   4   C   :   -0.000111615   -0.000132663    0.000297335
   5   C   :   -0.000373562    0.000443857    0.000032665
   6   O   :   -0.000109107   -0.000132026   -0.000111663
   7   O   :    0.000308236   -0.000245859   -0.000018837
   8   O   :    0.000386282    0.000034372   -0.000157650
   9   H   :   -0.000014642   -0.000019048   -0.000009530
  10   H   :    0.000012040    0.000012700    0.000005666
  11   H   :    0.000015356   -0.000014234   -0.000006756
  12   H   :    0.000087132    0.000026210   -0.000016695
  13   H   :    0.000035554   -0.000005795   -0.000000593
  14   H   :   -0.000047213    0.000077354   -0.000001522
  15   H   :   -0.000018654    0.000055442   -0.000017383
  16   H   :   -0.000105804   -0.000038343    0.000060531
  17   H   :    0.000007826    0.000088703    0.000040969

Difference to translation invariance:
           :   -0.0000000000    0.0000000000    0.0000000000

Difference to rotation invariance:
           :    0.0000005885   -0.0000010279    0.0000014340

Norm of the Cartesian gradient     ...    0.0010032283
RMS gradient                       ...    0.0001404801
MAX gradient                       ...    0.0004438570
------------------------------------------------------------------------------
                         ORCA GEOMETRY RELAXATION STEP
------------------------------------------------------------------------------

Reading the OPT-File                    .... done
Getting information on internals        .... done
Copying old internal coords+grads       .... done
Making the new internal coordinates     .... (2022 redundants) done
Validating the new internal coordinates .... (2022 redundants) done
Calculating the B-matrix                .... done
Calculating the G,G- and P matrices     .... done
Transforming gradient to internals      .... done
Projecting the internal gradient        .... done
Number of atoms                         ....  17
Number of internal coordinates          ....  76
Current Energy                          ....   -27.307190488 Eh
Current gradient norm                   ....     0.001003228 Eh/bohr
Maximum allowed component of the step   ....  0.300
Current trust radius                    ....  0.675
Updating the Hessian (BFGS)             .... done
Forming the augmented Hessian           .... done
Diagonalizing the augmented Hessian     .... done
Last element of RFO vector              ....  0.999701763
Lowest eigenvalues of augmented Hessian:
 -0.000003505  0.000851338  0.007211102  0.009143624  0.011639014
Length of the computed step             ....  0.024428267
The final length of the internal step   ....  0.024428267
Converting the step to Cartesian space:
 Initial RMS(Int)=    0.0028021144
Transforming coordinates:
 Iter   0:  RMS(Cart)=    0.0060124146 RMS(Int)=    0.0027987819
done
Storing new coordinates                 .... done
The predicted energy change is          ....    -0.000001753
Previously predicted energy change      ....    -0.000003875
Actually observed energy change         ....    -0.000005235
Ratio of predicted to observed change   ....     1.350987942
New trust radius                        ....     0.675000000

                                .--------------------.
          ----------------------|Geometry convergence|-------------------------
          Item                value                   Tolerance       Converged
          ---------------------------------------------------------------------
          Energy change      -0.0000052345            0.0000050000      NO
          RMS gradient        0.0000717372            0.0001000000      YES
          MAX gradient        0.0003446748            0.0003000000      NO
          RMS step            0.0028021144            0.0020000000      NO
          MAX step            0.0104114696            0.0040000000      NO
          -------------------------------------------------------------------------
          ........................................................
          Max(Bonds)      0.0006      Max(Angles)    0.14
          Max(Dihed)        0.60      Max(Improp)    0.00
          ---------------------------------------------------------------------

    ---------------------------------------------------------------------------
                         Redundant Internal Coordinates
                            (Angstroem and degrees)

        Definition                    Value    dE/dq     Step     New-Value
    ----------------------------------------------------------------------------
     1. B(C   1,C   0)                1.5228  0.000002  0.0000    1.5228   
     2. B(C   2,C   1)                1.5305  0.000098 -0.0003    1.5302   
     3. B(C   3,C   2)                1.4797 -0.000028  0.0003    1.4800   
     4. B(C   4,C   3)                1.4474  0.000022 -0.0000    1.4474   
     5. B(O   6,C   4)                1.4319 -0.000291  0.0006    1.4325   
     6. B(O   6,C   3)                1.3689 -0.000021 -0.0001    1.3688   
     7. B(O   7,C   4)                1.3656  0.000345 -0.0003    1.3654   
     8. B(O   7,O   5)                1.4208 -0.000124  0.0002    1.4209   
     9. B(H   8,C   0)                1.0870  0.000008 -0.0000    1.0870   
    10. B(H   9,C   0)                1.0873  0.000014 -0.0000    1.0873   
    11. B(H  10,C   0)                1.0878  0.000017 -0.0000    1.0877   
    12. B(H  11,C   1)                1.0912  0.000005  0.0000    1.0912   
    13. B(H  12,C   1)                1.0916 -0.000018  0.0001    1.0917   
    14. B(H  13,C   2)                1.1006 -0.000029  0.0000    1.1007   
    15. B(H  14,C   2)                1.0917 -0.000038  0.0001    1.0918   
    16. B(H  15,C   4)                1.0892  0.000017 -0.0001    1.0891   
    17. B(H  16,O   5)                0.9696  0.000068 -0.0001    0.9696   
    18. A(H   8,C   0,H   9)          108.76  0.000009   -0.00    108.76   
    19. A(H   8,C   0,H  10)          108.54 -0.000004    0.00    108.54   
    20. A(C   1,C   0,H   8)          110.59  0.000017   -0.00    110.59   
    21. A(C   1,C   0,H  10)          110.63 -0.000012    0.00    110.63   
    22. A(H   9,C   0,H  10)          108.38  0.000005    0.01    108.39   
    23. A(C   1,C   0,H   9)          109.87 -0.000016   -0.01    109.86   
    24. A(C   0,C   1,H  12)          109.90  0.000022   -0.01    109.89   
    25. A(C   0,C   1,C   2)          111.32 -0.000012    0.01    111.34   
    26. A(C   2,C   1,H  12)          108.95 -0.000034   -0.01    108.95   
    27. A(H  11,C   1,H  12)          108.23  0.000040   -0.02    108.21   
    28. A(C   0,C   1,H  11)          109.61  0.000023   -0.00    109.61   
    29. A(C   2,C   1,H  11)          108.77 -0.000039    0.02    108.78   
    30. A(C   3,C   2,H  13)          109.44 -0.000001   -0.02    109.42   
    31. A(H  13,C   2,H  14)          108.05  0.000062   -0.05    108.00   
    32. A(C   3,C   2,H  14)          108.35 -0.000012   -0.01    108.34   
    33. A(C   1,C   2,H  14)          110.34  0.000003    0.01    110.35   
    34. A(C   1,C   2,H  13)          109.45 -0.000028    0.04    109.48   
    35. A(C   1,C   2,C   3)          111.16 -0.000022    0.02    111.18   
    36. A(C   2,C   3,C   4)          133.93  0.000142   -0.14    133.79   
    37. A(C   4,C   3,O   6)           61.04 -0.000129    0.03     61.07   
    38. A(C   2,C   3,O   6)          127.03  0.000096   -0.08    126.95   
    39. A(O   7,C   4,H  15)          115.28  0.000031    0.02    115.31   
    40. A(O   6,C   4,H  15)          113.76 -0.000074   -0.00    113.76   
    41. A(C   3,C   4,H  15)          123.11 -0.000105    0.05    123.16   
    42. A(C   3,C   4,O   6)           56.77  0.000044   -0.02     56.76   
    43. A(O   6,C   4,O   7)          117.47  0.000063   -0.08    117.39   
    44. A(C   3,C   4,O   7)          117.09  0.000050   -0.03    117.06   
    45. A(O   7,O   5,H  16)          104.57  0.000103   -0.03    104.54   
    46. A(C   3,O   6,C   4)           62.19  0.000085   -0.02     62.17   
    47. A(C   4,O   7,O   5)          111.16  0.000025   -0.01    111.15   
    48. D(H  11,C   1,C   0,H   9)     61.91 -0.000026    0.14     62.05   
    49. D(C   2,C   1,C   0,H  10)     61.16  0.000004    0.11     61.28   
    50. D(H  11,C   1,C   0,H  10)   -178.46 -0.000037    0.14   -178.31   
    51. D(C   2,C   1,C   0,H   9)    -58.46  0.000015    0.11    -58.36   
    52. D(H  11,C   1,C   0,H   8)    -58.16 -0.000038    0.15    -58.02   
    53. D(C   2,C   1,C   0,H   8)   -178.54  0.000003    0.12   -178.42   
    54. D(C   3,C   2,C   1,C   0)     64.58  0.000027   -0.16     64.42   
    55. D(H  13,C   2,C   1,H  12)    -53.07 -0.000009   -0.15    -53.22   
    56. D(H  13,C   2,C   1,C   0)   -174.42 -0.000006   -0.14   -174.56   
    57. D(C   3,C   2,C   1,H  12)   -174.07  0.000024   -0.16   -174.23   
    58. D(H  13,C   2,C   1,H  11)     64.71 -0.000002   -0.16     64.54   
    59. D(C   3,C   2,C   1,H  11)    -56.30  0.000032   -0.18    -56.47   
    60. D(C   4,C   3,C   2,H  14)    -87.24 -0.000036   -0.52    -87.76   
    61. D(C   4,C   3,C   2,H  13)     30.35  0.000031   -0.60     29.76   
    62. D(C   4,C   3,C   2,C   1)    151.36 -0.000019   -0.55    150.81   
    63. D(O   6,C   3,C   2,H  13)    -53.02  0.000051   -0.50    -53.51   
    64. D(O   6,C   3,C   2,C   1)     67.99  0.000001   -0.45     67.54   
    65. D(H  15,C   4,C   3,O   6)     98.51 -0.000014   -0.04     98.47   
    66. D(H  15,C   4,C   3,C   2)    -16.49 -0.000022    0.02    -16.47   
    67. D(O   7,C   4,C   3,O   6)   -106.51 -0.000067    0.09   -106.43   
    68. D(O   7,C   4,C   3,C   2)    138.49 -0.000075    0.14    138.64   
    69. D(O   6,C   4,C   3,C   2)   -114.99 -0.000008    0.06   -114.94   
    70. D(C   3,O   6,C   4,H  15)   -115.15  0.000080   -0.06   -115.21   
    71. D(C   3,O   6,C   4,O   7)    105.84  0.000044    0.00    105.85   
    72. D(C   4,O   6,C   3,C   2)    125.16  0.000097   -0.14    125.02   
    73. D(C   4,O   7,O   5,H  16)   -102.60  0.000077   -0.44   -103.04   
    74. D(O   5,O   7,C   4,H  15)    -49.58 -0.000016    0.14    -49.44   
    75. D(O   5,O   7,C   4,O   6)     88.81 -0.000021    0.07     88.88   
    76. D(O   5,O   7,C   4,C   3)    153.48  0.000067    0.02    153.51   
    ----------------------------------------------------------------------------

Geometry step timings:
Preparation and reading OPT file:      0.000 s ( 0.781 %)
Internal coordinates            :      0.000 s ( 1.042 %)
B/P matrices and projection     :      0.001 s (33.125 %)
Hessian update/contruction      :      0.000 s (10.625 %)
Making the step                 :      0.001 s (31.354 %)
Converting the step to Cartesian:      0.000 s ( 2.813 %)
Storing new data                :      0.000 s ( 1.042 %)
Checking convergence            :      0.000 s ( 1.510 %)
Final printing                  :      0.000 s (17.656 %)
Total time                      :      0.002 s

Time for energy+gradient        :      0.036 s
Time for complete geometry iter :      0.039 s

         *************************************************************
         *                GEOMETRY OPTIMIZATION CYCLE  15            *
         *************************************************************
---------------------------------
CARTESIAN COORDINATES (ANGSTROEM)
---------------------------------
  C    -2.190873   -0.441747   -1.081719
  C    -1.823872   -0.707461    0.372102
  C    -0.383879   -1.208963    0.500062
  C     0.582836   -0.175218    0.067441
  C     1.947219    0.137188    0.435860
  O     3.851318    1.306969   -0.101739
  O     0.844921    1.016946    0.686905
  O     2.801904    0.473645   -0.574344
  H    -3.205948   -0.060077   -1.156162
  H    -1.509564    0.291398   -1.506645
  H    -2.120960   -1.355388   -1.667869
  H    -1.928363    0.212147    0.950178
  H    -2.498289   -1.454632    0.794773
  H    -0.182295   -1.483258    1.546793
  H    -0.235155   -2.097802   -0.116269
  H     2.421508   -0.241233    1.340276
  H     3.606964    2.197434   -0.397445

----------------------------
CARTESIAN COORDINATES (A.U.)
----------------------------
  NO LB    ZA    FRAG    MASS        X           Y           Z
   0 C   6.0000    1    12.011   -4.140150   -0.834781   -2.044153
   1 C   6.0000    1    12.011   -3.446618   -1.336907    0.703171
   2 C   6.0000    1    12.011   -0.725425   -2.284608    0.944980
   3 C   6.0000    1    12.011    1.101401   -0.331114    0.127445
   4 C   6.0000    1    12.011    3.679710    0.259248    0.823656
   5 O   8.0000    1    15.999    7.277937    2.469813   -0.192259
   6 O   8.0000    1    15.999    1.596670    1.921750    1.298063
   7 O   8.0000    1    15.999    5.294831    0.895059   -1.085352
   8 H   1.0000    1     1.008   -6.058364   -0.113529   -2.184829
   9 H   1.0000    1     1.008   -2.852663    0.550663   -2.847146
  10 H   1.0000    1     1.008   -4.008033   -2.561313   -3.151816
  11 H   1.0000    1     1.008   -3.644077    0.400900    1.795576
  12 H   1.0000    1     1.008   -4.721083   -2.748857    1.501904
  13 H   1.0000    1     1.008   -0.344487   -2.802951    2.923015
  14 H   1.0000    1     1.008   -0.444378   -3.964271   -0.219716
  15 H   1.0000    1     1.008    4.575988   -0.455865    2.532755
  16 H   1.0000    1     1.008    6.816175    4.152549   -0.751062

      -----------------------------------------------------------      
     |                   =====================                   |     
     |                           x T B                           |     
     |                   =====================                   |     
     |                         S. Grimme                         |     
     |          Mulliken Center for Theoretical Chemistry        |     
     |                    University of Bonn                     |     
      -----------------------------------------------------------      

   * xtb version 6.7.1 (edcfbbe) compiled by 'albert@albert-system' on 2024-07-22

   xtb is free software: you can redistribute it and/or modify it under
   the terms of the GNU Lesser General Public License as published by
   the Free Software Foundation, either version 3 of the License, or
   (at your option) any later version.
   
   xtb is distributed in the hope that it will be useful,
   but WITHOUT ANY WARRANTY; without even the implied warranty of
   MERCHANTABILITY or FITNESS FOR A PARTICULAR PURPOSE.  See the
   GNU Lesser General Public License for more details.
   
   Cite this work as:
   * C. Bannwarth, E. Caldeweyher, S. Ehlert, A. Hansen, P. Pracht,
     J. Seibert, S. Spicher, S. Grimme, WIREs Comput. Mol. Sci., 2020, 11,
     e01493. DOI: 10.1002/wcms.1493
   
   for GFN2-xTB:
   * C. Bannwarth, S. Ehlert and S. Grimme., J. Chem. Theory Comput., 2019,
     15, 1652-1671. DOI: 10.1021/acs.jctc.8b01176
   for GFN1-xTB:
   * S. Grimme, C. Bannwarth, P. Shushkov, J. Chem. Theory Comput., 2017,
     13, 1989-2009. DOI: 10.1021/acs.jctc.7b00118
   for GFN0-xTB:
   * P. Pracht, E. Caldeweyher, S. Ehlert, S. Grimme, ChemRxiv, 2019, preprint.
     DOI: 10.26434/chemrxiv.8326202.v1
   for GFN-FF:
   * S. Spicher and S. Grimme, Angew. Chem. Int. Ed., 2020, 59, 15665-15673.
     DOI: 10.1002/anie.202004239
   
   for ALPB and GBSA implicit solvation:
   * S. Ehlert, M. Stahn, S. Spicher, S. Grimme, J. Chem. Theory Comput.,
     2021, 17, 4250-4261. DOI: 10.1021/acs.jctc.1c00471
   
   for ddCOSMO and CPCM-X implicit solvation:
   * M. Stahn, S. Ehlert, S. Grimme, J. Phys. Chem. A,
     2023, XX, XXXX-XXXX. DOI: 10.1021/acs.jpca.3c04382
   
   for DFT-D4:
   * E. Caldeweyher, C. Bannwarth and S. Grimme, J. Chem. Phys., 2017,
     147, 034112. DOI: 10.1063/1.4993215
   * E. Caldeweyher, S. Ehlert, A. Hansen, H. Neugebauer, S. Spicher,
     C. Bannwarth and S. Grimme, J. Chem. Phys., 2019, 150, 154122.
     DOI: 10.1063/1.5090222
   * E. Caldeweyher, J.-M. Mewes, S. Ehlert and S. Grimme, Phys. Chem. Chem. Phys.
     2020, 22, 8499-8512. DOI: 10.1039/D0CP00502A
   
   for sTDA-xTB:
   * S. Grimme and C. Bannwarth, J. Chem. Phys., 2016, 145, 054103.
     DOI: 10.1063/1.4959605
   
   in the mass-spec context:
   * V. Asgeirsson, C. Bauer and S. Grimme, Chem. Sci., 2017, 8, 4879.
     DOI: 10.1039/c7sc00601b
   * J. Koopman and S. Grimme, ACS Omega 2019, 4, 12, 15120-15133.
     DOI: 10.1021/acsomega.9b02011
   
   for metadynamics refer to:
   * S. Grimme, J. Chem. Theory Comput., 2019, 155, 2847-2862
     DOI: 10.1021/acs.jctc.9b00143
   
   for SPH calculations refer to:
   * S. Spicher and S. Grimme, J. Chem. Theory Comput., 2021, 17, 1701-1714
     DOI: 10.1021/acs.jctc.0c01306
   
   for ONIOM refer to:
   * C. Plett, A. Katbashev, S. Ehlert, S. Grimme, M. Bursch,
     Phys. Chem. Chem. Phys., 2023, 25, 17860-17868. DOI: 10.1039/D3CP02178E
   
   for DIPRO refer to:
   * J. Kohn, N. Gildemeister, S. Grimme, D. Fazzi, A. Hansen,
     J. Chem. Phys., 2023, just accepted.
   
   for PTB refer to:
   * S. Grimme, M. Mueller, A. Hansen, J. Chem. Phys., 2023, 158, 124111.
     DOI: 10.1063/5.0137838
   
   with help from (in alphabetical order)
   P. Atkinson, C. Bannwarth, F. Bohle, G. Brandenburg, E. Caldeweyher
   M. Checinski, S. Dohm, S. Ehlert, S. Ehrlich, I. Gerasimov, C. Hölzer
   A. Katbashev, J. Kohn, J. Koopman, C. Lavigne, S. Lehtola, F. März, M. Müller,
   F. Musil, H. Neugebauer, J. Pisarek, C. Plett, P. Pracht, F. Pultar,
   J. Seibert, P. Shushkov, S. Spicher, M. Stahn, M. Steiner, T. Strunk,
   J. Stückrath, T. Rose, and J. Unsleber
   
 * started run on 2026/02/17 at 15:18:00.895     
   ID    Z sym.   atoms
    1    6 C      1-5
    2    8 O      6-8
    3    1 H      9-17

           -------------------------------------------------
          |                Calculation Setup                |
           -------------------------------------------------

          program call               : /apps/eb/ORCA/6.1.1-gompi-2024a-avx2/bin/otool_xtb goat_XTB.xyz --grad -c 0 -u 1 -P 8 --namespace goat --input goat_XTB.input.tmp --acc 0.200000
          hostname                   : d5-8
          calculation namespace      : goat
          coordinate file            : goat_XTB.xyz
          omp threads                :                     8


           -------------------------------------------------
          |                 G F N 2 - x T B                 |
           -------------------------------------------------

        Reference                      10.1021/acs.jctc.8b01176
      * Hamiltonian:
        H0-scaling (s, p, d)           1.850000    2.230000    2.230000
        zeta-weighting                 0.500000
      * Dispersion:
        s8                             2.700000
        a1                             0.520000
        a2                             5.000000
        s9                             5.000000
      * Repulsion:
        kExp                           1.500000    1.000000
        rExp                           1.000000
      * Coulomb:
        alpha                          2.000000
        third order                    shell-resolved
        anisotropic                    true
        a3                             3.000000
        a5                             4.000000
        cn-shift                       1.200000
        cn-exp                         4.000000
        max-rad                        5.000000

q/qsh data taken from xtbrestart
CAMM data taken from xtbrestart

          ...................................................
          :                      SETUP                      :
          :.................................................:
          :  # basis functions                  41          :
          :  # atomic orbitals                  41          :
          :  # shells                           25          :
          :  # electrons                        47          :
          :  max. iterations                   250          :
          :  Hamiltonian                  GFN2-xTB          :
          :  restarted?                       true          :
          :  GBSA solvation                  false          :
          :  PC potential                    false          :
          :  electronic temp.          300.0000000     K    :
          :  accuracy                    0.2000000          :
          :  -> integral cutoff          0.3198970E+02      :
          :  -> integral neglect         0.2000000E-08      :
          :  -> SCF convergence          0.2000000E-06 Eh   :
          :  -> wf. convergence          0.2000000E-04 e    :
          :  Broyden damping             0.4000000          :
          :  net charge                          0          :
          :  unpaired electrons                  1          :
          ...................................................

 iter      E             dE          RMSdq      gap      omega  full diag
   1    -27.5532861 -0.275533E+02  0.260E-02    4.38       0.0  T
   2    -27.5532862 -0.808616E-07  0.159E-02    4.38       1.5  T
   3    -27.5532863 -0.445931E-07  0.128E-03    4.38      19.0  T
   4    -27.5532863 -0.343530E-08  0.748E-04    4.38      32.4  T
   5    -27.5532863 -0.844615E-09  0.234E-04    4.38     103.5  T
   6    -27.5532863 -0.233115E-09  0.847E-05    4.38     286.5  T
   7    -27.5532863 -0.483737E-10  0.550E-05    4.38     441.3  T

   *** convergence criteria satisfied after 7 iterations ***

         #    Occupation            Energy/Eh            Energy/eV
      -------------------------------------------------------------
         1        2.0000           -0.7488813             -20.3781
       ...           ...                  ...                  ...
        18        2.0000           -0.4683552             -12.7446
        19        2.0000           -0.4654805             -12.6664
        20        2.0000           -0.4578565             -12.4589
        21        2.0000           -0.4551514             -12.3853
        22        2.0000           -0.4421933             -12.0327
        23        2.0000           -0.4395830             -11.9617
        24        1.0000           -0.3327391              -9.0543 (HOMO)
        25                         -0.1717178              -4.6727 (LUMO)
        26                         -0.0766343              -2.0853
        27                          0.0505211               1.3747
        28                          0.0745031               2.0273
        29                          0.0980089               2.6670
       ...                                ...                  ...
        41                          0.4167301              11.3398
      -------------------------------------------------------------
                  HL-Gap            0.1610213 Eh            4.3816 eV
             Fermi-level           -0.3191948 Eh           -8.6857 eV

 SCC (total)                   0 d,  0 h,  0 min,  0.014 sec
 SCC setup                      ...        0 min,  0.000 sec (  2.947%)
 Dispersion                     ...        0 min,  0.000 sec (  1.610%)
 classical contributions        ...        0 min,  0.000 sec (  0.822%)
 integral evaluation            ...        0 min,  0.000 sec (  3.462%)
 iterations                     ...        0 min,  0.011 sec ( 78.095%)
 molecular gradient             ...        0 min,  0.001 sec ( 10.305%)
 printout                       ...        0 min,  0.000 sec (  2.654%)

         :::::::::::::::::::::::::::::::::::::::::::::::::::::
         ::                     SUMMARY                     ::
         :::::::::::::::::::::::::::::::::::::::::::::::::::::
         :: total energy             -27.307192755374 Eh    ::
         :: gradient norm              0.000447265576 Eh/a0 ::
         :: HOMO-LUMO gap              4.381613580432 eV    ::
         ::.................................................::
         :: SCC energy               -27.553285115768 Eh    ::
         :: -> isotropic ES            0.042866674060 Eh    ::
         :: -> anisotropic ES         -0.003767686524 Eh    ::
         :: -> anisotropic XC         -0.004683453675 Eh    ::
         :: -> dispersion             -0.009584142386 Eh    ::
         :: repulsion energy           0.246092360393 Eh    ::
         :: add. restraining           0.000000000000 Eh    ::
         :: total charge              -0.000000000000 e     ::
         :::::::::::::::::::::::::::::::::::::::::::::::::::::


Property printout bound to 'properties.out'

           -------------------------------------------------
          | TOTAL ENERGY              -27.307192755374 Eh   |
          | GRADIENT NORM               0.000447265576 Eh/α |
          | HOMO-LUMO GAP               4.381613580432 eV   |
           -------------------------------------------------

------------------------------------------------------------------------
 * finished run on 2026/02/17 at 15:18:00.927     
------------------------------------------------------------------------
 total:
 * wall-time:     0 d,  0 h,  0 min,  0.032 sec
 *  cpu-time:     0 d,  0 h,  0 min,  0.167 sec
 * ratio c/w:     5.278 speedup
 SCF:
 * wall-time:     0 d,  0 h,  0 min,  0.014 sec
 *  cpu-time:     0 d,  0 h,  0 min,  0.085 sec
 * ratio c/w:     5.913 speedup


-------------------------   --------------------
FINAL SINGLE POINT ENERGY       -27.307192755370
-------------------------   --------------------


-------------
DIPOLE MOMENT
-------------
                                X             Y             Z
Total Dipole Moment    :     -0.67100      -0.22900       0.27400
                        -----------------------------------------
Magnitude (a.u.)       :      0.76010
Magnitude (Debye)      :      1.93203


------------------
CARTESIAN GRADIENT
------------------

   1   C   :   -0.000008219    0.000015272    0.000002964
   2   C   :   -0.000103511    0.000031682   -0.000002074
   3   C   :    0.000034229   -0.000107976   -0.000069334
   4   C   :    0.000013437   -0.000049367    0.000123047
   5   C   :   -0.000132234    0.000051367    0.000068491
   6   O   :   -0.000094377   -0.000127184   -0.000064520
   7   O   :    0.000129190   -0.000032418   -0.000027954
   8   O   :    0.000187455    0.000113186   -0.000107083
   9   H   :   -0.000004106   -0.000013034   -0.000009662
  10   H   :    0.000009261    0.000004137    0.000014077
  11   H   :   -0.000000593   -0.000005948   -0.000000205
  12   H   :    0.000046601    0.000004203    0.000001960
  13   H   :    0.000025669   -0.000015199   -0.000000063
  14   H   :   -0.000016752    0.000040360    0.000009604
  15   H   :    0.000008752    0.000027059    0.000002994
  16   H   :   -0.000092697    0.000002572    0.000034811
  17   H   :   -0.000002106    0.000061287    0.000022948

Difference to translation invariance:
           :    0.0000000000    0.0000000000   -0.0000000000

Difference to rotation invariance:
           :    0.0000005171   -0.0000008039    0.0000012296

Norm of the Cartesian gradient     ...    0.0004472656
RMS gradient                       ...    0.0000626297
MAX gradient                       ...    0.0001874550
------------------------------------------------------------------------------
                         ORCA GEOMETRY RELAXATION STEP
------------------------------------------------------------------------------

Reading the OPT-File                    .... done
Getting information on internals        .... done
Copying old internal coords+grads       .... done
Making the new internal coordinates     .... (2022 redundants) done
Validating the new internal coordinates .... (2022 redundants) done
Calculating the B-matrix                .... done
Calculating the G,G- and P matrices     .... done
Transforming gradient to internals      .... done
Projecting the internal gradient        .... done
Number of atoms                         ....  17
Number of internal coordinates          ....  76
Current Energy                          ....   -27.307192755 Eh
Current gradient norm                   ....     0.000447266 Eh/bohr
Maximum allowed component of the step   ....  0.300
Current trust radius                    ....  0.675
Updating the Hessian (BFGS)             .... done
Forming the augmented Hessian           .... done
Diagonalizing the augmented Hessian     .... done
Last element of RFO vector              ....  0.999955482
Lowest eigenvalues of augmented Hessian:
 -0.000001006  0.000883906  0.006128833  0.009492433  0.011561526
Length of the computed step             ....  0.009436184
The final length of the internal step   ....  0.009436184
Converting the step to Cartesian space:
 Initial RMS(Int)=    0.0010824046
Transforming coordinates:
 Iter   0:  RMS(Cart)=    0.0019137652 RMS(Int)=    0.0010821845
done
Storing new coordinates                 .... done
The predicted energy change is          ....    -0.000000503
Previously predicted energy change      ....    -0.000001753
Actually observed energy change         ....    -0.000002268
Ratio of predicted to observed change   ....     1.293368606
New trust radius                        ....     0.675000000

                                .--------------------.
          ----------------------|Geometry convergence|-------------------------
          Item                value                   Tolerance       Converged
          ---------------------------------------------------------------------
          Energy change      -0.0000022679            0.0000050000      YES
          RMS gradient        0.0000370397            0.0001000000      YES
          MAX gradient        0.0001786326            0.0003000000      YES
          RMS step            0.0010824046            0.0020000000      YES
          MAX step            0.0080366311            0.0040000000      NO
          -------------------------------------------------------------------------
          ........................................................
          Max(Bonds)      0.0004      Max(Angles)    0.04
          Max(Dihed)        0.46      Max(Improp)    0.00
          ---------------------------------------------------------------------

    ---------------------------------------------------------------------------
                         Redundant Internal Coordinates
                            (Angstroem and degrees)

        Definition                    Value    dE/dq     Step     New-Value
    ----------------------------------------------------------------------------
     1. B(C   1,C   0)                1.5228 -0.000006  0.0000    1.5228   
     2. B(C   2,C   1)                1.5302  0.000039 -0.0001    1.5300   
     3. B(C   3,C   2)                1.4800  0.000005  0.0001    1.4800   
     4. B(C   4,C   3)                1.4474 -0.000039  0.0000    1.4474   
     5. B(O   6,C   4)                1.4325 -0.000111  0.0004    1.4329   
     6. B(O   6,C   3)                1.3688  0.000018 -0.0001    1.3688   
     7. B(O   7,C   4)                1.3654  0.000179 -0.0003    1.3651   
     8. B(O   7,O   5)                1.4209 -0.000124  0.0003    1.4212   
     9. B(H   8,C   0)                1.0870 -0.000000  0.0000    1.0870   
    10. B(H   9,C   0)                1.0873  0.000003 -0.0000    1.0873   
    11. B(H  10,C   0)                1.0877  0.000005 -0.0000    1.0877   
    12. B(H  11,C   1)                1.0912  0.000000  0.0000    1.0912   
    13. B(H  12,C   1)                1.0917 -0.000005  0.0000    1.0917   
    14. B(H  13,C   2)                1.1007 -0.000004  0.0000    1.1007   
    15. B(H  14,C   2)                1.0918 -0.000023  0.0001    1.0919   
    16. B(H  15,C   4)                1.0891 -0.000012 -0.0000    1.0891   
    17. B(H  16,O   5)                0.9696  0.000050 -0.0001    0.9695   
    18. A(H   8,C   0,H   9)          108.76  0.000009   -0.00    108.76   
    19. A(H   8,C   0,H  10)          108.54 -0.000008    0.00    108.55   
    20. A(C   1,C   0,H   8)          110.59  0.000018   -0.00    110.59   
    21. A(C   1,C   0,H  10)          110.63 -0.000004    0.00    110.64   
    22. A(H   9,C   0,H  10)          108.39  0.000011    0.00    108.39   
    23. A(C   1,C   0,H   9)          109.86 -0.000025    0.00    109.87   
    24. A(C   0,C   1,H  12)          109.89  0.000015   -0.01    109.88   
    25. A(C   0,C   1,C   2)          111.34  0.000010    0.00    111.34   
    26. A(C   2,C   1,H  12)          108.95 -0.000038    0.00    108.95   
    27. A(H  11,C   1,H  12)          108.21  0.000028   -0.01    108.20   
    28. A(C   0,C   1,H  11)          109.61  0.000016   -0.00    109.61   
    29. A(C   2,C   1,H  11)          108.78 -0.000030    0.02    108.80   
    30. A(C   3,C   2,H  13)          109.42 -0.000004    0.00    109.42   
    31. A(H  13,C   2,H  14)          108.00  0.000021   -0.02    107.98   
    32. A(C   3,C   2,H  14)          108.34 -0.000016   -0.00    108.34   
    33. A(C   1,C   2,H  14)          110.35  0.000019   -0.01    110.35   
    34. A(C   1,C   2,H  13)          109.48 -0.000024    0.02    109.50   
    35. A(C   1,C   2,C   3)          111.18  0.000005    0.01    111.19   
    36. A(C   2,C   3,C   4)          133.80  0.000038   -0.04    133.75   
    37. A(C   4,C   3,O   6)           61.07 -0.000043    0.02     61.09   
    38. A(C   2,C   3,O   6)          126.95  0.000043   -0.03    126.92   
    39. A(O   7,C   4,H  15)          115.30  0.000068   -0.01    115.30   
    40. A(O   6,C   4,H  15)          113.76 -0.000045    0.01    113.77   
    41. A(C   3,C   4,H  15)          123.15 -0.000060    0.03    123.19   
    42. A(C   3,C   4,O   6)           56.76  0.000037   -0.01     56.75   
    43. A(O   6,C   4,O   7)          117.39 -0.000025   -0.02    117.37   
    44. A(C   3,C   4,O   7)          117.06 -0.000007   -0.01    117.05   
    45. A(O   7,O   5,H  16)          104.54  0.000056   -0.03    104.51   
    46. A(C   3,O   6,C   4)           62.17  0.000006   -0.01     62.16   
    47. A(C   4,O   7,O   5)          111.15 -0.000029   -0.00    111.15   
    48. D(H  11,C   1,C   0,H   9)     62.05 -0.000011    0.08     62.13   
    49. D(C   2,C   1,C   0,H  10)     61.28  0.000005    0.06     61.34   
    50. D(H  11,C   1,C   0,H  10)   -178.31 -0.000017    0.08   -178.23   
    51. D(C   2,C   1,C   0,H   9)    -58.36  0.000010    0.05    -58.30   
    52. D(H  11,C   1,C   0,H   8)    -58.02 -0.000018    0.08    -57.93   
    53. D(C   2,C   1,C   0,H   8)   -178.42  0.000004    0.06   -178.36   
    54. D(C   3,C   2,C   1,C   0)     64.42  0.000010   -0.05     64.37   
    55. D(H  13,C   2,C   1,H  12)    -53.22 -0.000008   -0.03    -53.25   
    56. D(H  13,C   2,C   1,C   0)   -174.56 -0.000008   -0.03   -174.59   
    57. D(C   3,C   2,C   1,H  12)   -174.23  0.000010   -0.05   -174.29   
    58. D(H  13,C   2,C   1,H  11)     64.54 -0.000014   -0.04     64.51   
    59. D(C   3,C   2,C   1,H  11)    -56.47  0.000004   -0.06    -56.53   
    60. D(C   4,C   3,C   2,H  14)    -87.76 -0.000001   -0.06    -87.82   
    61. D(C   4,C   3,C   2,H  13)     29.76  0.000013   -0.09     29.67   
    62. D(C   4,C   3,C   2,C   1)    150.81 -0.000017   -0.05    150.76   
    63. D(O   6,C   3,C   2,H  13)    -53.51  0.000017   -0.06    -53.57   
    64. D(O   6,C   3,C   2,C   1)     67.55 -0.000013   -0.03     67.51   
    65. D(H  15,C   4,C   3,O   6)     98.47 -0.000005   -0.01     98.46   
    66. D(H  15,C   4,C   3,C   2)    -16.47 -0.000024    0.01    -16.45   
    67. D(O   7,C   4,C   3,O   6)   -106.43  0.000015    0.02   -106.41   
    68. D(O   7,C   4,C   3,C   2)    138.64 -0.000004    0.04    138.68   
    69. D(O   6,C   4,C   3,C   2)   -114.94 -0.000019    0.02   -114.92   
    70. D(C   3,O   6,C   4,H  15)   -115.21  0.000043   -0.03   -115.24   
    71. D(C   3,O   6,C   4,O   7)    105.85  0.000018   -0.01    105.84   
    72. D(C   4,O   6,C   3,C   2)    125.02  0.000019   -0.04    124.98   
    73. D(C   4,O   7,O   5,H  16)   -103.04  0.000052   -0.46   -103.50   
    74. D(O   5,O   7,C   4,H  15)    -49.44  0.000018   -0.02    -49.46   
    75. D(O   5,O   7,C   4,O   6)     88.89 -0.000003   -0.03     88.85   
    76. D(O   5,O   7,C   4,C   3)    153.50  0.000030   -0.05    153.45   
    ----------------------------------------------------------------------------

Geometry step timings:
Preparation and reading OPT file:      0.000 s ( 0.692 %)
Internal coordinates            :      0.000 s ( 0.889 %)
B/P matrices and projection     :      0.001 s (30.089 %)
Hessian update/contruction      :      0.000 s (18.626 %)
Making the step                 :      0.001 s (25.791 %)
Converting the step to Cartesian:      0.000 s ( 2.372 %)
Storing new data                :      0.000 s ( 0.988 %)
Checking convergence            :      0.000 s ( 1.581 %)
Final printing                  :      0.000 s (18.972 %)
Total time                      :      0.002 s

Time for energy+gradient        :      0.044 s
Time for complete geometry iter :      0.047 s

         *************************************************************
         *                GEOMETRY OPTIMIZATION CYCLE  16            *
         *************************************************************
---------------------------------
CARTESIAN COORDINATES (ANGSTROEM)
---------------------------------
  C    -2.190800   -0.441343   -1.081566
  C    -1.823809   -0.707984    0.372099
  C    -0.383820   -1.209118    0.499879
  C     0.582797   -0.175295    0.067015
  C     1.946878    0.137117    0.436657
  O     3.850606    1.308131   -0.099511
  O     0.843940    1.017017    0.686477
  O     2.802032    0.473646   -0.572742
  H    -3.205622   -0.058925   -1.155622
  H    -1.509130    0.291585   -1.506274
  H    -2.121597   -1.354723   -1.668185
  H    -1.929010    0.211116    0.950861
  H    -2.498162   -1.455650    0.794070
  H    -0.181785   -1.483726    1.546460
  H    -0.235086   -2.098033   -0.116448
  H     2.420757   -0.240769    1.341485
  H     3.609284    2.196902   -0.402457

----------------------------
CARTESIAN COORDINATES (A.U.)
----------------------------
  NO LB    ZA    FRAG    MASS        X           Y           Z
   0 C   6.0000    1    12.011   -4.140011   -0.834017   -2.043863
   1 C   6.0000    1    12.011   -3.446500   -1.337895    0.703166
   2 C   6.0000    1    12.011   -0.725314   -2.284903    0.944635
   3 C   6.0000    1    12.011    1.101327   -0.331259    0.126640
   4 C   6.0000    1    12.011    3.679066    0.259113    0.825162
   5 O   8.0000    1    15.999    7.276591    2.472009   -0.188049
   6 O   8.0000    1    15.999    1.594815    1.921883    1.297254
   7 O   8.0000    1    15.999    5.295073    0.895061   -1.082326
   8 H   1.0000    1     1.008   -6.057748   -0.111353   -2.183809
   9 H   1.0000    1     1.008   -2.851842    0.551015   -2.846445
  10 H   1.0000    1     1.008   -4.009238   -2.560055   -3.152413
  11 H   1.0000    1     1.008   -3.645300    0.398952    1.796867
  12 H   1.0000    1     1.008   -4.720842   -2.750780    1.500576
  13 H   1.0000    1     1.008   -0.343523   -2.803836    2.922386
  14 H   1.0000    1     1.008   -0.444247   -3.964707   -0.220055
  15 H   1.0000    1     1.008    4.574568   -0.454988    2.535040
  16 H   1.0000    1     1.008    6.820559    4.151543   -0.760534

      -----------------------------------------------------------      
     |                   =====================                   |     
     |                           x T B                           |     
     |                   =====================                   |     
     |                         S. Grimme                         |     
     |          Mulliken Center for Theoretical Chemistry        |     
     |                    University of Bonn                     |     
      -----------------------------------------------------------      

   * xtb version 6.7.1 (edcfbbe) compiled by 'albert@albert-system' on 2024-07-22

   xtb is free software: you can redistribute it and/or modify it under
   the terms of the GNU Lesser General Public License as published by
   the Free Software Foundation, either version 3 of the License, or
   (at your option) any later version.
   
   xtb is distributed in the hope that it will be useful,
   but WITHOUT ANY WARRANTY; without even the implied warranty of
   MERCHANTABILITY or FITNESS FOR A PARTICULAR PURPOSE.  See the
   GNU Lesser General Public License for more details.
   
   Cite this work as:
   * C. Bannwarth, E. Caldeweyher, S. Ehlert, A. Hansen, P. Pracht,
     J. Seibert, S. Spicher, S. Grimme, WIREs Comput. Mol. Sci., 2020, 11,
     e01493. DOI: 10.1002/wcms.1493
   
   for GFN2-xTB:
   * C. Bannwarth, S. Ehlert and S. Grimme., J. Chem. Theory Comput., 2019,
     15, 1652-1671. DOI: 10.1021/acs.jctc.8b01176
   for GFN1-xTB:
   * S. Grimme, C. Bannwarth, P. Shushkov, J. Chem. Theory Comput., 2017,
     13, 1989-2009. DOI: 10.1021/acs.jctc.7b00118
   for GFN0-xTB:
   * P. Pracht, E. Caldeweyher, S. Ehlert, S. Grimme, ChemRxiv, 2019, preprint.
     DOI: 10.26434/chemrxiv.8326202.v1
   for GFN-FF:
   * S. Spicher and S. Grimme, Angew. Chem. Int. Ed., 2020, 59, 15665-15673.
     DOI: 10.1002/anie.202004239
   
   for ALPB and GBSA implicit solvation:
   * S. Ehlert, M. Stahn, S. Spicher, S. Grimme, J. Chem. Theory Comput.,
     2021, 17, 4250-4261. DOI: 10.1021/acs.jctc.1c00471
   
   for ddCOSMO and CPCM-X implicit solvation:
   * M. Stahn, S. Ehlert, S. Grimme, J. Phys. Chem. A,
     2023, XX, XXXX-XXXX. DOI: 10.1021/acs.jpca.3c04382
   
   for DFT-D4:
   * E. Caldeweyher, C. Bannwarth and S. Grimme, J. Chem. Phys., 2017,
     147, 034112. DOI: 10.1063/1.4993215
   * E. Caldeweyher, S. Ehlert, A. Hansen, H. Neugebauer, S. Spicher,
     C. Bannwarth and S. Grimme, J. Chem. Phys., 2019, 150, 154122.
     DOI: 10.1063/1.5090222
   * E. Caldeweyher, J.-M. Mewes, S. Ehlert and S. Grimme, Phys. Chem. Chem. Phys.
     2020, 22, 8499-8512. DOI: 10.1039/D0CP00502A
   
   for sTDA-xTB:
   * S. Grimme and C. Bannwarth, J. Chem. Phys., 2016, 145, 054103.
     DOI: 10.1063/1.4959605
   
   in the mass-spec context:
   * V. Asgeirsson, C. Bauer and S. Grimme, Chem. Sci., 2017, 8, 4879.
     DOI: 10.1039/c7sc00601b
   * J. Koopman and S. Grimme, ACS Omega 2019, 4, 12, 15120-15133.
     DOI: 10.1021/acsomega.9b02011
   
   for metadynamics refer to:
   * S. Grimme, J. Chem. Theory Comput., 2019, 155, 2847-2862
     DOI: 10.1021/acs.jctc.9b00143
   
   for SPH calculations refer to:
   * S. Spicher and S. Grimme, J. Chem. Theory Comput., 2021, 17, 1701-1714
     DOI: 10.1021/acs.jctc.0c01306
   
   for ONIOM refer to:
   * C. Plett, A. Katbashev, S. Ehlert, S. Grimme, M. Bursch,
     Phys. Chem. Chem. Phys., 2023, 25, 17860-17868. DOI: 10.1039/D3CP02178E
   
   for DIPRO refer to:
   * J. Kohn, N. Gildemeister, S. Grimme, D. Fazzi, A. Hansen,
     J. Chem. Phys., 2023, just accepted.
   
   for PTB refer to:
   * S. Grimme, M. Mueller, A. Hansen, J. Chem. Phys., 2023, 158, 124111.
     DOI: 10.1063/5.0137838
   
   with help from (in alphabetical order)
   P. Atkinson, C. Bannwarth, F. Bohle, G. Brandenburg, E. Caldeweyher
   M. Checinski, S. Dohm, S. Ehlert, S. Ehrlich, I. Gerasimov, C. Hölzer
   A. Katbashev, J. Kohn, J. Koopman, C. Lavigne, S. Lehtola, F. März, M. Müller,
   F. Musil, H. Neugebauer, J. Pisarek, C. Plett, P. Pracht, F. Pultar,
   J. Seibert, P. Shushkov, S. Spicher, M. Stahn, M. Steiner, T. Strunk,
   J. Stückrath, T. Rose, and J. Unsleber
   
 * started run on 2026/02/17 at 15:18:00.942     
   ID    Z sym.   atoms
    1    6 C      1-5
    2    8 O      6-8
    3    1 H      9-17

           -------------------------------------------------
          |                Calculation Setup                |
           -------------------------------------------------

          program call               : /apps/eb/ORCA/6.1.1-gompi-2024a-avx2/bin/otool_xtb goat_XTB.xyz --grad -c 0 -u 1 -P 8 --namespace goat --input goat_XTB.input.tmp --acc 0.200000
          hostname                   : d5-8
          calculation namespace      : goat
          coordinate file            : goat_XTB.xyz
          omp threads                :                     8


           -------------------------------------------------
          |                 G F N 2 - x T B                 |
           -------------------------------------------------

        Reference                      10.1021/acs.jctc.8b01176
      * Hamiltonian:
        H0-scaling (s, p, d)           1.850000    2.230000    2.230000
        zeta-weighting                 0.500000
      * Dispersion:
        s8                             2.700000
        a1                             0.520000
        a2                             5.000000
        s9                             5.000000
      * Repulsion:
        kExp                           1.500000    1.000000
        rExp                           1.000000
      * Coulomb:
        alpha                          2.000000
        third order                    shell-resolved
        anisotropic                    true
        a3                             3.000000
        a5                             4.000000
        cn-shift                       1.200000
        cn-exp                         4.000000
        max-rad                        5.000000

q/qsh data taken from xtbrestart
CAMM data taken from xtbrestart

          ...................................................
          :                      SETUP                      :
          :.................................................:
          :  # basis functions                  41          :
          :  # atomic orbitals                  41          :
          :  # shells                           25          :
          :  # electrons                        47          :
          :  max. iterations                   250          :
          :  Hamiltonian                  GFN2-xTB          :
          :  restarted?                       true          :
          :  GBSA solvation                  false          :
          :  PC potential                    false          :
          :  electronic temp.          300.0000000     K    :
          :  accuracy                    0.2000000          :
          :  -> integral cutoff          0.3198970E+02      :
          :  -> integral neglect         0.2000000E-08      :
          :  -> SCF convergence          0.2000000E-06 Eh   :
          :  -> wf. convergence          0.2000000E-04 e    :
          :  Broyden damping             0.4000000          :
          :  net charge                          0          :
          :  unpaired electrons                  1          :
          ...................................................

 iter      E             dE          RMSdq      gap      omega  full diag
   1    -27.5532974 -0.275533E+02  0.734E-03    4.38       0.0  T
   2    -27.5532974 -0.158086E-07  0.460E-03    4.38       5.3  T
   3    -27.5532974 -0.575139E-08  0.555E-04    4.38      43.7  T
   4    -27.5532974 -0.169474E-08  0.266E-04    4.38      91.3  T
   5    -27.5532974 -0.111182E-09  0.117E-04    4.38     208.0  T
   6    -27.5532974 -0.314486E-10  0.462E-05    4.38     525.1  T

   *** convergence criteria satisfied after 6 iterations ***

         #    Occupation            Energy/Eh            Energy/eV
      -------------------------------------------------------------
         1        2.0000           -0.7488441             -20.3771
       ...           ...                  ...                  ...
        18        2.0000           -0.4683056             -12.7432
        19        2.0000           -0.4656016             -12.6697
        20        2.0000           -0.4578507             -12.4588
        21        2.0000           -0.4549685             -12.3803
        22        2.0000           -0.4421800             -12.0323
        23        2.0000           -0.4395539             -11.9609
        24        1.0000           -0.3327403              -9.0543 (HOMO)
        25                         -0.1719356              -4.6786 (LUMO)
        26                         -0.0767035              -2.0872
        27                          0.0504823               1.3737
        28                          0.0746533               2.0314
        29                          0.0980297               2.6675
       ...                                ...                  ...
        41                          0.4166787              11.3384
      -------------------------------------------------------------
                  HL-Gap            0.1608046 Eh            4.3757 eV
             Fermi-level           -0.3192425 Eh           -8.6870 eV

 SCC (total)                   0 d,  0 h,  0 min,  0.016 sec
 SCC setup                      ...        0 min,  0.000 sec (  1.126%)
 Dispersion                     ...        0 min,  0.000 sec (  1.088%)
 classical contributions        ...        0 min,  0.000 sec (  0.563%)
 integral evaluation            ...        0 min,  0.001 sec (  5.170%)
 iterations                     ...        0 min,  0.012 sec ( 73.894%)
 molecular gradient             ...        0 min,  0.002 sec ( 14.288%)
 printout                       ...        0 min,  0.001 sec (  3.750%)

         :::::::::::::::::::::::::::::::::::::::::::::::::::::
         ::                     SUMMARY                     ::
         :::::::::::::::::::::::::::::::::::::::::::::::::::::
         :: total energy             -27.307193400233 Eh    ::
         :: gradient norm              0.000199504671 Eh/a0 ::
         :: HOMO-LUMO gap              4.375716757318 eV    ::
         ::.................................................::
         :: SCC energy               -27.553296272032 Eh    ::
         :: -> isotropic ES            0.042870525623 Eh    ::
         :: -> anisotropic ES         -0.003784876780 Eh    ::
         :: -> anisotropic XC         -0.004675497797 Eh    ::
         :: -> dispersion             -0.009584586454 Eh    ::
         :: repulsion energy           0.246102871799 Eh    ::
         :: add. restraining           0.000000000000 Eh    ::
         :: total charge               0.000000000000 e     ::
         :::::::::::::::::::::::::::::::::::::::::::::::::::::


Property printout bound to 'properties.out'

           -------------------------------------------------
          | TOTAL ENERGY              -27.307193400233 Eh   |
          | GRADIENT NORM               0.000199504671 Eh/α |
          | HOMO-LUMO GAP               4.375716757318 eV   |
           -------------------------------------------------

------------------------------------------------------------------------
 * finished run on 2026/02/17 at 15:18:00.973     
------------------------------------------------------------------------
 total:
 * wall-time:     0 d,  0 h,  0 min,  0.031 sec
 *  cpu-time:     0 d,  0 h,  0 min,  0.169 sec
 * ratio c/w:     5.469 speedup
 SCF:
 * wall-time:     0 d,  0 h,  0 min,  0.016 sec
 *  cpu-time:     0 d,  0 h,  0 min,  0.086 sec
 * ratio c/w:     5.463 speedup


-------------------------   --------------------
FINAL SINGLE POINT ENERGY       -27.307193400230
-------------------------   --------------------


-------------
DIPOLE MOMENT
-------------
                                X             Y             Z
Total Dipole Moment    :     -0.66800      -0.23000       0.26800
                        -----------------------------------------
Magnitude (a.u.)       :      0.75561
Magnitude (Debye)      :      1.92061


------------------
CARTESIAN GRADIENT
------------------

   1   C   :   -0.000001636    0.000005516    0.000002566
   2   C   :   -0.000019844    0.000021993   -0.000013463
   3   C   :   -0.000017413   -0.000014103   -0.000029699
   4   C   :    0.000046947   -0.000027821    0.000039263
   5   C   :    0.000005121   -0.000088226    0.000014136
   6   O   :   -0.000058219   -0.000059872   -0.000030481
   7   O   :    0.000004667    0.000074150   -0.000014770
   8   O   :    0.000044993    0.000070008   -0.000022702
   9   H   :    0.000000490   -0.000005215   -0.000004763
  10   H   :    0.000001716   -0.000000064    0.000008566
  11   H   :   -0.000004673   -0.000000067    0.000001751
  12   H   :    0.000012605   -0.000005285    0.000007560
  13   H   :    0.000010894   -0.000011530    0.000000216
  14   H   :   -0.000003379    0.000005409    0.000009884
  15   H   :    0.000014896    0.000001882    0.000008697
  16   H   :   -0.000039576    0.000006068    0.000010054
  17   H   :    0.000002410    0.000027157    0.000013185

Difference to translation invariance:
           :    0.0000000000    0.0000000000   -0.0000000000

Difference to rotation invariance:
           :    0.0000001638   -0.0000006187    0.0000005367

Norm of the Cartesian gradient     ...    0.0001995047
RMS gradient                       ...    0.0000279362
MAX gradient                       ...    0.0000882264
------------------------------------------------------------------------------
                         ORCA GEOMETRY RELAXATION STEP
------------------------------------------------------------------------------

Reading the OPT-File                    .... done
Getting information on internals        .... done
Copying old internal coords+grads       .... done
Making the new internal coordinates     .... (2022 redundants) done
Validating the new internal coordinates .... (2022 redundants) done
Calculating the B-matrix                .... done
Calculating the G,G- and P matrices     .... done
Transforming gradient to internals      .... done
Projecting the internal gradient        .... done
Number of atoms                         ....  17
Number of internal coordinates          ....  76
Current Energy                          ....   -27.307193400 Eh
Current gradient norm                   ....     0.000199505 Eh/bohr
Maximum allowed component of the step   ....  0.300
Current trust radius                    ....  0.675
Updating the Hessian (BFGS)             .... done
Forming the augmented Hessian           .... done
Diagonalizing the augmented Hessian     .... done
Last element of RFO vector              ....  0.999986787
Lowest eigenvalues of augmented Hessian:
 -0.000000263  0.000886559  0.005369867  0.008993394  0.011301560
Length of the computed step             ....  0.005140647
The final length of the internal step   ....  0.005140647
Converting the step to Cartesian space:
 Initial RMS(Int)=    0.0005896727
Transforming coordinates:
 Iter   0:  RMS(Cart)=    0.0010696186 RMS(Int)=    0.0005896242
done
Storing new coordinates                 .... done
The predicted energy change is          ....    -0.000000131
Previously predicted energy change      ....    -0.000000503
Actually observed energy change         ....    -0.000000645
Ratio of predicted to observed change   ....     1.282181930
New trust radius                        ....     0.675000000

                                .--------------------.
          ----------------------|Geometry convergence|-------------------------
          Item                value                   Tolerance       Converged
          ---------------------------------------------------------------------
          Energy change      -0.0000006449            0.0000050000      YES
          RMS gradient        0.0000170655            0.0001000000      YES
          MAX gradient        0.0000661595            0.0003000000      YES
          RMS step            0.0005896727            0.0020000000      YES
          MAX step            0.0047242128            0.0040000000      NO
          -------------------------------------------------------------------------
          ........................................................
          Max(Bonds)      0.0002      Max(Angles)    0.02
          Max(Dihed)        0.27      Max(Improp)    0.00
          ---------------------------------------------------------------------

    ---------------------------------------------------------------------------
                         Redundant Internal Coordinates
                            (Angstroem and degrees)

        Definition                    Value    dE/dq     Step     New-Value
    ----------------------------------------------------------------------------
     1. B(C   1,C   0)                1.5228 -0.000007  0.0000    1.5228   
     2. B(C   2,C   1)                1.5300  0.000002 -0.0000    1.5300   
     3. B(C   3,C   2)                1.4800  0.000003  0.0000    1.4800   
     4. B(C   4,C   3)                1.4474 -0.000039  0.0001    1.4475   
     5. B(O   6,C   4)                1.4329  0.000007  0.0001    1.4329   
     6. B(O   6,C   3)                1.3688  0.000034 -0.0000    1.3687   
     7. B(O   7,C   4)                1.3651  0.000032 -0.0001    1.3649   
     8. B(O   7,O   5)                1.4212 -0.000066  0.0002    1.4214   
     9. B(H   8,C   0)                1.0870 -0.000002  0.0000    1.0870   
    10. B(H   9,C   0)                1.0873 -0.000002  0.0000    1.0873   
    11. B(H  10,C   0)                1.0877 -0.000001 -0.0000    1.0877   
    12. B(H  11,C   1)                1.0912 -0.000002  0.0000    1.0912   
    13. B(H  12,C   1)                1.0917  0.000001  0.0000    1.0917   
    14. B(H  13,C   2)                1.1007  0.000007 -0.0000    1.1007   
    15. B(H  14,C   2)                1.0919 -0.000004  0.0000    1.0919   
    16. B(H  15,C   4)                1.0891 -0.000011  0.0000    1.0891   
    17. B(H  16,O   5)                0.9695  0.000020 -0.0000    0.9695   
    18. A(H   8,C   0,H   9)          108.76  0.000003   -0.00    108.75   
    19. A(H   8,C   0,H  10)          108.55 -0.000005    0.00    108.55   
    20. A(C   1,C   0,H   8)          110.59  0.000008   -0.00    110.58   
    21. A(C   1,C   0,H  10)          110.64  0.000000    0.00    110.64   
    22. A(H   9,C   0,H  10)          108.39  0.000006   -0.00    108.39   
    23. A(C   1,C   0,H   9)          109.87 -0.000012    0.00    109.87   
    24. A(C   0,C   1,H  12)          109.88  0.000006   -0.00    109.87   
    25. A(C   0,C   1,C   2)          111.34  0.000013   -0.00    111.34   
    26. A(C   2,C   1,H  12)          108.95 -0.000023    0.01    108.96   
    27. A(H  11,C   1,H  12)          108.20  0.000011   -0.01    108.19   
    28. A(C   0,C   1,H  11)          109.61  0.000007   -0.00    109.61   
    29. A(C   2,C   1,H  11)          108.80 -0.000014    0.01    108.81   
    30. A(C   3,C   2,H  13)          109.42  0.000001    0.00    109.42   
    31. A(H  13,C   2,H  14)          107.98 -0.000003   -0.01    107.97   
    32. A(C   3,C   2,H  14)          108.34 -0.000010    0.00    108.34   
    33. A(C   1,C   2,H  14)          110.35  0.000014   -0.01    110.34   
    34. A(C   1,C   2,H  13)          109.50 -0.000015    0.01    109.51   
    35. A(C   1,C   2,C   3)          111.19  0.000013   -0.00    111.19   
    36. A(C   2,C   3,C   4)          133.76 -0.000002   -0.01    133.75   
    37. A(C   4,C   3,O   6)           61.09  0.000005    0.00     61.09   
    38. A(C   2,C   3,O   6)          126.92  0.000008   -0.01    126.91   
    39. A(O   7,C   4,H  15)          115.30  0.000042   -0.01    115.28   
    40. A(O   6,C   4,H  15)          113.78 -0.000013    0.01    113.78   
    41. A(C   3,C   4,H  15)          123.19 -0.000019    0.01    123.20   
    42. A(C   3,C   4,O   6)           56.75  0.000021   -0.00     56.74   
    43. A(O   6,C   4,O   7)          117.37 -0.000040    0.01    117.38   
    44. A(C   3,C   4,O   7)          117.05 -0.000016   -0.00    117.05   
    45. A(O   7,O   5,H  16)          104.51  0.000032   -0.02    104.50   
    46. A(C   3,O   6,C   4)           62.16 -0.000026    0.00     62.16   
    47. A(C   4,O   7,O   5)          111.15 -0.000032    0.00    111.15   
    48. D(H  11,C   1,C   0,H   9)     62.13 -0.000002    0.02     62.15   
    49. D(C   2,C   1,C   0,H  10)     61.34  0.000002    0.01     61.35   
    50. D(H  11,C   1,C   0,H  10)   -178.23 -0.000002    0.02   -178.21   
    51. D(C   2,C   1,C   0,H   9)    -58.30  0.000002    0.01    -58.29   
    52. D(H  11,C   1,C   0,H   8)    -57.93 -0.000004    0.02    -57.91   
    53. D(C   2,C   1,C   0,H   8)   -178.36  0.000001    0.02   -178.35   
    54. D(C   3,C   2,C   1,C   0)     64.37 -0.000002    0.02     64.39   
    55. D(H  13,C   2,C   1,H  12)    -53.25 -0.000002    0.02    -53.23   
    56. D(H  13,C   2,C   1,C   0)   -174.59 -0.000003    0.03   -174.56   
    57. D(C   3,C   2,C   1,H  12)   -174.29 -0.000002    0.02   -174.27   
    58. D(H  13,C   2,C   1,H  11)     64.51 -0.000010    0.03     64.53   
    59. D(C   3,C   2,C   1,H  11)    -56.53 -0.000009    0.02    -56.52   
    60. D(C   4,C   3,C   2,H  14)    -87.82  0.000016   -0.00    -87.82   
    61. D(C   4,C   3,C   2,H  13)     29.67  0.000007   -0.00     29.66   
    62. D(C   4,C   3,C   2,C   1)    150.76 -0.000003    0.01    150.76   
    63. D(O   6,C   3,C   2,H  13)    -53.57 -0.000006    0.01    -53.56   
    64. D(O   6,C   3,C   2,C   1)     67.52 -0.000016    0.02     67.54   
    65. D(H  15,C   4,C   3,O   6)     98.46  0.000005    0.00     98.47   
    66. D(H  15,C   4,C   3,C   2)    -16.45 -0.000010    0.02    -16.44   
    67. D(O   7,C   4,C   3,O   6)   -106.41  0.000034   -0.02   -106.42   
    68. D(O   7,C   4,C   3,C   2)    138.68  0.000018   -0.00    138.67   
    69. D(O   6,C   4,C   3,C   2)   -114.92 -0.000015    0.01   -114.90   
    70. D(C   3,O   6,C   4,H  15)   -115.24  0.000012   -0.01   -115.24   
    71. D(C   3,O   6,C   4,O   7)    105.84  0.000009   -0.01    105.82   
    72. D(C   4,O   6,C   3,C   2)    124.98 -0.000001   -0.01    124.97   
    73. D(C   4,O   7,O   5,H  16)   -103.50  0.000025   -0.27   -103.77   
    74. D(O   5,O   7,C   4,H  15)    -49.46  0.000016   -0.05    -49.51   
    75. D(O   5,O   7,C   4,O   6)     88.86 -0.000003   -0.03     88.82   
    76. D(O   5,O   7,C   4,C   3)    153.45  0.000004   -0.04    153.42   
    ----------------------------------------------------------------------------

Geometry step timings:
Preparation and reading OPT file:      0.000 s ( 0.869 %)
Internal coordinates            :      0.000 s ( 1.110 %)
B/P matrices and projection     :      0.001 s (35.232 %)
Hessian update/contruction      :      0.000 s (13.562 %)
Making the step                 :      0.001 s (28.185 %)
Converting the step to Cartesian:      0.000 s ( 2.413 %)
Storing new data                :      0.000 s ( 1.014 %)
Checking convergence            :      0.000 s ( 1.448 %)
Final printing                  :      0.000 s (16.120 %)
Total time                      :      0.002 s

Time for energy+gradient        :      0.044 s
Time for complete geometry iter :      0.047 s

         *************************************************************
         *                GEOMETRY OPTIMIZATION CYCLE  17            *
         *************************************************************
---------------------------------
CARTESIAN COORDINATES (ANGSTROEM)
---------------------------------
  C    -2.190831   -0.441378   -1.081618
  C    -1.823848   -0.708050    0.372056
  C    -0.383871   -1.209115    0.499798
  C     0.582693   -0.175057    0.067351
  C     1.946820    0.137122    0.437244
  O     3.850255    1.308991   -0.098533
  O     0.843761    1.016801    0.687630
  O     2.801926    0.473981   -0.571917
  H    -3.205581   -0.058743   -1.155595
  H    -1.509078    0.291413   -1.506434
  H    -2.121836   -1.354780   -1.668225
  H    -1.929248    0.211026    0.950827
  H    -2.498265   -1.455715    0.793941
  H    -0.181803   -1.484260    1.546225
  H    -0.235143   -2.097790   -0.116918
  H     2.420873   -0.241331    1.341759
  H     3.610651    2.196833   -0.405389

----------------------------
CARTESIAN COORDINATES (A.U.)
----------------------------
  NO LB    ZA    FRAG    MASS        X           Y           Z
   0 C   6.0000    1    12.011   -4.140071   -0.834083   -2.043963
   1 C   6.0000    1    12.011   -3.446573   -1.338021    0.703085
   2 C   6.0000    1    12.011   -0.725411   -2.284896    0.944481
   3 C   6.0000    1    12.011    1.101130   -0.330810    0.127275
   4 C   6.0000    1    12.011    3.678957    0.259123    0.826270
   5 O   8.0000    1    15.999    7.275927    2.473635   -0.186200
   6 O   8.0000    1    15.999    1.594477    1.921476    1.299432
   7 O   8.0000    1    15.999    5.294872    0.895694   -1.080767
   8 H   1.0000    1     1.008   -6.057670   -0.111009   -2.183759
   9 H   1.0000    1     1.008   -2.851745    0.550690   -2.846749
  10 H   1.0000    1     1.008   -4.009689   -2.560162   -3.152489
  11 H   1.0000    1     1.008   -3.645750    0.398781    1.796802
  12 H   1.0000    1     1.008   -4.721036   -2.750903    1.500331
  13 H   1.0000    1     1.008   -0.343559   -2.804844    2.921941
  14 H   1.0000    1     1.008   -0.444356   -3.964248   -0.220944
  15 H   1.0000    1     1.008    4.574788   -0.456050    2.535558
  16 H   1.0000    1     1.008    6.823142    4.151413   -0.766074

      -----------------------------------------------------------      
     |                   =====================                   |     
     |                           x T B                           |     
     |                   =====================                   |     
     |                         S. Grimme                         |     
     |          Mulliken Center for Theoretical Chemistry        |     
     |                    University of Bonn                     |     
      -----------------------------------------------------------      

   * xtb version 6.7.1 (edcfbbe) compiled by 'albert@albert-system' on 2024-07-22

   xtb is free software: you can redistribute it and/or modify it under
   the terms of the GNU Lesser General Public License as published by
   the Free Software Foundation, either version 3 of the License, or
   (at your option) any later version.
   
   xtb is distributed in the hope that it will be useful,
   but WITHOUT ANY WARRANTY; without even the implied warranty of
   MERCHANTABILITY or FITNESS FOR A PARTICULAR PURPOSE.  See the
   GNU Lesser General Public License for more details.
   
   Cite this work as:
   * C. Bannwarth, E. Caldeweyher, S. Ehlert, A. Hansen, P. Pracht,
     J. Seibert, S. Spicher, S. Grimme, WIREs Comput. Mol. Sci., 2020, 11,
     e01493. DOI: 10.1002/wcms.1493
   
   for GFN2-xTB:
   * C. Bannwarth, S. Ehlert and S. Grimme., J. Chem. Theory Comput., 2019,
     15, 1652-1671. DOI: 10.1021/acs.jctc.8b01176
   for GFN1-xTB:
   * S. Grimme, C. Bannwarth, P. Shushkov, J. Chem. Theory Comput., 2017,
     13, 1989-2009. DOI: 10.1021/acs.jctc.7b00118
   for GFN0-xTB:
   * P. Pracht, E. Caldeweyher, S. Ehlert, S. Grimme, ChemRxiv, 2019, preprint.
     DOI: 10.26434/chemrxiv.8326202.v1
   for GFN-FF:
   * S. Spicher and S. Grimme, Angew. Chem. Int. Ed., 2020, 59, 15665-15673.
     DOI: 10.1002/anie.202004239
   
   for ALPB and GBSA implicit solvation:
   * S. Ehlert, M. Stahn, S. Spicher, S. Grimme, J. Chem. Theory Comput.,
     2021, 17, 4250-4261. DOI: 10.1021/acs.jctc.1c00471
   
   for ddCOSMO and CPCM-X implicit solvation:
   * M. Stahn, S. Ehlert, S. Grimme, J. Phys. Chem. A,
     2023, XX, XXXX-XXXX. DOI: 10.1021/acs.jpca.3c04382
   
   for DFT-D4:
   * E. Caldeweyher, C. Bannwarth and S. Grimme, J. Chem. Phys., 2017,
     147, 034112. DOI: 10.1063/1.4993215
   * E. Caldeweyher, S. Ehlert, A. Hansen, H. Neugebauer, S. Spicher,
     C. Bannwarth and S. Grimme, J. Chem. Phys., 2019, 150, 154122.
     DOI: 10.1063/1.5090222
   * E. Caldeweyher, J.-M. Mewes, S. Ehlert and S. Grimme, Phys. Chem. Chem. Phys.
     2020, 22, 8499-8512. DOI: 10.1039/D0CP00502A
   
   for sTDA-xTB:
   * S. Grimme and C. Bannwarth, J. Chem. Phys., 2016, 145, 054103.
     DOI: 10.1063/1.4959605
   
   in the mass-spec context:
   * V. Asgeirsson, C. Bauer and S. Grimme, Chem. Sci., 2017, 8, 4879.
     DOI: 10.1039/c7sc00601b
   * J. Koopman and S. Grimme, ACS Omega 2019, 4, 12, 15120-15133.
     DOI: 10.1021/acsomega.9b02011
   
   for metadynamics refer to:
   * S. Grimme, J. Chem. Theory Comput., 2019, 155, 2847-2862
     DOI: 10.1021/acs.jctc.9b00143
   
   for SPH calculations refer to:
   * S. Spicher and S. Grimme, J. Chem. Theory Comput., 2021, 17, 1701-1714
     DOI: 10.1021/acs.jctc.0c01306
   
   for ONIOM refer to:
   * C. Plett, A. Katbashev, S. Ehlert, S. Grimme, M. Bursch,
     Phys. Chem. Chem. Phys., 2023, 25, 17860-17868. DOI: 10.1039/D3CP02178E
   
   for DIPRO refer to:
   * J. Kohn, N. Gildemeister, S. Grimme, D. Fazzi, A. Hansen,
     J. Chem. Phys., 2023, just accepted.
   
   for PTB refer to:
   * S. Grimme, M. Mueller, A. Hansen, J. Chem. Phys., 2023, 158, 124111.
     DOI: 10.1063/5.0137838
   
   with help from (in alphabetical order)
   P. Atkinson, C. Bannwarth, F. Bohle, G. Brandenburg, E. Caldeweyher
   M. Checinski, S. Dohm, S. Ehlert, S. Ehrlich, I. Gerasimov, C. Hölzer
   A. Katbashev, J. Kohn, J. Koopman, C. Lavigne, S. Lehtola, F. März, M. Müller,
   F. Musil, H. Neugebauer, J. Pisarek, C. Plett, P. Pracht, F. Pultar,
   J. Seibert, P. Shushkov, S. Spicher, M. Stahn, M. Steiner, T. Strunk,
   J. Stückrath, T. Rose, and J. Unsleber
   
 * started run on 2026/02/17 at 15:18:00.989     
   ID    Z sym.   atoms
    1    6 C      1-5
    2    8 O      6-8
    3    1 H      9-17

           -------------------------------------------------
          |                Calculation Setup                |
           -------------------------------------------------

          program call               : /apps/eb/ORCA/6.1.1-gompi-2024a-avx2/bin/otool_xtb goat_XTB.xyz --grad -c 0 -u 1 -P 8 --namespace goat --input goat_XTB.input.tmp --acc 0.200000
          hostname                   : d5-8
          calculation namespace      : goat
          coordinate file            : goat_XTB.xyz
          omp threads                :                     8


           -------------------------------------------------
          |                 G F N 2 - x T B                 |
           -------------------------------------------------

        Reference                      10.1021/acs.jctc.8b01176
      * Hamiltonian:
        H0-scaling (s, p, d)           1.850000    2.230000    2.230000
        zeta-weighting                 0.500000
      * Dispersion:
        s8                             2.700000
        a1                             0.520000
        a2                             5.000000
        s9                             5.000000
      * Repulsion:
        kExp                           1.500000    1.000000
        rExp                           1.000000
      * Coulomb:
        alpha                          2.000000
        third order                    shell-resolved
        anisotropic                    true
        a3                             3.000000
        a5                             4.000000
        cn-shift                       1.200000
        cn-exp                         4.000000
        max-rad                        5.000000

q/qsh data taken from xtbrestart
CAMM data taken from xtbrestart

          ...................................................
          :                      SETUP                      :
          :.................................................:
          :  # basis functions                  41          :
          :  # atomic orbitals                  41          :
          :  # shells                           25          :
          :  # electrons                        47          :
          :  max. iterations                   250          :
          :  Hamiltonian                  GFN2-xTB          :
          :  restarted?                       true          :
          :  GBSA solvation                  false          :
          :  PC potential                    false          :
          :  electronic temp.          300.0000000     K    :
          :  accuracy                    0.2000000          :
          :  -> integral cutoff          0.3198970E+02      :
          :  -> integral neglect         0.2000000E-08      :
          :  -> SCF convergence          0.2000000E-06 Eh   :
          :  -> wf. convergence          0.2000000E-04 e    :
          :  Broyden damping             0.4000000          :
          :  net charge                          0          :
          :  unpaired electrons                  1          :
          ...................................................

 iter      E             dE          RMSdq      gap      omega  full diag
   1    -27.5533010 -0.275533E+02  0.378E-03    4.37       0.0  T
   2    -27.5533010 -0.484006E-08  0.235E-03    4.37      10.3  T
   3    -27.5533010 -0.128489E-08  0.300E-04    4.37      80.9  T
   4    -27.5533010 -0.487088E-09  0.134E-04    4.37     181.2  T
   5    -27.5533010 -0.313669E-10  0.572E-05    4.37     424.2  T

   *** convergence criteria satisfied after 5 iterations ***

         #    Occupation            Energy/Eh            Energy/eV
      -------------------------------------------------------------
         1        2.0000           -0.7488213             -20.3765
       ...           ...                  ...                  ...
        18        2.0000           -0.4682675             -12.7422
        19        2.0000           -0.4656630             -12.6713
        20        2.0000           -0.4578388             -12.4584
        21        2.0000           -0.4548661             -12.3775
        22        2.0000           -0.4421765             -12.0322
        23        2.0000           -0.4395446             -11.9606
        24        1.0000           -0.3327350              -9.0542 (HOMO)
        25                         -0.1720771              -4.6825 (LUMO)
        26                         -0.0767073              -2.0873
        27                          0.0504831               1.3737
        28                          0.0747465               2.0340
        29                          0.0980524               2.6681
       ...                                ...                  ...
        41                          0.4166383              11.3373
      -------------------------------------------------------------
                  HL-Gap            0.1606579 Eh            4.3717 eV
             Fermi-level           -0.3192729 Eh           -8.6879 eV

 SCC (total)                   0 d,  0 h,  0 min,  0.010 sec
 SCC setup                      ...        0 min,  0.000 sec (  4.829%)
 Dispersion                     ...        0 min,  0.000 sec (  2.135%)
 classical contributions        ...        0 min,  0.000 sec (  1.233%)
 integral evaluation            ...        0 min,  0.001 sec (  7.712%)
 iterations                     ...        0 min,  0.007 sec ( 67.880%)
 molecular gradient             ...        0 min,  0.001 sec ( 13.277%)
 printout                       ...        0 min,  0.000 sec (  2.755%)

         :::::::::::::::::::::::::::::::::::::::::::::::::::::
         ::                     SUMMARY                     ::
         :::::::::::::::::::::::::::::::::::::::::::::::::::::
         :: total energy             -27.307193571178 Eh    ::
         :: gradient norm              0.000140224188 Eh/a0 ::
         :: HOMO-LUMO gap              4.371725172910 eV    ::
         ::.................................................::
         :: SCC energy               -27.553299877401 Eh    ::
         :: -> isotropic ES            0.042870466094 Eh    ::
         :: -> anisotropic ES         -0.003795393444 Eh    ::
         :: -> anisotropic XC         -0.004671198145 Eh    ::
         :: -> dispersion             -0.009584362428 Eh    ::
         :: repulsion energy           0.246106306222 Eh    ::
         :: add. restraining           0.000000000000 Eh    ::
         :: total charge              -0.000000000000 e     ::
         :::::::::::::::::::::::::::::::::::::::::::::::::::::


Property printout bound to 'properties.out'

           -------------------------------------------------
          | TOTAL ENERGY              -27.307193571178 Eh   |
          | GRADIENT NORM               0.000140224188 Eh/α |
          | HOMO-LUMO GAP               4.371725172910 eV   |
           -------------------------------------------------

------------------------------------------------------------------------
 * finished run on 2026/02/17 at 15:18:01.016     
------------------------------------------------------------------------
 total:
 * wall-time:     0 d,  0 h,  0 min,  0.027 sec
 *  cpu-time:     0 d,  0 h,  0 min,  0.158 sec
 * ratio c/w:     5.872 speedup
 SCF:
 * wall-time:     0 d,  0 h,  0 min,  0.010 sec
 *  cpu-time:     0 d,  0 h,  0 min,  0.062 sec
 * ratio c/w:     6.393 speedup


-------------------------   --------------------
FINAL SINGLE POINT ENERGY       -27.307193571180
-------------------------   --------------------


-------------
DIPOLE MOMENT
-------------
                                X             Y             Z
Total Dipole Moment    :     -0.66600      -0.23100       0.26400
                        -----------------------------------------
Magnitude (a.u.)       :      0.75274
Magnitude (Debye)      :      1.91331


------------------
CARTESIAN GRADIENT
------------------

   1   C   :    0.000002578   -0.000000231    0.000002109
   2   C   :    0.000010918    0.000008617   -0.000009852
   3   C   :   -0.000022289    0.000024422   -0.000007732
   4   C   :    0.000031001   -0.000018540    0.000007914
   5   C   :    0.000039104   -0.000076795   -0.000022579
   6   O   :   -0.000026879   -0.000010454   -0.000015041
   7   O   :   -0.000037568    0.000072811    0.000000385
   8   O   :   -0.000004206    0.000014855    0.000018347
   9   H   :    0.000000685   -0.000000467   -0.000000743
  10   H   :   -0.000001802   -0.000000475    0.000001622
  11   H   :   -0.000002618    0.000001290    0.000001094
  12   H   :   -0.000002431   -0.000004909    0.000005667
  13   H   :    0.000001692   -0.000005085    0.000000036
  14   H   :    0.000000560   -0.000007742    0.000005347
  15   H   :    0.000010245   -0.000006322    0.000004993
  16   H   :   -0.000004614    0.000000771    0.000000056
  17   H   :    0.000005625    0.000008254    0.000008377

Difference to translation invariance:
           :    0.0000000000   -0.0000000000   -0.0000000000

Difference to rotation invariance:
           :    0.0000003297   -0.0000010439    0.0000006367

Norm of the Cartesian gradient     ...    0.0001402242
RMS gradient                       ...    0.0000196353
MAX gradient                       ...    0.0000767949
------------------------------------------------------------------------------
                         ORCA GEOMETRY RELAXATION STEP
------------------------------------------------------------------------------

Reading the OPT-File                    .... done
Getting information on internals        .... done
Copying old internal coords+grads       .... done
Making the new internal coordinates     .... (2022 redundants) done
Validating the new internal coordinates .... (2022 redundants) done
Calculating the B-matrix                .... done
Calculating the G,G- and P matrices     .... done
Transforming gradient to internals      .... done
Projecting the internal gradient        .... done
Number of atoms                         ....  17
Number of internal coordinates          ....  76
Current Energy                          ....   -27.307193571 Eh
Current gradient norm                   ....     0.000140224 Eh/bohr
Maximum allowed component of the step   ....  0.300
Current trust radius                    ....  0.675
Updating the Hessian (BFGS)             .... done
Forming the augmented Hessian           .... done
Diagonalizing the augmented Hessian     .... done
Last element of RFO vector              ....  0.999996103
Lowest eigenvalues of augmented Hessian:
 -0.000000077  0.000887193  0.004711577  0.007941235  0.011359912
Length of the computed step             ....  0.002791757
The final length of the internal step   ....  0.002791757
Converting the step to Cartesian space:
 Initial RMS(Int)=    0.0003202364
Transforming coordinates:
 Iter   0:  RMS(Cart)=    0.0006214111 RMS(Int)=    0.0003202251
done
Storing new coordinates                 .... done
The predicted energy change is          ....    -0.000000038
Previously predicted energy change      ....    -0.000000131
Actually observed energy change         ....    -0.000000171
Ratio of predicted to observed change   ....     1.300443494
New trust radius                        ....     0.675000000

                                .--------------------.
          ----------------------|Geometry convergence|-------------------------
          Item                value                   Tolerance       Converged
          ---------------------------------------------------------------------
          Energy change      -0.0000001710            0.0000050000      YES
          RMS gradient        0.0000099128            0.0001000000      YES
          MAX gradient        0.0000400779            0.0003000000      YES
          RMS step            0.0003202364            0.0020000000      YES
          MAX step            0.0023113094            0.0040000000      YES
          -------------------------------------------------------------------------
          ........................................................
          Max(Bonds)      0.0001      Max(Angles)    0.01
          Max(Dihed)        0.13      Max(Improp)    0.00
          ---------------------------------------------------------------------

                    ***********************HURRAY********************
                    ***        THE OPTIMIZATION HAS CONVERGED     ***
                    *************************************************


    ---------------------------------------------------------------------------
                         Redundant Internal Coordinates

                          --- Optimized Parameters ---  
                            (Angstroem and degrees)

        Definition                    OldVal   dE/dq     Step     FinalVal
    ----------------------------------------------------------------------------
     1. B(C   1,C   0)                1.5228 -0.000004  0.0000    1.5228   
     2. B(C   2,C   1)                1.5300 -0.000009  0.0000    1.5300   
     3. B(C   3,C   2)                1.4800 -0.000004  0.0000    1.4801   
     4. B(C   4,C   3)                1.4475 -0.000017  0.0000    1.4475   
     5. B(O   6,C   4)                1.4329  0.000040 -0.0001    1.4329   
     6. B(O   6,C   3)                1.3687  0.000024 -0.0000    1.3687   
     7. B(O   7,C   4)                1.3649 -0.000021 -0.0000    1.3649   
     8. B(O   7,O   5)                1.4214 -0.000019  0.0001    1.4215   
     9. B(H   8,C   0)                1.0870 -0.000001  0.0000    1.0870   
    10. B(H   9,C   0)                1.0873 -0.000002  0.0000    1.0873   
    11. B(H  10,C   0)                1.0877 -0.000002  0.0000    1.0877   
    12. B(H  11,C   1)                1.0912 -0.000001  0.0000    1.0912   
    13. B(H  12,C   1)                1.0917  0.000002 -0.0000    1.0917   
    14. B(H  13,C   2)                1.1007  0.000007 -0.0000    1.1007   
    15. B(H  14,C   2)                1.0919  0.000004  0.0000    1.0919   
    16. B(H  15,C   4)                1.0891 -0.000002  0.0000    1.0891   
    17. B(H  16,O   5)                0.9695  0.000004 -0.0000    0.9694   
    18. A(H   8,C   0,H   9)          108.75 -0.000000   -0.00    108.75   
    19. A(H   8,C   0,H  10)          108.55 -0.000002    0.00    108.55   
    20. A(C   1,C   0,H   8)          110.58  0.000001   -0.00    110.58   
    21. A(C   1,C   0,H  10)          110.64  0.000001    0.00    110.64   
    22. A(H   9,C   0,H  10)          108.39  0.000001   -0.00    108.39   
    23. A(C   1,C   0,H   9)          109.87 -0.000001    0.00    109.87   
    24. A(C   0,C   1,H  12)          109.87  0.000001   -0.00    109.87   
    25. A(C   0,C   1,C   2)          111.34  0.000007   -0.00    111.34   
    26. A(C   2,C   1,H  12)          108.96 -0.000008    0.00    108.96   
    27. A(H  11,C   1,H  12)          108.19  0.000001   -0.00    108.19   
    28. A(C   0,C   1,H  11)          109.61  0.000001   -0.00    109.60   
    29. A(C   2,C   1,H  11)          108.81 -0.000002    0.00    108.81   
    30. A(C   3,C   2,H  13)          109.42  0.000003   -0.00    109.42   
    31. A(H  13,C   2,H  14)          107.97 -0.000007    0.00    107.97   
    32. A(C   3,C   2,H  14)          108.34 -0.000005    0.00    108.34   
    33. A(C   1,C   2,H  14)          110.34  0.000005   -0.00    110.33   
    34. A(C   1,C   2,H  13)          109.51 -0.000006    0.00    109.52   
    35. A(C   1,C   2,C   3)          111.19  0.000009   -0.00    111.18   
    36. A(C   2,C   3,C   4)          133.75 -0.000008   -0.00    133.74   
    37. A(C   4,C   3,O   6)           61.09  0.000017   -0.00     61.09   
    38. A(C   2,C   3,O   6)          126.91 -0.000006   -0.01    126.90   
    39. A(O   7,C   4,H  15)          115.28  0.000011   -0.01    115.28   
    40. A(O   6,C   4,H  15)          113.78  0.000001    0.00    113.79   
    41. A(C   3,C   4,H  15)          123.20  0.000000    0.00    123.20   
    42. A(C   3,C   4,O   6)           56.74  0.000006   -0.00     56.74   
    43. A(O   6,C   4,O   7)          117.38 -0.000020    0.01    117.40   
    44. A(C   3,C   4,O   7)          117.05 -0.000007   -0.00    117.04   
    45. A(O   7,O   5,H  16)          104.50  0.000021   -0.01    104.49   
    46. A(C   3,O   6,C   4)           62.16 -0.000023    0.00     62.17   
    47. A(C   4,O   7,O   5)          111.15 -0.000013    0.00    111.15   
    48. D(H  11,C   1,C   0,H   9)     62.15  0.000001    0.00     62.15   
    49. D(C   2,C   1,C   0,H  10)     61.35 -0.000000    0.00     61.35   
    50. D(H  11,C   1,C   0,H  10)   -178.21  0.000003    0.00   -178.21   
    51. D(C   2,C   1,C   0,H   9)    -58.29 -0.000002    0.00    -58.29   
    52. D(H  11,C   1,C   0,H   8)    -57.91  0.000001    0.00    -57.91   
    53. D(C   2,C   1,C   0,H   8)   -178.35 -0.000001    0.00   -178.35   
    54. D(C   3,C   2,C   1,C   0)     64.39 -0.000005    0.03     64.42   
    55. D(H  13,C   2,C   1,H  12)    -53.23  0.000001    0.03    -53.20   
    56. D(H  13,C   2,C   1,C   0)   -174.56  0.000001    0.03   -174.53   
    57. D(C   3,C   2,C   1,H  12)   -174.27 -0.000005    0.03   -174.24   
    58. D(H  13,C   2,C   1,H  11)     64.53 -0.000003    0.03     64.56   
    59. D(C   3,C   2,C   1,H  11)    -56.52 -0.000009    0.03    -56.48   
    60. D(C   4,C   3,C   2,H  14)    -87.82  0.000014   -0.02    -87.84   
    61. D(C   4,C   3,C   2,H  13)     29.66  0.000004   -0.01     29.65   
    62. D(C   4,C   3,C   2,C   1)    150.76  0.000005   -0.01    150.75   
    63. D(O   6,C   3,C   2,H  13)    -53.56 -0.000011   -0.00    -53.57   
    64. D(O   6,C   3,C   2,C   1)     67.54 -0.000011   -0.00     67.54   
    65. D(H  15,C   4,C   3,O   6)     98.47  0.000005    0.00     98.47   
    66. D(H  15,C   4,C   3,C   2)    -16.44 -0.000001    0.01    -16.43   
    67. D(O   7,C   4,C   3,O   6)   -106.42  0.000020   -0.02   -106.44   
    68. D(O   7,C   4,C   3,C   2)    138.67  0.000013   -0.01    138.66   
    69. D(O   6,C   4,C   3,C   2)   -114.90 -0.000006    0.01   -114.89   
    70. D(C   3,O   6,C   4,H  15)   -115.24 -0.000000    0.00   -115.24   
    71. D(C   3,O   6,C   4,O   7)    105.82  0.000004   -0.01    105.81   
    72. D(C   4,O   6,C   3,C   2)    124.97 -0.000000   -0.00    124.97   
    73. D(C   4,O   7,O   5,H  16)   -103.77  0.000010   -0.13   -103.90   
    74. D(O   5,O   7,C   4,H  15)    -49.51  0.000005   -0.02    -49.52   
    75. D(O   5,O   7,C   4,O   6)     88.82 -0.000005   -0.00     88.82   
    76. D(O   5,O   7,C   4,C   3)    153.42 -0.000007    0.00    153.42   
    ----------------------------------------------------------------------------

Geometry step timings:
Preparation and reading OPT file:      0.000 s ( 0.801 %)
Internal coordinates            :      0.000 s ( 1.102 %)
B/P matrices and projection     :      0.001 s (35.403 %)
Hessian update/contruction      :      0.000 s (10.766 %)
Making the step                 :      0.001 s (29.644 %)
Converting the step to Cartesian:      0.000 s ( 2.704 %)
Storing new data                :      0.000 s ( 1.052 %)
Checking convergence            :      0.000 s ( 1.652 %)
Final printing                  :      0.000 s (16.825 %)
Total time                      :      0.002 s
                 *******************************************************
                 *** FINAL ENERGY EVALUATION AT THE STATIONARY POINT ***
                 ***               (AFTER   17 CYCLES)               ***
                 *******************************************************
---------------------------------
CARTESIAN COORDINATES (ANGSTROEM)
---------------------------------
  C    -2.191032   -0.441537   -1.081616
  C    -1.823828   -0.708021    0.372047
  C    -0.383852   -1.209152    0.499570
  C     0.582650   -0.174893    0.067434
  C     1.946747    0.137314    0.437593
  O     3.850293    1.309322   -0.097880
  O     0.843601    1.016717    0.688184
  O     2.801969    0.474259   -0.571418
  H    -3.205767   -0.058831   -1.155465
  H    -1.509307    0.291140   -1.506680
  H    -2.122195   -1.355030   -1.668102
  H    -1.929088    0.211168    0.950667
  H    -2.498265   -1.455544    0.794144
  H    -0.181691   -1.484674    1.545865
  H    -0.235232   -2.097590   -0.117514
  H     2.420785   -0.241457    1.341994
  H     3.611685    2.196757   -0.406624

----------------------------
CARTESIAN COORDINATES (A.U.)
----------------------------
  NO LB    ZA    FRAG    MASS        X           Y           Z
   0 C   6.0000    1    12.011   -4.140450   -0.834383   -2.043958
   1 C   6.0000    1    12.011   -3.446536   -1.337966    0.703067
   2 C   6.0000    1    12.011   -0.725375   -2.284966    0.944050
   3 C   6.0000    1    12.011    1.101049   -0.330499    0.127432
   4 C   6.0000    1    12.011    3.678818    0.259486    0.826930
   5 O   8.0000    1    15.999    7.276000    2.474260   -0.184967
   6 O   8.0000    1    15.999    1.594175    1.921317    1.300479
   7 O   8.0000    1    15.999    5.294955    0.896219   -1.079823
   8 H   1.0000    1     1.008   -6.058021   -0.111175   -2.183513
   9 H   1.0000    1     1.008   -2.852177    0.550176   -2.847212
  10 H   1.0000    1     1.008   -4.010367   -2.560637   -3.152255
  11 H   1.0000    1     1.008   -3.645448    0.399049    1.796500
  12 H   1.0000    1     1.008   -4.721037   -2.750579    1.500714
  13 H   1.0000    1     1.008   -0.343346   -2.805628    2.921261
  14 H   1.0000    1     1.008   -0.444524   -3.963870   -0.222069
  15 H   1.0000    1     1.008    4.574620   -0.456288    2.536001
  16 H   1.0000    1     1.008    6.825096    4.151270   -0.768407

      -----------------------------------------------------------      
     |                   =====================                   |     
     |                           x T B                           |     
     |                   =====================                   |     
     |                         S. Grimme                         |     
     |          Mulliken Center for Theoretical Chemistry        |     
     |                    University of Bonn                     |     
      -----------------------------------------------------------      

   * xtb version 6.7.1 (edcfbbe) compiled by 'albert@albert-system' on 2024-07-22

   xtb is free software: you can redistribute it and/or modify it under
   the terms of the GNU Lesser General Public License as published by
   the Free Software Foundation, either version 3 of the License, or
   (at your option) any later version.
   
   xtb is distributed in the hope that it will be useful,
   but WITHOUT ANY WARRANTY; without even the implied warranty of
   MERCHANTABILITY or FITNESS FOR A PARTICULAR PURPOSE.  See the
   GNU Lesser General Public License for more details.
   
   Cite this work as:
   * C. Bannwarth, E. Caldeweyher, S. Ehlert, A. Hansen, P. Pracht,
     J. Seibert, S. Spicher, S. Grimme, WIREs Comput. Mol. Sci., 2020, 11,
     e01493. DOI: 10.1002/wcms.1493
   
   for GFN2-xTB:
   * C. Bannwarth, S. Ehlert and S. Grimme., J. Chem. Theory Comput., 2019,
     15, 1652-1671. DOI: 10.1021/acs.jctc.8b01176
   for GFN1-xTB:
   * S. Grimme, C. Bannwarth, P. Shushkov, J. Chem. Theory Comput., 2017,
     13, 1989-2009. DOI: 10.1021/acs.jctc.7b00118
   for GFN0-xTB:
   * P. Pracht, E. Caldeweyher, S. Ehlert, S. Grimme, ChemRxiv, 2019, preprint.
     DOI: 10.26434/chemrxiv.8326202.v1
   for GFN-FF:
   * S. Spicher and S. Grimme, Angew. Chem. Int. Ed., 2020, 59, 15665-15673.
     DOI: 10.1002/anie.202004239
   
   for ALPB and GBSA implicit solvation:
   * S. Ehlert, M. Stahn, S. Spicher, S. Grimme, J. Chem. Theory Comput.,
     2021, 17, 4250-4261. DOI: 10.1021/acs.jctc.1c00471
   
   for ddCOSMO and CPCM-X implicit solvation:
   * M. Stahn, S. Ehlert, S. Grimme, J. Phys. Chem. A,
     2023, XX, XXXX-XXXX. DOI: 10.1021/acs.jpca.3c04382
   
   for DFT-D4:
   * E. Caldeweyher, C. Bannwarth and S. Grimme, J. Chem. Phys., 2017,
     147, 034112. DOI: 10.1063/1.4993215
   * E. Caldeweyher, S. Ehlert, A. Hansen, H. Neugebauer, S. Spicher,
     C. Bannwarth and S. Grimme, J. Chem. Phys., 2019, 150, 154122.
     DOI: 10.1063/1.5090222
   * E. Caldeweyher, J.-M. Mewes, S. Ehlert and S. Grimme, Phys. Chem. Chem. Phys.
     2020, 22, 8499-8512. DOI: 10.1039/D0CP00502A
   
   for sTDA-xTB:
   * S. Grimme and C. Bannwarth, J. Chem. Phys., 2016, 145, 054103.
     DOI: 10.1063/1.4959605
   
   in the mass-spec context:
   * V. Asgeirsson, C. Bauer and S. Grimme, Chem. Sci., 2017, 8, 4879.
     DOI: 10.1039/c7sc00601b
   * J. Koopman and S. Grimme, ACS Omega 2019, 4, 12, 15120-15133.
     DOI: 10.1021/acsomega.9b02011
   
   for metadynamics refer to:
   * S. Grimme, J. Chem. Theory Comput., 2019, 155, 2847-2862
     DOI: 10.1021/acs.jctc.9b00143
   
   for SPH calculations refer to:
   * S. Spicher and S. Grimme, J. Chem. Theory Comput., 2021, 17, 1701-1714
     DOI: 10.1021/acs.jctc.0c01306
   
   for ONIOM refer to:
   * C. Plett, A. Katbashev, S. Ehlert, S. Grimme, M. Bursch,
     Phys. Chem. Chem. Phys., 2023, 25, 17860-17868. DOI: 10.1039/D3CP02178E
   
   for DIPRO refer to:
   * J. Kohn, N. Gildemeister, S. Grimme, D. Fazzi, A. Hansen,
     J. Chem. Phys., 2023, just accepted.
   
   for PTB refer to:
   * S. Grimme, M. Mueller, A. Hansen, J. Chem. Phys., 2023, 158, 124111.
     DOI: 10.1063/5.0137838
   
   with help from (in alphabetical order)
   P. Atkinson, C. Bannwarth, F. Bohle, G. Brandenburg, E. Caldeweyher
   M. Checinski, S. Dohm, S. Ehlert, S. Ehrlich, I. Gerasimov, C. Hölzer
   A. Katbashev, J. Kohn, J. Koopman, C. Lavigne, S. Lehtola, F. März, M. Müller,
   F. Musil, H. Neugebauer, J. Pisarek, C. Plett, P. Pracht, F. Pultar,
   J. Seibert, P. Shushkov, S. Spicher, M. Stahn, M. Steiner, T. Strunk,
   J. Stückrath, T. Rose, and J. Unsleber
   
 * started run on 2026/02/17 at 15:18:01.031     
   ID    Z sym.   atoms
    1    6 C      1-5
    2    8 O      6-8
    3    1 H      9-17

           -------------------------------------------------
          |                Calculation Setup                |
           -------------------------------------------------

          program call               : /apps/eb/ORCA/6.1.1-gompi-2024a-avx2/bin/otool_xtb goat_XTB.xyz --grad -c 0 -u 1 -P 8 --namespace goat --input goat_XTB.input.tmp --acc 0.200000
          hostname                   : d5-8
          calculation namespace      : goat
          coordinate file            : goat_XTB.xyz
          omp threads                :                     8


           -------------------------------------------------
          |                 G F N 2 - x T B                 |
           -------------------------------------------------

        Reference                      10.1021/acs.jctc.8b01176
      * Hamiltonian:
        H0-scaling (s, p, d)           1.850000    2.230000    2.230000
        zeta-weighting                 0.500000
      * Dispersion:
        s8                             2.700000
        a1                             0.520000
        a2                             5.000000
        s9                             5.000000
      * Repulsion:
        kExp                           1.500000    1.000000
        rExp                           1.000000
      * Coulomb:
        alpha                          2.000000
        third order                    shell-resolved
        anisotropic                    true
        a3                             3.000000
        a5                             4.000000
        cn-shift                       1.200000
        cn-exp                         4.000000
        max-rad                        5.000000

q/qsh data taken from xtbrestart
CAMM data taken from xtbrestart

          ...................................................
          :                      SETUP                      :
          :.................................................:
          :  # basis functions                  41          :
          :  # atomic orbitals                  41          :
          :  # shells                           25          :
          :  # electrons                        47          :
          :  max. iterations                   250          :
          :  Hamiltonian                  GFN2-xTB          :
          :  restarted?                       true          :
          :  GBSA solvation                  false          :
          :  PC potential                    false          :
          :  electronic temp.          300.0000000     K    :
          :  accuracy                    0.2000000          :
          :  -> integral cutoff          0.3198970E+02      :
          :  -> integral neglect         0.2000000E-08      :
          :  -> SCF convergence          0.2000000E-06 Eh   :
          :  -> wf. convergence          0.2000000E-04 e    :
          :  Broyden damping             0.4000000          :
          :  net charge                          0          :
          :  unpaired electrons                  1          :
          ...................................................

 iter      E             dE          RMSdq      gap      omega  full diag
   1    -27.5533005 -0.275533E+02  0.186E-03    4.37       0.0  T
   2    -27.5533005 -0.190655E-08  0.114E-03    4.37      21.2  T
   3    -27.5533005 -0.851728E-10  0.219E-04    4.37     110.7  T
   4    -27.5533005 -0.353342E-09  0.790E-05    4.37     307.1  T
   5    -27.5533005 -0.371188E-10  0.309E-05    4.37     783.7  T

   *** convergence criteria satisfied after 5 iterations ***

         #    Occupation            Energy/Eh            Energy/eV
      -------------------------------------------------------------
         1        2.0000           -0.7488100             -20.3762
       ...           ...                  ...                  ...
        18        2.0000           -0.4682506             -12.7417
        19        2.0000           -0.4656881             -12.6720
        20        2.0000           -0.4578313             -12.4582
        21        2.0000           -0.4548155             -12.3762
        22        2.0000           -0.4421705             -12.0321
        23        2.0000           -0.4395407             -11.9605
        24        1.0000           -0.3327331              -9.0541 (HOMO)
        25                         -0.1721310              -4.6839 (LUMO)
        26                         -0.0766941              -2.0870
        27                          0.0505081               1.3744
        28                          0.0747919               2.0352
        29                          0.0980687               2.6686
       ...                                ...                  ...
        41                          0.4165886              11.3360
      -------------------------------------------------------------
                  HL-Gap            0.1606021 Eh            4.3702 eV
             Fermi-level           -0.3192845 Eh           -8.6882 eV

 SCC (total)                   0 d,  0 h,  0 min,  0.009 sec
 SCC setup                      ...        0 min,  0.000 sec (  1.650%)
 Dispersion                     ...        0 min,  0.000 sec (  1.873%)
 classical contributions        ...        0 min,  0.000 sec (  0.971%)
 integral evaluation            ...        0 min,  0.001 sec (  6.392%)
 iterations                     ...        0 min,  0.006 sec ( 64.634%)
 molecular gradient             ...        0 min,  0.002 sec ( 19.962%)
 printout                       ...        0 min,  0.000 sec (  4.307%)

         :::::::::::::::::::::::::::::::::::::::::::::::::::::
         ::                     SUMMARY                     ::
         :::::::::::::::::::::::::::::::::::::::::::::::::::::
         :: total energy             -27.307193621754 Eh    ::
         :: gradient norm              0.000084283252 Eh/a0 ::
         :: HOMO-LUMO gap              4.370205581873 eV    ::
         ::.................................................::
         :: SCC energy               -27.553299374360 Eh    ::
         :: -> isotropic ES            0.042869325912 Eh    ::
         :: -> anisotropic ES         -0.003800777106 Eh    ::
         :: -> anisotropic XC         -0.004669699384 Eh    ::
         :: -> dispersion             -0.009584137217 Eh    ::
         :: repulsion energy           0.246105752606 Eh    ::
         :: add. restraining           0.000000000000 Eh    ::
         :: total charge              -0.000000000000 e     ::
         :::::::::::::::::::::::::::::::::::::::::::::::::::::


Property printout bound to 'properties.out'

           -------------------------------------------------
          | TOTAL ENERGY              -27.307193621754 Eh   |
          | GRADIENT NORM               0.000084283252 Eh/α |
          | HOMO-LUMO GAP               4.370205581873 eV   |
           -------------------------------------------------

------------------------------------------------------------------------
 * finished run on 2026/02/17 at 15:18:01.059     
------------------------------------------------------------------------
 total:
 * wall-time:     0 d,  0 h,  0 min,  0.027 sec
 *  cpu-time:     0 d,  0 h,  0 min,  0.138 sec
 * ratio c/w:     5.137 speedup
 SCF:
 * wall-time:     0 d,  0 h,  0 min,  0.009 sec
 *  cpu-time:     0 d,  0 h,  0 min,  0.050 sec
 * ratio c/w:     5.785 speedup


-------------------------   --------------------
FINAL SINGLE POINT ENERGY       -27.307193621750
-------------------------   --------------------


-------------
DIPOLE MOMENT
-------------
                                X             Y             Z
Total Dipole Moment    :     -0.66600      -0.23100       0.26300
                        -----------------------------------------
Magnitude (a.u.)       :      0.75239
Magnitude (Debye)      :      1.91242

                                *** OPTIMIZATION RUN DONE ***

		     ------------------------------
			                   _   
			                  | |  
			  __ _  ___   __ _| |_ 
			 / _` |/ _ \ / _` | __|
			| (_| | (_) | (_| | |_ 
			 \__, |\___/ \__,_|\__|
			 __/ |                
			|___/                 

		      A Global Optimizer Algorithm
		     ------------------------------

Global parameters
-----------------
  GOAT version                               ... default
  Minimum global steps                       ... 3
  Number of base workers                     ... 4
  Split workers by                           ... 2
  Final number of workers                    ... 8
  Number of available CPUs                   ... 8
  Parameter list (worker : temperature)      ...  0 : 2903.97,  1 : 1451.98, 
                                                  2 :  725.99,  3 :  363.00, 
                                                  4 : 2903.97,  5 : 1451.98, 
                                                  6 :  725.99,  7 :  363.00 
  GradComp (mean : sigma)                    ... 1.00 : 0.50
  Number of fragments                        ... 1
  Number of atoms                            ... 17
  Flexibility parameter                      ... 0.81
  Optimizations per global step              ... 224
  Optimizations per worker                   ... 28

Filtering criteria
------------------
  RMSD                                       ... 0.125 Angs (atom. pos.)
  EnDiff                                     ... 0.100 kcal/mol
  RotConst                                   ... 1.00-2.50 %
  Maximum Conf. Energy                       ... 6.000 kcal/mol

Thermodynamics
--------------
  Ensemble temperature                       ... 298.15 K
  Degeneracy of conformers                   ... 1
  *No rotamers will be included in Gconf

------------------------------------------------------------------------------
   Iter  MinTemp     MaxEn       GradComp    NOpt   NProcs    Output
------------------------------------------------------------------------------
List of participating nodes    ...  goat.goat.0.hostnames

   3      363.00     51.00    1.00 : 0.50      28        1    goat.goat.0.3.out
   7      363.00     51.00    1.00 : 0.50      28        1    goat.goat.0.7.out
   5     1451.98     51.00    1.00 : 0.50      28        1    goat.goat.0.5.out
   1     1451.98     51.00    1.00 : 0.50      28        1    goat.goat.0.1.out
   6      725.99     51.00    1.00 : 0.50      28        1    goat.goat.0.6.out
   2      725.99     51.00    1.00 : 0.50      28        1    goat.goat.0.2.out
   4     2903.97     51.00    1.00 : 0.50      28        1    goat.goat.0.4.out
   0     2903.97     51.00    1.00 : 0.50      28        1    goat.goat.0.0.out

			     GOAT Global Iter 1
		Iter    Min En       Sconf       Gconf   
		        Hartree      cal/(molK)  kcal/mol
		=========================================

		   1    -27.309988   5.556       -0.757

List of participating nodes    ...  goat.goat.1.hostnames

   5     1451.98     51.00    1.00 : 0.50      28        1    goat.goat.1.5.out
   1     1451.98     51.00    1.00 : 0.50      28        1    goat.goat.1.1.out
   2      725.99     51.00    1.00 : 0.50      28        1    goat.goat.1.2.out
   0     2903.97     51.00    1.00 : 0.50      28        1    goat.goat.1.0.out
   4     2903.97     51.00    1.00 : 0.50      28        1    goat.goat.1.4.out
   3      363.00     51.00    1.00 : 0.50      28        1    goat.goat.1.3.out
   7      363.00     51.00    1.00 : 0.50      28        1    goat.goat.1.7.out
   6      725.99     51.00    1.00 : 0.50      28        1    goat.goat.1.6.out

			     GOAT Global Iter 2
		Iter    Min En       Sconf       Gconf   
		        Hartree      cal/(molK)  kcal/mol
		=========================================

		   1    -27.309988   5.556       -0.757
		   2    -27.310697   5.687       -0.861

List of participating nodes    ...  goat.goat.2.hostnames

   5     1451.98     51.00    1.00 : 0.50      28        1    goat.goat.2.5.out
   2      725.99     51.00    1.00 : 0.50      28        1    goat.goat.2.2.out
   1     1451.98     51.00    1.00 : 0.50      28        1    goat.goat.2.1.out
   4     2903.97     51.00    1.00 : 0.50      28        1    goat.goat.2.4.out
   0     2903.97     51.00    1.00 : 0.50      28        1    goat.goat.2.0.out
   3      363.00     51.00    1.00 : 0.50      28        1    goat.goat.2.3.out
   6      725.99     51.00    1.00 : 0.50      28        1    goat.goat.2.6.out
   7      363.00     51.00    1.00 : 0.50      28        1    goat.goat.2.7.out

			     GOAT Global Iter 3
		Iter    Min En       Sconf       Gconf   
		        Hartree      cal/(molK)  kcal/mol
		=========================================

		   1    -27.309988   5.556       -0.757
		   2    -27.310697   5.687       -0.861
		   3    -27.310697   5.914       -0.886

		Global minimum found!
		Writing structure to goat.globalminimum.xyz

		# Final ensemble info #
		Conformer     Energy     Degen.   % total   % cumul.  
		              (kcal/mol)
		------------------------------------------------------
		        0     0.000	     1      22.42      22.42
		        1     0.317	     1      13.13      35.55
		        2     0.445	     1      10.58      46.13
		        3     0.838	     1       5.45      51.58
		        4     0.848	     1       5.36      56.94
		        5     1.060	     1       3.75      60.69
		        6     1.063	     1       3.73      64.41
		        7     1.244	     1       2.75      67.16
		        8     1.356	     1       2.28      69.43
		        9     1.372	     1       2.21      71.65
		       10     1.410	     1       2.08      73.73
		       11     1.442	     1       1.96      75.69
		       12     1.540	     1       1.67      77.36
		       13     1.550	     1       1.64      79.00
		       14     1.566	     1       1.60      80.59
		       15     1.599	     1       1.51      82.10
		       16     1.639	     1       1.41      83.51
		       17     1.684	     1       1.31      84.82
		       18     1.729	     1       1.21      86.03
		       19     1.797	     1       1.08      87.11
		       20     1.829	     1       1.02      88.13
		       21     1.838	     1       1.01      89.14
		       22     1.878	     1       0.94      90.08
		       23     1.912	     1       0.89      90.97
		       24     1.919	     1       0.88      91.85
		       25     1.997	     1       0.77      92.62
		       26     2.111	     1       0.64      93.25
		       27     2.111	     1       0.64      93.89
		       28     2.112	     1       0.63      94.52
		       29     2.145	     1       0.60      95.13
		       30     2.145	     1       0.60      95.73
		       31     2.199	     1       0.55      96.27
		       32     2.298	     1       0.46      96.74
		       33     2.373	     1       0.41      97.15
		       34     2.415	     1       0.38      97.53
		       35     2.567	     1       0.29      97.82
		       36     2.585	     1       0.29      98.11
		       37     2.585	     1       0.29      98.39
		       38     2.591	     1       0.28      98.67
		       39     2.710	     1       0.23      98.91
		       40     2.763	     1       0.21      99.12
		       41     2.792	     1       0.20      99.32
		       42     2.890	     1       0.17      99.49
		       43     2.902	     1       0.17      99.66
		       44     2.988	     1       0.14      99.80
		       45     3.051	     1       0.13      99.93
		       46     3.435	     1       0.07     100.00

		Conformers below 3 kcal/mol: 45
		Lowest energy conformer    : -27.310697 Eh
		Sconf at 298.15 K          :  5.91 cal/(molK)
		Gconf at 298.15 K          : -0.89 kcal/mol

		Writing final ensemble to goat.finalensemble.xyz

--------------------------------
SUGGESTED CITATIONS FOR THIS RUN
--------------------------------

Below you find a list of papers that are relevant to this ORCA run
We neither can nor want to force you to cite these papers, but we appreciate if you do
You receive ORCA, which is the product of decades of hard work by many enthusiastic individuals, for free
The only thing we kindly ask in return is that you cite our papers,
We deeply appreciate it, if you show your appreciation for ORCA by not just citing the generic ORCA reference.

Please note that relegating all ORCA citations to the supporting information does *not* help us.
SI sections are not indexed - citations you put there will not count into any citation statistics
But we need these citations in order to attract the funding resources that allow us to do what we are doing

Therefore, if you are a happy ORCA user, please consider citing a few of the papers listed below in the main body of your paper

In addition to the list printed below, the program has created the file goat.bibtex that contains the list in bibtex format
You can import this file easily into all common literature databanks and citation aid programs

It goes without saying that in many instances, there are alternative algorithms to achieve similar
results as the ones you have gotten from ORCA. It is, of course, also the case that in some instances
ORCA just re-implements algorithms worked out by others. We are fully aware of that and we are also
fully appreciative of our colleagues work. Hence this citation list should not be read as indicating
that the listed papers, which are focused on our own work, are the only ones worth citing. It simply
meant to make it easier for users to cite ORCA specific papers. It is not a substitute for doing your
own literature research and citing the relevant literature in a scientifically appropriate manner.

List of essential papers. We consider these as the minimum necessary citations

  1. Bannwarth, C.; Ehlert, S.; Grimme, S.
     GFN2-xTB—An Accurate and Broadly Parametrized Self-Consistent Tight-Binding Quantum Chemical Method with Multipole Electrostatics and Density-Dependent Dispersion Contributions
     J. Chem. Theory Comput. 2019 15(3), 1652-1671
     doi.org/10.1021/acs.jctc.8b01176
  2. Neese, F.
     Software update: the ORCA program system, version 6.0
     WIRES Comput. Molec. Sci. 2025 15(1), e70019
     doi.org/10.1002/wcms.70019
  3. de Souza, B.
     GOAT: A Global Optimization Algorithm for Molecules and Atomic Clusters
     Angewandte Chemie 2025 64(18), e202500393
     doi.org/10.1002/anie.202500393

List of papers to cite with high priority. The work reported in these papers was absolutely
necessary for this run to complete.
Our perspective: the developers of density functionals and basis sets usually get cited in chemistry papers
Good! But without the algorithms to do something with them, the functionals or basis sets would not do anything.
Hence, in our opinion, the algorithm design and method developments papers are equally worthy of getting cited

  1. Bannwarth, C.; Caldeweyher, E.; Ehlert, S.; Hansen, A.; Pracht, P.; Seibert, J.; Spicher, S.; Grimme, S.
     Extended tight-binding quantum chemistry methods
     WIRES Comput. Molec. Sci. 2020 11(2), e1493
     doi.org/10.1002/wcms.1493

List of suggested additional citations. These are papers that are important in the 'surrounding' of 
of this run, or papers that preceded the highly important papers. If you like your results we are grateful for a citation.

  1. Neese, F.
     The ORCA program system
     WIRES Comput. Molec. Sci. 2012 2(1), 73-78
     doi.org/10.1002/wcms.81
  2. Neese, F.
     Software update: the ORCA program system, version 4.0
     WIRES Comput. Molec. Sci. 2018 8(1), 1-6
     doi.org/10.1002/wcms.1327
  3. Neese, F.; Wennmohs, F.; Becker, U.; Riplinger, C.
     The ORCA quantum chemistry program package
     J. Chem. Phys. 2020 152(22), 224108
     doi.org/10.1063/5.0004608
  4. Neese, F.
     Software update: The ORCA program system—Version 5.0
     WIRES Comput. Molec. Sci. 2022 12(1), e1606
     doi.org/10.1002/wcms.1606

List of optional additional citations

  1. Neese, F.
     Approximate second-order SCF convergence for spin unrestricted wavefunctions
     Chem. Phys. Lett. 2000 325(1-3), 93-98
     doi.org/10.1016/s0009-2614(00)00662-x

Timings for individual modules:

Sum of individual times          ...      148.309 sec (=   2.472 min)
Geometry relaxation              ...        0.046 sec (=   0.001 min)   0.0 %
GOAT                             ...      147.567 sec (=   2.459 min)  99.5 %
XTB module                       ...        0.696 sec (=   0.012 min)   0.5 %
                             ****ORCA TERMINATED NORMALLY****
TOTAL RUN TIME: 0 days 0 hours 2 minutes 30 seconds 44 msec
