7
Coordinates from ORCA-job freq E -79.136644337076
  C          -0.61516997058665     -0.04135651776713      0.07703854339234
  C           0.84370194635278      0.07186810341550     -0.17098528593761
  H          -1.06747377852074     -0.82421187379697     -0.53225785763657
  H          -1.13266940167184      0.89540804949004     -0.13130965771877
  H          -0.83234727178869     -0.29342888946023      1.12318315304982
  H           1.43614860305406     -0.80258768440713     -0.39201665542817
  H           1.36781087316108      0.99430781252593      0.02634676027896
