17
Coordinates from ORCA-job freq E -421.354548264150
  C          -2.50517672121629      0.09482009870805     -0.54223948262261
  C          -1.17731970017077     -0.55379428317653     -0.17450485300424
  C          -0.29316379322055      0.38389324362278      0.64575761562770
  C           2.21867444748918     -0.08194985124910      0.24388386086611
  C           1.00031837952539     -0.27255232830312      1.01241847035053
  O           3.34141395699449     -0.28786495035691     -1.38540066198317
  O           2.12007407430698      0.60728195370741      1.39410102076894
  O           3.26391832478990     -0.88841918333322     -0.05505731299655
  H           2.35020768579303      0.41940474485000     -0.96791680378089
  H          -3.06250700402698      0.37384596725167      0.35286667021491
  H          -2.34556060592220      0.99934507622015     -1.13034391936239
  H          -3.12659694292209     -0.58086304073694     -1.12800996161902
  H          -0.64130029758130     -0.84870366456671     -1.07964485626522
  H          -1.35807027056272     -1.47051825935014      0.39210592772554
  H          -0.07856740930334      1.29343741136201      0.08095080904465
  H          -0.81351348523412      0.68355778420170      1.55903062811677
  H           0.94934736126136     -1.15574771885110      1.64194784891892
