11
Coordinates from ORCA-job freq E -231.176967072253
  C           2.06011873170232      0.00264113607999      0.37646251505043
  C           0.87526254965930      0.36023447008666     -0.06403461342315
  O           0.30108040089261      0.82032677420474     -1.19263655548205
  C          -0.54369629930170      0.58126439167721     -0.02140685610887
  C          -1.53521777616124     -0.53507631861783     -0.14290214924923
  H           2.92544383771215      0.05090289605606     -0.26746743799341
  H           2.17156066204624     -0.34140448163630      1.39201868084709
  H          -0.89797294491912      1.50447614550915      0.42512781871420
  H          -1.07528736145027     -1.39540385431821     -0.62470035979274
  H          -2.39815830831599     -0.21660988705151     -0.72711315533725
  H          -1.88313249186430     -0.83135127198999      0.84665411277497
