17
Coordinates from ORCA-job freq E -421.407249356968
  C          -2.86047130894281     -0.34019797916209      0.62322200547946
  C          -1.53630612191663     -1.09551339854764      0.65574716840800
  C           2.12825443072983     -0.40920117781063     -0.74196083842584
  C           0.68116039494782     -0.69421155266116     -0.61004375292281
  C          -0.39155675425906     -0.22236281248749      0.23551346769143
  O           3.76821497595009      1.10319525563541     -0.25503275492259
  O           2.37448170880940      0.85824329813911     -0.14306098018603
  O          -0.28818482550165      0.04595072500422     -1.19932889283049
  H          -3.68662947574013     -0.98344703098789      0.92229552010835
  H          -2.83863927272138      0.51576033299286      1.29886379551250
  H          -3.06217942525867      0.02917617603123     -0.38198090298507
  H          -1.33077343747619     -1.46213343820439      1.66426879179740
  H          -1.56939513527127     -1.96319916905940     -0.00422771728482
  H           2.40466012775028     -0.38355737831031     -1.79936234246766
  H           2.71732388986688     -1.17264058649508     -0.23178449825168
  H          -0.22882421622715      0.67757372473103      0.82340710445035
  H           3.79119744526065      1.79222501119226     -0.92928317317049
