15
* (null), Energy   -1000.0000000
C     2.041440    0.054562    1.280139    0.531882   -0.121226   -0.341978
C    -1.941338   -0.034221   -2.104766    0.006684    0.001903    0.000030
C    -1.231309   -0.401833   -0.809453   -0.004396   -0.006803    0.008226
C     0.149980    0.245313   -0.712772    0.021568   -0.123695    0.053899
C     0.810445   -0.031675    0.580744    0.045832    0.249161    0.475917
O     0.345415    0.124026    1.777507   -0.504335    0.032232   -0.150507
H     2.335294    0.985190    1.748904   -0.352492   -0.438289    0.732194
H     2.684779   -0.805878    1.433576    0.913966    0.101428   -1.066430
H    -2.921742   -0.504745   -2.166369    0.008442    0.000213    0.010371
H    -2.082291    1.045104   -2.178852    0.002447    0.002092    0.003721
H    -1.361558   -0.353238   -2.972413   -0.001814    0.001708   -0.004169
H    -1.825123   -0.086995    0.050286    0.021828    0.002818    0.014896
H    -1.121976   -1.485238   -0.731424   -0.051923   -0.013088   -0.009769
H     0.045169    1.333430   -0.831175    0.210945   -0.118169    0.290863
H     0.800001   -0.096090   -1.520795    0.085309   -0.042450    0.080580
15
* Frequency(6) -1205.8809
C     2.101886    0.040786    1.241275    0.531882   -0.121226   -0.341978
C    -1.940579   -0.034005   -2.104763    0.006684    0.001903    0.000030
C    -1.231809   -0.402606   -0.808518   -0.004396   -0.006803    0.008226
C     0.152431    0.231256   -0.706646    0.021568   -0.123695    0.053899
C     0.815654   -0.003359    0.634829    0.045832    0.249161    0.475917
O     0.288100    0.127690    1.760403   -0.504335    0.032232   -0.150507
H     2.295235    0.935381    1.832114   -0.352492   -0.438289    0.732194
H     2.788646   -0.794351    1.312382    0.913966    0.101428   -1.066430
H    -2.920783   -0.504721   -2.165190    0.008442    0.000213    0.010371
H    -2.082013    1.045342   -2.178429    0.002447    0.002092    0.003721
H    -1.361765   -0.353044   -2.972887   -0.001814    0.001708   -0.004169
H    -1.822642   -0.086674    0.051979    0.021828    0.002818    0.014896
H    -1.127876   -1.486725   -0.732534   -0.051923   -0.013088   -0.009769
H     0.069142    1.320001   -0.798120    0.210945   -0.118169    0.290863
H     0.809696   -0.100914   -1.511637    0.085309   -0.042450    0.080580
15
* Frequency(6) -1205.8809
C     2.155781    0.028502    1.206622    0.531882   -0.121226   -0.341978
C    -1.939901   -0.033812   -2.104760    0.006684    0.001903    0.000030
C    -1.232254   -0.403296   -0.807684   -0.004396   -0.006803    0.008226
C     0.154616    0.218722   -0.701185    0.021568   -0.123695    0.053899
C     0.820298    0.021889    0.683054    0.045832    0.249161    0.475917
O     0.236996    0.130956    1.745152   -0.504335    0.032232   -0.150507
H     2.259517    0.890969    1.906307   -0.352492   -0.438289    0.732194
H     2.881258   -0.784074    1.204321    0.913966    0.101428   -1.066430
H    -2.919927   -0.504699   -2.164140    0.008442    0.000213    0.010371
H    -2.081765    1.045554   -2.178052    0.002447    0.002092    0.003721
H    -1.361948   -0.352871   -2.973310   -0.001814    0.001708   -0.004169
H    -1.820430   -0.086389    0.053488    0.021828    0.002818    0.014896
H    -1.133138   -1.488051   -0.733524   -0.051923   -0.013088   -0.009769
H     0.090517    1.308027   -0.768647    0.210945   -0.118169    0.290863
H     0.818340   -0.105216   -1.503472    0.085309   -0.042450    0.080580
15
* Frequency(6) -1205.8809
C     2.197286    0.019042    1.179936    0.531882   -0.121226   -0.341978
C    -1.939380   -0.033664   -2.104757    0.006684    0.001903    0.000030
C    -1.232597   -0.403826   -0.807043   -0.004396   -0.006803    0.008226
C     0.156299    0.209069   -0.696979    0.021568   -0.123695    0.053899
C     0.823875    0.041332    0.720191    0.045832    0.249161    0.475917
O     0.197640    0.133471    1.733407   -0.504335    0.032232   -0.150507
H     2.232010    0.856768    1.963443   -0.352492   -0.438289    0.732194
H     2.952578   -0.776159    1.121103    0.913966    0.101428   -1.066430
H    -2.919268   -0.504683   -2.163330    0.008442    0.000213    0.010371
H    -2.081574    1.045717   -2.177762    0.002447    0.002092    0.003721
H    -1.362090   -0.352737   -2.973635   -0.001814    0.001708   -0.004169
H    -1.818727   -0.086169    0.054650    0.021828    0.002818    0.014896
H    -1.137189   -1.489073   -0.734286   -0.051923   -0.013088   -0.009769
H     0.106978    1.298806   -0.745950    0.210945   -0.118169    0.290863
H     0.824997   -0.108528   -1.497184    0.085309   -0.042450    0.080580
15
* Frequency(6) -1205.8809
C     2.221902    0.013431    1.164109    0.531882   -0.121226   -0.341978
C    -1.939070   -0.033576   -2.104756    0.006684    0.001903    0.000030
C    -1.232801   -0.404141   -0.806662   -0.004396   -0.006803    0.008226
C     0.157298    0.203345   -0.694484    0.021568   -0.123695    0.053899
C     0.825996    0.052863    0.742218    0.045832    0.249161    0.475917
O     0.174299    0.134963    1.726441   -0.504335    0.032232   -0.150507
H     2.215696    0.836483    1.997330   -0.352492   -0.438289    0.732194
H     2.994878   -0.771465    1.071747    0.913966    0.101428   -1.066430
H    -2.918878   -0.504673   -2.162850    0.008442    0.000213    0.010371
H    -2.081461    1.045814   -2.177589    0.002447    0.002092    0.003721
H    -1.362174   -0.352658   -2.973828   -0.001814    0.001708   -0.004169
H    -1.817717   -0.086038    0.055340    0.021828    0.002818    0.014896
H    -1.139592   -1.489678   -0.734738   -0.051923   -0.013088   -0.009769
H     0.116741    1.293337   -0.732488    0.210945   -0.118169    0.290863
H     0.828946   -0.110493   -1.493455    0.085309   -0.042450    0.080580
15
* Frequency(6) -1205.8809
C     2.226963    0.012278    1.160855    0.531882   -0.121226   -0.341978
C    -1.939007   -0.033558   -2.104756    0.006684    0.001903    0.000030
C    -1.232843   -0.404206   -0.806584   -0.004396   -0.006803    0.008226
C     0.157503    0.202168   -0.693971    0.021568   -0.123695    0.053899
C     0.826432    0.055234    0.746746    0.045832    0.249161    0.475917
O     0.169500    0.135269    1.725009   -0.504335    0.032232   -0.150507
H     2.212343    0.832313    2.004297   -0.352492   -0.438289    0.732194
H     3.003574   -0.770500    1.061601    0.913966    0.101428   -1.066430
H    -2.918797   -0.504671   -2.162752    0.008442    0.000213    0.010371
H    -2.081438    1.045834   -2.177554    0.002447    0.002092    0.003721
H    -1.362191   -0.352642   -2.973867   -0.001814    0.001708   -0.004169
H    -1.817509   -0.086012    0.055482    0.021828    0.002818    0.014896
H    -1.140086   -1.489803   -0.734831   -0.051923   -0.013088   -0.009769
H     0.118748    1.292213   -0.729721    0.210945   -0.118169    0.290863
H     0.829757   -0.110897   -1.492688    0.085309   -0.042450    0.080580
15
* Frequency(6) -1205.8809
C     2.211919    0.015707    1.170528    0.531882   -0.121226   -0.341978
C    -1.939196   -0.033611   -2.104757    0.006684    0.001903    0.000030
C    -1.232718   -0.404014   -0.806816   -0.004396   -0.006803    0.008226
C     0.156893    0.205666   -0.695496    0.021568   -0.123695    0.053899
C     0.825136    0.048187    0.733285    0.045832    0.249161    0.475917
O     0.183765    0.134358    1.729266   -0.504335    0.032232   -0.150507
H     2.222313    0.844710    1.983587   -0.352492   -0.438289    0.732194
H     2.977724   -0.773368    1.091763    0.913966    0.101428   -1.066430
H    -2.919036   -0.504677   -2.163045    0.008442    0.000213    0.010371
H    -2.081507    1.045775   -2.177659    0.002447    0.002092    0.003721
H    -1.362140   -0.352690   -2.973749   -0.001814    0.001708   -0.004169
H    -1.818126   -0.086091    0.055060    0.021828    0.002818    0.014896
H    -1.138618   -1.489433   -0.734555   -0.051923   -0.013088   -0.009769
H     0.112781    1.295555   -0.737948    0.210945   -0.118169    0.290863
H     0.827344   -0.109696   -1.494967    0.085309   -0.042450    0.080580
15
* Frequency(6) -1205.8809
C     2.178402    0.023346    1.192078    0.531882   -0.121226   -0.341978
C    -1.939617   -0.033731   -2.104759    0.006684    0.001903    0.000030
C    -1.232441   -0.403585   -0.807335   -0.004396   -0.006803    0.008226
C     0.155534    0.213461   -0.698892    0.021568   -0.123695    0.053899
C     0.822247    0.032485    0.703294    0.045832    0.249161    0.475917
O     0.215547    0.132326    1.738751   -0.504335    0.032232   -0.150507
H     2.244526    0.872329    1.937447   -0.352492   -0.438289    0.732194
H     2.920128   -0.779760    1.158967    0.913966    0.101428   -1.066430
H    -2.919568   -0.504690   -2.163699    0.008442    0.000213    0.010371
H    -2.081661    1.045643   -2.177894    0.002447    0.002092    0.003721
H    -1.362026   -0.352798   -2.973487   -0.001814    0.001708   -0.004169
H    -1.819502   -0.086269    0.054122    0.021828    0.002818    0.014896
H    -1.135346   -1.488608   -0.733939   -0.051923   -0.013088   -0.009769
H     0.099488    1.303001   -0.756277    0.210945   -0.118169    0.290863
H     0.821968   -0.107021   -1.500045    0.085309   -0.042450    0.080580
15
* Frequency(6) -1205.8809
C     2.130042    0.034368    1.223171    0.531882   -0.121226   -0.341978
C    -1.940225   -0.033904   -2.104761    0.006684    0.001903    0.000030
C    -1.232042   -0.402966   -0.808083   -0.004396   -0.006803    0.008226
C     0.153573    0.224708   -0.703793    0.021568   -0.123695    0.053899
C     0.818080    0.009831    0.660023    0.045832    0.249161    0.475917
O     0.261402    0.129396    1.752435   -0.504335    0.032232   -0.150507
H     2.276575    0.912179    1.870874   -0.352492   -0.438289    0.732194
H     2.837029   -0.788982    1.255929    0.913966    0.101428   -1.066430
H    -2.920336   -0.504710   -2.164641    0.008442    0.000213    0.010371
H    -2.081884    1.045453   -2.178232    0.002447    0.002092    0.003721
H    -1.361861   -0.352953   -2.973108   -0.001814    0.001708   -0.004169
H    -1.821487   -0.086525    0.052767    0.021828    0.002818    0.014896
H    -1.130625   -1.487418   -0.733051   -0.051923   -0.013088   -0.009769
H     0.080309    1.313746   -0.782723    0.210945   -0.118169    0.290863
H     0.814212   -0.103161   -1.507372    0.085309   -0.042450    0.080580
15
* Frequency(6) -1205.8809
C     2.072081    0.047579    1.260438    0.531882   -0.121226   -0.341978
C    -1.940953   -0.034112   -2.104764    0.006684    0.001903    0.000030
C    -1.231563   -0.402225   -0.808979   -0.004396   -0.006803    0.008226
C     0.151222    0.238187   -0.709667    0.021568   -0.123695    0.053899
C     0.813086   -0.017321    0.608161    0.045832    0.249161    0.475917
O     0.316361    0.125883    1.768836   -0.504335    0.032232   -0.150507
H     2.314987    0.959941    1.791084   -0.352492   -0.438289    0.732194
H     2.737431   -0.800035    1.372141    0.913966    0.101428   -1.066430
H    -2.921256   -0.504733   -2.165772    0.008442    0.000213    0.010371
H    -2.082150    1.045225   -2.178637    0.002447    0.002092    0.003721
H    -1.361663   -0.353140   -2.972653   -0.001814    0.001708   -0.004169
H    -1.823865   -0.086832    0.051144    0.021828    0.002818    0.014896
H    -1.124967   -1.485992   -0.731986   -0.051923   -0.013088   -0.009769
H     0.057321    1.326623   -0.814419    0.210945   -0.118169    0.290863
H     0.804916   -0.098535   -1.516153    0.085309   -0.042450    0.080580
15
* Frequency(6) -1205.8809
C     2.010800    0.061546    1.299839    0.531882   -0.121226   -0.341978
C    -1.941723   -0.034331   -2.104768    0.006684    0.001903    0.000030
C    -1.231056   -0.401441   -0.809927   -0.004396   -0.006803    0.008226
C     0.148737    0.252439   -0.715877    0.021568   -0.123695    0.053899
C     0.807805   -0.046028    0.553327    0.045832    0.249161    0.475917
O     0.374468    0.122170    1.786177   -0.504335    0.032232   -0.150507
H     2.355600    1.010439    1.706724   -0.352492   -0.438289    0.732194
H     2.632127   -0.811721    1.495011    0.913966    0.101428   -1.066430
H    -2.922229   -0.504757   -2.166966    0.008442    0.000213    0.010371
H    -2.082432    1.044984   -2.179066    0.002447    0.002092    0.003721
H    -1.361454   -0.353336   -2.972173   -0.001814    0.001708   -0.004169
H    -1.826380   -0.087157    0.049428    0.021828    0.002818    0.014896
H    -1.118984   -1.484484   -0.730861   -0.051923   -0.013088   -0.009769
H     0.033017    1.340238   -0.847931    0.210945   -0.118169    0.290863
H     0.795087   -0.093644   -1.525437    0.085309   -0.042450    0.080580
15
* Frequency(6) -1205.8809
C     1.952839    0.074756    1.337106    0.531882   -0.121226   -0.341978
C    -1.942452   -0.034538   -2.104771    0.006684    0.001903    0.000030
C    -1.230577   -0.400700   -0.810823   -0.004396   -0.006803    0.008226
C     0.146387    0.265918   -0.721750    0.021568   -0.123695    0.053899
C     0.802810   -0.073180    0.501465    0.045832    0.249161    0.475917
O     0.429428    0.118657    1.802578   -0.504335    0.032232   -0.150507
H     2.394012    1.058201    1.626934   -0.352492   -0.438289    0.732194
H     2.532529   -0.822774    1.611224    0.913966    0.101428   -1.066430
H    -2.923148   -0.504781   -2.168097    0.008442    0.000213    0.010371
H    -2.082699    1.044756   -2.179471    0.002447    0.002092    0.003721
H    -1.361256   -0.353523   -2.971719   -0.001814    0.001708   -0.004169
H    -1.828759   -0.087464    0.047804    0.021828    0.002818    0.014896
H    -1.113326   -1.483058   -0.729796   -0.051923   -0.013088   -0.009769
H     0.010029    1.353115   -0.879628    0.210945   -0.118169    0.290863
H     0.785790   -0.089018   -1.534218    0.085309   -0.042450    0.080580
15
* Frequency(6) -1205.8809
C     1.904479    0.085778    1.368199    0.531882   -0.121226   -0.341978
C    -1.943059   -0.034711   -2.104774    0.006684    0.001903    0.000030
C    -1.230177   -0.400081   -0.811571   -0.004396   -0.006803    0.008226
C     0.144426    0.277165   -0.726651    0.021568   -0.123695    0.053899
C     0.798643   -0.095835    0.458194    0.045832    0.249161    0.475917
O     0.475283    0.115727    1.816263   -0.504335    0.032232   -0.150507
H     2.426061    1.098051    1.560362   -0.352492   -0.438289    0.732194
H     2.449430   -0.831996    1.708185    0.913966    0.101428   -1.066430
H    -2.923916   -0.504800   -2.169039    0.008442    0.000213    0.010371
H    -2.082921    1.044565   -2.179810    0.002447    0.002092    0.003721
H    -1.361091   -0.353678   -2.971340   -0.001814    0.001708   -0.004169
H    -1.830744   -0.087720    0.046450    0.021828    0.002818    0.014896
H    -1.108605   -1.481868   -0.728908   -0.051923   -0.013088   -0.009769
H    -0.009150    1.363859   -0.906074    0.210945   -0.118169    0.290863
H     0.778034   -0.085159   -1.541544    0.085309   -0.042450    0.080580
15
* Frequency(6) -1205.8809
C     1.870961    0.093418    1.389750    0.531882   -0.121226   -0.341978
C    -1.943480   -0.034831   -2.104776    0.006684    0.001903    0.000030
C    -1.229900   -0.399652   -0.812089   -0.004396   -0.006803    0.008226
C     0.143067    0.284960   -0.730048    0.021568   -0.123695    0.053899
C     0.795755   -0.111536    0.428203    0.045832    0.249161    0.475917
O     0.507065    0.113695    1.825747   -0.504335    0.032232   -0.150507
H     2.448274    1.125671    1.514221   -0.352492   -0.438289    0.732194
H     2.391834   -0.838388    1.775389    0.913966    0.101428   -1.066430
H    -2.924448   -0.504813   -2.169693    0.008442    0.000213    0.010371
H    -2.083076    1.044433   -2.180044    0.002447    0.002092    0.003721
H    -1.360977   -0.353786   -2.971077   -0.001814    0.001708   -0.004169
H    -1.832119   -0.087898    0.045511    0.021828    0.002818    0.014896
H    -1.105333   -1.481043   -0.728292   -0.051923   -0.013088   -0.009769
H    -0.022443    1.371306   -0.924403    0.210945   -0.118169    0.290863
H     0.772658   -0.082484   -1.546622    0.085309   -0.042450    0.080580
15
* Frequency(6) -1205.8809
C     1.855917    0.096846    1.399422    0.531882   -0.121226   -0.341978
C    -1.943669   -0.034885   -2.104776    0.006684    0.001903    0.000030
C    -1.229776   -0.399460   -0.812322   -0.004396   -0.006803    0.008226
C     0.142457    0.288458   -0.731572    0.021568   -0.123695    0.053899
C     0.794459   -0.118583    0.414742    0.045832    0.249161    0.475917
O     0.521329    0.112784    1.830004   -0.504335    0.032232   -0.150507
H     2.458244    1.138067    1.493511   -0.352492   -0.438289    0.732194
H     2.365983   -0.841257    1.805552    0.913966    0.101428   -1.066430
H    -2.924687   -0.504819   -2.169986    0.008442    0.000213    0.010371
H    -2.083145    1.044374   -2.180149    0.002447    0.002092    0.003721
H    -1.360926   -0.353834   -2.970959   -0.001814    0.001708   -0.004169
H    -1.832737   -0.087977    0.045090    0.021828    0.002818    0.014896
H    -1.103865   -1.480673   -0.728016   -0.051923   -0.013088   -0.009769
H    -0.028410    1.374648   -0.932630    0.210945   -0.118169    0.290863
H     0.770245   -0.081283   -1.548901    0.085309   -0.042450    0.080580
15
* Frequency(6) -1205.8809
C     1.860978    0.095693    1.396168    0.531882   -0.121226   -0.341978
C    -1.943606   -0.034867   -2.104776    0.006684    0.001903    0.000030
C    -1.229818   -0.399525   -0.812244   -0.004396   -0.006803    0.008226
C     0.142662    0.287281   -0.731059    0.021568   -0.123695    0.053899
C     0.794895   -0.116213    0.419270    0.045832    0.249161    0.475917
O     0.516531    0.113090    1.828572   -0.504335    0.032232   -0.150507
H     2.454891    1.133897    1.500478   -0.352492   -0.438289    0.732194
H     2.374679   -0.840292    1.795405    0.913966    0.101428   -1.066430
H    -2.924607   -0.504817   -2.169888    0.008442    0.000213    0.010371
H    -2.083122    1.044394   -2.180114    0.002447    0.002092    0.003721
H    -1.360943   -0.353818   -2.970999   -0.001814    0.001708   -0.004169
H    -1.832529   -0.087951    0.045232    0.021828    0.002818    0.014896
H    -1.104359   -1.480797   -0.728109   -0.051923   -0.013088   -0.009769
H    -0.026403    1.373524   -0.929862    0.210945   -0.118169    0.290863
H     0.771057   -0.081687   -1.548134    0.085309   -0.042450    0.080580
15
* Frequency(6) -1205.8809
C     1.885594    0.090082    1.380341    0.531882   -0.121226   -0.341978
C    -1.943297   -0.034779   -2.104775    0.006684    0.001903    0.000030
C    -1.230021   -0.399840   -0.811863   -0.004396   -0.006803    0.008226
C     0.143660    0.281556   -0.728565    0.021568   -0.123695    0.053899
C     0.797016   -0.104681    0.441296    0.045832    0.249161    0.475917
O     0.493189    0.114582    1.821607   -0.504335    0.032232   -0.150507
H     2.438577    1.113612    1.534365   -0.352492   -0.438289    0.732194
H     2.416979   -0.835598    1.746049    0.913966    0.101428   -1.066430
H    -2.924216   -0.504807   -2.169408    0.008442    0.000213    0.010371
H    -2.083008    1.044491   -2.179942    0.002447    0.002092    0.003721
H    -1.361027   -0.353739   -2.971192   -0.001814    0.001708   -0.004169
H    -1.831519   -0.087820    0.045921    0.021828    0.002818    0.014896
H    -1.106762   -1.481403   -0.728561   -0.051923   -0.013088   -0.009769
H    -0.016640    1.368055   -0.916401    0.210945   -0.118169    0.290863
H     0.775005   -0.083651   -1.544405    0.085309   -0.042450    0.080580
15
* Frequency(6) -1205.8809
C     1.927099    0.080623    1.353655    0.531882   -0.121226   -0.341978
C    -1.942775   -0.034631   -2.104773    0.006684    0.001903    0.000030
C    -1.230364   -0.400370   -0.811221   -0.004396   -0.006803    0.008226
C     0.145343    0.271904   -0.724359    0.021568   -0.123695    0.053899
C     0.800593   -0.085238    0.478434    0.045832    0.249161    0.475917
O     0.453834    0.117097    1.809862   -0.504335    0.032232   -0.150507
H     2.411070    1.079411    1.591501   -0.352492   -0.438289    0.732194
H     2.488300   -0.827683    1.662831    0.913966    0.101428   -1.066430
H    -2.923557   -0.504791   -2.168598    0.008442    0.000213    0.010371
H    -2.082817    1.044654   -2.179652    0.002447    0.002092    0.003721
H    -1.361168   -0.353605   -2.971517   -0.001814    0.001708   -0.004169
H    -1.829815   -0.087600    0.047084    0.021828    0.002818    0.014896
H    -1.110814   -1.482424   -0.729323   -0.051923   -0.013088   -0.009769
H    -0.000179    1.358833   -0.893704    0.210945   -0.118169    0.290863
H     0.781662   -0.086964   -1.538117    0.085309   -0.042450    0.080580
15
* Frequency(6) -1205.8809
C     1.980995    0.068339    1.319003    0.531882   -0.121226   -0.341978
C    -1.942098   -0.034438   -2.104770    0.006684    0.001903    0.000030
C    -1.230810   -0.401060   -0.810388   -0.004396   -0.006803    0.008226
C     0.147529    0.259370   -0.718897    0.021568   -0.123695    0.053899
C     0.805237   -0.059991    0.526658    0.045832    0.249161    0.475917
O     0.402730    0.120363    1.794611   -0.504335    0.032232   -0.150507
H     2.375352    1.034999    1.665694   -0.352492   -0.438289    0.732194
H     2.580911   -0.817405    1.554770    0.913966    0.101428   -1.066430
H    -2.922702   -0.504769   -2.167548    0.008442    0.000213    0.010371
H    -2.082569    1.044866   -2.179275    0.002447    0.002092    0.003721
H    -1.361352   -0.353432   -2.971940   -0.001814    0.001708   -0.004169
H    -1.827603   -0.087315    0.048593    0.021828    0.002818    0.014896
H    -1.116075   -1.483751   -0.730313   -0.051923   -0.013088   -0.009769
H     0.021196    1.346860   -0.864231    0.210945   -0.118169    0.290863
H     0.790306   -0.091266   -1.529952    0.085309   -0.042450    0.080580
15
* Frequency(6) -1205.8809
C     2.041440    0.054562    1.280139    0.531882   -0.121226   -0.341978
C    -1.941338   -0.034221   -2.104766    0.006684    0.001903    0.000030
C    -1.231309   -0.401833   -0.809453   -0.004396   -0.006803    0.008226
C     0.149980    0.245313   -0.712772    0.021568   -0.123695    0.053899
C     0.810445   -0.031675    0.580744    0.045832    0.249161    0.475917
O     0.345415    0.124026    1.777507   -0.504335    0.032232   -0.150507
H     2.335294    0.985190    1.748904   -0.352492   -0.438289    0.732194
H     2.684779   -0.805878    1.433576    0.913966    0.101428   -1.066430
H    -2.921742   -0.504745   -2.166369    0.008442    0.000213    0.010371
H    -2.082291    1.045104   -2.178852    0.002447    0.002092    0.003721
H    -1.361558   -0.353238   -2.972413   -0.001814    0.001708   -0.004169
H    -1.825123   -0.086995    0.050286    0.021828    0.002818    0.014896
H    -1.121976   -1.485238   -0.731424   -0.051923   -0.013088   -0.009769
H     0.045169    1.333430   -0.831175    0.210945   -0.118169    0.290863
H     0.800001   -0.096090   -1.520795    0.085309   -0.042450    0.080580
