15
* (null), Energy   -1000.0000000
C     1.226341   -1.105613    0.239917   -0.132635   -0.016904    0.041478
C    -1.265458   -0.615653    0.853460   -0.118258    0.063534    0.015170
C    -1.232483    0.593194   -0.049904    0.011725   -0.017737   -0.000005
C     1.352659    0.351351   -0.030829    0.015697    0.011220   -0.009331
C     0.150985    1.193286   -0.156788    0.008586   -0.001886   -0.001010
O     0.939362    1.215609    1.020277   -0.000891    0.000676    0.000606
H    -0.070362   -1.165093    0.614894    1.855933   -0.350054   -0.459031
H     1.791429   -1.459714    1.097785    0.198080    0.052597   -0.122461
H     1.335195   -1.740122   -0.635305    0.162365    0.062334   -0.002083
H    -1.210077   -0.391634    1.913785    0.208853   -0.096932    0.015087
H    -2.015367   -1.363330    0.616099    0.134552   -0.144594   -0.047977
H    -1.919905    1.367058    0.307428    0.013008   -0.000683    0.023095
H    -1.558767    0.331391   -1.059063   -0.008128   -0.002353    0.003267
H     2.250694    0.690657   -0.543035    0.013808    0.011834    0.020333
H     0.225754    2.098611   -0.751928   -0.003824    0.001636    0.008444
15
* Frequency(6) -1552.7595
C     1.211267   -1.107534    0.244631   -0.132635   -0.016904    0.041478
C    -1.278898   -0.608432    0.855184   -0.118258    0.063534    0.015170
C    -1.231151    0.591178   -0.049904    0.011725   -0.017737   -0.000005
C     1.354443    0.352626   -0.031890    0.015697    0.011220   -0.009331
C     0.151960    1.193071   -0.156902    0.008586   -0.001886   -0.001010
O     0.939261    1.215686    1.020346   -0.000891    0.000676    0.000606
H     0.140555   -1.204875    0.562727    1.855933   -0.350054   -0.459031
H     1.813940   -1.453737    1.083868    0.198080    0.052597   -0.122461
H     1.353647   -1.733038   -0.635542    0.162365    0.062334   -0.002083
H    -1.186342   -0.402650    1.915499    0.208853   -0.096932    0.015087
H    -2.000076   -1.379762    0.610647    0.134552   -0.144594   -0.047977
H    -1.918427    1.366981    0.310053    0.013008   -0.000683    0.023095
H    -1.559691    0.331123   -1.058692   -0.008128   -0.002353    0.003267
H     2.252264    0.692002   -0.540724    0.013808    0.011834    0.020333
H     0.225320    2.098797   -0.750968   -0.003824    0.001636    0.008444
15
* Frequency(6) -1552.7595
C     1.197827   -1.109247    0.248834   -0.132635   -0.016904    0.041478
C    -1.290881   -0.601994    0.856721   -0.118258    0.063534    0.015170
C    -1.229963    0.589381   -0.049905    0.011725   -0.017737   -0.000005
C     1.356034    0.353763   -0.032835    0.015697    0.011220   -0.009331
C     0.152830    1.192880   -0.157005    0.008586   -0.001886   -0.001010
O     0.939171    1.215754    1.020407   -0.000891    0.000676    0.000606
H     0.328616   -1.240345    0.516214    1.855933   -0.350054   -0.459031
H     1.834011   -1.448407    1.071459    0.198080    0.052597   -0.122461
H     1.370099   -1.726722   -0.635753    0.162365    0.062334   -0.002083
H    -1.165179   -0.412472    1.917028    0.208853   -0.096932    0.015087
H    -1.986442   -1.394414    0.605785    0.134552   -0.144594   -0.047977
H    -1.917109    1.366911    0.312393    0.013008   -0.000683    0.023095
H    -1.560514    0.330885   -1.058361   -0.008128   -0.002353    0.003267
H     2.253663    0.693201   -0.538664    0.013808    0.011834    0.020333
H     0.224932    2.098963   -0.750112   -0.003824    0.001636    0.008444
15
* Frequency(6) -1552.7595
C     1.187477   -1.110566    0.252071   -0.132635   -0.016904    0.041478
C    -1.300109   -0.597037    0.857905   -0.118258    0.063534    0.015170
C    -1.229048    0.587997   -0.049905    0.011725   -0.017737   -0.000005
C     1.357259    0.354638   -0.033563    0.015697    0.011220   -0.009331
C     0.153500    1.192733   -0.157084    0.008586   -0.001886   -0.001010
O     0.939101    1.215807    1.020455   -0.000891    0.000676    0.000606
H     0.473441   -1.267661    0.480394    1.855933   -0.350054   -0.459031
H     1.849468   -1.444303    1.061903    0.198080    0.052597   -0.122461
H     1.382769   -1.721858   -0.635915    0.162365    0.062334   -0.002083
H    -1.148881   -0.420036    1.918205    0.208853   -0.096932    0.015087
H    -1.975943   -1.405697    0.602041    0.134552   -0.144594   -0.047977
H    -1.916094    1.366858    0.314195    0.013008   -0.000683    0.023095
H    -1.561148    0.330701   -1.058106   -0.008128   -0.002353    0.003267
H     2.254740    0.694124   -0.537077    0.013808    0.011834    0.020333
H     0.224634    2.099090   -0.749453   -0.003824    0.001636    0.008444
15
* Frequency(6) -1552.7595
C     1.181339   -1.111348    0.253991   -0.132635   -0.016904    0.041478
C    -1.305582   -0.594096    0.858607   -0.118258    0.063534    0.015170
C    -1.228505    0.587176   -0.049905    0.011725   -0.017737   -0.000005
C     1.357985    0.355158   -0.033995    0.015697    0.011220   -0.009331
C     0.153898    1.192646   -0.157130    0.008586   -0.001886   -0.001010
O     0.939060    1.215838    1.020483   -0.000891    0.000676    0.000606
H     0.559337   -1.283863    0.459149    1.855933   -0.350054   -0.459031
H     1.858636   -1.441869    1.056235    0.198080    0.052597   -0.122461
H     1.390284   -1.718973   -0.636012    0.162365    0.062334   -0.002083
H    -1.139215   -0.424522    1.918904    0.208853   -0.096932    0.015087
H    -1.969715   -1.412389    0.599821    0.134552   -0.144594   -0.047977
H    -1.915492    1.366826    0.315264    0.013008   -0.000683    0.023095
H    -1.561525    0.330593   -1.057954   -0.008128   -0.002353    0.003267
H     2.255379    0.694672   -0.536136    0.013808    0.011834    0.020333
H     0.224457    2.099166   -0.749063   -0.003824    0.001636    0.008444
15
* Frequency(6) -1552.7595
C     1.180077   -1.111509    0.254385   -0.132635   -0.016904    0.041478
C    -1.306707   -0.593492    0.858751   -0.118258    0.063534    0.015170
C    -1.228394    0.587007   -0.049905    0.011725   -0.017737   -0.000005
C     1.358134    0.355264   -0.034084    0.015697    0.011220   -0.009331
C     0.153979    1.192628   -0.157140    0.008586   -0.001886   -0.001010
O     0.939052    1.215844    1.020488   -0.000891    0.000676    0.000606
H     0.576996   -1.287193    0.454782    1.855933   -0.350054   -0.459031
H     1.860520   -1.441368    1.055070    0.198080    0.052597   -0.122461
H     1.391829   -1.718380   -0.636031    0.162365    0.062334   -0.002083
H    -1.137228   -0.425444    1.919047    0.208853   -0.096932    0.015087
H    -1.968435   -1.413765    0.599364    0.134552   -0.144594   -0.047977
H    -1.915368    1.366820    0.315484    0.013008   -0.000683    0.023095
H    -1.561602    0.330570   -1.057923   -0.008128   -0.002353    0.003267
H     2.255511    0.694785   -0.535942    0.013808    0.011834    0.020333
H     0.224421    2.099182   -0.748982   -0.003824    0.001636    0.008444
15
* Frequency(6) -1552.7595
C     1.183828   -1.111031    0.253212   -0.132635   -0.016904    0.041478
C    -1.303363   -0.595289    0.858322   -0.118258    0.063534    0.015170
C    -1.228725    0.587509   -0.049905    0.011725   -0.017737   -0.000005
C     1.357690    0.354947   -0.033820    0.015697    0.011220   -0.009331
C     0.153737    1.192681   -0.157111    0.008586   -0.001886   -0.001010
O     0.939077    1.215825    1.020471   -0.000891    0.000676    0.000606
H     0.524503   -1.277292    0.467765    1.855933   -0.350054   -0.459031
H     1.854918   -1.442856    1.058533    0.198080    0.052597   -0.122461
H     1.387236   -1.720143   -0.635973    0.162365    0.062334   -0.002083
H    -1.143135   -0.422703    1.918620    0.208853   -0.096932    0.015087
H    -1.972241   -1.409675    0.600721    0.134552   -0.144594   -0.047977
H    -1.915736    1.366839    0.314831    0.013008   -0.000683    0.023095
H    -1.561372    0.330637   -1.058016   -0.008128   -0.002353    0.003267
H     2.255120    0.694450   -0.536518    0.013808    0.011834    0.020333
H     0.224529    2.099135   -0.749221   -0.003824    0.001636    0.008444
15
* Frequency(6) -1552.7595
C     1.192187   -1.109966    0.250598   -0.132635   -0.016904    0.041478
C    -1.295910   -0.599292    0.857366   -0.118258    0.063534    0.015170
C    -1.229464    0.588627   -0.049905    0.011725   -0.017737   -0.000005
C     1.356701    0.354240   -0.033232    0.015697    0.011220   -0.009331
C     0.153195    1.192800   -0.157048    0.008586   -0.001886   -0.001010
O     0.939133    1.215783    1.020433   -0.000891    0.000676    0.000606
H     0.407547   -1.255233    0.496692    1.855933   -0.350054   -0.459031
H     1.842435   -1.446170    1.066250    0.198080    0.052597   -0.122461
H     1.377004   -1.724071   -0.635841    0.162365    0.062334   -0.002083
H    -1.156297   -0.416594    1.917670    0.208853   -0.096932    0.015087
H    -1.980720   -1.400563    0.603745    0.134552   -0.144594   -0.047977
H    -1.916556    1.366882    0.313375    0.013008   -0.000683    0.023095
H    -1.560860    0.330785   -1.058222   -0.008128   -0.002353    0.003267
H     2.254250    0.693704   -0.537799    0.013808    0.011834    0.020333
H     0.224770    2.099032   -0.749753   -0.003824    0.001636    0.008444
15
* Frequency(6) -1552.7595
C     1.204246   -1.108429    0.246827   -0.132635   -0.016904    0.041478
C    -1.285158   -0.605069    0.855987   -0.118258    0.063534    0.015170
C    -1.230530    0.590239   -0.049904    0.011725   -0.017737   -0.000005
C     1.355274    0.353220   -0.032384    0.015697    0.011220   -0.009331
C     0.152415    1.192971   -0.156956    0.008586   -0.001886   -0.001010
O     0.939214    1.215721    1.020378   -0.000891    0.000676    0.000606
H     0.238802   -1.223405    0.538428    1.855933   -0.350054   -0.459031
H     1.824426   -1.450953    1.077385    0.198080    0.052597   -0.122461
H     1.362242   -1.729738   -0.635652    0.162365    0.062334   -0.002083
H    -1.175286   -0.407781    1.916298    0.208853   -0.096932    0.015087
H    -1.992954   -1.387416    0.608107    0.134552   -0.144594   -0.047977
H    -1.917738    1.366944    0.311276    0.013008   -0.000683    0.023095
H    -1.560121    0.330999   -1.058519   -0.008128   -0.002353    0.003267
H     2.252994    0.692628   -0.539648    0.013808    0.011834    0.020333
H     0.225117    2.098884   -0.750521   -0.003824    0.001636    0.008444
15
* Frequency(6) -1552.7595
C     1.218700   -1.106586    0.242307   -0.132635   -0.016904    0.041478
C    -1.272271   -0.611992    0.854334   -0.118258    0.063534    0.015170
C    -1.231808    0.592172   -0.049904    0.011725   -0.017737   -0.000005
C     1.353564    0.351997   -0.031367    0.015697    0.011220   -0.009331
C     0.151479    1.193177   -0.156846    0.008586   -0.001886   -0.001010
O     0.939311    1.215648    1.020312   -0.000891    0.000676    0.000606
H     0.036554   -1.185259    0.588450    1.855933   -0.350054   -0.459031
H     1.802840   -1.456684    1.090730    0.198080    0.052597   -0.122461
H     1.344548   -1.736531   -0.635425    0.162365    0.062334   -0.002083
H    -1.198045   -0.397218    1.914654    0.208853   -0.096932    0.015087
H    -2.007616   -1.371659    0.613335    0.134552   -0.144594   -0.047977
H    -1.919156    1.367019    0.308759    0.013008   -0.000683    0.023095
H    -1.559235    0.331255   -1.058875   -0.008128   -0.002353    0.003267
H     2.251490    0.691339   -0.541863    0.013808    0.011834    0.020333
H     0.225534    2.098705   -0.751441   -0.003824    0.001636    0.008444
15
* Frequency(6) -1552.7595
C     1.233981   -1.104639    0.237528   -0.132635   -0.016904    0.041478
C    -1.258646   -0.619313    0.852586   -0.118258    0.063534    0.015170
C    -1.233159    0.594216   -0.049903    0.011725   -0.017737   -0.000005
C     1.351755    0.350705   -0.030292    0.015697    0.011220   -0.009331
C     0.150490    1.193394   -0.156729    0.008586   -0.001886   -0.001010
O     0.939414    1.215570    1.020242   -0.000891    0.000676    0.000606
H    -0.177279   -1.144927    0.641338    1.855933   -0.350054   -0.459031
H     1.780018   -1.462744    1.104839    0.198080    0.052597   -0.122461
H     1.325841   -1.743713   -0.635185    0.162365    0.062334   -0.002083
H    -1.222109   -0.386050    1.912915    0.208853   -0.096932    0.015087
H    -2.023119   -1.355000    0.618863    0.134552   -0.144594   -0.047977
H    -1.920655    1.367097    0.306098    0.013008   -0.000683    0.023095
H    -1.558299    0.331526   -1.059251   -0.008128   -0.002353    0.003267
H     2.249899    0.689975   -0.544206    0.013808    0.011834    0.020333
H     0.225974    2.098517   -0.752414   -0.003824    0.001636    0.008444
15
* Frequency(6) -1552.7595
C     1.248435   -1.102797    0.233008   -0.132635   -0.016904    0.041478
C    -1.245759   -0.626236    0.850933   -0.118258    0.063534    0.015170
C    -1.234436    0.596149   -0.049903    0.011725   -0.017737   -0.000005
C     1.350044    0.349482   -0.029275    0.015697    0.011220   -0.009331
C     0.149554    1.193600   -0.156619    0.008586   -0.001886   -0.001010
O     0.939511    1.215496    1.020176   -0.000891    0.000676    0.000606
H    -0.379527   -1.106780    0.691360    1.855933   -0.350054   -0.459031
H     1.758433   -1.468476    1.118184    0.198080    0.052597   -0.122461
H     1.308148   -1.750506   -0.634958    0.162365    0.062334   -0.002083
H    -1.244868   -0.375487    1.911271    0.208853   -0.096932    0.015087
H    -2.037781   -1.339243    0.624091    0.134552   -0.144594   -0.047977
H    -1.922072    1.367172    0.303581    0.013008   -0.000683    0.023095
H    -1.557413    0.331783   -1.059607   -0.008128   -0.002353    0.003267
H     2.248394    0.688686   -0.546422    0.013808    0.011834    0.020333
H     0.226391    2.098339   -0.753334   -0.003824    0.001636    0.008444
15
* Frequency(6) -1552.7595
C     1.260495   -1.101260    0.229237   -0.132635   -0.016904    0.041478
C    -1.235006   -0.632013    0.849553   -0.118258    0.063534    0.015170
C    -1.235502    0.597761   -0.049902    0.011725   -0.017737   -0.000005
C     1.348617    0.348462   -0.028426    0.015697    0.011220   -0.009331
C     0.148774    1.193771   -0.156527    0.008586   -0.001886   -0.001010
O     0.939592    1.215435    1.020121   -0.000891    0.000676    0.000606
H    -0.548271   -1.074953    0.733096    1.855933   -0.350054   -0.459031
H     1.740423   -1.473258    1.129319    0.198080    0.052597   -0.122461
H     1.293385   -1.756173   -0.634769    0.162365    0.062334   -0.002083
H    -1.263857   -0.366674    1.909900    0.208853   -0.096932    0.015087
H    -2.050015   -1.326096    0.628454    0.134552   -0.144594   -0.047977
H    -1.923255    1.367234    0.301481    0.013008   -0.000683    0.023095
H    -1.556674    0.331997   -1.059904   -0.008128   -0.002353    0.003267
H     2.247139    0.687610   -0.548271    0.013808    0.011834    0.020333
H     0.226739    2.098190   -0.754102   -0.003824    0.001636    0.008444
15
* Frequency(6) -1552.7595
C     1.268853   -1.100195    0.226623   -0.132635   -0.016904    0.041478
C    -1.227554   -0.636017    0.848597   -0.118258    0.063534    0.015170
C    -1.236241    0.598879   -0.049902    0.011725   -0.017737   -0.000005
C     1.347628    0.347755   -0.027838    0.015697    0.011220   -0.009331
C     0.148233    1.193890   -0.156464    0.008586   -0.001886   -0.001010
O     0.939648    1.215392    1.020083   -0.000891    0.000676    0.000606
H    -0.665227   -1.052893    0.762022    1.855933   -0.350054   -0.459031
H     1.727940   -1.476573    1.137036    0.198080    0.052597   -0.122461
H     1.283154   -1.760101   -0.634637    0.162365    0.062334   -0.002083
H    -1.277018   -0.360566    1.908949    0.208853   -0.096932    0.015087
H    -2.058494   -1.316984    0.631477    0.134552   -0.144594   -0.047977
H    -1.924075    1.367277    0.300026    0.013008   -0.000683    0.023095
H    -1.556162    0.332145   -1.060110   -0.008128   -0.002353    0.003267
H     2.246269    0.686864   -0.549552    0.013808    0.011834    0.020333
H     0.226980    2.098087   -0.754634   -0.003824    0.001636    0.008444
15
* Frequency(6) -1552.7595
C     1.272604   -1.099716    0.225449   -0.132635   -0.016904    0.041478
C    -1.224209   -0.637814    0.848168   -0.118258    0.063534    0.015170
C    -1.236573    0.599381   -0.049902    0.011725   -0.017737   -0.000005
C     1.347184    0.347437   -0.027574    0.015697    0.011220   -0.009331
C     0.147990    1.193943   -0.156435    0.008586   -0.001886   -0.001010
O     0.939673    1.215373    1.020066   -0.000891    0.000676    0.000606
H    -0.717720   -1.042992    0.775006    1.855933   -0.350054   -0.459031
H     1.722338   -1.478061    1.140500    0.198080    0.052597   -0.122461
H     1.278561   -1.761864   -0.634579    0.162365    0.062334   -0.002083
H    -1.282926   -0.357824    1.908522    0.208853   -0.096932    0.015087
H    -2.062300   -1.312895    0.632834    0.134552   -0.144594   -0.047977
H    -1.924443    1.367296    0.299373    0.013008   -0.000683    0.023095
H    -1.555932    0.332212   -1.060203   -0.008128   -0.002353    0.003267
H     2.245878    0.686529   -0.550127    0.013808    0.011834    0.020333
H     0.227088    2.098041   -0.754873   -0.003824    0.001636    0.008444
15
* Frequency(6) -1552.7595
C     1.271342   -1.099877    0.225844   -0.132635   -0.016904    0.041478
C    -1.225334   -0.637209    0.848313   -0.118258    0.063534    0.015170
C    -1.236461    0.599212   -0.049902    0.011725   -0.017737   -0.000005
C     1.347333    0.347544   -0.027663    0.015697    0.011220   -0.009331
C     0.148071    1.193926   -0.156445    0.008586   -0.001886   -0.001010
O     0.939665    1.215380    1.020072   -0.000891    0.000676    0.000606
H    -0.700062   -1.046323    0.770638    1.855933   -0.350054   -0.459031
H     1.724223   -1.477560    1.139334    0.198080    0.052597   -0.122461
H     1.280106   -1.761271   -0.634598    0.162365    0.062334   -0.002083
H    -1.280939   -0.358746    1.908666    0.208853   -0.096932    0.015087
H    -2.061019   -1.314270    0.632377    0.134552   -0.144594   -0.047977
H    -1.924319    1.367290    0.299593    0.013008   -0.000683    0.023095
H    -1.556009    0.332189   -1.060172   -0.008128   -0.002353    0.003267
H     2.246009    0.686642   -0.549934    0.013808    0.011834    0.020333
H     0.227051    2.098056   -0.754793   -0.003824    0.001636    0.008444
15
* Frequency(6) -1552.7595
C     1.265204   -1.100660    0.227764   -0.132635   -0.016904    0.041478
C    -1.230808   -0.634269    0.849015   -0.118258    0.063534    0.015170
C    -1.235919    0.598391   -0.049902    0.011725   -0.017737   -0.000005
C     1.348060    0.348063   -0.028095    0.015697    0.011220   -0.009331
C     0.148469    1.193838   -0.156492    0.008586   -0.001886   -0.001010
O     0.939623    1.215411    1.020100   -0.000891    0.000676    0.000606
H    -0.614166   -1.062524    0.749393    1.855933   -0.350054   -0.459031
H     1.733390   -1.475126    1.133667    0.198080    0.052597   -0.122461
H     1.287621   -1.758386   -0.634695    0.162365    0.062334   -0.002083
H    -1.271272   -0.363233    1.909364    0.208853   -0.096932    0.015087
H    -2.054792   -1.320962    0.630157    0.134552   -0.144594   -0.047977
H    -1.923717    1.367258    0.300661    0.013008   -0.000683    0.023095
H    -1.556385    0.332080   -1.060020   -0.008128   -0.002353    0.003267
H     2.246648    0.687190   -0.548992    0.013808    0.011834    0.020333
H     0.226875    2.098132   -0.754402   -0.003824    0.001636    0.008444
15
* Frequency(6) -1552.7595
C     1.254854   -1.101979    0.231001   -0.132635   -0.016904    0.041478
C    -1.240036   -0.629311    0.850199   -0.118258    0.063534    0.015170
C    -1.235004    0.597007   -0.049902    0.011725   -0.017737   -0.000005
C     1.349285    0.348939   -0.028823    0.015697    0.011220   -0.009331
C     0.149139    1.193691   -0.156570    0.008586   -0.001886   -0.001010
O     0.939554    1.215464    1.020147   -0.000891    0.000676    0.000606
H    -0.469340   -1.089840    0.713574    1.855933   -0.350054   -0.459031
H     1.748847   -1.471021    1.124111    0.198080    0.052597   -0.122461
H     1.300291   -1.753522   -0.634857    0.162365    0.062334   -0.002083
H    -1.254975   -0.370796    1.910541    0.208853   -0.096932    0.015087
H    -2.044293   -1.332246    0.626413    0.134552   -0.144594   -0.047977
H    -1.922702    1.367205    0.302464    0.013008   -0.000683    0.023095
H    -1.557020    0.331897   -1.059765   -0.008128   -0.002353    0.003267
H     2.247726    0.688113   -0.547406    0.013808    0.011834    0.020333
H     0.226576    2.098259   -0.753743   -0.003824    0.001636    0.008444
15
* Frequency(6) -1552.7595
C     1.241414   -1.103692    0.235204   -0.132635   -0.016904    0.041478
C    -1.252019   -0.622873    0.851736   -0.118258    0.063534    0.015170
C    -1.233816    0.595210   -0.049903    0.011725   -0.017737   -0.000005
C     1.350875    0.350076   -0.029769    0.015697    0.011220   -0.009331
C     0.150009    1.193500   -0.156673    0.008586   -0.001886   -0.001010
O     0.939464    1.215532    1.020208   -0.000891    0.000676    0.000606
H    -0.281279   -1.125311    0.667060    1.855933   -0.350054   -0.459031
H     1.768918   -1.465692    1.111702    0.198080    0.052597   -0.122461
H     1.316743   -1.747206   -0.635068    0.162365    0.062334   -0.002083
H    -1.233812   -0.380619    1.912070    0.208853   -0.096932    0.015087
H    -2.030658   -1.346897    0.621552    0.134552   -0.144594   -0.047977
H    -1.921384    1.367136    0.304804    0.013008   -0.000683    0.023095
H    -1.557843    0.331658   -1.059434   -0.008128   -0.002353    0.003267
H     2.249125    0.689312   -0.545345    0.013808    0.011834    0.020333
H     0.226189    2.098425   -0.752887   -0.003824    0.001636    0.008444
15
* Frequency(6) -1552.7595
C     1.226341   -1.105613    0.239917   -0.132635   -0.016904    0.041478
C    -1.265458   -0.615653    0.853460   -0.118258    0.063534    0.015170
C    -1.232483    0.593194   -0.049904    0.011725   -0.017737   -0.000005
C     1.352659    0.351351   -0.030829    0.015697    0.011220   -0.009331
C     0.150985    1.193286   -0.156788    0.008586   -0.001886   -0.001010
O     0.939362    1.215609    1.020277   -0.000891    0.000676    0.000606
H    -0.070362   -1.165093    0.614894    1.855933   -0.350054   -0.459031
H     1.791429   -1.459714    1.097785    0.198080    0.052597   -0.122461
H     1.335195   -1.740122   -0.635305    0.162365    0.062334   -0.002083
H    -1.210077   -0.391634    1.913785    0.208853   -0.096932    0.015087
H    -2.015367   -1.363330    0.616099    0.134552   -0.144594   -0.047977
H    -1.919905    1.367058    0.307428    0.013008   -0.000683    0.023095
H    -1.558767    0.331391   -1.059063   -0.008128   -0.002353    0.003267
H     2.250694    0.690657   -0.543035    0.013808    0.011834    0.020333
H     0.225754    2.098611   -0.751928   -0.003824    0.001636    0.008444
