15
Coordinates from ORCA-job freq E -271.060327509229
  C           2.57923508005739      0.34854502066520      0.14927672641076
  C          -2.44441654557975      0.24223341853247      0.80536187358384
  C           1.25184739446279     -0.01965541458180     -0.40569525928946
  C           0.08637715685717     -0.24414775806381      0.43220030175278
  C          -1.29679671920711     -0.14419976850322     -0.08018170566909
  O          -0.71795234197999     -1.40894296998976      0.15060384052644
  H           2.49040097008192      0.74511921343661      1.16096751404207
  H           3.25210310239323     -0.51599538462350      0.19638199332227
  H           3.07990519938839      1.09778395985200     -0.46657515796547
  H          -2.63139352076591      1.31443531817218      0.74540355376370
  H          -3.35156106218358     -0.28047011068035      0.50058527613885
  H          -2.22691942795347     -0.02241503131954      1.83926575063308
  H           1.15795065341684     -0.25928760954773     -1.45681779411334
  H           0.21824663971784     -0.06463918940038      1.49599417588812
  H          -1.40299357870577      0.10192230605165     -1.13429608902456
