15
Coordinates from ORCA-job freq E -270.987314928074
  C          -0.68505788669871      1.50126684350008     -2.37529709367849
  C           0.06050793025960      1.68529513601062     -1.09427019093173
  C          -0.20438356494034      0.79477481761558      0.05865273043629
  C          -0.23360388671469      2.61476349408270      1.88864735895127
  C           0.05515900963380      1.23875824337260      1.43809268312954
  O           1.08971934207860      2.20119706174668      1.60456582089944
  H           0.82570602182023      0.69903177874286     -0.70064766646958
  H          -1.70112799952397      1.90659973895657     -2.30459994829207
  H          -0.18464267969506      1.99198300095904     -3.20811480194400
  H          -0.78519639218859      0.44191310054146     -2.62121372664598
  H           0.56718263829996      2.61445504780818     -0.87319842346232
  H          -0.86644874991905     -0.04562531721339     -0.09809710643095
  H          -0.44432603940264      2.80702938269779      2.93410727883142
  H          -0.65955654737732      3.31257593175287      1.17598593489622
  H           0.05276280436815      0.46064473942630      2.19412315071094
