17
Coordinates from ORCA-job freq E -421.420474611589
  C          -3.66050640686471     -0.61658072618246     -0.20196518095867
  C          -2.39645370166659      0.10801557253482      0.04903286909984
  C           1.06456327977398     -0.74134612058066      0.02489404854200
  C          -0.07256881581932     -0.06508469238700      0.09247970357145
  C           2.38034682507642     -0.06010230880103      0.16347202597413
  O           4.30384404924255      0.46948252179699     -0.94521306859219
  O          -1.27694983221027     -0.67265769499731     -0.01809708010957
  O           3.02365180443808     -0.12439019759287     -1.10427041901215
  H          -3.72610777929999     -0.98353232737279     -1.23323484690336
  H          -4.50914234944771      0.04063351562853     -0.02310263248204
  H          -3.74505969221111     -1.48167242857805      0.45730176164234
  H          -2.26310182502442      1.14819012507120     -0.22407724985955
  H           1.04493223540063     -1.81049035436786     -0.14226659455480
  H          -0.10463409131387      1.00870263932022      0.25194642241043
  H           3.01272141157015     -0.55827915490913      0.90406950479563
  H           2.25960097582283      0.98576704730634      0.45630242909618
  H           4.88516991253336     -0.29463441588896     -1.02830369265968
