17
Coordinates from ORCA-job freq E -421.429626210714
  C          -1.12043872862547     -1.84374719042443      0.18847967823851
  C           1.73707974102176     -0.30761027116702     -1.08532229152138
  C          -1.30899486578982     -0.49529446340102     -0.39849316314114
  C           0.96810840264960      0.77785488384219     -0.39641526366155
  C          -0.45955127830958      0.65215812684558     -0.05309508242494
  O          -0.52620147254670      2.93936932398873      0.29982781813242
  O           0.51173060135421      0.50312313972131      0.94368823161322
  O          -1.28956735976191      1.77340723766323      0.07160161052886
  H          -0.93250655417282     -2.59679218832701     -0.58331378795312
  H          -2.01938437482283     -2.16762838668886      0.72113174145207
  H          -0.28863139294450     -1.85051549209391      0.88991493888663
  H           1.81677295027953     -0.08405205645311     -2.14923608594726
  H           1.25386277407458     -1.27518027808247     -0.96802314869104
  H           2.74547073624587     -0.37057384875411     -0.67584324215843
  H          -2.12545293234789     -0.29599773860514     -1.07679262308718
  H           1.34971349688820      1.78513496452356     -0.51057098495683
  H          -0.31201174319223      2.85634423741248      1.23864465469116
