17
Coordinates from ORCA-job freq E -421.379338473237
  C           2.00218283832050      0.41018747818465      0.11882716822189
  C          -0.03272005932965     -0.85362027802958     -0.60889754309721
  C           1.05398884053394      0.07997822048800     -1.04272851104335
  C          -1.40889516541361      1.03641101379375      0.65904610623407
  C          -1.19523800812598     -0.33074896273971      0.19565893028125
  O          -2.15471402842330     -1.26270235677211     -1.53421934313190
  O          -1.10171782004494     -0.06327599525528      1.53944332226606
  O          -2.29397941216783     -1.13475021227898     -0.14827625314581
  H          -0.90548852657407     -1.19958109329779     -1.53845216191710
  H           1.46302678828518      0.84386238178404      0.96072276664228
  H           2.49520143563299     -0.49321996270020      0.47707400280314
  H           2.76910979879274      1.11395776295273     -0.20181906392597
  H           0.30393675206639     -1.82268477871299     -0.23756497763645
  H           0.61485182060003      0.99534991086999     -1.44309447343838
  H           1.62670686026485     -0.38104036172526     -1.84902961018164
  H          -2.42808357603546      1.39304718942923      0.73004288643533
  H          -0.62822553838178      1.78247304400956      0.57384275463382
