15
Coordinates from ORCA-job freq E -271.028297501045
  C           2.31537748209121     -0.60698178792995      0.97168067225976
  C          -2.37970577057262     -0.42879936540217     -0.01120168303784
  C          -0.02879840806423      0.42590821233279     -0.18865001781810
  C           1.20841582582509     -0.06622179088053     -0.43740062005623
  C          -1.03992176996686     -0.22171483406374      0.69799034531759
  O           1.61712188994855     -1.32090259243969      0.01769380937487
  H           1.85210775382891     -0.50536156293444      1.94303805146575
  H           3.38424842100610     -0.51078986198104      0.83681020269209
  H          -2.26082419451346     -1.08975486618929     -0.86920578324706
  H          -3.11486782621458     -0.86885841300814      0.66204023590912
  H          -2.77773233903913      0.52033321231519     -0.37219329286758
  H          -0.27906472370689      1.37674062976061     -0.64390710879795
  H           1.88161794219063      0.39728532211698     -1.14787656177003
  H          -1.20160167185975      0.40505792186454      1.58149948478789
  H          -0.65183961095296     -1.17748522356109      1.05099026578770
