17
Coordinates from ORCA-job freq E -421.378929523828
  C       0.089748     -0.868773      1.255997
  C       0.858510      0.178568      0.495613
  O       2.170943     -0.340746      0.343146
  O       3.026767      0.606876     -0.288617
  C       0.212030      0.486008     -0.853889
  O      -0.385697     -0.548819     -1.580588
  C      -1.248394      0.398465     -1.013772
  C      -2.097184     -0.055295      0.122406
  H       0.178058     -0.800020      2.330717
  H       0.276076     -1.864702      0.876207
  H       0.912179      1.126138      1.053938
  H       3.452684      0.084617     -0.981958
  H       0.767189      1.204140     -1.453841
  H      -1.710015      1.077108     -1.733918
  H      -1.152260     -0.575097      0.899217
  H      -2.772688     -0.863396     -0.125530
  H      -2.577948      0.754929      0.654871
17
Coordinates from ORCA-job freq E -421.381365172956
  C       0.097473     -0.874684      1.253351
  C       0.869130      0.159585      0.482384
  O       2.177756     -0.380656      0.316263
  O       2.995799      0.650142     -0.228767
  C       0.233550      0.475506     -0.851596
  O      -0.374020     -0.597985     -1.546222
  C      -1.227293      0.401544     -1.014669
  C      -2.090479     -0.030713      0.119265
  H       0.177174     -0.809672      2.332177
  H       0.214239     -1.879876      0.862378
  H       0.955421      1.091482      1.050069
  H       3.355092      0.209156     -1.006242
  H       0.793823      1.161064     -1.477332
  H      -1.674787      1.048319     -1.765498
  H      -1.170548     -0.566709      0.916100
  H      -2.779861     -0.836279     -0.117079
  H      -2.552469      0.779775      0.675416
17
Coordinates from ORCA-job freq E -421.381453742968
  C       0.094510     -0.871369      1.262707
  C       0.876161      0.154554      0.491613
  O       2.184056     -0.395324      0.329060
  O       3.021737      0.623657     -0.208687
  C       0.245017      0.476572     -0.843092
  O      -0.356935     -0.597051     -1.545290
  C      -1.215530      0.401468     -1.014899
  C      -2.087170     -0.031024      0.111650
  H       0.181517     -0.813942      2.341526
  H       0.187777     -1.876039      0.863471
  H       0.971277      1.085864      1.058226
  H       3.247767      0.252022     -1.068470
  H       0.806860      1.163641     -1.466363
  H      -1.658456      1.044383     -1.771767
  H      -1.167986     -0.542713      0.934303
  H      -2.757211     -0.853242     -0.122914
  H      -2.573394      0.778544      0.648925
17
Coordinates from ORCA-job freq E -421.381461566569
  C       0.095533     -0.875987      1.259265
  C       0.873974      0.155505      0.492808
  O       2.187048     -0.382634      0.336122
  O       3.006461      0.640392     -0.221184
  C       0.245303      0.472375     -0.844552
  O      -0.359968     -0.602139     -1.542374
  C      -1.215135      0.400231     -1.014875
  C      -2.086290     -0.027566      0.114225
  H       0.182616     -0.824184      2.338321
  H       0.190125     -1.878174      0.854326
  H       0.958634      1.087997      1.059538
  H       3.267508      0.238982     -1.057410
  H       0.807284      1.157189     -1.469896
  H      -1.657107      1.042925     -1.772464
  H      -1.168720     -0.545371      0.932798
  H      -2.763283     -0.844382     -0.119216
  H      -2.563982      0.784841      0.654568
17
Coordinates from ORCA-job freq E -421.381456029723
  C       0.096713     -0.880268      1.256382
  C       0.871358      0.153178      0.488127
  O       2.185763     -0.382388      0.332167
  O       3.010820      0.646762     -0.206984
  C       0.242599      0.466759     -0.849824
  O      -0.366346     -0.608293     -1.544266
  C      -1.217953      0.397987     -1.017092
  C      -2.086481     -0.023382      0.116534
  H       0.174568     -0.817526      2.335557
  H       0.206058     -1.885118      0.861613
  H       0.953171      1.086061      1.054447
  H       3.275288      0.256735     -1.047427
  H       0.806887      1.147530     -1.477480
  H      -1.660566      1.038604     -1.776089
  H      -1.168147     -0.568424      0.919728
  H      -2.784988     -0.821992     -0.116911
  H      -2.538746      0.793775      0.671518
17
Coordinates from ORCA-job freq E -421.381467036993
  C       0.095361     -0.873750      1.261747
  C       0.874696      0.155498      0.492729
  O       2.185006     -0.388264      0.331601
  O       3.009777      0.633502     -0.220052
  C       0.244710      0.475502     -0.843228
  O      -0.358051     -0.597951     -1.544808
  C      -1.215414      0.401532     -1.014924
  C      -2.086770     -0.030576      0.112248
  H       0.176577     -0.813846      2.340835
  H       0.196546     -1.878597      0.864967
  H       0.964609      1.087407      1.059428
  H       3.261835      0.239302     -1.062450
  H       0.806067      1.162766     -1.466537
  H      -1.657575      1.045661     -1.771207
  H      -1.169128     -0.551867      0.928303
  H      -2.764138     -0.846107     -0.124616
  H      -2.564110      0.779790      0.655965
17
Coordinates from ORCA-job freq E -421.381473100066
  C       0.095235     -0.873582      1.262083
  C       0.874885      0.155820      0.493641
  O       2.185220     -0.388153      0.332691
  O       3.010147      0.632485     -0.220785
  C       0.245293      0.475785     -0.842555
  O      -0.356948     -0.597958     -1.544249
  C      -1.214747      0.401400     -1.014955
  C      -2.086614     -0.030713      0.111810
  H       0.176417     -0.814435      2.341222
  H       0.196342     -1.878186      0.864672
  H       0.964728      1.087658      1.060463
  H       3.257164      0.239438     -1.065250
  H       0.806635      1.163273     -1.465626
  H      -1.656646      1.045406     -1.771507
  H      -1.169046     -0.551363      0.928564
  H      -2.763527     -0.846605     -0.125107
  H      -2.564542      0.779730      0.654888
17
Coordinates from ORCA-job freq E -421.381468500591
  C       0.095259     -0.873721      1.261962
  C       0.874835      0.155760      0.493559
  O       2.185270     -0.387984      0.332744
  O       3.010048      0.632835     -0.220633
  C       0.245273      0.475597     -0.842679
  O      -0.357106     -0.598167     -1.544218
  C      -1.214780      0.401325     -1.014980
  C      -2.086594     -0.030557      0.111928
  H       0.176542     -0.814686      2.341102
  H       0.196271     -1.878284      0.864420
  H       0.964461      1.087613      1.060386
  H       3.257554      0.239675     -1.064902
  H       0.806662      1.162946     -1.465853
  H      -1.656672      1.045290     -1.771573
  H      -1.169025     -0.551355      0.928571
  H      -2.763731     -0.846305     -0.124864
  H      -2.564270      0.780018      0.655030
