15
Coordinates from ORCA-job freq E -271.013650067753
  C          -1.37774748319584     -0.25343665117535      0.67793725567697
  C           1.12869858699515      0.09630655288122      1.19014652425517
  C          -1.04393619187411      0.31084409450647     -0.68178332297680
  C           0.28818173025921     -0.23381473804513     -1.20717421708051
  C           1.41835904436656      0.00129164250649     -0.23372233871892
  O           1.39642779080776      1.25328591800991      0.46360941565965
  H          -0.20588638132548     -0.09775770928117      1.30526028753570
  H          -2.12067050256305      0.29194222764548      1.25204574670200
  H          -1.53657490273808     -1.33006916244078      0.70156438689064
  H           1.79402385595797     -0.17495308013890      2.00403584686278
  H          -0.97701654872575      1.39736910172455     -0.61733167042179
  H          -1.83093972805894      0.08550075617273     -1.40720737111795
  H           0.53148833524999      0.22821153809824     -2.16581637595027
  H           0.21411192648442     -1.31122620474368     -1.38189547709493
  H           2.41088546836020     -0.29740228572010     -0.55523169022175
