15
* (null), Energy   -1000.0000000
C    -1.377747   -0.253437    0.677937   -0.103080   -0.008770   -0.069799
C     1.128699    0.096307    1.190147   -0.118261   -0.038160    0.022077
C    -1.043936    0.310844   -0.681783    0.012252    0.001493    0.017471
C     0.288182   -0.233815   -1.207174    0.004536   -0.001229    0.000791
C     1.418359    0.001292   -0.233722    0.013838    0.017072    0.005476
O     1.396428    1.253286    0.463609    0.002714    0.005736   -0.019450
H    -0.205886   -0.097758    1.305260    1.904162    0.278248    0.407564
H    -2.120671    0.291942    1.252046    0.129041    0.054197    0.140069
H    -1.536575   -1.330069    0.701564    0.170804   -0.029645    0.117190
H     1.794024   -0.174953    2.004036    0.041343   -0.023530   -0.105638
H    -0.977017    1.397369   -0.617332   -0.006412    0.003140    0.001226
H    -1.830940    0.085501   -1.407207   -0.001547   -0.017305    0.009367
H     0.531488    0.228212   -2.165816   -0.009136    0.002441   -0.000311
H     0.214112   -1.311226   -1.381895   -0.003299   -0.000511   -0.001653
H     2.410885   -0.297402   -0.555232    0.004452   -0.005431    0.026671
15
* Frequency(6) -1660.1777
C    -1.389462   -0.254433    0.670005   -0.103080   -0.008770   -0.069799
C     1.115259    0.091970    1.192656   -0.118261   -0.038160    0.022077
C    -1.042544    0.311014   -0.679798    0.012252    0.001493    0.017471
C     0.288697   -0.233954   -1.207084    0.004536   -0.001229    0.000791
C     1.419932    0.003232   -0.233100    0.013838    0.017072    0.005476
O     1.396736    1.253938    0.461399    0.002714    0.005736   -0.019450
H     0.010512   -0.066136    1.351578    1.904162    0.278248    0.407564
H    -2.106006    0.298101    1.267964    0.129041    0.054197    0.140069
H    -1.517164   -1.333438    0.714882    0.170804   -0.029645    0.117190
H     1.798722   -0.177627    1.992031    0.041343   -0.023530   -0.105638
H    -0.977745    1.397726   -0.617192   -0.006412    0.003140    0.001226
H    -1.831116    0.083534   -1.406143   -0.001547   -0.017305    0.009367
H     0.530450    0.228489   -2.165852   -0.009136    0.002441   -0.000311
H     0.213737   -1.311284   -1.382083   -0.003299   -0.000511   -0.001653
H     2.411391   -0.298020   -0.552201    0.004452   -0.005431    0.026671
15
* Frequency(6) -1660.1777
C    -1.399907   -0.255322    0.662932   -0.103080   -0.008770   -0.069799
C     1.103276    0.088103    1.194893   -0.118261   -0.038160    0.022077
C    -1.041302    0.311165   -0.678027    0.012252    0.001493    0.017471
C     0.289157   -0.234079   -1.207004    0.004536   -0.001229    0.000791
C     1.421334    0.004962   -0.232545    0.013838    0.017072    0.005476
O     1.397011    1.254519    0.459428    0.002714    0.005736   -0.019450
H     0.203460   -0.037941    1.392876    1.904162    0.278248    0.407564
H    -2.092930    0.303593    1.282157    0.129041    0.054197    0.140069
H    -1.499856   -1.336442    0.726757    0.170804   -0.029645    0.117190
H     1.802912   -0.180011    1.981326    0.041343   -0.023530   -0.105638
H    -0.978395    1.398044   -0.617068   -0.006412    0.003140    0.001226
H    -1.831272    0.081781   -1.405194   -0.001547   -0.017305    0.009367
H     0.529524    0.228736   -2.165883   -0.009136    0.002441   -0.000311
H     0.213403   -1.311336   -1.382251   -0.003299   -0.000511   -0.001653
H     2.411842   -0.298570   -0.549498    0.004452   -0.005431    0.026671
15
* Frequency(6) -1660.1777
C    -1.407951   -0.256006    0.657486   -0.103080   -0.008770   -0.069799
C     1.094047    0.085125    1.196615   -0.118261   -0.038160    0.022077
C    -1.040346    0.311281   -0.676664    0.012252    0.001493    0.017471
C     0.289511   -0.234175   -1.206942    0.004536   -0.001229    0.000791
C     1.422414    0.006294   -0.232118    0.013838    0.017072    0.005476
O     1.397223    1.254967    0.457910    0.002714    0.005736   -0.019450
H     0.352049   -0.016229    1.424680    1.904162    0.278248    0.407564
H    -2.082860    0.307822    1.293087    0.129041    0.054197    0.140069
H    -1.486528   -1.338755    0.735902    0.170804   -0.029645    0.117190
H     1.806138   -0.181847    1.973083    0.041343   -0.023530   -0.105638
H    -0.978895    1.398289   -0.616972   -0.006412    0.003140    0.001226
H    -1.831393    0.080430   -1.404463   -0.001547   -0.017305    0.009367
H     0.528811    0.228927   -2.165907   -0.009136    0.002441   -0.000311
H     0.213145   -1.311376   -1.382380   -0.003299   -0.000511   -0.001653
H     2.412190   -0.298994   -0.547417    0.004452   -0.005431    0.026671
15
* Frequency(6) -1660.1777
C    -1.412721   -0.256412    0.654255   -0.103080   -0.008770   -0.069799
C     1.088574    0.083359    1.197637   -0.118261   -0.038160    0.022077
C    -1.039779    0.311351   -0.675856    0.012252    0.001493    0.017471
C     0.289721   -0.234232   -1.206906    0.004536   -0.001229    0.000791
C     1.423054    0.007084   -0.231864    0.013838    0.017072    0.005476
O     1.397349    1.255232    0.457010    0.002714    0.005736   -0.019450
H     0.440177   -0.003351    1.443543    1.904162    0.278248    0.407564
H    -2.076888    0.310331    1.299570    0.129041    0.054197    0.140069
H    -1.478623   -1.340127    0.741326    0.170804   -0.029645    0.117190
H     1.808051   -0.182936    1.968194    0.041343   -0.023530   -0.105638
H    -0.979192    1.398435   -0.616916   -0.006412    0.003140    0.001226
H    -1.831465    0.079629   -1.404029   -0.001547   -0.017305    0.009367
H     0.528389    0.229040   -2.165922   -0.009136    0.002441   -0.000311
H     0.212993   -1.311400   -1.382456   -0.003299   -0.000511   -0.001653
H     2.412396   -0.299245   -0.546182    0.004452   -0.005431    0.026671
15
* Frequency(6) -1660.1777
C    -1.413702   -0.256496    0.653591   -0.103080   -0.008770   -0.069799
C     1.087449    0.082996    1.197847   -0.118261   -0.038160    0.022077
C    -1.039663    0.311365   -0.675689    0.012252    0.001493    0.017471
C     0.289764   -0.234244   -1.206898    0.004536   -0.001229    0.000791
C     1.423186    0.007246   -0.231812    0.013838    0.017072    0.005476
O     1.397374    1.255287    0.456825    0.002714    0.005736   -0.019450
H     0.458294   -0.000703    1.447421    1.904162    0.278248    0.407564
H    -2.075660    0.310846    1.300902    0.129041    0.054197    0.140069
H    -1.476998   -1.340409    0.742441    0.170804   -0.029645    0.117190
H     1.808445   -0.183160    1.967189    0.041343   -0.023530   -0.105638
H    -0.979253    1.398464   -0.616904   -0.006412    0.003140    0.001226
H    -1.831479    0.079465   -1.403940   -0.001547   -0.017305    0.009367
H     0.528302    0.229063   -2.165925   -0.009136    0.002441   -0.000311
H     0.212961   -1.311404   -1.382472   -0.003299   -0.000511   -0.001653
H     2.412438   -0.299297   -0.545929    0.004452   -0.005431    0.026671
15
* Frequency(6) -1660.1777
C    -1.410787   -0.256248    0.655565   -0.103080   -0.008770   -0.069799
C     1.090794    0.084076    1.197223   -0.118261   -0.038160    0.022077
C    -1.040009    0.311323   -0.676183    0.012252    0.001493    0.017471
C     0.289636   -0.234209   -1.206921    0.004536   -0.001229    0.000791
C     1.422794    0.006764   -0.231967    0.013838    0.017072    0.005476
O     1.397298    1.255124    0.457375    0.002714    0.005736   -0.019450
H     0.404437   -0.008573    1.435893    1.904162    0.278248    0.407564
H    -2.079310    0.309313    1.296941    0.129041    0.054197    0.140069
H    -1.481829   -1.339571    0.739126    0.170804   -0.029645    0.117190
H     1.807275   -0.182495    1.970177    0.041343   -0.023530   -0.105638
H    -0.979072    1.398376   -0.616939   -0.006412    0.003140    0.001226
H    -1.831436    0.079954   -1.404205   -0.001547   -0.017305    0.009367
H     0.528560    0.228994   -2.165916   -0.009136    0.002441   -0.000311
H     0.213055   -1.311390   -1.382425   -0.003299   -0.000511   -0.001653
H     2.412312   -0.299143   -0.546683    0.004452   -0.005431    0.026671
15
* Frequency(6) -1660.1777
C    -1.404291   -0.255695    0.659964   -0.103080   -0.008770   -0.069799
C     1.098246    0.086480    1.195832   -0.118261   -0.038160    0.022077
C    -1.040781    0.311228   -0.677284    0.012252    0.001493    0.017471
C     0.289350   -0.234131   -1.206970    0.004536   -0.001229    0.000791
C     1.421922    0.005688   -0.232312    0.013838    0.017072    0.005476
O     1.397127    1.254763    0.458601    0.002714    0.005736   -0.019450
H     0.284442   -0.026108    1.410210    1.904162    0.278248    0.407564
H    -2.087442    0.305898    1.288114    0.129041    0.054197    0.140069
H    -1.492592   -1.337703    0.731741    0.170804   -0.029645    0.117190
H     1.804670   -0.181012    1.976834    0.041343   -0.023530   -0.105638
H    -0.978668    1.398178   -0.617016   -0.006412    0.003140    0.001226
H    -1.831338    0.081045   -1.404795   -0.001547   -0.017305    0.009367
H     0.529136    0.228840   -2.165896   -0.009136    0.002441   -0.000311
H     0.213262   -1.311358   -1.382321   -0.003299   -0.000511   -0.001653
H     2.412032   -0.298801   -0.548364    0.004452   -0.005431    0.026671
15
* Frequency(6) -1660.1777
C    -1.394919   -0.254898    0.666310   -0.103080   -0.008770   -0.069799
C     1.108999    0.089950    1.193824   -0.118261   -0.038160    0.022077
C    -1.041895    0.311093   -0.678873    0.012252    0.001493    0.017471
C     0.288937   -0.234020   -1.207042    0.004536   -0.001229    0.000791
C     1.420664    0.004136   -0.232810    0.013838    0.017072    0.005476
O     1.396880    1.254241    0.460369    0.002714    0.005736   -0.019450
H     0.111312   -0.051407    1.373153    1.904162    0.278248    0.407564
H    -2.099175    0.300970    1.275379    0.129041    0.054197    0.140069
H    -1.508122   -1.335007    0.721086    0.170804   -0.029645    0.117190
H     1.800911   -0.178873    1.986438    0.041343   -0.023530   -0.105638
H    -0.978085    1.397892   -0.617127   -0.006412    0.003140    0.001226
H    -1.831197    0.082618   -1.405647   -0.001547   -0.017305    0.009367
H     0.529966    0.228618   -2.165868   -0.009136    0.002441   -0.000311
H     0.213562   -1.311311   -1.382171   -0.003299   -0.000511   -0.001653
H     2.411627   -0.298307   -0.550789    0.004452   -0.005431    0.026671
15
* Frequency(6) -1660.1777
C    -1.383686   -0.253942    0.673916   -0.103080   -0.008770   -0.069799
C     1.121886    0.094108    1.191418   -0.118261   -0.038160    0.022077
C    -1.043230    0.310930   -0.680777    0.012252    0.001493    0.017471
C     0.288443   -0.233886   -1.207129    0.004536   -0.001229    0.000791
C     1.419156    0.002275   -0.233407    0.013838    0.017072    0.005476
O     1.396584    1.253616    0.462489    0.002714    0.005736   -0.019450
H    -0.096191   -0.081728    1.328739    1.904162    0.278248    0.407564
H    -2.113237    0.295064    1.260115    0.129041    0.054197    0.140069
H    -1.526735   -1.331777    0.708315    0.170804   -0.029645    0.117190
H     1.796406   -0.176309    1.997950    0.041343   -0.023530   -0.105638
H    -0.977386    1.397550   -0.617261   -0.006412    0.003140    0.001226
H    -1.831029    0.084504   -1.406668   -0.001547   -0.017305    0.009367
H     0.530962    0.228352   -2.165834   -0.009136    0.002441   -0.000311
H     0.213922   -1.311256   -1.381991   -0.003299   -0.000511   -0.001653
H     2.411142   -0.297715   -0.553695    0.004452   -0.005431    0.026671
15
* Frequency(6) -1660.1777
C    -1.371809   -0.252931    0.681958   -0.103080   -0.008770   -0.069799
C     1.135511    0.098505    1.188875   -0.118261   -0.038160    0.022077
C    -1.044642    0.310758   -0.682790    0.012252    0.001493    0.017471
C     0.287920   -0.233744   -1.207220    0.004536   -0.001229    0.000791
C     1.417562    0.000308   -0.234038    0.013838    0.017072    0.005476
O     1.396271    1.252955    0.464730    0.002714    0.005736   -0.019450
H    -0.315582   -0.113787    1.281781    1.904162    0.278248    0.407564
H    -2.128104    0.288820    1.243977    0.129041    0.054197    0.140069
H    -1.546415   -1.328361    0.694813    0.170804   -0.029645    0.117190
H     1.791642   -0.173598    2.010121    0.041343   -0.023530   -0.105638
H    -0.976647    1.397188   -0.617402   -0.006412    0.003140    0.001226
H    -1.830851    0.086498   -1.407747   -0.001547   -0.017305    0.009367
H     0.532015    0.228071   -2.165798   -0.009136    0.002441   -0.000311
H     0.214302   -1.311197   -1.381800   -0.003299   -0.000511   -0.001653
H     2.410629   -0.297089   -0.556768    0.004452   -0.005431    0.026671
15
* Frequency(6) -1660.1777
C    -1.360576   -0.251976    0.689564   -0.103080   -0.008770   -0.069799
C     1.148399    0.102663    1.186469   -0.118261   -0.038160    0.022077
C    -1.045977    0.310595   -0.684694    0.012252    0.001493    0.017471
C     0.287426   -0.233610   -1.207306    0.004536   -0.001229    0.000791
C     1.416054   -0.001552   -0.234635    0.013838    0.017072    0.005476
O     1.395976    1.252330    0.466849    0.002714    0.005736   -0.019450
H    -0.523085   -0.144109    1.237368    1.904162    0.278248    0.407564
H    -2.142166    0.282914    1.228713    0.129041    0.054197    0.140069
H    -1.565028   -1.325131    0.682043    0.170804   -0.029645    0.117190
H     1.787137   -0.171033    2.021633    0.041343   -0.023530   -0.105638
H    -0.975948    1.396846   -0.617536   -0.006412    0.003140    0.001226
H    -1.830682    0.088383   -1.408768   -0.001547   -0.017305    0.009367
H     0.533010    0.227805   -2.165765   -0.009136    0.002441   -0.000311
H     0.214661   -1.311141   -1.381620   -0.003299   -0.000511   -0.001653
H     2.410144   -0.296498   -0.559675    0.004452   -0.005431    0.026671
15
* Frequency(6) -1660.1777
C    -1.351204   -0.251178    0.695911   -0.103080   -0.008770   -0.069799
C     1.159151    0.106133    1.184462   -0.118261   -0.038160    0.022077
C    -1.047091    0.310460   -0.686282    0.012252    0.001493    0.017471
C     0.287014   -0.233498   -1.207378    0.004536   -0.001229    0.000791
C     1.414796   -0.003104   -0.235133    0.013838    0.017072    0.005476
O     1.395729    1.251809    0.468618    0.002714    0.005736   -0.019450
H    -0.696214   -0.169408    1.200311    1.904162    0.278248    0.407564
H    -2.153899    0.277986    1.215978    0.129041    0.054197    0.140069
H    -1.580557   -1.322436    0.671388    0.170804   -0.029645    0.117190
H     1.783378   -0.168894    2.031238    0.041343   -0.023530   -0.105638
H    -0.975366    1.396560   -0.617647   -0.006412    0.003140    0.001226
H    -1.830541    0.089957   -1.409619   -0.001547   -0.017305    0.009367
H     0.533841    0.227583   -2.165736   -0.009136    0.002441   -0.000311
H     0.214961   -1.311095   -1.381470   -0.003299   -0.000511   -0.001653
H     2.409739   -0.296004   -0.562100    0.004452   -0.005431    0.026671
15
* Frequency(6) -1660.1777
C    -1.344708   -0.250626    0.700309   -0.103080   -0.008770   -0.069799
C     1.166604    0.108538    1.183070   -0.118261   -0.038160    0.022077
C    -1.047863    0.310366   -0.687383    0.012252    0.001493    0.017471
C     0.286728   -0.233421   -1.207428    0.004536   -0.001229    0.000791
C     1.413924   -0.004180   -0.235478    0.013838    0.017072    0.005476
O     1.395558    1.251448    0.469844    0.002714    0.005736   -0.019450
H    -0.816210   -0.186942    1.174627    1.904162    0.278248    0.407564
H    -2.162031    0.274571    1.207151    0.129041    0.054197    0.140069
H    -1.591321   -1.320567    0.664003    0.170804   -0.029645    0.117190
H     1.780772   -0.167411    2.037895    0.041343   -0.023530   -0.105638
H    -0.974961    1.396363   -0.617725   -0.006412    0.003140    0.001226
H    -1.830444    0.091047   -1.410210   -0.001547   -0.017305    0.009367
H     0.534417    0.227429   -2.165717   -0.009136    0.002441   -0.000311
H     0.215169   -1.311062   -1.381366   -0.003299   -0.000511   -0.001653
H     2.409459   -0.295661   -0.563780    0.004452   -0.005431    0.026671
15
* Frequency(6) -1660.1777
C    -1.341793   -0.250378    0.702283   -0.103080   -0.008770   -0.069799
C     1.169948    0.109617    1.182446   -0.118261   -0.038160    0.022077
C    -1.048210    0.310323   -0.687877    0.012252    0.001493    0.017471
C     0.286599   -0.233386   -1.207450    0.004536   -0.001229    0.000791
C     1.413532   -0.004663   -0.235633    0.013838    0.017072    0.005476
O     1.395481    1.251285    0.470394    0.002714    0.005736   -0.019450
H    -0.870067   -0.194812    1.163100    1.904162    0.278248    0.407564
H    -2.165681    0.273038    1.203189    0.129041    0.054197    0.140069
H    -1.596152   -1.319729    0.660688    0.170804   -0.029645    0.117190
H     1.779603   -0.166746    2.040883    0.041343   -0.023530   -0.105638
H    -0.974780    1.396274   -0.617759   -0.006412    0.003140    0.001226
H    -1.830400    0.091537   -1.410475   -0.001547   -0.017305    0.009367
H     0.534675    0.227360   -2.165708   -0.009136    0.002441   -0.000311
H     0.215263   -1.311048   -1.381319   -0.003299   -0.000511   -0.001653
H     2.409333   -0.295508   -0.564535    0.004452   -0.005431    0.026671
15
* Frequency(6) -1660.1777
C    -1.342774   -0.250461    0.701619   -0.103080   -0.008770   -0.069799
C     1.168823    0.109254    1.182656   -0.118261   -0.038160    0.022077
C    -1.048093    0.310338   -0.687711    0.012252    0.001493    0.017471
C     0.286643   -0.233398   -1.207443    0.004536   -0.001229    0.000791
C     1.413664   -0.004501   -0.235580    0.013838    0.017072    0.005476
O     1.395507    1.251340    0.470209    0.002714    0.005736   -0.019450
H    -0.851950   -0.192165    1.166978    1.904162    0.278248    0.407564
H    -2.164453    0.273554    1.204522    0.129041    0.054197    0.140069
H    -1.594527   -1.320011    0.661803    0.170804   -0.029645    0.117190
H     1.779996   -0.166970    2.039878    0.041343   -0.023530   -0.105638
H    -0.974841    1.396304   -0.617748   -0.006412    0.003140    0.001226
H    -1.830415    0.091372   -1.410386   -0.001547   -0.017305    0.009367
H     0.534588    0.227383   -2.165711   -0.009136    0.002441   -0.000311
H     0.215231   -1.311053   -1.381335   -0.003299   -0.000511   -0.001653
H     2.409375   -0.295559   -0.564281    0.004452   -0.005431    0.026671
15
* Frequency(6) -1660.1777
C    -1.347544   -0.250867    0.698389   -0.103080   -0.008770   -0.069799
C     1.163350    0.107488    1.183678   -0.118261   -0.038160    0.022077
C    -1.047526    0.310407   -0.686902    0.012252    0.001493    0.017471
C     0.286853   -0.233455   -1.207406    0.004536   -0.001229    0.000791
C     1.414304   -0.003711   -0.235327    0.013838    0.017072    0.005476
O     1.395633    1.251605    0.469308    0.002714    0.005736   -0.019450
H    -0.763821   -0.179287    1.185841    1.904162    0.278248    0.407564
H    -2.158481    0.276062    1.211004    0.129041    0.054197    0.140069
H    -1.586622   -1.321383    0.667227    0.170804   -0.029645    0.117190
H     1.781910   -0.168059    2.034989    0.041343   -0.023530   -0.105638
H    -0.975138    1.396449   -0.617691   -0.006412    0.003140    0.001226
H    -1.830486    0.090571   -1.409952   -0.001547   -0.017305    0.009367
H     0.534165    0.227496   -2.165725   -0.009136    0.002441   -0.000311
H     0.215078   -1.311076   -1.381411   -0.003299   -0.000511   -0.001653
H     2.409581   -0.295811   -0.563047    0.004452   -0.005431    0.026671
15
* Frequency(6) -1660.1777
C    -1.355588   -0.251551    0.692942   -0.103080   -0.008770   -0.069799
C     1.154122    0.104510    1.185400   -0.118261   -0.038160    0.022077
C    -1.046570    0.310523   -0.685539    0.012252    0.001493    0.017471
C     0.287207   -0.233550   -1.207344    0.004536   -0.001229    0.000791
C     1.415384   -0.002378   -0.234900    0.013838    0.017072    0.005476
O     1.395844    1.252053    0.467791    0.002714    0.005736   -0.019450
H    -0.615232   -0.157574    1.217644    1.904162    0.278248    0.407564
H    -2.148411    0.280291    1.221935    0.129041    0.054197    0.140069
H    -1.573293   -1.323696    0.676372    0.170804   -0.029645    0.117190
H     1.785136   -0.169895    2.026745    0.041343   -0.023530   -0.105638
H    -0.975638    1.396694   -0.617595   -0.006412    0.003140    0.001226
H    -1.830607    0.089221   -1.409221   -0.001547   -0.017305    0.009367
H     0.533452    0.227687   -2.165750   -0.009136    0.002441   -0.000311
H     0.214821   -1.311116   -1.381540   -0.003299   -0.000511   -0.001653
H     2.409928   -0.296235   -0.560965    0.004452   -0.005431    0.026671
15
* Frequency(6) -1660.1777
C    -1.366033   -0.252440    0.685870   -0.103080   -0.008770   -0.069799
C     1.142138    0.100643    1.187638   -0.118261   -0.038160    0.022077
C    -1.045329    0.310674   -0.683769    0.012252    0.001493    0.017471
C     0.287666   -0.233675   -1.207264    0.004536   -0.001229    0.000791
C     1.416786   -0.000649   -0.234345    0.013838    0.017072    0.005476
O     1.396119    1.252634    0.465820    0.002714    0.005736   -0.019450
H    -0.422284   -0.129379    1.258943    1.904162    0.278248    0.407564
H    -2.135335    0.285783    1.236128    0.129041    0.054197    0.140069
H    -1.555986   -1.326700    0.688246    0.170804   -0.029645    0.117190
H     1.789325   -0.172279    2.016041    0.041343   -0.023530   -0.105638
H    -0.976288    1.397012   -0.617471   -0.006412    0.003140    0.001226
H    -1.830764    0.087467   -1.408272   -0.001547   -0.017305    0.009367
H     0.532527    0.227934   -2.165781   -0.009136    0.002441   -0.000311
H     0.214487   -1.311168   -1.381708   -0.003299   -0.000511   -0.001653
H     2.410380   -0.296785   -0.558263    0.004452   -0.005431    0.026671
15
* Frequency(6) -1660.1777
C    -1.377747   -0.253437    0.677937   -0.103080   -0.008770   -0.069799
C     1.128699    0.096307    1.190147   -0.118261   -0.038160    0.022077
C    -1.043936    0.310844   -0.681783    0.012252    0.001493    0.017471
C     0.288182   -0.233815   -1.207174    0.004536   -0.001229    0.000791
C     1.418359    0.001292   -0.233722    0.013838    0.017072    0.005476
O     1.396428    1.253286    0.463609    0.002714    0.005736   -0.019450
H    -0.205886   -0.097758    1.305260    1.904162    0.278248    0.407564
H    -2.120671    0.291942    1.252046    0.129041    0.054197    0.140069
H    -1.536575   -1.330069    0.701564    0.170804   -0.029645    0.117190
H     1.794024   -0.174953    2.004036    0.041343   -0.023530   -0.105638
H    -0.977017    1.397369   -0.617332   -0.006412    0.003140    0.001226
H    -1.830940    0.085501   -1.407207   -0.001547   -0.017305    0.009367
H     0.531488    0.228212   -2.165816   -0.009136    0.002441   -0.000311
H     0.214112   -1.311226   -1.381895   -0.003299   -0.000511   -0.001653
H     2.410885   -0.297402   -0.555232    0.004452   -0.005431    0.026671
