17
Coordinates from ORCA-job freq E -421.391007697177
  C           2.20456005018978     -0.41875596928661     -1.36537015345501
  C          -1.98210950811902      0.80831715724478      0.72166361783116
  C           0.44615923283241      0.20654913546221      0.73411933482920
  C           1.70009995968193      0.38055280227282      0.25411501726227
  C          -0.77504379304452      0.40244722713114     -0.10245172717623
  O          -2.00838649534223     -0.69436727828509     -1.72261687599651
  O           1.93758051611331      0.89163758304879     -1.01866631063882
  O          -0.98773087170789     -0.86663580534950     -0.74808351663591
  H           3.24344407052146     -0.69661742967725     -1.47871843758016
  H           1.39163339335121     -0.98834387763359     -1.79074139511580
  H          -2.85955075538142      0.92812085418329      0.08877990910491
  H          -1.78965275436199      1.75808688458872      1.21969266992295
  H          -2.18756904416473      0.05319655798855      1.48212561507913
  H           0.33049222677664     -0.15727943480093      1.74639263040119
  H           2.57831205451845      0.29774326078383      0.88284468829006
  H          -0.57606135750013      1.13397695848928     -0.88854966354251
  H          -2.74829992436327     -1.16166262616049     -1.31933540257989
