17
Coordinates from ORCA-job freq E -421.390786065720
  C       2.436536      0.145601     -1.400380
  C      -1.722649      1.132417      0.583657
  C       0.341987     -0.261788      0.638144
  C       1.567887      0.228943      0.397005
  C      -0.868356      0.101111     -0.162724
  O      -2.648661     -0.907944     -1.265721
  O       1.851963      1.113759     -0.633012
  O      -1.564981     -1.118202     -0.356191
  H       3.508823      0.130780     -1.493797
  H       1.814165     -0.566935     -1.913171
  H      -2.627071      1.328501      0.013262
  H      -1.160076      2.053982      0.696721
  H      -1.995597      0.750573      1.564537
  H       0.186713     -0.949714      1.452497
  H       2.414733     -0.027026      1.024642
  H      -0.579180      0.512747     -1.139213
  H      -3.038360     -1.789839     -1.311056
17
Coordinates from ORCA-job freq E -421.391159294588
  C       2.362791      0.062125     -1.408647
  C      -1.752934      1.109028      0.598845
  C       0.365188     -0.207448      0.672675
  C       1.593868      0.261481      0.415526
  C      -0.839921      0.133761     -0.145206
  O      -2.565966     -0.873763     -1.296612
  O       1.876730      1.099952     -0.654006
  O      -1.486639     -1.106562     -0.387345
  H       3.428341     -0.027632     -1.543000
  H       1.665721     -0.563132     -1.939991
  H      -2.648774      1.290241      0.009638
  H      -1.231037      2.048295      0.759460
  H      -2.040830      0.687386      1.560197
  H       0.210794     -0.873668      1.507124
  H       2.442477      0.029715      1.049243
  H      -0.542536      0.572405     -1.105373
  H      -2.919395     -1.765220     -1.397326
17
Coordinates from ORCA-job freq E -421.390550474125
  C       2.396523      0.040841     -1.398594
  C      -1.767710      1.101381      0.606971
  C       0.360094     -0.198920      0.654086
  C       1.590914      0.252825      0.383214
  C      -0.855643      0.136051     -0.146708
  O      -2.574744     -0.868792     -1.284716
  O       1.892862      1.098447     -0.674456
  O      -1.495918     -1.111734     -0.377299
  H       3.465891     -0.092518     -1.441406
  H       1.724304     -0.490309     -2.053655
  H      -2.678658      1.272154      0.037882
  H      -1.253036      2.048483      0.752756
  H      -2.028345      0.684096      1.578690
  H       0.220357     -0.851273      1.503745
  H       2.428167      0.042361      1.038821
  H      -0.572689      0.572059     -1.110644
  H      -2.934493     -1.758188     -1.373488
17
Coordinates from ORCA-job freq E -421.389464020721
  C       2.330818      0.037198     -1.390054
  C      -1.760225      1.102496      0.594196
  C       0.373340     -0.200826      0.675652
  C       1.604958      0.250593      0.397337
  C      -0.836503      0.132211     -0.135496
  O      -2.518637     -0.875400     -1.315985
  O       1.884675      1.115331     -0.653400
  O      -1.475871     -1.117382     -0.366749
  H       3.392731     -0.150307     -1.435144
  H       1.635529     -0.418050     -2.077725
  H      -2.662676      1.266234      0.009154
  H      -1.250058      2.052706      0.738211
  H      -2.035266      0.695186      1.566395
  H       0.235214     -0.860314      1.520555
  H       2.449562      0.044237      1.044345
  H      -0.542415      0.557812     -1.100178
  H      -2.907298     -1.754759     -1.375914
17
Coordinates from ORCA-job freq E -421.388906813545
  C       2.335220      0.004780     -1.379827
  C      -1.774356      1.090741      0.606020
  C       0.375551     -0.182380      0.669433
  C       1.610438      0.259069      0.380566
  C      -0.837945      0.144024     -0.137382
  O      -2.510851     -0.864279     -1.325600
  O       1.893766      1.111383     -0.680397
  O      -1.459799     -1.111673     -0.386401
  H       3.396719     -0.189875     -1.408574
  H       1.654055     -0.428377     -2.095986
  H      -2.681329      1.249363      0.026635
  H      -1.278138      2.046547      0.762565
  H      -2.040145      0.666459      1.573830
  H       0.241265     -0.829102      1.525137
  H       2.451973      0.065034      1.035325
  H      -0.549410      0.585087     -1.096416
  H      -2.909137     -1.739834     -1.373730
17
Coordinates from ORCA-job freq E -421.388678411368
  C       2.320075     -0.017127     -1.376690
  C      -1.785018      1.081683      0.613421
  C       0.380770     -0.166552      0.674774
  C       1.618846      0.263796      0.373603
  C      -0.832461      0.155359     -0.133725
  O      -2.477948     -0.857164     -1.353232
  O       1.896710      1.108684     -0.695610
  O      -1.438088     -1.105284     -0.401597
  H       3.380364     -0.219897     -1.411705
  H       1.630736     -0.448646     -2.086461
  H      -2.690891      1.234571      0.030696
  H      -1.303123      2.042697      0.783339
  H      -2.050575      0.644134      1.575564
  H       0.247455     -0.802247      1.539081
  H       2.462296      0.077203      1.027947
  H      -0.542511      0.608738     -1.086219
  H      -2.898761     -1.722984     -1.377987
17
Coordinates from ORCA-job freq E -421.388728951519
  C       2.315846     -0.034278     -1.374866
  C      -1.795670      1.071669      0.618841
  C       0.384307     -0.152239      0.677335
  C       1.625635      0.267875      0.368149
  C      -0.828183      0.166086     -0.133276
  O      -2.454336     -0.849103     -1.374853
  O       1.901033      1.103973     -0.709276
  O      -1.417548     -1.098974     -0.420334
  H       3.376605     -0.232648     -1.424319
  H       1.615603     -0.481011     -2.064641
  H      -2.700002      1.221650      0.032961
  H      -1.326519      2.036322      0.804007
  H      -2.061639      0.619366      1.574213
  H       0.250668     -0.778227      1.548890
  H       2.469815      0.086351      1.022756
  H      -0.537493      0.632657     -1.078858
  H      -2.900244     -1.702503     -1.371527
17
Coordinates from ORCA-job freq E -421.388808024646
  C       2.313873     -0.046941     -1.373200
  C      -1.804858      1.062654      0.622937
  C       0.386851     -0.140886      0.679189
  C       1.631173      0.269470      0.362560
  C      -0.825173      0.174497     -0.132849
  O      -2.429866     -0.845306     -1.398100
  O       1.903780      1.100222     -0.720526
  O      -1.400548     -1.094436     -0.435789
  H       3.375171     -0.240756     -1.432793
  H       1.606445     -0.506936     -2.047235
  H      -2.708172      1.209355      0.034615
  H      -1.346950      2.030642      0.819423
  H      -2.069971      0.599243      1.573378
  H       0.253107     -0.758424      1.557002
  H       2.476081      0.092284      1.017201
  H      -0.533953      0.651709     -1.072645
  H      -2.909112     -1.679423     -1.357968
17
Coordinates from ORCA-job freq E -421.388980180997
  C       2.307377     -0.071270     -1.373545
  C      -1.820818      1.047430      0.631403
  C       0.391448     -0.118845      0.684407
  C       1.639672      0.274922      0.354771
  C      -0.820232      0.189737     -0.130280
  O      -2.387789     -0.840455     -1.435028
  O       1.909456      1.090961     -0.740798
  O      -1.370943     -1.085459     -0.459592
  H       3.368006     -0.266754     -1.443582
  H       1.589629     -0.543426     -2.028523
  H      -2.722376      1.187541      0.038715
  H      -1.383021      2.020875      0.846847
  H      -2.083921      0.565001      1.573161
  H       0.257851     -0.721131      1.573081
  H       2.486141      0.104541      1.008998
  H      -0.529158      0.685110     -1.060290
  H      -2.913444     -1.641813     -1.344546
17
Coordinates from ORCA-job freq E -421.389319552486
  C       2.297672     -0.108982     -1.376873
  C      -1.845809      1.022840      0.644440
  C       0.398343     -0.082755      0.693607
  C       1.651096      0.284258      0.343606
  C      -0.813420      0.213756     -0.125053
  O      -2.324177     -0.835155     -1.487229
  O       1.918717      1.073850     -0.772277
  O      -1.324316     -1.070019     -0.494140
  H       3.356321     -0.312036     -1.458097
  H       1.565597     -0.595831     -2.005156
  H      -2.744362      1.151859      0.044574
  H      -1.440269      2.003844      0.887857
  H      -2.104859      0.511919      1.572465
  H       0.265680     -0.661082      1.598549
  H       2.500454      0.122381      0.996098
  H      -0.524939      0.737246     -1.039842
  H      -2.913854     -1.579127     -1.327329
17
Coordinates from ORCA-job freq E -421.389890083461
  C       2.277250     -0.159736     -1.381775
  C      -1.878430      0.983136      0.657532
  C       0.409616     -0.031898      0.710118
  C       1.665489      0.299845      0.331417
  C      -0.801535      0.243310     -0.116603
  O      -2.225687     -0.838194     -1.559375
  O       1.926510      1.048959     -0.814191
  O      -1.254784     -1.050851     -0.537955
  H       3.331978     -0.375365     -1.481478
  H       1.523265     -0.665260     -1.968330
  H      -2.770187      1.097630      0.044237
  H      -1.519736      1.971979      0.940339
  H      -2.133336      0.433363      1.564619
  H       0.279794     -0.576212      1.636499
  H       2.521274      0.150383      0.978275
  H      -0.518907      0.803256     -1.010701
  H      -2.914697     -1.457380     -1.297429
17
Coordinates from ORCA-job freq E -421.390589936762
  C       2.238035     -0.263900     -1.381829
  C      -1.929146      0.909073      0.679031
  C       0.429865      0.075464      0.725370
  C       1.689882      0.338866      0.307549
  C      -0.779219      0.316564     -0.114291
  O      -2.121407     -0.812165     -1.629097
  O       1.954615      0.995841     -0.891734
  O      -1.121577     -0.980799     -0.636303
  H       3.279701     -0.525886     -1.505209
  H       1.440377     -0.783211     -1.893711
  H      -2.808440      1.024990      0.047326
  H      -1.653076      1.890047      1.063606
  H      -2.175062      0.262459      1.522893
  H       0.299705     -0.405558      1.685935
  H       2.551998      0.203299      0.949031
  H      -0.523247      0.955402     -0.961330
  H      -2.855127     -1.323522     -1.272036
17
Coordinates from ORCA-job freq E -421.390924018208
  C       2.203839     -0.374448     -1.371889
  C      -1.972275      0.819360      0.701171
  C       0.445641      0.181401      0.733020
  C       1.703098      0.378239      0.271888
  C      -0.769401      0.377580     -0.110435
  O      -2.017911     -0.759801     -1.701728
  O       1.955421      0.927487     -0.982261
  O      -0.999532     -0.906900     -0.724606
  H       3.238031     -0.665155     -1.494277
  H       1.383129     -0.919384     -1.815655
  H      -2.849294      0.925099      0.064745
  H      -1.773981      1.783557      1.167851
  H      -2.182675      0.091013      1.486070
  H       0.324206     -0.219039      1.730884
  H       2.575438      0.276012      0.905872
  H      -0.557131      1.086757     -0.912546
  H      -2.788727     -1.124811     -1.252907
17
Coordinates from ORCA-job freq E -421.390267306074
  C       2.123081     -0.535003     -1.345831
  C      -2.001786      0.744416      0.761733
  C       0.464316      0.335904      0.741933
  C       1.710817      0.416402      0.218851
  C      -0.768325      0.499582     -0.085000
  O      -1.948269     -0.563221     -1.760856
  O       1.934240      0.810619     -1.096617
  O      -0.881078     -0.728434     -0.828984
  H       3.142549     -0.873847     -1.469507
  H       1.265185     -1.094027     -1.688346
  H      -2.885785      0.864558      0.138987
  H      -1.873275      1.653634      1.348481
  H      -2.157246     -0.091245      1.445992
  H       0.364495      0.056726      1.782314
  H       2.602376      0.345269      0.830142
  H      -0.624497      1.299935     -0.814741
  H      -2.548923     -1.264302     -1.483351
17
Coordinates from ORCA-job freq E -421.390656474412
  C       2.250257     -0.504187     -1.346637
  C      -2.002347      0.770337      0.766908
  C       0.442199      0.264336      0.709246
  C       1.692869      0.384791      0.202238
  C      -0.799633      0.451037     -0.100747
  O      -2.036507     -0.590974     -1.748804
  O       1.925881      0.815896     -1.099813
  O      -0.989196     -0.788186     -0.806334
  H       3.302733     -0.744868     -1.413851
  H       1.473954     -1.129159     -1.759119
  H      -2.892305      0.910480      0.156825
  H      -1.824194      1.687463      1.327887
  H      -2.176531     -0.041352      1.475079
  H       0.343686     -0.012041      1.750714
  H       2.572433      0.345093      0.833911
  H      -0.642619      1.228149     -0.852636
  H      -2.722803     -1.169849     -1.399669
17
Coordinates from ORCA-job freq E -421.390729173283
  C       2.164572     -0.394959     -1.372110
  C      -1.972928      0.820673      0.710085
  C       0.451256      0.174503      0.757489
  C       1.694836      0.384843      0.272803
  C      -0.762489      0.375969     -0.087495
  O      -1.943573     -0.745421     -1.734553
  O       1.892986      0.907354     -1.002447
  O      -0.979786     -0.907967     -0.704862
  H       3.202600     -0.663982     -1.509432
  H       1.347830     -0.964727     -1.794987
  H      -2.838022      0.949340      0.061010
  H      -1.769642      1.775238      1.194238
  H      -2.206803      0.083734      1.480057
  H       0.336865     -0.193016      1.768081
  H       2.587811      0.302969      0.880210
  H      -0.547653      1.081945     -0.891333
  H      -2.739984     -1.109528     -1.331554
17
Coordinates from ORCA-job freq E -421.390994902679
  C       2.207988     -0.411139     -1.365713
  C      -1.979611      0.812848      0.718781
  C       0.444915      0.197811      0.733746
  C       1.698765      0.378799      0.256453
  C      -0.775065      0.396263     -0.103685
  O      -2.013377     -0.702226     -1.718737
  O       1.934845      0.896568     -1.013863
  O      -0.994675     -0.875021     -0.742431
  H       3.248124     -0.683820     -1.480041
  H       1.397970     -0.982490     -1.794276
  H      -2.856513      0.936116      0.085707
  H      -1.781249      1.763143      1.213427
  H      -2.189785      0.061794      1.482023
  H       0.328302     -0.171553      1.743884
  H       2.576870      0.296499      0.885361
  H      -0.571890      1.122703     -0.893393
  H      -2.757737     -1.159328     -1.312045
17
Coordinates from ORCA-job freq E -421.391007796233
  C       2.203666     -0.420493     -1.365235
  C      -1.982523      0.807486      0.722168
  C       0.446379      0.208031      0.734412
  C       1.700193      0.380865      0.253630
  C      -0.774862      0.403851     -0.102094
  O      -2.007512     -0.692448     -1.723249
  O       1.937134      0.890375     -1.019888
  O      -0.986210     -0.864686     -0.749361
  H       3.242483     -0.698661     -1.478545
  H       1.390478     -0.990316     -1.789735
  H      -2.859908      0.926960      0.089168
  H      -1.791273      1.756928      1.221285
  H      -2.187354      0.051288      1.481734
  H       0.330912     -0.154638      1.747122
  H       2.578705      0.298518      0.882013
  H      -0.576271      1.136487     -0.887277
  H      -2.746161     -1.162581     -1.320947
17
Coordinates from ORCA-job freq E -421.391003714965
  C       2.204612     -0.418664     -1.365392
  C      -1.982073      0.808370      0.721615
  C       0.446148      0.206394      0.734142
  C       1.700061      0.380519      0.254137
  C      -0.775022      0.402344     -0.102447
  O      -2.008499     -0.694393     -1.722542
  O       1.937421      0.891666     -1.018641
  O      -0.987873     -0.866748     -0.747992
  H       3.243541     -0.696374     -1.478712
  H       1.391789     -0.988378     -1.790786
  H      -2.859483      0.928253      0.088702
  H      -1.789543      1.758127      1.219639
  H      -2.187633      0.053276      1.482072
  H       0.330494     -0.157444      1.746411
  H       2.578307      0.297812      0.882834
  H      -0.575906      1.133811     -0.888576
  H      -2.748463     -1.161607     -1.319264
17
Coordinates from ORCA-job freq E -421.391007697177
  C       2.204560     -0.418756     -1.365370
  C      -1.982110      0.808317      0.721664
  C       0.446159      0.206549      0.734119
  C       1.700100      0.380553      0.254115
  C      -0.775044      0.402447     -0.102452
  O      -2.008386     -0.694367     -1.722617
  O       1.937581      0.891638     -1.018666
  O      -0.987731     -0.866636     -0.748084
  H       3.243444     -0.696617     -1.478718
  H       1.391633     -0.988344     -1.790741
  H      -2.859551      0.928121      0.088780
  H      -1.789653      1.758087      1.219693
  H      -2.187569      0.053197      1.482126
  H       0.330492     -0.157279      1.746393
  H       2.578312      0.297743      0.882845
  H      -0.576061      1.133977     -0.888550
  H      -2.748300     -1.161663     -1.319335
