17
* (null), Energy   -1000.0000000
C     2.208250   -0.478794   -0.913057    0.350682   -0.104348   -1.072352
C    -1.978419    0.748279    1.173977   -0.000409    0.002167   -0.005017
C     0.449849    0.146511    1.186433    0.038026    0.050525    0.063235
C     1.703790    0.320515    0.706429   -0.420809    0.758148    0.677617
C    -0.771354    0.342409    0.349862   -0.006944    0.002188   -0.016588
O    -2.004696   -0.754405   -1.270303    0.008857    0.001738    0.014372
O     1.941271    0.831600   -0.566353   -0.000766   -0.500672    0.279822
O    -0.984041   -0.926674   -0.295770    0.010559    0.010850    0.007971
H     3.247134   -0.756655   -1.026405    0.345859   -0.011551   -0.813066
H     1.395323   -1.048382   -1.338428    0.087881   -0.400850   -0.082124
H    -2.855861    0.868083    0.541093   -0.005584    0.018348    0.006283
H    -1.785963    1.698049    1.672006    0.013906   -0.005611    0.005782
H    -2.183879   -0.006841    1.934439    0.000253   -0.000576   -0.007262
H     0.334182   -0.217317    2.198706   -0.066255    0.020938    0.046989
H     2.582002    0.237705    1.335158   -0.202841   -0.317633    0.247021
H    -0.572371    1.073939   -0.436236   -0.010672    0.007284   -0.002026
H    -2.744610   -1.221700   -0.867022    0.011573   -0.007848    0.009917
17
* Frequency(6) -709.4469
C     2.248103   -0.490652   -1.034924    0.350682   -0.104348   -1.072352
C    -1.978466    0.748526    1.173407   -0.000409    0.002167   -0.005017
C     0.454171    0.152253    1.193619    0.038026    0.050525    0.063235
C     1.655967    0.406675    0.783436   -0.420809    0.758148    0.677617
C    -0.772143    0.342658    0.347977   -0.006944    0.002188   -0.016588
O    -2.003690   -0.754208   -1.268670    0.008857    0.001738    0.014372
O     1.941184    0.774701   -0.534552   -0.000766   -0.500672    0.279822
O    -0.982841   -0.925441   -0.294864    0.010559    0.010850    0.007971
H     3.286439   -0.757968   -1.118806    0.345859   -0.011551   -0.813066
H     1.405311   -1.093936   -1.347761    0.087881   -0.400850   -0.082124
H    -2.856495    0.870168    0.541807   -0.005584    0.018348    0.006283
H    -1.784382    1.697411    1.672663    0.013906   -0.005611    0.005782
H    -2.183850   -0.006907    1.933614    0.000253   -0.000576   -0.007262
H     0.326653   -0.214938    2.204046   -0.066255    0.020938    0.046989
H     2.558950    0.201608    1.363231   -0.202841   -0.317633    0.247021
H    -0.573584    1.074767   -0.436466   -0.010672    0.007284   -0.002026
H    -2.743295   -1.222592   -0.865895    0.011573   -0.007848    0.009917
17
* Frequency(6) -709.4469
C     2.283638   -0.501226   -1.143585    0.350682   -0.104348   -1.072352
C    -1.978507    0.748745    1.172899   -0.000409    0.002167   -0.005017
C     0.458024    0.157373    1.200027    0.038026    0.050525    0.063235
C     1.613327    0.483497    0.852099   -0.420809    0.758148    0.677617
C    -0.772847    0.342880    0.346296   -0.006944    0.002188   -0.016588
O    -2.002792   -0.754032   -1.267214    0.008857    0.001738    0.014372
O     1.941106    0.723968   -0.506198   -0.000766   -0.500672    0.279822
O    -0.981771   -0.924341   -0.294056    0.010559    0.010850    0.007971
H     3.321485   -0.759138   -1.201193    0.345859   -0.011551   -0.813066
H     1.414216   -1.134554   -1.356082    0.087881   -0.400850   -0.082124
H    -2.857061    0.872027    0.542444   -0.005584    0.018348    0.006283
H    -1.782973    1.696843    1.673249    0.013906   -0.005611    0.005782
H    -2.183824   -0.006965    1.932878    0.000253   -0.000576   -0.007262
H     0.319939   -0.212816    2.208808   -0.066255    0.020938    0.046989
H     2.538396    0.169422    1.388261   -0.202841   -0.317633    0.247021
H    -0.574665    1.075505   -0.436672   -0.010672    0.007284   -0.002026
H    -2.742122   -1.223388   -0.864890    0.011573   -0.007848    0.009917
17
* Frequency(6) -709.4469
C     2.311003   -0.509369   -1.227265    0.350682   -0.104348   -1.072352
C    -1.978539    0.748914    1.172507   -0.000409    0.002167   -0.005017
C     0.460991    0.161315    1.204961    0.038026    0.050525    0.063235
C     1.580489    0.542659    0.904976   -0.420809    0.758148    0.677617
C    -0.773388    0.343050    0.345002   -0.006944    0.002188   -0.016588
O    -2.002101   -0.753896   -1.266092    0.008857    0.001738    0.014372
O     1.941046    0.684899   -0.484362   -0.000766   -0.500672    0.279822
O    -0.980947   -0.923495   -0.293434    0.010559    0.010850    0.007971
H     3.348474   -0.760040   -1.264640    0.345859   -0.011551   -0.813066
H     1.421073   -1.165834   -1.362491    0.087881   -0.400850   -0.082124
H    -2.857497    0.873459    0.542934   -0.005584    0.018348    0.006283
H    -1.781888    1.696405    1.673700    0.013906   -0.005611    0.005782
H    -2.183805   -0.007010    1.932311    0.000253   -0.000576   -0.007262
H     0.314769   -0.211182    2.212474   -0.066255    0.020938    0.046989
H     2.522568    0.144636    1.407537   -0.202841   -0.317633    0.247021
H    -0.575498    1.076073   -0.436830   -0.010672    0.007284   -0.002026
H    -2.741219   -1.224000   -0.864116    0.011573   -0.007848    0.009917
17
* Frequency(6) -709.4469
C     2.327233   -0.514198   -1.276895    0.350682   -0.104348   -1.072352
C    -1.978558    0.749014    1.172275   -0.000409    0.002167   -0.005017
C     0.462751    0.163654    1.207888    0.038026    0.050525    0.063235
C     1.561014    0.577747    0.936337   -0.420809    0.758148    0.677617
C    -0.773710    0.343152    0.344234   -0.006944    0.002188   -0.016588
O    -2.001691   -0.753816   -1.265427    0.008857    0.001738    0.014372
O     1.941011    0.661727   -0.471412   -0.000766   -0.500672    0.279822
O    -0.980458   -0.922992   -0.293066    0.010559    0.010850    0.007971
H     3.364481   -0.760574   -1.302270    0.345859   -0.011551   -0.813066
H     1.425141   -1.184386   -1.366292    0.087881   -0.400850   -0.082124
H    -2.857755    0.874308    0.543225   -0.005584    0.018348    0.006283
H    -1.781244    1.696145    1.673968    0.013906   -0.005611    0.005782
H    -2.183793   -0.007037    1.931975    0.000253   -0.000576   -0.007262
H     0.311703   -0.210213    2.214649   -0.066255    0.020938    0.046989
H     2.513180    0.129936    1.418970   -0.202841   -0.317633    0.247021
H    -0.575992    1.076411   -0.436923   -0.010672    0.007284   -0.002026
H    -2.740683   -1.224363   -0.863657    0.011573   -0.007848    0.009917
17
* Frequency(6) -709.4469
C     2.330570   -0.515191   -1.287098    0.350682   -0.104348   -1.072352
C    -1.978562    0.749035    1.172227   -0.000409    0.002167   -0.005017
C     0.463113    0.164135    1.208489    0.038026    0.050525    0.063235
C     1.557010    0.584960    0.942784   -0.420809    0.758148    0.677617
C    -0.773776    0.343172    0.344076   -0.006944    0.002188   -0.016588
O    -2.001607   -0.753799   -1.265290    0.008857    0.001738    0.014372
O     1.941003    0.656963   -0.468749   -0.000766   -0.500672    0.279822
O    -0.980358   -0.922889   -0.292990    0.010559    0.010850    0.007971
H     3.367771   -0.760684   -1.310006    0.345859   -0.011551   -0.813066
H     1.425977   -1.188200   -1.367073    0.087881   -0.400850   -0.082124
H    -2.857808    0.874483    0.543285   -0.005584    0.018348    0.006283
H    -1.781112    1.696092    1.674023    0.013906   -0.005611    0.005782
H    -2.183791   -0.007042    1.931906    0.000253   -0.000576   -0.007262
H     0.311072   -0.210014    2.215096   -0.066255    0.020938    0.046989
H     2.511250    0.126913    1.421320   -0.202841   -0.317633    0.247021
H    -0.576094    1.076480   -0.436943   -0.010672    0.007284   -0.002026
H    -2.740573   -1.224438   -0.863563    0.011573   -0.007848    0.009917
17
* Frequency(6) -709.4469
C     2.320651   -0.512239   -1.256768    0.350682   -0.104348   -1.072352
C    -1.978551    0.748974    1.172369   -0.000409    0.002167   -0.005017
C     0.462037    0.162706    1.206701    0.038026    0.050525    0.063235
C     1.568912    0.563517    0.923619   -0.420809    0.758148    0.677617
C    -0.773579    0.343111    0.344545   -0.006944    0.002188   -0.016588
O    -2.001857   -0.753848   -1.265697    0.008857    0.001738    0.014372
O     1.941025    0.671124   -0.476664   -0.000766   -0.500672    0.279822
O    -0.980657   -0.923196   -0.293215    0.010559    0.010850    0.007971
H     3.357989   -0.760357   -1.287009    0.345859   -0.011551   -0.813066
H     1.423491   -1.176862   -1.364750    0.087881   -0.400850   -0.082124
H    -2.857650    0.873964    0.543107   -0.005584    0.018348    0.006283
H    -1.781505    1.696251    1.673859    0.013906   -0.005611    0.005782
H    -2.183798   -0.007026    1.932111    0.000253   -0.000576   -0.007262
H     0.312946   -0.210606    2.213767   -0.066255    0.020938    0.046989
H     2.516987    0.135897    1.414334   -0.202841   -0.317633    0.247021
H    -0.575792    1.076274   -0.436885   -0.010672    0.007284   -0.002026
H    -2.740900   -1.224216   -0.863843    0.011573   -0.007848    0.009917
17
* Frequency(6) -709.4469
C     2.298552   -0.505664   -1.189191    0.350682   -0.104348   -1.072352
C    -1.978525    0.748837    1.172685   -0.000409    0.002167   -0.005017
C     0.459641    0.159522    1.202716    0.038026    0.050525    0.063235
C     1.595430    0.515741    0.880917   -0.420809    0.758148    0.677617
C    -0.773142    0.342973    0.345590   -0.006944    0.002188   -0.016588
O    -2.002416   -0.753958   -1.266602    0.008857    0.001738    0.014372
O     1.941073    0.702675   -0.494298   -0.000766   -0.500672    0.279822
O    -0.981322   -0.923880   -0.293717    0.010559    0.010850    0.007971
H     3.336194   -0.759630   -1.235772    0.345859   -0.011551   -0.813066
H     1.417953   -1.151602   -1.359575    0.087881   -0.400850   -0.082124
H    -2.857298    0.872808    0.542711   -0.005584    0.018348    0.006283
H    -1.782382    1.696604    1.673495    0.013906   -0.005611    0.005782
H    -2.183814   -0.006990    1.932569    0.000253   -0.000576   -0.007262
H     0.317122   -0.211926    2.210806   -0.066255    0.020938    0.046989
H     2.529770    0.155914    1.398767   -0.202841   -0.317633    0.247021
H    -0.575119    1.075815   -0.436758   -0.010672    0.007284   -0.002026
H    -2.741630   -1.223721   -0.864468    0.011573   -0.007848    0.009917
17
* Frequency(6) -709.4469
C     2.266667   -0.496176   -1.091691    0.350682   -0.104348   -1.072352
C    -1.978488    0.748640    1.173141   -0.000409    0.002167   -0.005017
C     0.456184    0.154928    1.196967    0.038026    0.050525    0.063235
C     1.633691    0.446808    0.819307   -0.420809    0.758148    0.677617
C    -0.772510    0.342774    0.347099   -0.006944    0.002188   -0.016588
O    -2.003221   -0.754116   -1.267909    0.008857    0.001738    0.014372
O     1.941143    0.748197   -0.519740   -0.000766   -0.500672    0.279822
O    -0.982282   -0.924866   -0.294442    0.010559    0.010850    0.007971
H     3.304748   -0.758579   -1.161847    0.345859   -0.011551   -0.813066
H     1.409963   -1.115156   -1.352108    0.087881   -0.400850   -0.082124
H    -2.856791    0.871139    0.542140   -0.005584    0.018348    0.006283
H    -1.783646    1.697114    1.672969    0.013906   -0.005611    0.005782
H    -2.183837   -0.006937    1.933229    0.000253   -0.000576   -0.007262
H     0.323146   -0.213829    2.206534   -0.066255    0.020938    0.046989
H     2.548213    0.184794    1.376307   -0.202841   -0.317633    0.247021
H    -0.574149    1.075152   -0.436574   -0.010672    0.007284   -0.002026
H    -2.742682   -1.223008   -0.865370    0.011573   -0.007848    0.009917
17
* Frequency(6) -709.4469
C     2.228452   -0.484805   -0.974833    0.350682   -0.104348   -1.072352
C    -1.978443    0.748404    1.173688   -0.000409    0.002167   -0.005017
C     0.452040    0.149422    1.190076    0.038026    0.050525    0.063235
C     1.679548    0.364190    0.745465   -0.420809    0.758148    0.677617
C    -0.771754    0.342535    0.348906   -0.006944    0.002188   -0.016588
O    -2.004186   -0.754305   -1.269475    0.008857    0.001738    0.014372
O     1.941226    0.802757   -0.550233   -0.000766   -0.500672    0.279822
O    -0.983433   -0.926049   -0.295311    0.010559    0.010850    0.007971
H     3.267058   -0.757321   -1.073244    0.345859   -0.011551   -0.813066
H     1.400386   -1.071474   -1.343159    0.087881   -0.400850   -0.082124
H    -2.856182    0.869140    0.541455   -0.005584    0.018348    0.006283
H    -1.785162    1.697726    1.672339    0.013906   -0.005611    0.005782
H    -2.183864   -0.006874    1.934021    0.000253   -0.000576   -0.007262
H     0.330366   -0.216111    2.201413   -0.066255    0.020938    0.046989
H     2.570317    0.219407    1.349389   -0.202841   -0.317633    0.247021
H    -0.572986    1.074359   -0.436353   -0.010672    0.007284   -0.002026
H    -2.743943   -1.222153   -0.866451    0.011573   -0.007848    0.009917
17
* Frequency(6) -709.4469
C     2.188048   -0.472783   -0.851280    0.350682   -0.104348   -1.072352
C    -1.978396    0.748154    1.174266   -0.000409    0.002167   -0.005017
C     0.447659    0.143601    1.182790    0.038026    0.050525    0.063235
C     1.728032    0.276839    0.667392   -0.420809    0.758148    0.677617
C    -0.770954    0.342283    0.350817   -0.006944    0.002188   -0.016588
O    -2.005207   -0.754505   -1.271131    0.008857    0.001738    0.014372
O     1.941315    0.860443   -0.582473   -0.000766   -0.500672    0.279822
O    -0.984649   -0.927299   -0.296229    0.010559    0.010850    0.007971
H     3.227210   -0.755990   -0.979566    0.345859   -0.011551   -0.813066
H     1.390261   -1.025290   -1.333697    0.087881   -0.400850   -0.082124
H    -2.855539    0.867026    0.540731   -0.005584    0.018348    0.006283
H    -1.786764    1.698372    1.671673    0.013906   -0.005611    0.005782
H    -2.183894   -0.006808    1.934858    0.000253   -0.000576   -0.007262
H     0.337999   -0.218523    2.195999   -0.066255    0.020938    0.046989
H     2.593687    0.256004    1.320928   -0.202841   -0.317633    0.247021
H    -0.571756    1.073519   -0.436119   -0.010672    0.007284   -0.002026
H    -2.745277   -1.221248   -0.867593    0.011573   -0.007848    0.009917
17
* Frequency(6) -709.4469
C     2.149833   -0.461411   -0.734423    0.350682   -0.104348   -1.072352
C    -1.978351    0.747918    1.174813   -0.000409    0.002167   -0.005017
C     0.443515    0.138095    1.175899    0.038026    0.050525    0.063235
C     1.773889    0.194221    0.593550   -0.420809    0.758148    0.677617
C    -0.770197    0.342045    0.352625   -0.006944    0.002188   -0.016588
O    -2.006172   -0.754695   -1.272697    0.008857    0.001738    0.014372
O     1.941398    0.915003   -0.612966   -0.000766   -0.500672    0.279822
O    -0.985800   -0.928481   -0.297098    0.010559    0.010850    0.007971
H     3.189520   -0.754731   -0.890963    0.345859   -0.011551   -0.813066
H     1.380684   -0.981608   -1.324748    0.087881   -0.400850   -0.082124
H    -2.854931    0.865026    0.540047   -0.005584    0.018348    0.006283
H    -1.788279    1.698984    1.671043    0.013906   -0.005611    0.005782
H    -2.183921   -0.006745    1.935649    0.000253   -0.000576   -0.007262
H     0.345219   -0.220805    2.190879   -0.066255    0.020938    0.046989
H     2.615792    0.290617    1.294009   -0.202841   -0.317633    0.247021
H    -0.570594    1.072726   -0.435899   -0.010672    0.007284   -0.002026
H    -2.746538   -1.220393   -0.868674    0.011573   -0.007848    0.009917
17
* Frequency(6) -709.4469
C     2.117948   -0.451924   -0.636922    0.350682   -0.104348   -1.072352
C    -1.978314    0.747721    1.175269   -0.000409    0.002167   -0.005017
C     0.440058    0.133501    1.170150    0.038026    0.050525    0.063235
C     1.812150    0.125289    0.531940   -0.420809    0.758148    0.677617
C    -0.769566    0.341846    0.354133   -0.006944    0.002188   -0.016588
O    -2.006977   -0.754853   -1.274004    0.008857    0.001738    0.014372
O     1.941468    0.960525   -0.638408   -0.000766   -0.500672    0.279822
O    -0.986760   -0.929468   -0.297822    0.010559    0.010850    0.007971
H     3.158074   -0.753681   -0.817038    0.345859   -0.011551   -0.813066
H     1.372694   -0.945162   -1.317281    0.087881   -0.400850   -0.082124
H    -2.854423    0.863358    0.539476   -0.005584    0.018348    0.006283
H    -1.789544    1.699494    1.670517    0.013906   -0.005611    0.005782
H    -2.183944   -0.006693    1.936309    0.000253   -0.000576   -0.007262
H     0.351243   -0.222709    2.186606   -0.066255    0.020938    0.046989
H     2.634234    0.319497    1.271550   -0.202841   -0.317633    0.247021
H    -0.569623    1.072063   -0.435715   -0.010672    0.007284   -0.002026
H    -2.747590   -1.219679   -0.869576    0.011573   -0.007848    0.009917
17
* Frequency(6) -709.4469
C     2.095849   -0.445348   -0.569346    0.350682   -0.104348   -1.072352
C    -1.978288    0.747585    1.175585   -0.000409    0.002167   -0.005017
C     0.437661    0.130317    1.166165    0.038026    0.050525    0.063235
C     1.838668    0.077513    0.489238   -0.420809    0.758148    0.677617
C    -0.769128    0.341708    0.355178   -0.006944    0.002188   -0.016588
O    -2.007535   -0.754962   -1.274910    0.008857    0.001738    0.014372
O     1.941516    0.992076   -0.656042   -0.000766   -0.500672    0.279822
O    -0.987425   -0.930151   -0.298325    0.010559    0.010850    0.007971
H     3.136279   -0.752953   -0.765800    0.345859   -0.011551   -0.813066
H     1.367156   -0.919901   -1.312106    0.087881   -0.400850   -0.082124
H    -2.854071    0.862202    0.539080   -0.005584    0.018348    0.006283
H    -1.790420    1.699848    1.670153    0.013906   -0.005611    0.005782
H    -2.183960   -0.006657    1.936767    0.000253   -0.000576   -0.007262
H     0.355418   -0.224028    2.183645   -0.066255    0.020938    0.046989
H     2.647017    0.339513    1.255983   -0.202841   -0.317633    0.247021
H    -0.568951    1.071604   -0.435587   -0.010672    0.007284   -0.002026
H    -2.748319   -1.219185   -0.870201    0.011573   -0.007848    0.009917
17
* Frequency(6) -709.4469
C     2.085931   -0.442397   -0.539015    0.350682   -0.104348   -1.072352
C    -1.978277    0.747524    1.175727   -0.000409    0.002167   -0.005017
C     0.436586    0.128888    1.164376    0.038026    0.050525    0.063235
C     1.850570    0.056069    0.470073   -0.420809    0.758148    0.677617
C    -0.768931    0.341646    0.355648   -0.006944    0.002188   -0.016588
O    -2.007786   -0.755011   -1.275316    0.008857    0.001738    0.014372
O     1.941538    1.006237   -0.663956   -0.000766   -0.500672    0.279822
O    -0.987724   -0.930458   -0.298550    0.010559    0.010850    0.007971
H     3.126497   -0.752626   -0.742804    0.345859   -0.011551   -0.813066
H     1.364670   -0.908563   -1.309783    0.087881   -0.400850   -0.082124
H    -2.853913    0.861683    0.538902   -0.005584    0.018348    0.006283
H    -1.790813    1.700006    1.669989    0.013906   -0.005611    0.005782
H    -2.183967   -0.006640    1.936972    0.000253   -0.000576   -0.007262
H     0.357292   -0.224620    2.182316   -0.066255    0.020938    0.046989
H     2.652754    0.348497    1.248996   -0.202841   -0.317633    0.247021
H    -0.568649    1.071398   -0.435530   -0.010672    0.007284   -0.002026
H    -2.748647   -1.218963   -0.870481    0.011573   -0.007848    0.009917
17
* Frequency(6) -709.4469
C     2.089267   -0.443390   -0.549218    0.350682   -0.104348   -1.072352
C    -1.978281    0.747544    1.175680   -0.000409    0.002167   -0.005017
C     0.436948    0.129369    1.164978    0.038026    0.050525    0.063235
C     1.846567    0.063283    0.476520   -0.420809    0.758148    0.677617
C    -0.768998    0.341667    0.355490   -0.006944    0.002188   -0.016588
O    -2.007702   -0.754995   -1.275180    0.008857    0.001738    0.014372
O     1.941531    1.001473   -0.661294   -0.000766   -0.500672    0.279822
O    -0.987623   -0.930355   -0.298474    0.010559    0.010850    0.007971
H     3.129788   -0.752736   -0.750540    0.345859   -0.011551   -0.813066
H     1.365506   -0.912377   -1.310564    0.087881   -0.400850   -0.082124
H    -2.853966    0.861858    0.538962   -0.005584    0.018348    0.006283
H    -1.790681    1.699953    1.670044    0.013906   -0.005611    0.005782
H    -2.183965   -0.006646    1.936903    0.000253   -0.000576   -0.007262
H     0.356662   -0.224421    2.182763   -0.066255    0.020938    0.046989
H     2.650824    0.345475    1.251347   -0.202841   -0.317633    0.247021
H    -0.568750    1.071468   -0.435549   -0.010672    0.007284   -0.002026
H    -2.748537   -1.219038   -0.870387    0.011573   -0.007848    0.009917
17
* Frequency(6) -709.4469
C     2.105497   -0.448219   -0.598849    0.350682   -0.104348   -1.072352
C    -1.978299    0.747644    1.175447   -0.000409    0.002167   -0.005017
C     0.438707    0.131707    1.167905    0.038026    0.050525    0.063235
C     1.827091    0.098371    0.507881   -0.420809    0.758148    0.677617
C    -0.769319    0.341768    0.354722   -0.006944    0.002188   -0.016588
O    -2.007292   -0.754914   -1.274514    0.008857    0.001738    0.014372
O     1.941495    0.978301   -0.648343   -0.000766   -0.500672    0.279822
O    -0.987135   -0.929853   -0.298105    0.010559    0.010850    0.007971
H     3.145795   -0.753271   -0.788170    0.345859   -0.011551   -0.813066
H     1.369574   -0.930929   -1.314365    0.087881   -0.400850   -0.082124
H    -2.854225    0.862707    0.539252   -0.005584    0.018348    0.006283
H    -1.790037    1.699693    1.670312    0.013906   -0.005611    0.005782
H    -2.183953   -0.006673    1.936567    0.000253   -0.000576   -0.007262
H     0.353595   -0.223452    2.184938   -0.066255    0.020938    0.046989
H     2.641436    0.330775    1.262779   -0.202841   -0.317633    0.247021
H    -0.569244    1.071805   -0.435643   -0.010672    0.007284   -0.002026
H    -2.748001   -1.219401   -0.869928    0.011573   -0.007848    0.009917
17
* Frequency(6) -709.4469
C     2.132862   -0.456362   -0.682528    0.350682   -0.104348   -1.072352
C    -1.978331    0.747814    1.175056   -0.000409    0.002167   -0.005017
C     0.441675    0.135650    1.172839    0.038026    0.050525    0.063235
C     1.794253    0.157532    0.560758   -0.420809    0.758148    0.677617
C    -0.769861    0.341939    0.353428   -0.006944    0.002188   -0.016588
O    -2.006600   -0.754779   -1.273393    0.008857    0.001738    0.014372
O     1.941435    0.939231   -0.626507   -0.000766   -0.500672    0.279822
O    -0.986311   -0.929006   -0.297483    0.010559    0.010850    0.007971
H     3.172783   -0.754172   -0.851617    0.345859   -0.011551   -0.813066
H     1.376431   -0.962209   -1.320773    0.087881   -0.400850   -0.082124
H    -2.854660    0.864139    0.539743   -0.005584    0.018348    0.006283
H    -1.788952    1.699255    1.670763    0.013906   -0.005611    0.005782
H    -2.183933   -0.006717    1.936000    0.000253   -0.000576   -0.007262
H     0.348425   -0.221818    2.188605   -0.066255    0.020938    0.046989
H     2.625608    0.305988    1.282055   -0.202841   -0.317633    0.247021
H    -0.570077    1.072373   -0.435801   -0.010672    0.007284   -0.002026
H    -2.747098   -1.220013   -0.869154    0.011573   -0.007848    0.009917
17
* Frequency(6) -709.4469
C     2.168397   -0.466935   -0.791189    0.350682   -0.104348   -1.072352
C    -1.978373    0.748033    1.174547   -0.000409    0.002167   -0.005017
C     0.445528    0.140769    1.179247    0.038026    0.050525    0.063235
C     1.751613    0.234355    0.629421   -0.420809    0.758148    0.677617
C    -0.770565    0.342161    0.351747   -0.006944    0.002188   -0.016588
O    -2.005703   -0.754603   -1.271937    0.008857    0.001738    0.014372
O     1.941358    0.888499   -0.598153   -0.000766   -0.500672    0.279822
O    -0.985241   -0.927907   -0.296676    0.010559    0.010850    0.007971
H     3.207829   -0.755343   -0.934004    0.345859   -0.011551   -0.813066
H     1.385336   -1.002827   -1.329095    0.087881   -0.400850   -0.082124
H    -2.855226    0.865998    0.540379   -0.005584    0.018348    0.006283
H    -1.787543    1.698687    1.671349    0.013906   -0.005611    0.005782
H    -2.183908   -0.006776    1.935264    0.000253   -0.000576   -0.007262
H     0.341712   -0.219697    2.193366   -0.066255    0.020938    0.046989
H     2.605054    0.273803    1.307086   -0.202841   -0.317633    0.247021
H    -0.571158    1.073111   -0.436006   -0.010672    0.007284   -0.002026
H    -2.745925   -1.220809   -0.868149    0.011573   -0.007848    0.009917
17
* Frequency(6) -709.4469
C     2.208250   -0.478794   -0.913057    0.350682   -0.104348   -1.072352
C    -1.978419    0.748279    1.173977   -0.000409    0.002167   -0.005017
C     0.449849    0.146511    1.186433    0.038026    0.050525    0.063235
C     1.703790    0.320515    0.706429   -0.420809    0.758148    0.677617
C    -0.771354    0.342409    0.349862   -0.006944    0.002188   -0.016588
O    -2.004696   -0.754405   -1.270303    0.008857    0.001738    0.014372
O     1.941271    0.831600   -0.566353   -0.000766   -0.500672    0.279822
O    -0.984041   -0.926674   -0.295770    0.010559    0.010850    0.007971
H     3.247134   -0.756655   -1.026405    0.345859   -0.011551   -0.813066
H     1.395323   -1.048382   -1.338428    0.087881   -0.400850   -0.082124
H    -2.855861    0.868083    0.541093   -0.005584    0.018348    0.006283
H    -1.785963    1.698049    1.672006    0.013906   -0.005611    0.005782
H    -2.183879   -0.006841    1.934439    0.000253   -0.000576   -0.007262
H     0.334182   -0.217317    2.198706   -0.066255    0.020938    0.046989
H     2.582002    0.237705    1.335158   -0.202841   -0.317633    0.247021
H    -0.572371    1.073939   -0.436236   -0.010672    0.007284   -0.002026
H    -2.744610   -1.221700   -0.867022    0.011573   -0.007848    0.009917
