15
Coordinates from ORCA-job freq E -270.978660328955
  C       2.507990      0.287402     -0.100515
  C       1.008140      0.514007     -0.142888
  C       0.086549     -0.492847      0.478891
  C      -2.336845      0.382648      0.169858
  C      -1.255019     -0.521389     -0.225232
  O      -2.369428     -0.980652      0.481953
  H       1.692942      0.184842     -1.095847
  H       2.869528     -0.623775      0.336698
  H       3.153299      1.144393     -0.069754
  H       0.675741      1.540977     -0.145621
  H       0.534296     -1.488273      0.432423
  H      -0.087434     -0.261911      1.537687
  H      -3.062185      0.714339     -0.564610
  H      -2.188736      1.051163      1.010434
  H      -1.220350     -0.837966     -1.267124
15
Coordinates from ORCA-job freq E -270.979338231659
  C       2.485978      0.294376     -0.084545
  C       1.014595      0.516098     -0.124367
  C       0.083864     -0.493250      0.476222
  C      -2.336451      0.383655      0.172563
  C      -1.249287     -0.512630     -0.230567
  O      -2.362915     -0.990834      0.481021
  H       1.717414      0.173318     -1.061241
  H       2.858273     -0.627838      0.336622
  H       3.146926      1.147088     -0.104031
  H       0.676482      1.542675     -0.175927
  H       0.531279     -1.489112      0.428425
  H      -0.091335     -0.272046      1.534887
  H      -3.065660      0.714974     -0.557993
  H      -2.187051      1.048526      1.017497
  H      -1.213623     -0.822040     -1.272213
15
Coordinates from ORCA-job freq E -270.977795722506
  C       2.465211      0.283322     -0.122260
  C       1.009953      0.531664     -0.099341
  C       0.082810     -0.484271      0.493994
  C      -2.332064      0.381816      0.154024
  C      -1.242238     -0.521805     -0.223428
  O      -2.363107     -0.989737      0.490218
  H       1.736143      0.209408     -1.052466
  H       2.827797     -0.659215      0.257671
  H       3.133426      1.128943     -0.104734
  H       0.694403      1.566442     -0.105063
  H       0.542932     -1.474894      0.452412
  H      -0.102446     -0.264971      1.552393
  H      -3.055355      0.698819     -0.588144
  H      -2.190215      1.059567      0.989441
  H      -1.198760     -0.852130     -1.258364
15
Coordinates from ORCA-job freq E -270.981586834551
  C       2.470794      0.290094     -0.093777
  C       1.011735      0.546106     -0.027149
  C       0.081976     -0.491910      0.521298
  C      -2.321355      0.389977      0.120388
  C      -1.227627     -0.524745     -0.219017
  O      -2.356888     -0.973223      0.496883
  H       1.609614      0.253660     -1.071703
  H       2.855174     -0.683547      0.178724
  H       3.167709      1.112251     -0.165488
  H       0.687091      1.579111     -0.016554
  H       0.552736     -1.477426      0.474656
  H      -0.124700     -0.296874      1.579538
  H      -3.040056      0.682672     -0.636017
  H      -2.185906      1.092914      0.936560
  H      -1.171808     -0.886104     -1.241989
15
Coordinates from ORCA-job freq E -270.980974452446
  C       2.457255      0.275048     -0.138736
  C       1.006145      0.568001      0.009136
  C       0.076628     -0.475612      0.548508
  C      -2.319006      0.381218      0.098753
  C      -1.221666     -0.537882     -0.209960
  O      -2.364798     -0.979321      0.496274
  H       1.623042      0.295144     -1.097470
  H       2.818677     -0.717679      0.085648
  H       3.168856      1.085668     -0.168082
  H       0.720422      1.609531      0.078931
  H       0.565349     -1.452641      0.519830
  H      -0.149255     -0.279647      1.603318
  H      -3.025481      0.662470     -0.672867
  H      -2.197255      1.091397      0.910241
  H      -1.150422     -0.912736     -1.227171
15
Coordinates from ORCA-job freq E -270.981168935897
  C       2.464372      0.278990     -0.117723
  C       1.013155      0.560691     -0.003302
  C       0.076044     -0.474482      0.538908
  C      -2.324749      0.379065      0.114263
  C      -1.223788     -0.527354     -0.217603
  O      -2.362572     -0.990311      0.482616
  H       1.634301      0.263833     -1.090832
  H       2.831009     -0.704844      0.133612
  H       3.170346      1.092065     -0.178936
  H       0.713382      1.599947      0.021799
  H       0.557227     -1.455280      0.511790
  H      -0.147880     -0.274761      1.593649
  H      -3.035410      0.672794     -0.648730
  H      -2.202976      1.072470      0.939895
  H      -1.153973     -0.879865     -1.243052
15
Coordinates from ORCA-job freq E -270.981404235844
  C       2.472922      0.280226     -0.101940
  C       1.017797      0.554412     -0.024632
  C       0.074909     -0.469757      0.526091
  C      -2.334621      0.374637      0.133874
  C      -1.227797     -0.513837     -0.225810
  O      -2.358570     -1.003642      0.468690
  H       1.665806      0.227485     -1.088408
  H       2.839635     -0.692342      0.189741
  H       3.172676      1.097240     -0.177231
  H       0.709149      1.591286     -0.044294
  H       0.547886     -1.454888      0.500713
  H      -0.144276     -0.264469      1.581069
  H      -3.052140      0.680453     -0.617892
  H      -2.213891      1.048216      0.975847
  H      -1.160997     -0.842064     -1.259464
15
Coordinates from ORCA-job freq E -270.981553798580
  C       2.479081      0.283162     -0.087336
  C       1.020391      0.548534     -0.042416
  C       0.074785     -0.468944      0.514439
  C      -2.340454      0.373191      0.148000
  C      -1.231659     -0.504786     -0.231324
  O      -2.355780     -1.009658      0.462466
  H       1.686373      0.201502     -1.087267
  H       2.846363     -0.679460      0.234871
  H       3.173326      1.103843     -0.172139
  H       0.704238      1.582054     -0.094315
  H       0.541050     -1.457364      0.486619
  H      -0.138251     -0.262204      1.570558
  H      -3.064025      0.686461     -0.594869
  H      -2.217213      1.034949      0.998917
  H      -1.169738     -0.818321     -1.269849
15
Coordinates from ORCA-job freq E -270.981738582637
  C       2.486143      0.288900     -0.064806
  C       1.023747      0.539465     -0.070354
  C       0.074694     -0.468696      0.495542
  C      -2.348026      0.371658      0.168898
  C      -1.238195     -0.492377     -0.239008
  O      -2.352329     -1.016912      0.455898
  H       1.720255      0.163790     -1.084932
  H       2.852826     -0.657623      0.302406
  H       3.172626      1.114653     -0.161638
  H       0.698217      1.566699     -0.169053
  H       0.530838     -1.461917      0.462401
  H      -0.127229     -0.261269      1.553963
  H      -3.080913      0.695197     -0.560335
  H      -2.218921      1.017259      1.031247
  H      -1.185246     -0.785869     -1.283877
15
Coordinates from ORCA-job freq E -270.981908382932
  C       2.492808      0.300935     -0.029647
  C       1.027988      0.524017     -0.113658
  C       0.074964     -0.471645      0.465345
  C      -2.355859      0.371447      0.199010
  C      -1.248811     -0.476358     -0.249304
  O      -2.348746     -1.023480      0.450581
  H       1.771706      0.110740     -1.079069
  H       2.856676     -0.619090      0.401879
  H       3.167974      1.133902     -0.142137
  H       0.690500      1.538792     -0.279056
  H       0.515508     -1.471864      0.421232
  H      -0.107632     -0.265604      1.527902
  H      -3.102317      0.709307     -0.509676
  H      -2.214144      0.995988      1.074710
  H      -1.212127     -0.744130     -1.301760
15
Coordinates from ORCA-job freq E -270.981960738294
  C       2.494057      0.315198      0.002493
  C       1.030996      0.508245     -0.153150
  C       0.075498     -0.477978      0.437140
  C      -2.358655      0.373507      0.224502
  C      -1.258738     -0.465361     -0.257290
  O      -2.347586     -1.025553      0.449933
  H       1.818655      0.067779     -1.071337
  H       2.853684     -0.579619      0.487058
  H       3.159519      1.154269     -0.121451
  H       0.684509      1.509303     -0.374157
  H       0.501845     -1.484126      0.381140
  H      -0.087844     -0.274823      1.503598
  H      -3.116259      0.724014     -0.466031
  H      -2.202217      0.982046      1.108846
  H      -1.238975     -0.713943     -1.314941
15
Coordinates from ORCA-job freq E -270.981968466517
  C       2.492908      0.317174      0.005080
  C       1.030158      0.507160     -0.155862
  C       0.075670     -0.480304      0.434816
  C      -2.357013      0.375035      0.225012
  C      -1.259845     -0.467098     -0.257154
  O      -2.348745     -1.023678      0.453026
  H       1.821650      0.068222     -1.071828
  H       2.852882     -0.577241      0.490143
  H       3.157752      1.157011     -0.117148
  H       0.682442      1.507758     -0.376942
  H       0.501760     -1.486453      0.376846
  H      -0.085625     -0.277990      1.501671
  H      -3.115070      0.725947     -0.464844
  H      -2.197841      0.984890      1.107957
  H      -1.242593     -0.717474     -1.314421
15
Coordinates from ORCA-job freq E -270.981960498827
  C       2.492003      0.318025      0.005638
  C       1.029289      0.506945     -0.156053
  C       0.075777     -0.481815      0.434302
  C      -2.355633      0.376199      0.224254
  C      -1.260204     -0.468785     -0.256740
  O      -2.349561     -1.022086      0.455386
  H       1.821943      0.070302     -1.072483
  H       2.852543     -0.577222      0.488739
  H       3.156640      1.158290     -0.114810
  H       0.680820      1.507763     -0.374962
  H       0.502469     -1.487618      0.375261
  H      -0.084831     -0.280126      1.501364
  H      -3.113586      0.726818     -0.465856
  H      -2.195033      0.987733      1.105780
  H      -1.244149     -0.721464     -1.313467
15
Coordinates from ORCA-job freq E -270.981964351559
  C       2.491308      0.318805      0.006153
  C       1.028581      0.506626     -0.156214
  C       0.075859     -0.483123      0.433858
  C      -2.354472      0.377197      0.223696
  C      -1.260495     -0.470102     -0.256437
  O      -2.350223     -1.020746      0.457215
  H       1.822163      0.071784     -1.072922
  H       2.852358     -0.576992      0.487849
  H       3.155614      1.159525     -0.112974
  H       0.679352      1.507497     -0.373659
  H       0.503037     -1.488652      0.373904
  H      -0.084208     -0.282010      1.501111
  H      -3.112334      0.727680     -0.466578
  H      -2.192620      0.989998      1.104110
  H      -1.245431     -0.724528     -1.312759
15
Coordinates from ORCA-job freq E -270.981967518088
  C       2.490792      0.319400      0.006465
  C       1.028025      0.506385     -0.156187
  C       0.075911     -0.484158      0.433613
  C      -2.353541      0.378000      0.223183
  C      -1.260691     -0.471160     -0.256184
  O      -2.350758     -1.019662      0.458613
  H       1.822187      0.073023     -1.073263
  H       2.852291     -0.576900      0.486894
  H       3.154787      1.160509     -0.111614
  H       0.678164      1.507299     -0.372446
  H       0.503540     -1.489439      0.372978
  H      -0.083827     -0.283523      1.501006
  H      -3.111289      0.728376     -0.467272
  H      -2.190752      0.991794      1.102734
  H      -1.246351     -0.726987     -1.312168
15
Coordinates from ORCA-job freq E -270.981969570510
  C       2.490372      0.319944      0.006744
  C       1.027556      0.506125     -0.156164
  C       0.075953     -0.485077      0.433393
  C      -2.352749      0.378707      0.222777
  C      -1.260864     -0.472018     -0.255980
  O      -2.351210     -1.018720      0.459773
  H       1.822256      0.073984     -1.073489
  H       2.852272     -0.576718      0.486189
  H       3.154021      1.161441     -0.110480
  H       0.677115      1.507026     -0.371570
  H       0.503934     -1.490170      0.372142
  H      -0.083495     -0.284902      1.500919
  H      -3.110401      0.729019     -0.467813
  H      -2.189121      0.993323      1.101601
  H      -1.247151     -0.729007     -1.311687
15
Coordinates from ORCA-job freq E -270.981971445402
  C       2.490046      0.320345      0.006848
  C       1.027158      0.505951     -0.155981
  C       0.075973     -0.485809      0.433344
  C      -2.352068      0.379270      0.222360
  C      -1.260954     -0.472760     -0.255793
  O      -2.351588     -1.017954      0.460663
  H       1.822081      0.074886     -1.073705
  H       2.852307     -0.576697      0.485312
  H       3.153412      1.162164     -0.109670
  H       0.676250      1.506869     -0.370563
  H       0.504285     -1.490724      0.371666
  H      -0.083373     -0.285985      1.500950
  H      -3.109574      0.729534     -0.468402
  H      -2.187801      0.994563      1.100590
  H      -1.247665     -0.730695     -1.311267
15
Coordinates from ORCA-job freq E -270.981982996225
  C       2.489806      0.320713      0.007038
  C       1.026875      0.505757     -0.155964
  C       0.075997     -0.486411      0.433194
  C      -2.351560      0.379733      0.222114
  C      -1.261074     -0.473312     -0.255670
  O      -2.351886     -1.017337      0.461402
  H       1.822137      0.075474     -1.073836
  H       2.852312     -0.576561      0.484877
  H       3.152906      1.162822     -0.108914
  H       0.675580      1.506638     -0.370094
  H       0.504541     -1.491200      0.371134
  H      -0.083190     -0.286896      1.500883
  H      -3.109019      0.729969     -0.468724
  H      -2.186735      0.995531      1.099887
  H      -1.248201     -0.731961     -1.310973
15
Coordinates from ORCA-job freq E -270.981990021006
  C       2.489567      0.321049      0.007130
  C       1.026575      0.505584     -0.155850
  C       0.076013     -0.487007      0.433127
  C      -2.351041      0.380185      0.221824
  C      -1.261152     -0.473847     -0.255534
  O      -2.352173     -1.016730      0.462082
  H       1.822070      0.076093     -1.073951
  H       2.852362     -0.576458      0.484309
  H       3.152387      1.163445     -0.108278
  H       0.674906      1.506448     -0.369471
  H       0.504776     -1.491682      0.370714
  H      -0.083074     -0.287795      1.500890
  H      -3.108405      0.730398     -0.469127
  H      -2.185705      0.996480      1.099152
  H      -1.248618     -0.733206     -1.310663
15
Coordinates from ORCA-job freq E -270.981984493648
  C       2.489391      0.321307      0.007207
  C       1.026351      0.505457     -0.155730
  C       0.076026     -0.487447      0.433093
  C      -2.350641      0.380527      0.221597
  C      -1.261209     -0.474265     -0.255433
  O      -2.352403     -1.016275      0.462578
  H       1.821984      0.076569     -1.074041
  H       2.852404     -0.576404      0.483837
  H       3.152006      1.163919     -0.107807
  H       0.674387      1.506298     -0.369001
  H       0.504969     -1.492024      0.370418
  H      -0.083007     -0.288469      1.500912
  H      -3.107923      0.730732     -0.469439
  H      -2.184919      0.997188      1.098597
  H      -1.248926     -0.734156     -1.310434
15
Coordinates from ORCA-job freq E -270.981985673323
  C       2.489254      0.321558      0.007347
  C       1.026184      0.505308     -0.155753
  C       0.076041     -0.487832      0.432975
  C      -2.350329      0.380819      0.221475
  C      -1.261296     -0.474586     -0.255365
  O      -2.352584     -1.015891      0.463031
  H       1.822056      0.076879     -1.074100
  H       2.852414     -0.576258      0.483664
  H       3.151666      1.164375     -0.107318
  H       0.673975      1.506101     -0.368840
  H       0.505096     -1.492345      0.370043
  H      -0.082883     -0.289068      1.500845
  H      -3.107583      0.731038     -0.469593
  H      -2.184241      0.997767      1.098202
  H      -1.249281     -0.734908     -1.310261
15
Coordinates from ORCA-job freq E -270.981981443777
  C       2.489141      0.321743      0.007433
  C       1.026043      0.505205     -0.155728
  C       0.076045     -0.488113      0.432936
  C      -2.350074      0.381029      0.221370
  C      -1.261335     -0.474840     -0.255312
  O      -2.352729     -1.015620      0.463309
  H       1.822042      0.077125     -1.074153
  H       2.852418     -0.576181      0.483457
  H       3.151414      1.164698     -0.107002
  H       0.673640      1.505959     -0.368698
  H       0.505206     -1.492570      0.369851
  H      -0.082840     -0.289484      1.500842
  H      -3.107270      0.731291     -0.469736
  H      -2.183730      0.998157      1.097924
  H      -1.249483     -0.735444     -1.310141
15
Coordinates from ORCA-job freq E -270.981982600489
  C       2.489057      0.321856      0.007425
  C       1.025929      0.505166     -0.155597
  C       0.076053     -0.488330      0.432963
  C      -2.349878      0.381210      0.221206
  C      -1.261353     -0.475067     -0.255244
  O      -2.352844     -1.015369      0.463584
  H       1.821947      0.077460     -1.074212
  H       2.852446     -0.576238      0.483039
  H       3.151239      1.164916     -0.106763
  H       0.673400      1.505930     -0.368307
  H       0.505332     -1.492724      0.369755
  H      -0.082832     -0.289828      1.500896
  H      -3.107027      0.731427     -0.469976
  H      -2.183367      0.998558      1.097574
  H      -1.249613     -0.736008     -1.309989
15
Coordinates from ORCA-job freq E -270.981973006609
  C       2.488993      0.321958      0.007449
  C       1.025841      0.505110     -0.155577
  C       0.076056     -0.488499      0.432953
  C      -2.349720      0.381340      0.221124
  C      -1.261377     -0.475235     -0.255203
  O      -2.352940     -1.015193      0.463766
  H       1.821927      0.077644     -1.074265
  H       2.852440     -0.576225      0.482855
  H       3.151094      1.165115     -0.106535
  H       0.673206      1.505864     -0.368168
  H       0.505407     -1.492856      0.369659
  H      -0.082807     -0.290077      1.500904
  H      -3.106839      0.731560     -0.470081
  H      -2.183058      0.998815      1.097374
  H      -1.249733     -0.736364     -1.309901
15
Coordinates from ORCA-job freq E -270.981971924066
  C       2.488926      0.322127      0.007617
  C       1.025774      0.504975     -0.155730
  C       0.076060     -0.488698      0.432803
  C      -2.349579      0.381477      0.221165
  C      -1.261448     -0.475339     -0.255204
  O      -2.353013     -1.015033      0.463954
  H       1.822135      0.077627     -1.074253
  H       2.852418     -0.576013      0.483067
  H       3.150891      1.165404     -0.106230
  H       0.673004      1.505652     -0.368463
  H       0.505412     -1.493048      0.369375
  H      -0.082692     -0.290368      1.500788
  H      -3.106723      0.731756     -0.469985
  H      -2.182691      0.999014      1.097328
  H      -1.249983     -0.736575     -1.309878
15
Coordinates from ORCA-job freq E -270.981977239655
  C       2.488883      0.322165      0.007592
  C       1.025715      0.504968     -0.155644
  C       0.076059     -0.488782      0.432849
  C      -2.349474      0.381546      0.221074
  C      -1.261438     -0.475458     -0.255167
  O      -2.353063     -1.014931      0.464058
  H       1.822010      0.077819     -1.074307
  H       2.852421     -0.576090      0.482785
  H       3.150816      1.165483     -0.106117
  H       0.672889      1.505656     -0.368232
  H       0.505486     -1.493098      0.369402
  H      -0.082733     -0.290488      1.500835
  H      -3.106574      0.731814     -0.470126
  H      -2.182515      0.999185      1.097152
  H      -1.249995     -0.736833     -1.309803
15
Coordinates from ORCA-job freq E -270.981977294257
  C       2.488845      0.322219      0.007590
  C       1.025665      0.504941     -0.155597
  C       0.076058     -0.488873      0.432858
  C      -2.349391      0.381619      0.221014
  C      -1.261448     -0.475550     -0.255140
  O      -2.353107     -1.014835      0.464173
  H       1.822001      0.077947     -1.074326
  H       2.852429     -0.576108      0.482615
  H       3.150733      1.165585     -0.106002
  H       0.672788      1.505628     -0.368105
  H       0.505531     -1.493163      0.369364
  H      -0.082738     -0.290630      1.500852
  H      -3.106477      0.731873     -0.470211
  H      -2.182348      0.999347      1.097011
  H      -1.250052     -0.737043     -1.309742
15
Coordinates from ORCA-job freq E -270.981976646057
  C       2.488832      0.322280      0.007657
  C       1.025651      0.504897     -0.155661
  C       0.076059     -0.488932      0.432800
  C      -2.349351      0.381664      0.221029
  C      -1.261480     -0.475590     -0.255138
  O      -2.353139     -1.014778      0.464249
  H       1.822084      0.077957     -1.074336
  H       2.852407     -0.576052      0.482672
  H       3.150681      1.165686     -0.105854
  H       0.672736      1.505559     -0.368226
  H       0.505531     -1.493223      0.369258
  H      -0.082688     -0.290720      1.500808
  H      -3.106451      0.731929     -0.470172
  H      -2.182232      0.999417      1.096995
  H      -1.250152     -0.737136     -1.309727
