15
Coordinates from ORCA-job freq E -270.981976646057
  C           2.48883206072178      0.32227952203812      0.00765655313199
  C           1.02565134000314      0.50489652923810     -0.15566139420313
  C           0.07605888823004     -0.48893181821074      0.43280003974356
  C          -2.34935106712270      0.38166435219189      0.22102876579291
  C          -1.26148030437923     -0.47558981904880     -0.25513833317542
  O          -2.35313854130140     -1.01477758808210      0.46424884076109
  H           1.82208436752424      0.07795734844934     -1.07433601420123
  H           2.85240728615306     -0.57605212471165      0.48267236674864
  H           3.15068132237480      1.16568584888301     -0.10585429219021
  H           0.67273575255945      1.50555858253254     -0.36822583887241
  H           0.50553074693185     -1.49322288414420      0.36925847090471
  H          -0.08268755320935     -0.29072018841297      1.50080775255448
  H          -3.10645143687641      0.73192933105418     -0.47017176859026
  H          -2.18223215509371      0.99941659810096      1.09699451475947
  H          -1.25015170651556     -0.73713568987767     -1.30972666316421
