15
Coordinates from ORCA-job freq E -271.106431083078
  C           2.63719126409348     -0.13924311552167      0.29356096218988
  C          -2.42136482770037      0.25376170085208      0.65713396876386
  C           1.28348103646487     -0.22364652909039     -0.29507263938253
  C          -1.24083753729592     -0.05899950529324     -0.24452607458039
  C           0.09345528722234      0.06347037121495      0.47143569632448
  O           0.15934049927832      0.38971210373475      1.64873948412169
  H           2.57668170570180      0.15456474971947      1.33849964731671
  H           3.15459279862195     -1.09957698344478      0.21906985887866
  H           3.25254953821562      0.58419260205094     -0.24828266272100
  H          -2.34819425855758      1.26730050961436      1.04747142472340
  H          -3.35971819042679      0.15526527762622      0.11349427000178
  H          -2.44017461010689     -0.41981966228970      1.51205171592575
  H           1.16859372386774     -0.50854683439353     -1.33379830867095
  H          -1.31266562745999     -1.07131172264953     -0.65254335916069
  H          -1.21939580191862      0.60694503787009     -1.11199998373066
