17
Coordinates from ORCA-job freq E -421.415002715654
  C          -2.69139602571157      0.41717977157859     -1.24476264252827
  C          -1.45974868164416      0.36809038459703     -0.41716788213233
  C          -0.19800455940232      0.20236529991618     -1.26054094502342
  C           1.06283840534638     -0.04672120497481     -0.47913343491615
  C           1.19722197173311      0.19633636690466      0.95193039395920
  O           3.47992892346103      0.02114322465698      0.84144147053023
  O           1.01948487999522     -1.10986111864174      0.50003403447468
  O           2.38488146860409      0.48739763220976      1.60151130788106
  H          -2.74761078674841     -0.13601935611178     -2.17133402089177
  H          -3.60216193157553      0.84577397373817     -0.85597926003227
  H          -1.51216124382371     -0.46742217309844      0.29607583612917
  H          -1.38810836405000      1.27585351490687      0.18870882829360
  H          -0.33310604409576     -0.63790451489549     -1.94805551080380
  H          -0.04694354555535      1.08852011982192     -1.88114970648449
  H           1.98177394075471     -0.04946694197181     -1.05271183677012
  H           0.40006534084040      0.61991117052159      1.55286390874439
  H           3.46997625187188     -0.92614314915771      1.03415545957030
