15
Coordinates from ORCA-job freq E -271.060342140629
  C          -2.59059908800028     -0.10500873043322      0.02068947457638
  C          -1.30319697676095      0.21210124788977      0.68971758129573
  C          -0.03481780150919     -0.33630580084273      0.24049930786404
  C           1.26530935374169      0.26824861952502      0.59762243005423
  O           0.83261072195068     -0.90823736205212      1.24325385391906
  C           2.46737686343666      0.14359128643848     -0.29101954017152
  H          -3.27202441098826      0.74651266296225      0.03516993422641
  H          -3.11143433422136     -0.93275483118189      0.51748486318380
  H          -2.43586161046912     -0.40019020939751     -1.01769143532512
  H          -1.30491245428916      0.74246455513005      1.63304104206984
  H          -0.05957069708585     -0.91448791810321     -0.67940967518919
  H           1.22717037699747      1.15230508191190      1.23006726295899
  H           2.39464948426616     -0.75951682571354     -0.89548023418492
  H           2.54829573343018      1.00705246899237     -0.95133746941466
  H           3.37700583950134      0.08422475487437      0.30731460413696
