15
Coordinates from ORCA-job freq E -270.978902275790
  C           2.03325364283064      0.58834974191340      0.69206967202781
  C          -2.22922492610907      0.01785447804665      0.80847500232647
  C           1.50455535650834     -0.06862278985083     -0.58295822578775
  C           0.21524630579414     -0.44652231404616      0.09351307975914
  C          -1.19577474183036     -0.29546778357061     -0.22964635298543
  O          -0.54584542821136     -1.57892269815487     -0.11675796773658
  H           0.84826667483791      0.03102203744540      1.24014436496042
  H           2.89708405210241      0.14690419120231      1.17424216853466
  H           1.95879268389813      1.66678588955494      0.76791086607551
  H          -2.43914716242461      1.08772949226186      0.82043907194402
  H          -3.15889810205145     -0.50987432624282      0.59564396738785
  H          -1.87063647385892     -0.28154924618970      1.79159727468080
  H           1.40510188385699      0.58552740344056     -1.44743179587744
  H           2.07098725380914     -0.95372891987602     -0.86759624674854
  H          -1.45130901915194     -0.04764215593410     -1.25673487856099
