15
* (null), Energy   -1000.0000000
C    -2.672196    0.346738   -0.362423    1.025211   -0.161097    0.833216
C    -0.957981    0.175958    1.118485   -0.975867    0.158038   -0.792191
C    -0.165430   -0.843324    0.723056   -0.085692   -0.026964   -0.138872
C     0.899488   -0.677863   -0.287110   -0.032682   -0.008769    0.022309
C     2.030657    0.246374   -0.079572   -0.015053    0.027686    0.013995
O     0.964421    0.576068   -0.945244    0.006382   -0.009262   -0.010081
H    -2.091006    0.558820   -1.246921    0.073060   -0.073442    0.169446
H    -3.118392   -0.633401   -0.288887    0.295568    0.063280    0.152226
H    -3.220085    1.168914    0.075489    0.382374   -0.165093    0.163163
H    -0.704572    1.190763    0.841321    0.130762    0.189775    0.297662
H    -1.647943    0.044489    1.939421    0.033080    0.231516    0.082567
H    -0.334930   -1.849587    1.085510   -0.094325    0.013051   -0.064457
H     1.079066   -1.526882   -0.939992    0.093883   -0.023202    0.065181
H     2.981014    0.057185   -0.565608   -0.010548   -0.033756    0.043298
H     2.062104    0.808315    0.847170   -0.003234    0.077213   -0.015761
15
* Frequency(6) -569.1763
C    -2.555686    0.328430   -0.267733    1.025211   -0.161097    0.833216
C    -1.068883    0.193919    1.028457   -0.975867    0.158038   -0.792191
C    -0.175168   -0.846389    0.707274   -0.085692   -0.026964   -0.138872
C     0.895773   -0.678859   -0.284575   -0.032682   -0.008769    0.022309
C     2.028946    0.249521   -0.077981   -0.015053    0.027686    0.013995
O     0.965146    0.575015   -0.946389    0.006382   -0.009262   -0.010081
H    -2.082703    0.550474   -1.227665    0.073060   -0.073442    0.169446
H    -3.084802   -0.626210   -0.271588    0.295568    0.063280    0.152226
H    -3.176630    1.150152    0.094032    0.382374   -0.165093    0.163163
H    -0.689712    1.212330    0.875148    0.130762    0.189775    0.297662
H    -1.644184    0.070799    1.948804    0.033080    0.231516    0.082567
H    -0.345649   -1.848103    1.078184   -0.094325    0.013051   -0.064457
H     1.089736   -1.529519   -0.932585    0.093883   -0.023202    0.065181
H     2.979815    0.053349   -0.560688   -0.010548   -0.033756    0.043298
H     2.061737    0.817090    0.845379   -0.003234    0.077213   -0.015761
15
* Frequency(6) -569.1763
C    -2.451802    0.312106   -0.183303    1.025211   -0.161097    0.833216
C    -1.167768    0.209933    0.948184   -0.975867    0.158038   -0.792191
C    -0.183851   -0.849121    0.693202   -0.085692   -0.026964   -0.138872
C     0.892462   -0.679748   -0.282314   -0.032682   -0.008769    0.022309
C     2.027421    0.252326   -0.076563   -0.015053    0.027686    0.013995
O     0.965792    0.574077   -0.947411    0.006382   -0.009262   -0.010081
H    -2.075300    0.543032   -1.210495    0.073060   -0.073442    0.169446
H    -3.054852   -0.619797   -0.256163    0.295568    0.063280    0.152226
H    -3.137884    1.133423    0.110565    0.382374   -0.165093    0.163163
H    -0.676462    1.231559    0.905310    0.130762    0.189775    0.297662
H    -1.640832    0.094259    1.957171    0.033080    0.231516    0.082567
H    -0.355207   -1.846781    1.071653   -0.094325    0.013051   -0.064457
H     1.099249   -1.531870   -0.925980    0.093883   -0.023202    0.065181
H     2.978746    0.049929   -0.556300   -0.010548   -0.033756    0.043298
H     2.061409    0.824914    0.843782   -0.003234    0.077213   -0.015761
15
* Frequency(6) -569.1763
C    -2.371801    0.299535   -0.118284    1.025211   -0.161097    0.833216
C    -1.243918    0.222265    0.886367   -0.975867    0.158038   -0.792191
C    -0.190538   -0.851225    0.682366   -0.085692   -0.026964   -0.138872
C     0.889912   -0.680432   -0.280574   -0.032682   -0.008769    0.022309
C     2.026246    0.254486   -0.075471   -0.015053    0.027686    0.013995
O     0.966290    0.573354   -0.948198    0.006382   -0.009262   -0.010081
H    -2.069599    0.537301   -1.197272    0.073060   -0.073442    0.169446
H    -3.031788   -0.614860   -0.244284    0.295568    0.063280    0.152226
H    -3.108046    1.120540    0.123297    0.382374   -0.165093    0.163163
H    -0.666258    1.246368    0.928538    0.130762    0.189775    0.297662
H    -1.638250    0.112325    1.963614    0.033080    0.231516    0.082567
H    -0.362568   -1.845763    1.066623   -0.094325    0.013051   -0.064457
H     1.106575   -1.533681   -0.920894    0.093883   -0.023202    0.065181
H     2.977923    0.047295   -0.552921   -0.010548   -0.033756    0.043298
H     2.061156    0.830939    0.842552   -0.003234    0.077213   -0.015761
15
* Frequency(6) -569.1763
C    -2.324352    0.292079   -0.079721    1.025211   -0.161097    0.833216
C    -1.289083    0.229579    0.849703   -0.975867    0.158038   -0.792191
C    -0.194504   -0.852473    0.675938   -0.085692   -0.026964   -0.138872
C     0.888399   -0.680838   -0.279541   -0.032682   -0.008769    0.022309
C     2.025550    0.255768   -0.074823   -0.015053    0.027686    0.013995
O     0.966586    0.572925   -0.948664    0.006382   -0.009262   -0.010081
H    -2.066217    0.533902   -1.189430    0.073060   -0.073442    0.169446
H    -3.018108   -0.611931   -0.237238    0.295568    0.063280    0.152226
H    -3.090349    1.112899    0.130849    0.382374   -0.165093    0.163163
H    -0.660206    1.255151    0.942314    0.130762    0.189775    0.297662
H    -1.636719    0.123040    1.967435    0.033080    0.231516    0.082567
H    -0.366933   -1.845159    1.063640   -0.094325    0.013051   -0.064457
H     1.110920   -1.534754   -0.917877    0.093883   -0.023202    0.065181
H     2.977435    0.045732   -0.550918   -0.010548   -0.033756    0.043298
H     2.061007    0.834513    0.841823   -0.003234    0.077213   -0.015761
15
* Frequency(6) -569.1763
C    -2.314598    0.290547   -0.071794    1.025211   -0.161097    0.833216
C    -1.298368    0.231083    0.842165   -0.975867    0.158038   -0.792191
C    -0.195320   -0.852730    0.674617   -0.085692   -0.026964   -0.138872
C     0.888088   -0.680922   -0.279329   -0.032682   -0.008769    0.022309
C     2.025406    0.256031   -0.074690   -0.015053    0.027686    0.013995
O     0.966647    0.572837   -0.948760    0.006382   -0.009262   -0.010081
H    -2.065522    0.533203   -1.187818    0.073060   -0.073442    0.169446
H    -3.015296   -0.611329   -0.235790    0.295568    0.063280    0.152226
H    -3.086711    1.111329    0.132401    0.382374   -0.165093    0.163163
H    -0.658962    1.256957    0.945146    0.130762    0.189775    0.297662
H    -1.636405    0.125243    1.968221    0.033080    0.231516    0.082567
H    -0.367831   -1.845034    1.063027   -0.094325    0.013051   -0.064457
H     1.111813   -1.534975   -0.917257    0.093883   -0.023202    0.065181
H     2.977334    0.045411   -0.550506   -0.010548   -0.033756    0.043298
H     2.060976    0.835247    0.841673   -0.003234    0.077213   -0.015761
15
* Frequency(6) -569.1763
C    -2.343594    0.295103   -0.095360    1.025211   -0.161097    0.833216
C    -1.270767    0.226613    0.864572   -0.975867    0.158038   -0.792191
C    -0.192896   -0.851967    0.678545   -0.085692   -0.026964   -0.138872
C     0.889012   -0.680674   -0.279960   -0.032682   -0.008769    0.022309
C     2.025832    0.255248   -0.075086   -0.015053    0.027686    0.013995
O     0.966466    0.573099   -0.948475    0.006382   -0.009262   -0.010081
H    -2.067588    0.535281   -1.192610    0.073060   -0.073442    0.169446
H    -3.023656   -0.613119   -0.240096    0.295568    0.063280    0.152226
H    -3.097526    1.115998    0.127786    0.382374   -0.165093    0.163163
H    -0.662660    1.251590    0.936727    0.130762    0.189775    0.297662
H    -1.637340    0.118694    1.965885    0.033080    0.231516    0.082567
H    -0.365163   -1.845403    1.064850   -0.094325    0.013051   -0.064457
H     1.109158   -1.534319   -0.919100    0.093883   -0.023202    0.065181
H     2.977633    0.046366   -0.551730   -0.010548   -0.033756    0.043298
H     2.061067    0.833063    0.842119   -0.003234    0.077213   -0.015761
15
* Frequency(6) -569.1763
C    -2.408201    0.305255   -0.147867    1.025211   -0.161097    0.833216
C    -1.209270    0.216654    0.914493   -0.975867    0.158038   -0.792191
C    -0.187496   -0.850268    0.687296   -0.085692   -0.026964   -0.138872
C     0.891072   -0.680121   -0.281366   -0.032682   -0.008769    0.022309
C     2.026781    0.253503   -0.075968   -0.015053    0.027686    0.013995
O     0.966064    0.573683   -0.947840    0.006382   -0.009262   -0.010081
H    -2.072193    0.539909   -1.203288    0.073060   -0.073442    0.169446
H    -3.042282   -0.617106   -0.249689    0.295568    0.063280    0.152226
H    -3.121622    1.126402    0.117504    0.382374   -0.165093    0.163163
H    -0.670900    1.239630    0.917969    0.130762    0.189775    0.297662
H    -1.639425    0.104105    1.960682    0.033080    0.231516    0.082567
H    -0.359219   -1.846226    1.068912   -0.094325    0.013051   -0.064457
H     1.103242   -1.532857   -0.923208    0.093883   -0.023202    0.065181
H     2.978297    0.048493   -0.554459   -0.010548   -0.033756    0.043298
H     2.061271    0.828198    0.843112   -0.003234    0.077213   -0.015761
15
* Frequency(6) -569.1763
C    -2.501415    0.319902   -0.223625    1.025211   -0.161097    0.833216
C    -1.120543    0.202285    0.986521   -0.975867    0.158038   -0.792191
C    -0.179704   -0.847816    0.699923   -0.085692   -0.026964   -0.138872
C     0.894043   -0.679324   -0.283394   -0.032682   -0.008769    0.022309
C     2.028149    0.250986   -0.077240   -0.015053    0.027686    0.013995
O     0.965484    0.574525   -0.946923    0.006382   -0.009262   -0.010081
H    -2.078835    0.546586   -1.218695    0.073060   -0.073442    0.169446
H    -3.069155   -0.622860   -0.263529    0.295568    0.063280    0.152226
H    -3.156389    1.141412    0.102669    0.382374   -0.165093    0.163163
H    -0.682789    1.222376    0.890906    0.130762    0.189775    0.297662
H    -1.642433    0.083055    1.953175    0.033080    0.231516    0.082567
H    -0.350642   -1.847413    1.074772   -0.094325    0.013051   -0.064457
H     1.094706   -1.530747   -0.929134    0.093883   -0.023202    0.065181
H     2.979257    0.051562   -0.558396   -0.010548   -0.033756    0.043298
H     2.061565    0.821177    0.844545   -0.003234    0.077213   -0.015761
15
* Frequency(6) -569.1763
C    -2.613135    0.337457   -0.314423    1.025211   -0.161097    0.833216
C    -1.014199    0.185063    1.072849   -0.975867    0.158038   -0.792191
C    -0.170366   -0.844878    0.715056   -0.085692   -0.026964   -0.138872
C     0.897605   -0.678368   -0.285825   -0.032682   -0.008769    0.022309
C     2.029790    0.247969   -0.078766   -0.015053    0.027686    0.013995
O     0.964788    0.575534   -0.945825    0.006382   -0.009262   -0.010081
H    -2.086797    0.554589   -1.237160    0.073060   -0.073442    0.169446
H    -3.101365   -0.629756   -0.280118    0.295568    0.063280    0.152226
H    -3.198057    1.159403    0.084889    0.382374   -0.165093    0.163163
H    -0.697039    1.201695    0.858468    0.130762    0.189775    0.297662
H    -1.646037    0.057826    1.944178    0.033080    0.231516    0.082567
H    -0.340364   -1.848835    1.081796   -0.094325    0.013051   -0.064457
H     1.084475   -1.528219   -0.936237    0.093883   -0.023202    0.065181
H     2.980406    0.055241   -0.563114   -0.010548   -0.033756    0.043298
H     2.061918    0.812763    0.846262   -0.003234    0.077213   -0.015761
15
* Frequency(6) -569.1763
C    -2.731256    0.356018   -0.410423    1.025211   -0.161097    0.833216
C    -0.901763    0.166854    1.164122   -0.975867    0.158038   -0.792191
C    -0.160493   -0.841771    0.731057   -0.085692   -0.026964   -0.138872
C     0.901370   -0.677358   -0.288396   -0.032682   -0.008769    0.022309
C     2.031524    0.244779   -0.080378   -0.015053    0.027686    0.013995
O     0.964053    0.576601   -0.944663    0.006382   -0.009262   -0.010081
H    -2.095215    0.563051   -1.256683    0.073060   -0.073442    0.169446
H    -3.135419   -0.637046   -0.297657    0.295568    0.063280    0.152226
H    -3.242113    1.178425    0.066090    0.382374   -0.165093    0.163163
H    -0.712105    1.179830    0.824173    0.130762    0.189775    0.297662
H    -1.649849    0.031151    1.934665    0.033080    0.231516    0.082567
H    -0.329496   -1.850339    1.089223   -0.094325    0.013051   -0.064457
H     1.073658   -1.525545   -0.943747    0.093883   -0.023202    0.065181
H     2.981621    0.059130   -0.568103   -0.010548   -0.033756    0.043298
H     2.062290    0.803867    0.848078   -0.003234    0.077213   -0.015761
15
* Frequency(6) -569.1763
C    -2.842977    0.373574   -0.501222    1.025211   -0.161097    0.833216
C    -0.795420    0.149632    1.250450   -0.975867    0.158038   -0.792191
C    -0.151155   -0.838833    0.746190   -0.085692   -0.026964   -0.138872
C     0.904932   -0.676402   -0.290827   -0.032682   -0.008769    0.022309
C     2.033165    0.241762   -0.081903   -0.015053    0.027686    0.013995
O     0.963358    0.577611   -0.943564    0.006382   -0.009262   -0.010081
H    -2.103176    0.571054   -1.275148    0.073060   -0.073442    0.169446
H    -3.167628   -0.643942   -0.314245    0.295568    0.063280    0.152226
H    -3.283782    1.196415    0.048309    0.382374   -0.165093    0.163163
H    -0.726354    1.159150    0.791736    0.130762    0.189775    0.297662
H    -1.653454    0.005922    1.925667    0.033080    0.231516    0.082567
H    -0.319217   -1.851761    1.096247   -0.094325    0.013051   -0.064457
H     1.063427   -1.523017   -0.950850    0.093883   -0.023202    0.065181
H     2.982771    0.062808   -0.572821   -0.010548   -0.033756    0.043298
H     2.062643    0.795453    0.849796   -0.003234    0.077213   -0.015761
15
* Frequency(6) -569.1763
C    -2.936191    0.388221   -0.576979    1.025211   -0.161097    0.833216
C    -0.706692    0.135263    1.322477   -0.975867    0.158038   -0.792191
C    -0.143364   -0.836381    0.758816   -0.085692   -0.026964   -0.138872
C     0.907903   -0.675605   -0.292855   -0.032682   -0.008769    0.022309
C     2.034533    0.239245   -0.083176   -0.015053    0.027686    0.013995
O     0.962777    0.578453   -0.942648    0.006382   -0.009262   -0.010081
H    -2.109819    0.577732   -1.290554    0.073060   -0.073442    0.169446
H    -3.194502   -0.649696   -0.328086    0.295568    0.063280    0.152226
H    -3.318548    1.211426    0.033474    0.382374   -0.165093    0.163163
H    -0.738244    1.141895    0.764672    0.130762    0.189775    0.297662
H    -1.656461   -0.015128    1.918160    0.033080    0.231516    0.082567
H    -0.310641   -1.852947    1.102108   -0.094325    0.013051   -0.064457
H     1.054891   -1.520907   -0.956777    0.093883   -0.023202    0.065181
H     2.983730    0.065877   -0.576758   -0.010548   -0.033756    0.043298
H     2.062937    0.788433    0.851229   -0.003234    0.077213   -0.015761
15
* Frequency(6) -569.1763
C    -3.000797    0.398373   -0.629486    1.025211   -0.161097    0.833216
C    -0.645195    0.125304    1.372399   -0.975867    0.158038   -0.792191
C    -0.137964   -0.834682    0.767568   -0.085692   -0.026964   -0.138872
C     0.909963   -0.675052   -0.294261   -0.032682   -0.008769    0.022309
C     2.035482    0.237500   -0.084058   -0.015053    0.027686    0.013995
O     0.962375    0.579036   -0.942013    0.006382   -0.009262   -0.010081
H    -2.114423    0.582360   -1.301232    0.073060   -0.073442    0.169446
H    -3.213127   -0.653683   -0.337679    0.295568    0.063280    0.152226
H    -3.342644    1.221830    0.023192    0.382374   -0.165093    0.163163
H    -0.746484    1.129936    0.745914    0.130762    0.189775    0.297662
H    -1.658546   -0.029717    1.912957    0.033080    0.231516    0.082567
H    -0.304697   -1.853770    1.106170   -0.094325    0.013051   -0.064457
H     1.048975   -1.519445   -0.960884    0.093883   -0.023202    0.065181
H     2.984395    0.068005   -0.579486   -0.010548   -0.033756    0.043298
H     2.063141    0.783567    0.852222   -0.003234    0.077213   -0.015761
15
* Frequency(6) -569.1763
C    -3.029794    0.402929   -0.653053    1.025211   -0.161097    0.833216
C    -0.617594    0.120834    1.394805   -0.975867    0.158038   -0.792191
C    -0.135540   -0.833919    0.771496   -0.085692   -0.026964   -0.138872
C     0.910887   -0.674804   -0.294892   -0.032682   -0.008769    0.022309
C     2.035908    0.236717   -0.084453   -0.015053    0.027686    0.013995
O     0.962195    0.579298   -0.941728    0.006382   -0.009262   -0.010081
H    -2.116490    0.584437   -1.306025    0.073060   -0.073442    0.169446
H    -3.221487   -0.655473   -0.341985    0.295568    0.063280    0.152226
H    -3.353459    1.226499    0.018577    0.382374   -0.165093    0.163163
H    -0.750182    1.124568    0.737495    0.130762    0.189775    0.297662
H    -1.659482   -0.036265    1.910621    0.033080    0.231516    0.082567
H    -0.302029   -1.854139    1.107993   -0.094325    0.013051   -0.064457
H     1.046320   -1.518789   -0.962728    0.093883   -0.023202    0.065181
H     2.984693    0.068959   -0.580711   -0.010548   -0.033756    0.043298
H     2.063232    0.781383    0.852668   -0.003234    0.077213   -0.015761
15
* Frequency(6) -569.1763
C    -3.020040    0.401397   -0.645125    1.025211   -0.161097    0.833216
C    -0.626879    0.122338    1.387268   -0.975867    0.158038   -0.792191
C    -0.136355   -0.834176    0.770174   -0.085692   -0.026964   -0.138872
C     0.910576   -0.674887   -0.294680   -0.032682   -0.008769    0.022309
C     2.035764    0.236980   -0.084320   -0.015053    0.027686    0.013995
O     0.962255    0.579210   -0.941823    0.006382   -0.009262   -0.010081
H    -2.115795    0.583738   -1.304413    0.073060   -0.073442    0.169446
H    -3.218675   -0.654871   -0.340536    0.295568    0.063280    0.152226
H    -3.349821    1.224928    0.020130    0.382374   -0.165093    0.163163
H    -0.748938    1.126374    0.740327    0.130762    0.189775    0.297662
H    -1.659167   -0.034063    1.911407    0.033080    0.231516    0.082567
H    -0.302926   -1.854015    1.107379   -0.094325    0.013051   -0.064457
H     1.047213   -1.519010   -0.962108    0.093883   -0.023202    0.065181
H     2.984593    0.068638   -0.580299   -0.010548   -0.033756    0.043298
H     2.063202    0.782118    0.852518   -0.003234    0.077213   -0.015761
15
* Frequency(6) -569.1763
C    -2.972591    0.393941   -0.606562    1.025211   -0.161097    0.833216
C    -0.672044    0.129652    1.350604   -0.975867    0.158038   -0.792191
C    -0.140321   -0.835424    0.763747   -0.085692   -0.026964   -0.138872
C     0.909064   -0.675293   -0.293647   -0.032682   -0.008769    0.022309
C     2.035068    0.238262   -0.083673   -0.015053    0.027686    0.013995
O     0.962551    0.578781   -0.942290    0.006382   -0.009262   -0.010081
H    -2.112413    0.580339   -1.296570    0.073060   -0.073442    0.169446
H    -3.204996   -0.651942   -0.333491    0.295568    0.063280    0.152226
H    -3.332124    1.217287    0.027681    0.382374   -0.165093    0.163163
H    -0.742886    1.135157    0.754103    0.130762    0.189775    0.297662
H    -1.657636   -0.023348    1.915228    0.033080    0.231516    0.082567
H    -0.307292   -1.853411    1.104396   -0.094325    0.013051   -0.064457
H     1.051558   -1.520084   -0.959091    0.093883   -0.023202    0.065181
H     2.984104    0.067076   -0.578295   -0.010548   -0.033756    0.043298
H     2.063052    0.785691    0.851788   -0.003234    0.077213   -0.015761
15
* Frequency(6) -569.1763
C    -2.892590    0.381370   -0.541543    1.025211   -0.161097    0.833216
C    -0.748194    0.141984    1.288786   -0.975867    0.158038   -0.792191
C    -0.147008   -0.837528    0.752910   -0.085692   -0.026964   -0.138872
C     0.906513   -0.675978   -0.291906   -0.032682   -0.008769    0.022309
C     2.033893    0.240422   -0.082580   -0.015053    0.027686    0.013995
O     0.963049    0.578059   -0.943077    0.006382   -0.009262   -0.010081
H    -2.106712    0.574608   -1.283348    0.073060   -0.073442    0.169446
H    -3.181931   -0.647005   -0.321612    0.295568    0.063280    0.152226
H    -3.302286    1.204405    0.040414    0.382374   -0.165093    0.163163
H    -0.732682    1.149966    0.777331    0.130762    0.189775    0.297662
H    -1.655055   -0.005281    1.921671    0.033080    0.231516    0.082567
H    -0.314652   -1.852392    1.099366   -0.094325    0.013051   -0.064457
H     1.058884   -1.521894   -0.954005    0.093883   -0.023202    0.065181
H     2.983281    0.064442   -0.574916   -0.010548   -0.033756    0.043298
H     2.062799    0.791717    0.850558   -0.003234    0.077213   -0.015761
15
* Frequency(6) -569.1763
C    -2.788706    0.365046   -0.457114    1.025211   -0.161097    0.833216
C    -0.847079    0.157998    1.208514   -0.975867    0.158038   -0.792191
C    -0.155691   -0.840260    0.738838   -0.085692   -0.026964   -0.138872
C     0.903202   -0.676866   -0.289646   -0.032682   -0.008769    0.022309
C     2.032368    0.243228   -0.081162   -0.015053    0.027686    0.013995
O     0.963695    0.577120   -0.944098    0.006382   -0.009262   -0.010081
H    -2.099309    0.567167   -1.266178    0.073060   -0.073442    0.169446
H    -3.151981   -0.640592   -0.306187    0.295568    0.063280    0.152226
H    -3.263540    1.187676    0.056947    0.382374   -0.165093    0.163163
H    -0.719432    1.169196    0.807493    0.130762    0.189775    0.297662
H    -1.651703    0.018178    1.930038    0.033080    0.231516    0.082567
H    -0.324210   -1.851070    1.092835   -0.094325    0.013051   -0.064457
H     1.068397   -1.524245   -0.947400    0.093883   -0.023202    0.065181
H     2.982212    0.061021   -0.570529   -0.010548   -0.033756    0.043298
H     2.062472    0.799540    0.848961   -0.003234    0.077213   -0.015761
15
* Frequency(6) -569.1763
C    -2.672196    0.346738   -0.362423    1.025211   -0.161097    0.833216
C    -0.957981    0.175958    1.118485   -0.975867    0.158038   -0.792191
C    -0.165430   -0.843324    0.723056   -0.085692   -0.026964   -0.138872
C     0.899488   -0.677863   -0.287110   -0.032682   -0.008769    0.022309
C     2.030657    0.246374   -0.079572   -0.015053    0.027686    0.013995
O     0.964421    0.576068   -0.945244    0.006382   -0.009262   -0.010081
H    -2.091006    0.558820   -1.246921    0.073060   -0.073442    0.169446
H    -3.118392   -0.633401   -0.288887    0.295568    0.063280    0.152226
H    -3.220085    1.168914    0.075489    0.382374   -0.165093    0.163163
H    -0.704572    1.190763    0.841321    0.130762    0.189775    0.297662
H    -1.647943    0.044489    1.939421    0.033080    0.231516    0.082567
H    -0.334930   -1.849587    1.085510   -0.094325    0.013051   -0.064457
H     1.079066   -1.526882   -0.939992    0.093883   -0.023202    0.065181
H     2.981014    0.057185   -0.565608   -0.010548   -0.033756    0.043298
H     2.062104    0.808315    0.847170   -0.003234    0.077213   -0.015761
