15
Coordinates from ORCA-job freq E -270.996306410945
  C          -2.34581004763420      0.37056677459913     -0.49006953903841
  C          -0.63159529609073      0.19978734494150      0.99083897251479
  C           0.16095608659426     -0.81949554518749      0.59540998911248
  C           1.22587334573984     -0.65403391452693     -0.41475672592821
  C           2.35704277963673      0.27020299790392     -0.20721814031245
  O           1.29080636866774      0.59989660218576     -1.07289013181952
  H          -1.76462007093475      0.58264908753034     -1.37456763074884
  H          -2.79200587563053     -0.60957213978984     -0.41653369026164
  H          -2.89369933567013      1.19274272007760     -0.05215695503741
  H          -0.37818619781344      1.21459146113116      0.71367422479630
  H          -1.32155735445081      0.06831745443309      1.81177466828601
  H          -0.00854394477744     -1.82575783566014      0.95786324830934
  H           1.40545213474050     -1.50305322662770     -1.06763863461698
  H           3.30739947259786      0.08101410348185     -0.69325457948910
  H           2.38848993502508      0.83214411550771      0.71952392423364
