15
Coordinates from ORCA-job freq E -271.052518936885
  C           2.29115960363572      0.25499379176693      0.53545974612101
  C          -0.11929150425164     -0.40933244824325      0.34566027032272
  C          -1.18415459787486      0.09809319696736     -0.25526644458256
  C           1.24286283010059     -0.51726029702435     -0.26595044078822
  C          -2.53910284624130      0.20821294704866      0.38554411178688
  O          -2.64799395833886     -0.24644569922306      1.66497944249051
  H           2.04990411118712      1.31753074746652      0.56161205634648
  H           2.33172279472850     -0.10257174045808      1.56496222288054
  H           3.28293516799799      0.13918455854079      0.09945021178361
  H          -0.22653202861262     -0.76306720697962      1.36772193655507
  H          -1.11453411811227      0.46565835502217     -1.27564604441591
  H           1.21397122746509     -0.15523005255959     -1.29520663626831
  H           1.53341362109508     -1.57068321750218     -0.30748911060300
  H          -3.30474575320618     -0.31740396893480     -0.21268589999710
  H          -2.89882554957236      1.25247103411251      0.37743757836831
