15
* (null), Energy   -1000.0000000
C     2.183153    0.239245   -0.270172    0.003834   -0.002236    0.003992
C    -2.273271    0.681153    0.510858    0.001164   -0.001147    0.000479
C     1.393619   -0.742654    0.543455    0.047177   -0.041817   -0.129250
C    -0.050828   -0.632045    0.652203    0.089063    0.035753    0.065566
C    -1.175677   -0.131011   -0.106281    0.010074   -0.005802    0.010151
O    -1.072753   -1.508476    0.326782    0.003559    0.006559    0.015416
H     0.735174   -0.321413    1.643797   -1.970156    0.011560    0.260813
H     3.222308    0.281589    0.050542    0.010386    0.004957   -0.014323
H     2.167359   -0.026982   -1.331973    0.008093    0.027133   -0.022223
H     1.760639    1.241231   -0.182295   -0.004373    0.003939    0.003746
H    -3.233188    0.433238    0.057929    0.003002   -0.004265   -0.000366
H    -2.323486    0.484181    1.580005   -0.003596    0.001893    0.001227
H    -2.087028    1.744338    0.355389    0.000936   -0.001987   -0.001700
H     1.803187   -1.714286    0.788394    0.054773    0.025839    0.088136
H    -1.049210   -0.028108   -1.181841    0.041440    0.008523    0.024624
15
* Frequency(6) -2016.9140
C     2.183589    0.238991   -0.269718    0.003834   -0.002236    0.003992
C    -2.273138    0.681023    0.510913    0.001164   -0.001147    0.000479
C     1.398981   -0.747407    0.528767    0.047177   -0.041817   -0.129250
C    -0.040706   -0.627982    0.659655    0.089063    0.035753    0.065566
C    -1.174532   -0.131671   -0.105127    0.010074   -0.005802    0.010151
O    -1.072349   -1.507731    0.328534    0.003559    0.006559    0.015416
H     0.511276   -0.320099    1.673437   -1.970156    0.011560    0.260813
H     3.223488    0.282152    0.048914    0.010386    0.004957   -0.014323
H     2.168279   -0.023899   -1.334498    0.008093    0.027133   -0.022223
H     1.760142    1.241678   -0.181870   -0.004373    0.003939    0.003746
H    -3.232847    0.432754    0.057888    0.003002   -0.004265   -0.000366
H    -2.323895    0.484396    1.580145   -0.003596    0.001893    0.001227
H    -2.086921    1.744112    0.355196    0.000936   -0.001987   -0.001700
H     1.809412   -1.711349    0.798411    0.054773    0.025839    0.088136
H    -1.044500   -0.027140   -1.179043    0.041440    0.008523    0.024624
15
* Frequency(6) -2016.9140
C     2.183977    0.238765   -0.269314    0.003834   -0.002236    0.003992
C    -2.273020    0.680907    0.510961    0.001164   -0.001147    0.000479
C     1.403761   -0.751644    0.515670    0.047177   -0.041817   -0.129250
C    -0.031681   -0.624359    0.666298    0.089063    0.035753    0.065566
C    -1.173511   -0.132259   -0.104099    0.010074   -0.005802    0.010151
O    -1.071988   -1.507066    0.330096    0.003559    0.006559    0.015416
H     0.311641   -0.318928    1.699866   -1.970156    0.011560    0.260813
H     3.224540    0.282655    0.047463    0.010386    0.004957   -0.014323
H     2.169099   -0.021149   -1.336750    0.008093    0.027133   -0.022223
H     1.759699    1.242078   -0.181490   -0.004373    0.003939    0.003746
H    -3.232543    0.432322    0.057850    0.003002   -0.004265   -0.000366
H    -2.324259    0.484588    1.580269   -0.003596    0.001893    0.001227
H    -2.086826    1.743911    0.355024    0.000936   -0.001987   -0.001700
H     1.814962   -1.708731    0.807341    0.054773    0.025839    0.088136
H    -1.040301   -0.026276   -1.176547    0.041440    0.008523    0.024624
15
* Frequency(6) -2016.9140
C     2.184277    0.238590   -0.269002    0.003834   -0.002236    0.003992
C    -2.272929    0.680817    0.510999    0.001164   -0.001147    0.000479
C     1.407443   -0.754907    0.505584    0.047177   -0.041817   -0.129250
C    -0.024731   -0.621569    0.671415    0.089063    0.035753    0.065566
C    -1.172725   -0.132712   -0.103306    0.010074   -0.005802    0.010151
O    -1.071710   -1.506554    0.331299    0.003559    0.006559    0.015416
H     0.157902   -0.318026    1.720218   -1.970156    0.011560    0.260813
H     3.225351    0.283041    0.046345    0.010386    0.004957   -0.014323
H     2.169730   -0.019032   -1.338484    0.008093    0.027133   -0.022223
H     1.759357    1.242385   -0.181198   -0.004373    0.003939    0.003746
H    -3.232309    0.431989    0.057822    0.003002   -0.004265   -0.000366
H    -2.324540    0.484736    1.580365   -0.003596    0.001893    0.001227
H    -2.086753    1.743756    0.354891    0.000936   -0.001987   -0.001700
H     1.819236   -1.706715    0.814219    0.054773    0.025839    0.088136
H    -1.037068   -0.025611   -1.174626    0.041440    0.008523    0.024624
15
* Frequency(6) -2016.9140
C     2.184454    0.238487   -0.268817    0.003834   -0.002236    0.003992
C    -2.272876    0.680764    0.511021    0.001164   -0.001147    0.000479
C     1.409626   -0.756842    0.499602    0.047177   -0.041817   -0.129250
C    -0.020609   -0.619914    0.674449    0.089063    0.035753    0.065566
C    -1.172258   -0.132980   -0.102837    0.010074   -0.005802    0.010151
O    -1.071545   -1.506251    0.332012    0.003559    0.006559    0.015416
H     0.066720   -0.317491    1.732289   -1.970156    0.011560    0.260813
H     3.225832    0.283271    0.045682    0.010386    0.004957   -0.014323
H     2.170105   -0.017776   -1.339513    0.008093    0.027133   -0.022223
H     1.759155    1.242567   -0.181024   -0.004373    0.003939    0.003746
H    -3.232170    0.431791    0.057805    0.003002   -0.004265   -0.000366
H    -2.324706    0.484823    1.580422   -0.003596    0.001893    0.001227
H    -2.086710    1.743664    0.354812    0.000936   -0.001987   -0.001700
H     1.821771   -1.705519    0.818298    0.054773    0.025839    0.088136
H    -1.035150   -0.025216   -1.173486    0.041440    0.008523    0.024624
15
* Frequency(6) -2016.9140
C     2.184491    0.238466   -0.268779    0.003834   -0.002236    0.003992
C    -2.272864    0.680753    0.511026    0.001164   -0.001147    0.000479
C     1.410075   -0.757240    0.498372    0.047177   -0.041817   -0.129250
C    -0.019762   -0.619574    0.675073    0.089063    0.035753    0.065566
C    -1.172163   -0.133035   -0.102740    0.010074   -0.005802    0.010151
O    -1.071512   -1.506188    0.332159    0.003559    0.006559    0.015416
H     0.047975   -0.317381    1.734770   -1.970156    0.011560    0.260813
H     3.225930    0.283318    0.045546    0.010386    0.004957   -0.014323
H     2.170182   -0.017518   -1.339724    0.008093    0.027133   -0.022223
H     1.759113    1.242605   -0.180989   -0.004373    0.003939    0.003746
H    -3.232141    0.431751    0.057801    0.003002   -0.004265   -0.000366
H    -2.324740    0.484841    1.580433   -0.003596    0.001893    0.001227
H    -2.086701    1.743645    0.354796    0.000936   -0.001987   -0.001700
H     1.822292   -1.705273    0.819137    0.054773    0.025839    0.088136
H    -1.034755   -0.025135   -1.173252    0.041440    0.008523    0.024624
15
* Frequency(6) -2016.9140
C     2.184382    0.238529   -0.268892    0.003834   -0.002236    0.003992
C    -2.272897    0.680786    0.511012    0.001164   -0.001147    0.000479
C     1.408741   -0.756058    0.502028    0.047177   -0.041817   -0.129250
C    -0.022281   -0.620585    0.673219    0.089063    0.035753    0.065566
C    -1.172447   -0.132871   -0.103027    0.010074   -0.005802    0.010151
O    -1.071612   -1.506374    0.331723    0.003559    0.006559    0.015416
H     0.103698   -0.317708    1.727393   -1.970156    0.011560    0.260813
H     3.225637    0.283178    0.045951    0.010386    0.004957   -0.014323
H     2.169953   -0.018285   -1.339096    0.008093    0.027133   -0.022223
H     1.759237    1.242493   -0.181095   -0.004373    0.003939    0.003746
H    -3.232226    0.431872    0.057812    0.003002   -0.004265   -0.000366
H    -2.324638    0.484788    1.580399   -0.003596    0.001893    0.001227
H    -2.086727    1.743701    0.354844    0.000936   -0.001987   -0.001700
H     1.820743   -1.706004    0.816644    0.054773    0.025839    0.088136
H    -1.035927   -0.025376   -1.173948    0.041440    0.008523    0.024624
15
* Frequency(6) -2016.9140
C     2.184140    0.238670   -0.269144    0.003834   -0.002236    0.003992
C    -2.272971    0.680858    0.510982    0.001164   -0.001147    0.000479
C     1.405768   -0.753422    0.510173    0.047177   -0.041817   -0.129250
C    -0.027894   -0.622838    0.669087    0.089063    0.035753    0.065566
C    -1.173082   -0.132506   -0.103667    0.010074   -0.005802    0.010151
O    -1.071837   -1.506787    0.330752    0.003559    0.006559    0.015416
H     0.227852   -0.318436    1.710958   -1.970156    0.011560    0.260813
H     3.224982    0.282865    0.046853    0.010386    0.004957   -0.014323
H     2.169443   -0.019995   -1.337695    0.008093    0.027133   -0.022223
H     1.759513    1.242245   -0.181331   -0.004373    0.003939    0.003746
H    -3.232415    0.432140    0.057835    0.003002   -0.004265   -0.000366
H    -2.324412    0.484668    1.580321   -0.003596    0.001893    0.001227
H    -2.086786    1.743826    0.354952    0.000936   -0.001987   -0.001700
H     1.817292   -1.707632    0.811090    0.054773    0.025839    0.088136
H    -1.038539   -0.025913   -1.175500    0.041440    0.008523    0.024624
15
* Frequency(6) -2016.9140
C     2.183792    0.238873   -0.269507    0.003834   -0.002236    0.003992
C    -2.273077    0.680962    0.510938    0.001164   -0.001147    0.000479
C     1.401478   -0.749620    0.521925    0.047177   -0.041817   -0.129250
C    -0.035991   -0.626089    0.663125    0.089063    0.035753    0.065566
C    -1.173998   -0.131978   -0.104590    0.010074   -0.005802    0.010151
O    -1.072160   -1.507384    0.329350    0.003559    0.006559    0.015416
H     0.406982   -0.319487    1.687244   -1.970156    0.011560    0.260813
H     3.224038    0.282415    0.048156    0.010386    0.004957   -0.014323
H     2.168707   -0.022462   -1.335675    0.008093    0.027133   -0.022223
H     1.759910    1.241887   -0.181671   -0.004373    0.003939    0.003746
H    -3.232688    0.432528    0.057868    0.003002   -0.004265   -0.000366
H    -2.324085    0.484496    1.580210   -0.003596    0.001893    0.001227
H    -2.086872    1.744007    0.355106    0.000936   -0.001987   -0.001700
H     1.812312   -1.709981    0.803076    0.054773    0.025839    0.088136
H    -1.042307   -0.026688   -1.177739    0.041440    0.008523    0.024624
15
* Frequency(6) -2016.9140
C     2.183374    0.239117   -0.269942    0.003834   -0.002236    0.003992
C    -2.273204    0.681087    0.510886    0.001164   -0.001147    0.000479
C     1.396337   -0.745063    0.536009    0.047177   -0.041817   -0.129250
C    -0.045697   -0.629985    0.655980    0.089063    0.035753    0.065566
C    -1.175096   -0.131346   -0.105696    0.010074   -0.005802    0.010151
O    -1.072548   -1.508098    0.327670    0.003559    0.006559    0.015416
H     0.621677   -0.320747    1.658822   -1.970156    0.011560    0.260813
H     3.222906    0.281875    0.049717    0.010386    0.004957   -0.014323
H     2.167825   -0.025419   -1.333253    0.008093    0.027133   -0.022223
H     1.760387    1.241458   -0.182080   -0.004373    0.003939    0.003746
H    -3.233015    0.432993    0.057908    0.003002   -0.004265   -0.000366
H    -2.323693    0.484290    1.580076   -0.003596    0.001893    0.001227
H    -2.086974    1.744223    0.355291    0.000936   -0.001987   -0.001700
H     1.806343   -1.712797    0.793472    0.054773    0.025839    0.088136
H    -1.046822   -0.027617   -1.180422    0.041440    0.008523    0.024624
15
* Frequency(6) -2016.9140
C     2.182932    0.239374   -0.270402    0.003834   -0.002236    0.003992
C    -2.273338    0.681219    0.510831    0.001164   -0.001147    0.000479
C     1.390901   -0.740245    0.550901    0.047177   -0.041817   -0.129250
C    -0.055958   -0.634104    0.648426    0.089063    0.035753    0.065566
C    -1.176257   -0.130677   -0.106865    0.010074   -0.005802    0.010151
O    -1.072958   -1.508854    0.325894    0.003559    0.006559    0.015416
H     0.848671   -0.322079    1.628772   -1.970156    0.011560    0.260813
H     3.221709    0.281303    0.051367    0.010386    0.004957   -0.014323
H     2.166893   -0.028545   -1.330692    0.008093    0.027133   -0.022223
H     1.760890    1.241004   -0.182511   -0.004373    0.003939    0.003746
H    -3.233361    0.433484    0.057950    0.003002   -0.004265   -0.000366
H    -2.323279    0.484072    1.579935   -0.003596    0.001893    0.001227
H    -2.087081    1.744452    0.355487    0.000936   -0.001987   -0.001700
H     1.800032   -1.715774    0.783317    0.054773    0.025839    0.088136
H    -1.051597   -0.028599   -1.183259    0.041440    0.008523    0.024624
15
* Frequency(6) -2016.9140
C     2.182515    0.239618   -0.270837    0.003834   -0.002236    0.003992
C    -2.273465    0.681344    0.510779    0.001164   -0.001147    0.000479
C     1.385760   -0.735688    0.564986    0.047177   -0.041817   -0.129250
C    -0.065664   -0.638001    0.641281    0.089063    0.035753    0.065566
C    -1.177355   -0.130045   -0.107972    0.010074   -0.005802    0.010151
O    -1.073346   -1.509569    0.324214    0.003559    0.006559    0.015416
H     1.063366   -0.323339    1.600351   -1.970156    0.011560    0.260813
H     3.220577    0.280763    0.052928    0.010386    0.004957   -0.014323
H     2.166011   -0.031502   -1.328271    0.008093    0.027133   -0.022223
H     1.761367    1.240575   -0.182919   -0.004373    0.003939    0.003746
H    -3.233688    0.433949    0.057990    0.003002   -0.004265   -0.000366
H    -2.322887    0.483866    1.579801   -0.003596    0.001893    0.001227
H    -2.087183    1.744669    0.355673    0.000936   -0.001987   -0.001700
H     1.794063   -1.718590    0.773712    0.054773    0.025839    0.088136
H    -1.056113   -0.029528   -1.185943    0.041440    0.008523    0.024624
15
* Frequency(6) -2016.9140
C     2.182166    0.239821   -0.271200    0.003834   -0.002236    0.003992
C    -2.273571    0.681448    0.510735    0.001164   -0.001147    0.000479
C     1.381471   -0.731886    0.576738    0.047177   -0.041817   -0.129250
C    -0.073762   -0.641251    0.635320    0.089063    0.035753    0.065566
C    -1.178271   -0.129517   -0.108894    0.010074   -0.005802    0.010151
O    -1.073670   -1.510165    0.322812    0.003559    0.006559    0.015416
H     1.242496   -0.324390    1.576637   -1.970156    0.011560    0.260813
H     3.219633    0.280313    0.054230    0.010386    0.004957   -0.014323
H     2.165275   -0.033969   -1.326250    0.008093    0.027133   -0.022223
H     1.761764    1.240217   -0.183260   -0.004373    0.003939    0.003746
H    -3.233961    0.434337    0.058024    0.003002   -0.004265   -0.000366
H    -2.322560    0.483694    1.579689   -0.003596    0.001893    0.001227
H    -2.087269    1.744850    0.355827    0.000936   -0.001987   -0.001700
H     1.789083   -1.720939    0.765699    0.054773    0.025839    0.088136
H    -1.059881   -0.030303   -1.188182    0.041440    0.008523    0.024624
15
* Frequency(6) -2016.9140
C     2.181924    0.239962   -0.271451    0.003834   -0.002236    0.003992
C    -2.273644    0.681521    0.510705    0.001164   -0.001147    0.000479
C     1.378498   -0.729251    0.584883    0.047177   -0.041817   -0.129250
C    -0.079374   -0.643504    0.631188    0.089063    0.035753    0.065566
C    -1.178906   -0.129152   -0.109534    0.010074   -0.005802    0.010151
O    -1.073894   -1.510579    0.321841    0.003559    0.006559    0.015416
H     1.366650   -0.325118    1.560201   -1.970156    0.011560    0.260813
H     3.218979    0.280000    0.055133    0.010386    0.004957   -0.014323
H     2.164765   -0.035679   -1.324850    0.008093    0.027133   -0.022223
H     1.762040    1.239968   -0.183496   -0.004373    0.003939    0.003746
H    -3.234150    0.434605    0.058047    0.003002   -0.004265   -0.000366
H    -2.322333    0.483574    1.579612   -0.003596    0.001893    0.001227
H    -2.087328    1.744975    0.355934    0.000936   -0.001987   -0.001700
H     1.785632   -1.722568    0.760145    0.054773    0.025839    0.088136
H    -1.062492   -0.030840   -1.189733    0.041440    0.008523    0.024624
15
* Frequency(6) -2016.9140
C     2.181816    0.240025   -0.271564    0.003834   -0.002236    0.003992
C    -2.273677    0.681553    0.510691    0.001164   -0.001147    0.000479
C     1.377164   -0.728068    0.588538    0.047177   -0.041817   -0.129250
C    -0.081893   -0.644516    0.629334    0.089063    0.035753    0.065566
C    -1.179190   -0.128988   -0.109821    0.010074   -0.005802    0.010151
O    -1.073995   -1.510764    0.321405    0.003559    0.006559    0.015416
H     1.422374   -0.325445    1.552825   -1.970156    0.011560    0.260813
H     3.218685    0.279860    0.055538    0.010386    0.004957   -0.014323
H     2.164536   -0.036446   -1.324221    0.008093    0.027133   -0.022223
H     1.762164    1.239857   -0.183602   -0.004373    0.003939    0.003746
H    -3.234235    0.434726    0.058057    0.003002   -0.004265   -0.000366
H    -2.322232    0.483521    1.579577   -0.003596    0.001893    0.001227
H    -2.087354    1.745031    0.355982    0.000936   -0.001987   -0.001700
H     1.784082   -1.723299    0.757652    0.054773    0.025839    0.088136
H    -1.063664   -0.031081   -1.190430    0.041440    0.008523    0.024624
15
* Frequency(6) -2016.9140
C     2.181852    0.240004   -0.271526    0.003834   -0.002236    0.003992
C    -2.273666    0.681542    0.510696    0.001164   -0.001147    0.000479
C     1.377613   -0.728466    0.587309    0.047177   -0.041817   -0.129250
C    -0.081046   -0.644175    0.629957    0.089063    0.035753    0.065566
C    -1.179095   -0.129043   -0.109725    0.010074   -0.005802    0.010151
O    -1.073961   -1.510702    0.321551    0.003559    0.006559    0.015416
H     1.403629   -0.325335    1.555306   -1.970156    0.011560    0.260813
H     3.218784    0.279907    0.055401    0.010386    0.004957   -0.014323
H     2.164613   -0.036188   -1.324433    0.008093    0.027133   -0.022223
H     1.762122    1.239894   -0.183566   -0.004373    0.003939    0.003746
H    -3.234207    0.434685    0.058054    0.003002   -0.004265   -0.000366
H    -2.322266    0.483539    1.579589   -0.003596    0.001893    0.001227
H    -2.087345    1.745012    0.355966    0.000936   -0.001987   -0.001700
H     1.784604   -1.723053    0.758491    0.054773    0.025839    0.088136
H    -1.063270   -0.031000   -1.190196    0.041440    0.008523    0.024624
15
* Frequency(6) -2016.9140
C     2.182030    0.239900   -0.271341    0.003834   -0.002236    0.003992
C    -2.273612    0.681489    0.510718    0.001164   -0.001147    0.000479
C     1.379796   -0.730402    0.581327    0.047177   -0.041817   -0.129250
C    -0.076924   -0.642521    0.632992    0.089063    0.035753    0.065566
C    -1.178628   -0.129311   -0.109255    0.010074   -0.005802    0.010151
O    -1.073796   -1.510398    0.322265    0.003559    0.006559    0.015416
H     1.312446   -0.324800    1.567377   -1.970156    0.011560    0.260813
H     3.219264    0.280137    0.054738    0.010386    0.004957   -0.014323
H     2.164988   -0.034932   -1.325461    0.008093    0.027133   -0.022223
H     1.761920    1.240077   -0.183393   -0.004373    0.003939    0.003746
H    -3.234068    0.434488    0.058037    0.003002   -0.004265   -0.000366
H    -2.322432    0.483627    1.579646   -0.003596    0.001893    0.001227
H    -2.087302    1.744920    0.355887    0.000936   -0.001987   -0.001700
H     1.787138   -1.721857    0.762570    0.054773    0.025839    0.088136
H    -1.061352   -0.030605   -1.189056    0.041440    0.008523    0.024624
15
* Frequency(6) -2016.9140
C     2.182329    0.239726   -0.271030    0.003834   -0.002236    0.003992
C    -2.273521    0.681400    0.510755    0.001164   -0.001147    0.000479
C     1.383477   -0.733665    0.571241    0.047177   -0.041817   -0.129250
C    -0.069974   -0.639731    0.638108    0.089063    0.035753    0.065566
C    -1.177842   -0.129764   -0.108463    0.010074   -0.005802    0.010151
O    -1.073518   -1.509886    0.323468    0.003559    0.006559    0.015416
H     1.158707   -0.323898    1.587729   -1.970156    0.011560    0.260813
H     3.220075    0.280523    0.053621    0.010386    0.004957   -0.014323
H     2.165619   -0.032815   -1.327195    0.008093    0.027133   -0.022223
H     1.761579    1.240384   -0.183100   -0.004373    0.003939    0.003746
H    -3.233834    0.434155    0.058008    0.003002   -0.004265   -0.000366
H    -2.322713    0.483774    1.579742   -0.003596    0.001893    0.001227
H    -2.087229    1.744765    0.355755    0.000936   -0.001987   -0.001700
H     1.791413   -1.719840    0.769447    0.054773    0.025839    0.088136
H    -1.058118   -0.029940   -1.187134    0.041440    0.008523    0.024624
15
* Frequency(6) -2016.9140
C     2.182718    0.239499   -0.270625    0.003834   -0.002236    0.003992
C    -2.273403    0.681283    0.510804    0.001164   -0.001147    0.000479
C     1.388258   -0.737902    0.558144    0.047177   -0.041817   -0.129250
C    -0.060949   -0.636108    0.644752    0.089063    0.035753    0.065566
C    -1.176821   -0.130352   -0.107434    0.010074   -0.005802    0.010151
O    -1.073158   -1.509222    0.325030    0.003559    0.006559    0.015416
H     0.959072   -0.322727    1.614157   -1.970156    0.011560    0.260813
H     3.221127    0.281026    0.052169    0.010386    0.004957   -0.014323
H     2.166439   -0.030066   -1.329447    0.008093    0.027133   -0.022223
H     1.761135    1.240783   -0.182721   -0.004373    0.003939    0.003746
H    -3.233529    0.433723    0.057971    0.003002   -0.004265   -0.000366
H    -2.323077    0.483966    1.579866   -0.003596    0.001893    0.001227
H    -2.087134    1.744564    0.355583    0.000936   -0.001987   -0.001700
H     1.796963   -1.717222    0.778378    0.054773    0.025839    0.088136
H    -1.053919   -0.029077   -1.184639    0.041440    0.008523    0.024624
15
* Frequency(6) -2016.9140
C     2.183153    0.239245   -0.270172    0.003834   -0.002236    0.003992
C    -2.273271    0.681153    0.510858    0.001164   -0.001147    0.000479
C     1.393619   -0.742654    0.543455    0.047177   -0.041817   -0.129250
C    -0.050828   -0.632045    0.652203    0.089063    0.035753    0.065566
C    -1.175677   -0.131011   -0.106281    0.010074   -0.005802    0.010151
O    -1.072753   -1.508476    0.326782    0.003559    0.006559    0.015416
H     0.735174   -0.321413    1.643797   -1.970156    0.011560    0.260813
H     3.222308    0.281589    0.050542    0.010386    0.004957   -0.014323
H     2.167359   -0.026982   -1.331973    0.008093    0.027133   -0.022223
H     1.760639    1.241231   -0.182295   -0.004373    0.003939    0.003746
H    -3.233188    0.433238    0.057929    0.003002   -0.004265   -0.000366
H    -2.323486    0.484181    1.580005   -0.003596    0.001893    0.001227
H    -2.087028    1.744338    0.355389    0.000936   -0.001987   -0.001700
H     1.803187   -1.714286    0.788394    0.054773    0.025839    0.088136
H    -1.049210   -0.028108   -1.181841    0.041440    0.008523    0.024624
