17
Coordinates from ORCA-job freq E -421.368377170890
  C      -2.571427     -0.747800      0.093488
  C       1.465434     -2.467805      0.083916
  C       1.332416     -0.958418      0.225966
  C      -1.161367     -0.852730      0.113990
  C       0.028311     -0.569446      0.933954
  O      -1.393756     -1.695137     -0.854906
  O       0.812283      1.126148      2.316121
  O      -0.045026      0.823768      1.212276
  H      -3.076939      0.120785     -0.310173
  H      -3.188317     -1.601420      0.332871
  H       1.454901     -2.948419      1.060074
  H       2.400442     -2.714123     -0.412396
  H       0.644951     -2.863471     -0.509670
  H       1.349745     -0.485195     -0.757457
  H       2.159243     -0.558262      0.816032
  H      -0.036215     -1.104163      1.901262
  H       0.731422      2.086841      2.370148
17
Coordinates from ORCA-job freq E -421.370361465534
  C      -2.585639     -0.760396      0.071843
  C       1.471946     -2.458099      0.110174
  C       1.315318     -0.945367      0.218856
  C      -1.176754     -0.828676      0.105286
  C       0.026474     -0.557837      0.926783
  O      -1.380703     -1.628193     -0.893173
  O       0.808710      1.047899      2.319682
  O      -0.054500      0.834838      1.200617
  H      -3.113776      0.121888     -0.275214
  H      -3.179172     -1.631927      0.316298
  H       1.478963     -2.917521      1.099874
  H       2.409428     -2.712300     -0.381712
  H       0.658266     -2.898261     -0.464623
  H       1.320032     -0.482642     -0.769473
  H       2.138053     -0.518175      0.791907
  H      -0.040357     -1.084258      1.889727
  H       0.809811      2.010178      2.348645
17
Coordinates from ORCA-job freq E -421.370715525132
  C      -2.591958     -0.789230      0.071216
  C       1.466856     -2.459059      0.129264
  C       1.307170     -0.945096      0.212851
  C      -1.182021     -0.807359      0.095272
  C       0.021954     -0.545250      0.919727
  O      -1.359652     -1.539961     -0.958812
  O       0.751537      1.043931      2.374772
  O      -0.041642      0.851900      1.196384
  H      -3.156390      0.097223     -0.200600
  H      -3.148550     -1.697783      0.263222
  H       1.478065     -2.902391      1.126292
  H       2.402574     -2.721130     -0.362192
  H       0.652099     -2.910233     -0.436078
  H       1.307520     -0.500536     -0.783812
  H       2.130308     -0.504542      0.775546
  H      -0.056114     -1.068139      1.882598
  H       0.924346      1.988807      2.309847
17
Coordinates from ORCA-job freq E -421.371460417592
  C      -2.598589     -0.853142      0.060894
  C       1.444577     -2.443510      0.164501
  C       1.287792     -0.927814      0.224790
  C      -1.191793     -0.780511      0.091825
  C       0.004176     -0.529330      0.930981
  O      -1.320772     -1.373218     -1.053606
  O       0.755563      1.050293      2.388379
  O      -0.073117      0.862824      1.238496
  H      -3.221484      0.023899     -0.087735
  H      -3.093962     -1.812761      0.132719
  H       1.453640     -2.871351      1.168324
  H       2.378379     -2.718605     -0.323175
  H       0.627432     -2.899129     -0.394404
  H       1.285732     -0.500720     -0.779273
  H       2.113464     -0.480644      0.778617
  H      -0.080942     -1.067407      1.883704
  H       1.136005      1.912279      2.190461
17
Coordinates from ORCA-job freq E -421.371903379973
  C      -2.600707     -0.887097      0.062269
  C       1.433242     -2.434841      0.159532
  C       1.280382     -0.921418      0.255745
  C      -1.196446     -0.786145      0.104875
  C      -0.009466     -0.518958      0.950326
  O      -1.304784     -1.338216     -1.063344
  O       0.709090      1.107111      2.392897
  O      -0.075595      0.883620      1.223853
  H      -3.241064     -0.019130     -0.065723
  H      -3.077016     -1.858126      0.094722
  H       1.426532     -2.891471      1.150214
  H       2.373097     -2.697934     -0.323411
  H       0.623485     -2.871448     -0.424667
  H       1.290062     -0.473714     -0.739438
  H       2.103787     -0.490907      0.826368
  H      -0.104556     -1.038314      1.910991
  H       1.276057      1.828140      2.100288
17
Coordinates from ORCA-job freq E -421.372358076523
  C      -2.596298     -0.940151      0.054382
  C       1.406319     -2.427766      0.172559
  C       1.270479     -0.913020      0.277869
  C      -1.199624     -0.778515      0.113662
  C      -0.020358     -0.510811      0.968654
  O      -1.283788     -1.210450     -1.107517
  O       0.756237      1.141814      2.366305
  O      -0.089470      0.894226      1.248441
  H      -3.280633     -0.097001      0.024113
  H      -3.023096     -1.932044     -0.015935
  H       1.380972     -2.889741      1.160698
  H       2.348629     -2.701161     -0.299445
  H       0.598148     -2.849344     -0.424734
  H       1.292650     -0.456491     -0.713023
  H       2.095771     -0.498364      0.857580
  H      -0.119690     -1.029694      1.928020
  H       1.369852      1.789663      2.003869
17
Coordinates from ORCA-job freq E -421.372576253556
  C      -2.592018     -0.971365      0.053157
  C       1.391511     -2.422242      0.175355
  C       1.266360     -0.907887      0.296343
  C      -1.200423     -0.782792      0.123695
  C      -0.027267     -0.502924      0.981376
  O      -1.274247     -1.145436     -1.121036
  O       0.767100      1.171243      2.346893
  O      -0.095831      0.905914      1.247198
  H      -3.296132     -0.143976      0.069967
  H      -2.995948     -1.967366     -0.072147
  H       1.350341     -2.895572      1.157577
  H       2.337380     -2.697658     -0.288256
  H       0.587402     -2.830276     -0.436745
  H       1.298222     -0.440936     -0.689486
  H       2.091460     -0.506469      0.885468
  H      -0.129986     -1.014325      1.943920
  H       1.428180      1.743218      1.942216
17
Coordinates from ORCA-job freq E -421.372665599008
  C      -2.587639     -0.993520      0.052820
  C       1.380132     -2.421097      0.176804
  C       1.264280     -0.906997      0.308544
  C      -1.200101     -0.784728      0.130759
  C      -0.030469     -0.498189      0.989937
  O      -1.269239     -1.093411     -1.129197
  O       0.782062      1.188499      2.330761
  O      -0.096841      0.913122      1.246314
  H      -3.306543     -0.180313      0.106198
  H      -2.974180     -1.990130     -0.114949
  H       1.325691     -2.902234      1.154598
  H       2.328757     -2.699359     -0.279406
  H       0.579536     -2.818697     -0.446731
  H       1.303239     -0.433122     -0.673771
  H       2.089561     -0.515557      0.903967
  H      -0.136216     -1.004404      1.954558
  H       1.454072      1.731289      1.904291
17
Coordinates from ORCA-job freq E -421.372730859892
  C      -2.579207     -1.028765      0.052611
  C       1.360937     -2.420108      0.178084
  C       1.261926     -0.906637      0.327656
  C      -1.199233     -0.783834      0.139483
  C      -0.034907     -0.489299      1.001715
  O      -1.264758     -1.010185     -1.138431
  O       0.809080      1.212356      2.303993
  O      -0.095022      0.925295      1.243354
  H      -3.323802     -0.244596      0.162739
  H      -2.935184     -2.024154     -0.177769
  H       1.281503     -2.913717      1.147957
  H       2.314712     -2.704421     -0.263413
  H       0.567714     -2.799680     -0.465880
  H       1.314515     -0.421332     -0.648506
  H       2.086827     -0.532732      0.934482
  H      -0.147759     -0.988177      1.968941
  H       1.488761      1.721138      1.848481
17
Coordinates from ORCA-job freq E -421.372741419724
  C      -2.575462     -1.043998      0.052642
  C       1.351966     -2.418709      0.178746
  C       1.260551     -0.905420      0.334291
  C      -1.199786     -0.776289      0.140535
  C      -0.036933     -0.482875      1.005150
  O      -1.263897     -0.978496     -1.141112
  O       0.819527      1.221946      2.295562
  O      -0.092263      0.932511      1.242512
  H      -3.333901     -0.275936      0.179949
  H      -2.913641     -2.040986     -0.196754
  H       1.261882     -2.916217      1.145702
  H       2.307600     -2.706607     -0.256367
  H       0.561756     -2.791154     -0.473035
  H       1.319270     -0.416228     -0.639674
  H       2.085542     -0.538894      0.945433
  H      -0.154198     -0.980430      1.972447
  H       1.508089      1.708935      1.829470
17
Coordinates from ORCA-job freq E -421.372737233852
  C      -2.570781     -1.057307      0.052067
  C       1.340888     -2.418820      0.178793
  C       1.259301     -0.905183      0.336178
  C      -1.200217     -0.760209      0.138524
  C      -0.036553     -0.474727      1.005576
  O      -1.261761     -0.958447     -1.142932
  O       0.832956      1.223069      2.295067
  O      -0.083028      0.940505      1.243639
  H      -3.344890     -0.305899      0.183343
  H      -2.887783     -2.059825     -0.203080
  H       1.245682     -2.917023      1.144888
  H       2.295425     -2.712501     -0.254841
  H       0.549554     -2.785122     -0.475102
  H       1.322682     -0.415114     -0.637079
  H       2.085809     -0.544956      0.948990
  H      -0.159195     -0.972879      1.971875
  H       1.518014      1.715592      1.829592
17
Coordinates from ORCA-job freq E -421.372741424664
  C      -2.570242     -1.058757      0.051208
  C       1.339573     -2.418341      0.179580
  C       1.258700     -0.904510      0.335370
  C      -1.200609     -0.756696      0.137898
  C      -0.036635     -0.473205      1.005248
  O      -1.261456     -0.956482     -1.143269
  O       0.834040      1.222703      2.296570
  O      -0.081703      0.941815      1.244644
  H      -3.346952     -0.309927      0.181632
  H      -2.883717     -2.062633     -0.203014
  H       1.245702     -2.915391      1.146406
  H       2.293282     -2.712885     -0.255284
  H       0.547096     -2.785174     -0.472667
  H       1.321584     -0.415554     -0.638472
  H       2.085681     -0.543838      0.947262
  H      -0.159613     -0.972213      1.971059
  H       1.521369      1.712241      1.831327
17
Coordinates from ORCA-job freq E -421.372746316602
  C      -2.570479     -1.058177      0.051247
  C       1.340031     -2.418322      0.179496
  C       1.258777     -0.904523      0.335375
  C      -1.200618     -0.757241      0.137939
  C      -0.036666     -0.473514      1.005227
  O      -1.261557     -0.957670     -1.143147
  O       0.833498      1.222669      2.296575
  O      -0.082055      0.941513      1.244555
  H      -3.346544     -0.308589      0.181171
  H      -2.884803     -2.061940     -0.202367
  H       1.246440     -2.915472      1.146297
  H       2.293764     -2.712565     -0.255524
  H       0.547564     -2.785324     -0.472665
  H       1.321601     -0.415480     -0.638423
  H       2.085641     -0.543709      0.947343
  H      -0.159471     -0.972479      1.971082
  H       1.520979      1.711976      1.831315
