17
* (null), Energy   -1000.0000000
C    -2.399414   -0.552800   -0.490400    0.299384   -0.055370   -0.507426
C     1.511097   -1.912946   -0.362151    0.003003    0.001882   -0.001899
C     1.429843   -0.399147   -0.206272    0.012885    0.000258    0.006848
C    -1.029552   -0.251865   -0.403707    0.261316    0.043474    0.381675
C     0.134400    0.031862    0.463580    0.004276   -0.042819    0.021932
O    -1.090491   -0.452294   -1.684794   -0.498586    0.007588    0.077579
O     1.004563    1.728045    1.754929    0.016861    0.015542    0.013400
O     0.089011    1.446889    0.702909    0.011212    0.020029    0.011274
H    -3.175478    0.196788   -0.360476    0.335870    0.209945   -1.441841
H    -2.713737   -1.556564   -0.744014    0.014154   -0.356467    0.877622
H     1.417506   -2.410096    0.604650   -0.007395    0.005682   -0.000525
H     2.464829   -2.207189   -0.797171    0.002708   -0.011812    0.000952
H     0.718630   -2.279947   -1.014311   -0.009941    0.004278    0.009258
H     1.492667    0.089896   -1.180070    0.004755    0.008327    0.005611
H     2.256707   -0.038333    0.405697    0.038390    0.004487   -0.030918
H     0.011594   -0.467103    1.429435    0.143955    0.072138    0.109035
H     1.692045    2.217352    1.289669    0.024112    0.004879    0.025933
17
* Frequency(6) -1197.1205
C    -2.365390   -0.559093   -0.548066    0.299384   -0.055370   -0.507426
C     1.511438   -1.912732   -0.362367    0.003003    0.001882   -0.001899
C     1.431307   -0.399117   -0.205494    0.012885    0.000258    0.006848
C    -0.999855   -0.246925   -0.360332    0.261316    0.043474    0.381675
C     0.134886    0.026996    0.466072    0.004276   -0.042819    0.021932
O    -1.147153   -0.451431   -1.675978   -0.498586    0.007588    0.077579
O     1.006480    1.729811    1.756452    0.016861    0.015542    0.013400
O     0.090285    1.449165    0.704190    0.011212    0.020029    0.011274
H    -3.137308    0.220647   -0.524333    0.335870    0.209945   -1.441841
H    -2.712129   -1.597075   -0.644277    0.014154   -0.356467    0.877622
H     1.416665   -2.409450    0.604590   -0.007395    0.005682   -0.000525
H     2.465137   -2.208531   -0.797063    0.002708   -0.011812    0.000952
H     0.717500   -2.279461   -1.013259   -0.009941    0.004278    0.009258
H     1.493207    0.090842   -1.179432    0.004755    0.008327    0.005611
H     2.261070   -0.037823    0.402183    0.038390    0.004487   -0.030918
H     0.027954   -0.458905    1.441826    0.143955    0.072138    0.109035
H     1.694785    2.217907    1.292616    0.024112    0.004879    0.025933
17
* Frequency(6) -1197.1205
C    -2.335054   -0.564704   -0.599484    0.299384   -0.055370   -0.507426
C     1.511743   -1.912541   -0.362559    0.003003    0.001882   -0.001899
C     1.432613   -0.399091   -0.204800    0.012885    0.000258    0.006848
C    -0.973376   -0.242519   -0.321657    0.261316    0.043474    0.381675
C     0.135319    0.022657    0.468295    0.004276   -0.042819    0.021932
O    -1.197674   -0.450662   -1.668117   -0.498586    0.007588    0.077579
O     1.008188    1.731386    1.757809    0.016861    0.015542    0.013400
O     0.091421    1.451195    0.705332    0.011212    0.020029    0.011274
H    -3.103274    0.241920   -0.670435    0.335870    0.209945   -1.441841
H    -2.710694   -1.633195   -0.555348    0.014154   -0.356467    0.877622
H     1.415916   -2.408874    0.604537   -0.007395    0.005682   -0.000525
H     2.465412   -2.209728   -0.796967    0.002708   -0.011812    0.000952
H     0.716493   -2.279028   -1.012321   -0.009941    0.004278    0.009258
H     1.493689    0.091686   -1.178863    0.004755    0.008327    0.005611
H     2.264960   -0.037369    0.399050    0.038390    0.004487   -0.030918
H     0.042541   -0.451595    1.452875    0.143955    0.072138    0.109035
H     1.697228    2.218401    1.295244    0.024112    0.004879    0.025933
17
* Frequency(6) -1197.1205
C    -2.311691   -0.569024   -0.639080    0.299384   -0.055370   -0.507426
C     1.511977   -1.912395   -0.362707    0.003003    0.001882   -0.001899
C     1.433618   -0.399071   -0.204265    0.012885    0.000258    0.006848
C    -0.952985   -0.239127   -0.291873    0.261316    0.043474    0.381675
C     0.135653    0.019316    0.470006    0.004276   -0.042819    0.021932
O    -1.236581   -0.450070   -1.662063   -0.498586    0.007588    0.077579
O     1.009504    1.732599    1.758855    0.016861    0.015542    0.013400
O     0.092296    1.452758    0.706212    0.011212    0.020029    0.011274
H    -3.077065    0.258303   -0.782947    0.335870    0.209945   -1.441841
H    -2.709590   -1.661012   -0.486864    0.014154   -0.356467    0.877622
H     1.415339   -2.408431    0.604496   -0.007395    0.005682   -0.000525
H     2.465623   -2.210650   -0.796892    0.002708   -0.011812    0.000952
H     0.715717   -2.278694   -1.011599   -0.009941    0.004278    0.009258
H     1.494060    0.092336   -1.178426    0.004755    0.008327    0.005611
H     2.267956   -0.037018    0.396637    0.038390    0.004487   -0.030918
H     0.053774   -0.445966    1.461383    0.143955    0.072138    0.109035
H     1.699110    2.218782    1.297267    0.024112    0.004879    0.025933
17
* Frequency(6) -1197.1205
C    -2.297835   -0.571587   -0.662565    0.299384   -0.055370   -0.507426
C     1.512116   -1.912307   -0.362795    0.003003    0.001882   -0.001899
C     1.434214   -0.399059   -0.203948    0.012885    0.000258    0.006848
C    -0.940891   -0.237115   -0.274209    0.261316    0.043474    0.381675
C     0.135851    0.017334    0.471021    0.004276   -0.042819    0.021932
O    -1.259656   -0.449719   -1.658473   -0.498586    0.007588    0.077579
O     1.010284    1.733318    1.759475    0.016861    0.015542    0.013400
O     0.092815    1.453685    0.706734    0.011212    0.020029    0.011274
H    -3.061521    0.268020   -0.849678    0.335870    0.209945   -1.441841
H    -2.708935   -1.677510   -0.446246    0.014154   -0.356467    0.877622
H     1.414997   -2.408168    0.604472   -0.007395    0.005682   -0.000525
H     2.465748   -2.211196   -0.796848    0.002708   -0.011812    0.000952
H     0.715257   -2.278496   -1.011170   -0.009941    0.004278    0.009258
H     1.494280    0.092721   -1.178166    0.004755    0.008327    0.005611
H     2.269732   -0.036811    0.395206    0.038390    0.004487   -0.030918
H     0.060437   -0.442627    1.466429    0.143955    0.072138    0.109035
H     1.700226    2.219008    1.298468    0.024112    0.004879    0.025933
17
* Frequency(6) -1197.1205
C    -2.294987   -0.572114   -0.667392    0.299384   -0.055370   -0.507426
C     1.512144   -1.912290   -0.362813    0.003003    0.001882   -0.001899
C     1.434337   -0.399057   -0.203883    0.012885    0.000258    0.006848
C    -0.938404   -0.236701   -0.270577    0.261316    0.043474    0.381675
C     0.135891    0.016927    0.471230    0.004276   -0.042819    0.021932
O    -1.264400   -0.449647   -1.657734   -0.498586    0.007588    0.077579
O     1.010445    1.733466    1.759603    0.016861    0.015542    0.013400
O     0.092921    1.453875    0.706841    0.011212    0.020029    0.011274
H    -3.058325    0.270017   -0.863396    0.335870    0.209945   -1.441841
H    -2.708800   -1.680901   -0.437896    0.014154   -0.356467    0.877622
H     1.414926   -2.408114    0.604467   -0.007395    0.005682   -0.000525
H     2.465774   -2.211309   -0.796839    0.002708   -0.011812    0.000952
H     0.715163   -2.278455   -1.011082   -0.009941    0.004278    0.009258
H     1.494325    0.092800   -1.178113    0.004755    0.008327    0.005611
H     2.270098   -0.036768    0.394912    0.038390    0.004487   -0.030918
H     0.061807   -0.441941    1.467467    0.143955    0.072138    0.109035
H     1.700455    2.219054    1.298714    0.024112    0.004879    0.025933
17
* Frequency(6) -1197.1205
C    -2.303455   -0.570548   -0.653040    0.299384   -0.055370   -0.507426
C     1.512060   -1.912343   -0.362759    0.003003    0.001882   -0.001899
C     1.433973   -0.399064   -0.204077    0.012885    0.000258    0.006848
C    -0.945795   -0.237931   -0.281373    0.261316    0.043474    0.381675
C     0.135770    0.018138    0.470610    0.004276   -0.042819    0.021932
O    -1.250298   -0.449861   -1.659929   -0.498586    0.007588    0.077579
O     1.009968    1.733026    1.759224    0.016861    0.015542    0.013400
O     0.092604    1.453309    0.706522    0.011212    0.020029    0.011274
H    -3.067825    0.264079   -0.822615    0.335870    0.209945   -1.441841
H    -2.709201   -1.670819   -0.462718    0.014154   -0.356467    0.877622
H     1.415135   -2.408275    0.604482   -0.007395    0.005682   -0.000525
H     2.465698   -2.210975   -0.796866    0.002708   -0.011812    0.000952
H     0.715444   -2.278576   -1.011344   -0.009941    0.004278    0.009258
H     1.494191    0.092565   -1.178271    0.004755    0.008327    0.005611
H     2.269012   -0.036895    0.395787    0.038390    0.004487   -0.030918
H     0.057735   -0.443981    1.464383    0.143955    0.072138    0.109035
H     1.699773    2.218916    1.297981    0.024112    0.004879    0.025933
17
* Frequency(6) -1197.1205
C    -2.322321   -0.567058   -0.621064    0.299384   -0.055370   -0.507426
C     1.511870   -1.912461   -0.362640    0.003003    0.001882   -0.001899
C     1.433161   -0.399080   -0.204508    0.012885    0.000258    0.006848
C    -0.962263   -0.240671   -0.305425    0.261316    0.043474    0.381675
C     0.135501    0.020836    0.469227    0.004276   -0.042819    0.021932
O    -1.218879   -0.450340   -1.664817   -0.498586    0.007588    0.077579
O     1.008905    1.732047    1.758379    0.016861    0.015542    0.013400
O     0.091898    1.452046    0.705812    0.011212    0.020029    0.011274
H    -3.088990    0.250849   -0.731755    0.335870    0.209945   -1.441841
H    -2.710093   -1.648356   -0.518024    0.014154   -0.356467    0.877622
H     1.415601   -2.408633    0.604515   -0.007395    0.005682   -0.000525
H     2.465527   -2.210230   -0.796926    0.002708   -0.011812    0.000952
H     0.716070   -2.278846   -1.011927   -0.009941    0.004278    0.009258
H     1.493891    0.092040   -1.178625    0.004755    0.008327    0.005611
H     2.266593   -0.037178    0.397735    0.038390    0.004487   -0.030918
H     0.048663   -0.448527    1.457512    0.143955    0.072138    0.109035
H     1.698254    2.218609    1.296347    0.024112    0.004879    0.025933
17
* Frequency(6) -1197.1205
C    -2.349542   -0.562024   -0.574928    0.299384   -0.055370   -0.507426
C     1.511597   -1.912633   -0.362467    0.003003    0.001882   -0.001899
C     1.431989   -0.399104   -0.205131    0.012885    0.000258    0.006848
C    -0.986022   -0.244623   -0.340127    0.261316    0.043474    0.381675
C     0.135112    0.024730    0.467233    0.004276   -0.042819    0.021932
O    -1.173546   -0.451030   -1.671871   -0.498586    0.007588    0.077579
O     1.007372    1.730634    1.757161    0.016861    0.015542    0.013400
O     0.090878    1.450225    0.704787    0.011212    0.020029    0.011274
H    -3.119528    0.231761   -0.600660    0.335870    0.209945   -1.441841
H    -2.711379   -1.615945   -0.597818    0.014154   -0.356467    0.877622
H     1.416274   -2.409149    0.604563   -0.007395    0.005682   -0.000525
H     2.465281   -2.209156   -0.797013    0.002708   -0.011812    0.000952
H     0.716974   -2.279235   -1.012769   -0.009941    0.004278    0.009258
H     1.493459    0.091283   -1.179135    0.004755    0.008327    0.005611
H     2.263102   -0.037586    0.400546    0.038390    0.004487   -0.030918
H     0.035575   -0.455086    1.447598    0.143955    0.072138    0.109035
H     1.696062    2.218165    1.293989    0.024112    0.004879    0.025933
17
* Frequency(6) -1197.1205
C    -2.382167   -0.555990   -0.519632    0.299384   -0.055370   -0.507426
C     1.511270   -1.912838   -0.362260    0.003003    0.001882   -0.001899
C     1.430585   -0.399132   -0.205877    0.012885    0.000258    0.006848
C    -1.014499   -0.249361   -0.381720    0.261316    0.043474    0.381675
C     0.134646    0.029396    0.464843    0.004276   -0.042819    0.021932
O    -1.119214   -0.451856   -1.680325   -0.498586    0.007588    0.077579
O     1.005535    1.728940    1.755701    0.016861    0.015542    0.013400
O     0.089656    1.448043    0.703558    0.011212    0.020029    0.011274
H    -3.156129    0.208882   -0.443537    0.335870    0.209945   -1.441841
H    -2.712922   -1.577099   -0.693456    0.014154   -0.356467    0.877622
H     1.417080   -2.409769    0.604620   -0.007395    0.005682   -0.000525
H     2.464985   -2.207869   -0.797116    0.002708   -0.011812    0.000952
H     0.718057   -2.279701   -1.013778   -0.009941    0.004278    0.009258
H     1.492941    0.090376   -1.179746    0.004755    0.008327    0.005611
H     2.258919   -0.038075    0.403915    0.038390    0.004487   -0.030918
H     0.019887   -0.462947    1.435716    0.143955    0.072138    0.109035
H     1.693434    2.217634    1.291163    0.024112    0.004879    0.025933
17
* Frequency(6) -1197.1205
C    -2.416660   -0.549611   -0.461168    0.299384   -0.055370   -0.507426
C     1.510924   -1.913054   -0.362042    0.003003    0.001882   -0.001899
C     1.429100   -0.399161   -0.206666    0.012885    0.000258    0.006848
C    -1.044606   -0.254370   -0.425695    0.261316    0.043474    0.381675
C     0.134154    0.034329    0.462316    0.004276   -0.042819    0.021932
O    -1.061768   -0.452731   -1.689263   -0.498586    0.007588    0.077579
O     1.003592    1.727150    1.754157    0.016861    0.015542    0.013400
O     0.088365    1.445735    0.702259    0.011212    0.020029    0.011274
H    -3.194827    0.184693   -0.277414    0.335870    0.209945   -1.441841
H    -2.714553   -1.536029   -0.794572    0.014154   -0.356467    0.877622
H     1.417932   -2.410423    0.604680   -0.007395    0.005682   -0.000525
H     2.464673   -2.206508   -0.797226    0.002708   -0.011812    0.000952
H     0.719203   -2.280194   -1.014845   -0.009941    0.004278    0.009258
H     1.492393    0.089416   -1.180393    0.004755    0.008327    0.005611
H     2.254495   -0.038592    0.407478    0.038390    0.004487   -0.030918
H     0.003301   -0.471259    1.423154    0.143955    0.072138    0.109035
H     1.690656    2.217071    1.288175    0.024112    0.004879    0.025933
17
* Frequency(6) -1197.1205
C    -2.449285   -0.543577   -0.405872    0.299384   -0.055370   -0.507426
C     1.510597   -1.913260   -0.361835    0.003003    0.001882   -0.001899
C     1.427696   -0.399190   -0.207413    0.012885    0.000258    0.006848
C    -1.073083   -0.259107   -0.467288    0.261316    0.043474    0.381675
C     0.133688    0.038995    0.459926    0.004276   -0.042819    0.021932
O    -1.007436   -0.453558   -1.697717   -0.498586    0.007588    0.077579
O     1.001755    1.725456    1.752696    0.016861    0.015542    0.013400
O     0.087143    1.443553    0.701030    0.011212    0.020029    0.011274
H    -3.231428    0.161814   -0.120292    0.335870    0.209945   -1.441841
H    -2.716095   -1.497183   -0.890210    0.014154   -0.356467    0.877622
H     1.418737   -2.411043    0.604738   -0.007395    0.005682   -0.000525
H     2.464378   -2.205221   -0.797330    0.002708   -0.011812    0.000952
H     0.720286   -2.280660   -1.015854   -0.009941    0.004278    0.009258
H     1.491875    0.088509   -1.181004    0.004755    0.008327    0.005611
H     2.250312   -0.039080    0.410847    0.038390    0.004487   -0.030918
H    -0.012386   -0.479120    1.411272    0.143955    0.072138    0.109035
H     1.688029    2.216540    1.285349    0.024112    0.004879    0.025933
17
* Frequency(6) -1197.1205
C    -2.476506   -0.538543   -0.359736    0.299384   -0.055370   -0.507426
C     1.510324   -1.913431   -0.361662    0.003003    0.001882   -0.001899
C     1.426525   -0.399213   -0.208035    0.012885    0.000258    0.006848
C    -1.096842   -0.263060   -0.501990    0.261316    0.043474    0.381675
C     0.133299    0.042888    0.457932    0.004276   -0.042819    0.021932
O    -0.962103   -0.454248   -1.704771   -0.498586    0.007588    0.077579
O     1.000222    1.724043    1.751478    0.016861    0.015542    0.013400
O     0.086124    1.441731    0.700005    0.011212    0.020029    0.011274
H    -3.261966    0.142726    0.010803    0.335870    0.209945   -1.441841
H    -2.717382   -1.464772   -0.970005    0.014154   -0.356467    0.877622
H     1.419410   -2.411559    0.604785   -0.007395    0.005682   -0.000525
H     2.464132   -2.204147   -0.797416    0.002708   -0.011812    0.000952
H     0.721190   -2.281049   -1.016695   -0.009941    0.004278    0.009258
H     1.491442    0.087752   -1.181514    0.004755    0.008327    0.005611
H     2.246822   -0.039488    0.413658    0.038390    0.004487   -0.030918
H    -0.025475   -0.485679    1.401358    0.143955    0.072138    0.109035
H     1.685836    2.216096    1.282991    0.024112    0.004879    0.025933
17
* Frequency(6) -1197.1205
C    -2.495372   -0.535053   -0.327759    0.299384   -0.055370   -0.507426
C     1.510134   -1.913549   -0.361542    0.003003    0.001882   -0.001899
C     1.425713   -0.399229   -0.208467    0.012885    0.000258    0.006848
C    -1.113310   -0.265799   -0.526042    0.261316    0.043474    0.381675
C     0.133030    0.045587    0.456550    0.004276   -0.042819    0.021932
O    -0.930684   -0.454726   -1.709660   -0.498586    0.007588    0.077579
O     0.999159    1.723064    1.750634    0.016861    0.015542    0.013400
O     0.085417    1.440469    0.699295    0.011212    0.020029    0.011274
H    -3.283131    0.129496    0.101664    0.335870    0.209945   -1.441841
H    -2.718274   -1.442309   -1.025310    0.014154   -0.356467    0.877622
H     1.419876   -2.411917    0.604818   -0.007395    0.005682   -0.000525
H     2.463961   -2.203403   -0.797476    0.002708   -0.011812    0.000952
H     0.721816   -2.281319   -1.017279   -0.009941    0.004278    0.009258
H     1.491143    0.087227   -1.181868    0.004755    0.008327    0.005611
H     2.244402   -0.039771    0.415606    0.038390    0.004487   -0.030918
H    -0.034546   -0.490225    1.394487    0.143955    0.072138    0.109035
H     1.684317    2.215789    1.281357    0.024112    0.004879    0.025933
17
* Frequency(6) -1197.1205
C    -2.503840   -0.533487   -0.313407    0.299384   -0.055370   -0.507426
C     1.510049   -1.913602   -0.361489    0.003003    0.001882   -0.001899
C     1.425348   -0.399237   -0.208660    0.012885    0.000258    0.006848
C    -1.120701   -0.267029   -0.536838    0.261316    0.043474    0.381675
C     0.132909    0.046798    0.455930    0.004276   -0.042819    0.021932
O    -0.916582   -0.454940   -1.711854   -0.498586    0.007588    0.077579
O     0.998682    1.722624    1.750255    0.016861    0.015542    0.013400
O     0.085100    1.439903    0.698976    0.011212    0.020029    0.011274
H    -3.292631    0.123558    0.142445    0.335870    0.209945   -1.441841
H    -2.718674   -1.432227   -1.050133    0.014154   -0.356467    0.877622
H     1.420085   -2.412078    0.604833   -0.007395    0.005682   -0.000525
H     2.463885   -2.203069   -0.797503    0.002708   -0.011812    0.000952
H     0.722097   -2.281440   -1.017541   -0.009941    0.004278    0.009258
H     1.491008    0.086991   -1.182026    0.004755    0.008327    0.005611
H     2.243317   -0.039898    0.416481    0.038390    0.004487   -0.030918
H    -0.038618   -0.492265    1.391403    0.143955    0.072138    0.109035
H     1.683635    2.215651    1.280623    0.024112    0.004879    0.025933
17
* Frequency(6) -1197.1205
C    -2.500992   -0.534014   -0.318235    0.299384   -0.055370   -0.507426
C     1.510078   -1.913585   -0.361507    0.003003    0.001882   -0.001899
C     1.425471   -0.399234   -0.208595    0.012885    0.000258    0.006848
C    -1.118214   -0.266615   -0.533206    0.261316    0.043474    0.381675
C     0.132949    0.046390    0.456139    0.004276   -0.042819    0.021932
O    -0.921326   -0.454868   -1.711116   -0.498586    0.007588    0.077579
O     0.998843    1.722772    1.750382    0.016861    0.015542    0.013400
O     0.085207    1.440093    0.699083    0.011212    0.020029    0.011274
H    -3.289435    0.125555    0.128726    0.335870    0.209945   -1.441841
H    -2.718539   -1.435618   -1.041783    0.014154   -0.356467    0.877622
H     1.420015   -2.412024    0.604828   -0.007395    0.005682   -0.000525
H     2.463910   -2.203181   -0.797494    0.002708   -0.011812    0.000952
H     0.722003   -2.281399   -1.017453   -0.009941    0.004278    0.009258
H     1.491053    0.087071   -1.181973    0.004755    0.008327    0.005611
H     2.243682   -0.039855    0.416187    0.038390    0.004487   -0.030918
H    -0.037248   -0.491579    1.392441    0.143955    0.072138    0.109035
H     1.683864    2.215697    1.280870    0.024112    0.004879    0.025933
17
* Frequency(6) -1197.1205
C    -2.487136   -0.536577   -0.341720    0.299384   -0.055370   -0.507426
C     1.510217   -1.913497   -0.361595    0.003003    0.001882   -0.001899
C     1.426067   -0.399222   -0.208278    0.012885    0.000258    0.006848
C    -1.106120   -0.264603   -0.515541    0.261316    0.043474    0.381675
C     0.133147    0.044409    0.457154    0.004276   -0.042819    0.021932
O    -0.944401   -0.454517   -1.707525   -0.498586    0.007588    0.077579
O     0.999623    1.723491    1.751002    0.016861    0.015542    0.013400
O     0.085725    1.441020    0.699605    0.011212    0.020029    0.011274
H    -3.273891    0.135272    0.061995    0.335870    0.209945   -1.441841
H    -2.717884   -1.452116   -1.001165    0.014154   -0.356467    0.877622
H     1.419672   -2.411761    0.604804   -0.007395    0.005682   -0.000525
H     2.464036   -2.203728   -0.797450    0.002708   -0.011812    0.000952
H     0.721543   -2.281201   -1.017024   -0.009941    0.004278    0.009258
H     1.491273    0.087456   -1.181713    0.004755    0.008327    0.005611
H     2.245459   -0.039648    0.414756    0.038390    0.004487   -0.030918
H    -0.030586   -0.488240    1.397487    0.143955    0.072138    0.109035
H     1.684980    2.215923    1.282070    0.024112    0.004879    0.025933
17
* Frequency(6) -1197.1205
C    -2.463773   -0.540897   -0.381316    0.299384   -0.055370   -0.507426
C     1.510451   -1.913351   -0.361743    0.003003    0.001882   -0.001899
C     1.427073   -0.399202   -0.207744    0.012885    0.000258    0.006848
C    -1.085729   -0.261211   -0.485758    0.261316    0.043474    0.381675
C     0.133481    0.041067    0.458865    0.004276   -0.042819    0.021932
O    -0.983308   -0.453925   -1.701472   -0.498586    0.007588    0.077579
O     1.000939    1.724704    1.752048    0.016861    0.015542    0.013400
O     0.086600    1.442583    0.700485    0.011212    0.020029    0.011274
H    -3.247682    0.151655   -0.050517    0.335870    0.209945   -1.441841
H    -2.716780   -1.479933   -0.932681    0.014154   -0.356467    0.877622
H     1.419095   -2.411318    0.604763   -0.007395    0.005682   -0.000525
H     2.464247   -2.204649   -0.797376    0.002708   -0.011812    0.000952
H     0.720767   -2.280867   -1.016302   -0.009941    0.004278    0.009258
H     1.491645    0.088106   -1.181276    0.004755    0.008327    0.005611
H     2.248454   -0.039298    0.412343    0.038390    0.004487   -0.030918
H    -0.019352   -0.482611    1.405995    0.143955    0.072138    0.109035
H     1.686862    2.216304    1.284094    0.024112    0.004879    0.025933
17
* Frequency(6) -1197.1205
C    -2.433437   -0.546508   -0.432733    0.299384   -0.055370   -0.507426
C     1.510756   -1.913160   -0.361935    0.003003    0.001882   -0.001899
C     1.428378   -0.399176   -0.207050    0.012885    0.000258    0.006848
C    -1.059250   -0.256806   -0.447083    0.261316    0.043474    0.381675
C     0.133914    0.036729    0.461087    0.004276   -0.042819    0.021932
O    -1.033829   -0.453156   -1.693611   -0.498586    0.007588    0.077579
O     1.002647    1.726279    1.753406    0.016861    0.015542    0.013400
O     0.087736    1.444613    0.701627    0.011212    0.020029    0.011274
H    -3.213648    0.172928   -0.196618    0.335870    0.209945   -1.441841
H    -2.715346   -1.516053   -0.843751    0.014154   -0.356467    0.877622
H     1.418346   -2.410742    0.604710   -0.007395    0.005682   -0.000525
H     2.464522   -2.205846   -0.797279    0.002708   -0.011812    0.000952
H     0.719760   -2.280434   -1.015364   -0.009941    0.004278    0.009258
H     1.492126    0.088950   -1.180707    0.004755    0.008327    0.005611
H     2.252344   -0.038843    0.409210    0.038390    0.004487   -0.030918
H    -0.004765   -0.475301    1.417044    0.143955    0.072138    0.109035
H     1.689305    2.216798    1.286721    0.024112    0.004879    0.025933
17
* Frequency(6) -1197.1205
C    -2.399414   -0.552800   -0.490400    0.299384   -0.055370   -0.507426
C     1.511097   -1.912946   -0.362151    0.003003    0.001882   -0.001899
C     1.429843   -0.399147   -0.206272    0.012885    0.000258    0.006848
C    -1.029552   -0.251865   -0.403707    0.261316    0.043474    0.381675
C     0.134400    0.031862    0.463580    0.004276   -0.042819    0.021932
O    -1.090491   -0.452294   -1.684794   -0.498586    0.007588    0.077579
O     1.004563    1.728045    1.754929    0.016861    0.015542    0.013400
O     0.089011    1.446889    0.702909    0.011212    0.020029    0.011274
H    -3.175478    0.196788   -0.360476    0.335870    0.209945   -1.441841
H    -2.713737   -1.556564   -0.744014    0.014154   -0.356467    0.877622
H     1.417506   -2.410096    0.604650   -0.007395    0.005682   -0.000525
H     2.464829   -2.207189   -0.797171    0.002708   -0.011812    0.000952
H     0.718630   -2.279947   -1.014311   -0.009941    0.004278    0.009258
H     1.492667    0.089896   -1.180070    0.004755    0.008327    0.005611
H     2.256707   -0.038333    0.405697    0.038390    0.004487   -0.030918
H     0.011594   -0.467103    1.429435    0.143955    0.072138    0.109035
H     1.692045    2.217352    1.289669    0.024112    0.004879    0.025933
