17
Coordinates from ORCA-job freq E -421.374556475341
  C          -2.04333651486809      1.01211879313205     -0.49259520818196
  C          -1.48211115335855     -0.10263212280378      0.38537921535226
  C           1.76426659990773      0.42679624315952      0.51013485282724
  C           0.97293572669756     -0.66774639821735     -0.20178605225668
  C          -0.45187338883402     -0.90289076606876     -0.35790270126147
  O           3.01453110497507     -0.11561844410162     -1.22409293643431
  O           3.09539348682114      0.17404794978428      0.12935544005516
  O           0.42500219463296     -1.73504811897799      0.43982293037933
  H           1.94293830991695     -0.74804995771501     -1.12015800568140
  H          -2.79853651418613      1.58466095643763      0.04262474846639
  H          -1.25508626746380      1.69786684348664     -0.80481905784730
  H          -2.50670204355157      0.60557124606469     -1.39199807126119
  H          -1.02718534871650      0.30942133751910      1.28800819647804
  H          -2.28465796762441     -0.76957831489045      0.70734588032945
  H           1.70892561176924      0.37465541570389      1.59622067802779
  H           1.42236344119229      1.39684732908130      0.13769083271102
  H          -0.78474327730985     -1.38857299159413     -1.26993474170233
