17
Coordinates from ORCA-job freq E -421.495146112746
  C          -2.47331830751443      0.03666535720548      0.06127543929506
  C          -1.18127056196747     -0.36839077929247     -0.62148977080803
  C          -0.01177874111701      0.48912648832378     -0.32075750544700
  C           0.93997679447633      0.76066311811179     -1.19412160660294
  C           2.94662452551976      0.77941391953033      0.00317987576560
  O          -0.02854526180682     -2.38501088060655      0.46153702410248
  O           2.11159114147227      1.42113735278568     -0.83590819746434
  O           2.77213804095257     -0.29635450283418      0.48522333628945
  H          -0.87793569275387     -1.41420849121609     -0.19876583481033
  H          -2.32955818427248      0.11135325671925      1.13916693876613
  H          -2.81191250485172      1.00811566050507     -0.30345016690831
  H          -3.26023151235697     -0.69130464085405     -0.12626773869470
  H          -1.29776317635029     -0.53343224464026     -1.69319713161338
  H           0.12064167659927      0.80542443167833      0.70952093149748
  H           0.79414813727981     -1.86519105702061      0.41397667283146
  H           0.91176969991530      0.48751418514841     -2.24045326080844
  H           3.82706692677581      1.40655382645611      0.17389199460983
