15
Coordinates from ORCA-job freq E -270.969638174838
  C          -1.60472221357756     -0.06320392747359      1.48358663165912
  C           0.27445035789466     -0.64390107421404     -0.07705507689844
  C           1.95388866893091      0.44639867518397     -1.03481975147685
  C          -1.16220661769900     -0.21819929305882      0.02492763777131
  C           1.36527660685482      0.32530782610298      0.28906328347303
  O           1.21865484413012      1.50307834172549     -0.51397884007349
  H           0.90426797643067     -0.44746503252291     -1.33960506607057
  H          -0.99992082600731      0.68898134225743      1.99140933954476
  H          -2.64730723529195      0.24910982043520      1.54380785789520
  H          -1.50003524387586     -1.00312718580248      2.02674520188214
  H           0.50347781408183     -1.67427265570699      0.19057199443118
  H           2.96781026149588      0.59413401338833     -1.39169248593722
  H          -1.28494706775099      0.73460367552843     -0.49316354944759
  H          -1.79623964705580     -0.94728485658227     -0.48050754244754
  H           1.84584832143956      0.46373333073925      1.24704336569493
