15
* (null), Energy   -1000.0000000
C    -1.604722   -0.063204    1.483587   -0.000433    0.000488    0.003071
C     0.274450   -0.643901   -0.077055   -0.035563    0.000470    0.114836
C     1.953889    0.446399   -1.034820   -0.074886   -0.080267   -0.043372
C    -1.162207   -0.218199    0.024928    0.003701   -0.001376   -0.011532
C     1.365277    0.325308    0.289063   -0.011485    0.007964    0.000953
O     1.218655    1.503078   -0.513979   -0.006016    0.006373    0.014162
H     0.904268   -0.447465   -1.339605    1.543556    0.874781   -0.896123
H    -0.999921    0.688981    1.991409    0.001731   -0.000494   -0.002690
H    -2.647307    0.249110    1.543808   -0.003278    0.000073   -0.007697
H    -1.500035   -1.003127    2.026745    0.001042    0.000441   -0.002893
H     0.503478   -1.674273    0.190572    0.015489   -0.032396   -0.104356
H     2.967810    0.594134   -1.391692   -0.052387   -0.059580    0.027443
H    -1.284947    0.734604   -0.493164    0.001095    0.007652    0.002490
H    -1.796240   -0.947285   -0.480508   -0.006423   -0.000821    0.003410
H     1.845848    0.463733    1.247043    0.008647   -0.024288   -0.006437
15
* Frequency(6) -2083.1772
C    -1.604771   -0.063149    1.483936   -0.000433    0.000488    0.003071
C     0.270409   -0.643848   -0.064005   -0.035563    0.000470    0.114836
C     1.945378    0.437277   -1.039749   -0.074886   -0.080267   -0.043372
C    -1.161786   -0.218356    0.023617    0.003701   -0.001376   -0.011532
C     1.363971    0.326213    0.289172   -0.011485    0.007964    0.000953
O     1.217971    1.503803   -0.512369   -0.006016    0.006373    0.014162
H     1.079685   -0.348051   -1.441445    1.543556    0.874781   -0.896123
H    -0.999724    0.688925    1.991104    0.001731   -0.000494   -0.002690
H    -2.647680    0.249118    1.542933   -0.003278    0.000073   -0.007697
H    -1.499917   -1.003077    2.026416    0.001042    0.000441   -0.002893
H     0.505238   -1.677954    0.178712    0.015489   -0.032396   -0.104356
H     2.961857    0.587363   -1.388574   -0.052387   -0.059580    0.027443
H    -1.284823    0.735473   -0.492881    0.001095    0.007652    0.002490
H    -1.796970   -0.947378   -0.480120   -0.006423   -0.000821    0.003410
H     1.846831    0.460973    1.246312    0.008647   -0.024288   -0.006437
15
* Frequency(6) -2083.1772
C    -1.604815   -0.063099    1.484247   -0.000433    0.000488    0.003071
C     0.266805   -0.643800   -0.052368   -0.035563    0.000470    0.114836
C     1.937790    0.429143   -1.044144   -0.074886   -0.080267   -0.043372
C    -1.161411   -0.218495    0.022448    0.003701   -0.001376   -0.011532
C     1.362808    0.327020    0.289268   -0.011485    0.007964    0.000953
O     1.217362    1.504448   -0.510934   -0.006016    0.006373    0.014162
H     1.236093   -0.259409   -1.532249    1.543556    0.874781   -0.896123
H    -0.999549    0.688875    1.990831    0.001731   -0.000494   -0.002690
H    -2.648012    0.249126    1.542153   -0.003278    0.000073   -0.007697
H    -1.499811   -1.003032    2.026123    0.001042    0.000441   -0.002893
H     0.506808   -1.681237    0.168138    0.015489   -0.032396   -0.104356
H     2.956548    0.581326   -1.385793   -0.052387   -0.059580    0.027443
H    -1.284712    0.736249   -0.492628    0.001095    0.007652    0.002490
H    -1.797621   -0.947461   -0.479774   -0.006423   -0.000821    0.003410
H     1.847707    0.458512    1.245660    0.008647   -0.024288   -0.006437
15
* Frequency(6) -2083.1772
C    -1.604849   -0.063061    1.484487   -0.000433    0.000488    0.003071
C     0.264030   -0.643763   -0.043407   -0.035563    0.000470    0.114836
C     1.931947    0.422880   -1.047528   -0.074886   -0.080267   -0.043372
C    -1.161122   -0.218602    0.021549    0.003701   -0.001376   -0.011532
C     1.361911    0.327641    0.289343   -0.011485    0.007964    0.000953
O     1.216892    1.504946   -0.509829   -0.006016    0.006373    0.014162
H     1.356543   -0.191147   -1.602176    1.543556    0.874781   -0.896123
H    -0.999414    0.688836    1.990621    0.001731   -0.000494   -0.002690
H    -2.648268    0.249131    1.541553   -0.003278    0.000073   -0.007697
H    -1.499730   -1.002998    2.025897    0.001042    0.000441   -0.002893
H     0.508016   -1.683765    0.159995    0.015489   -0.032396   -0.104356
H     2.952460    0.576677   -1.383651   -0.052387   -0.059580    0.027443
H    -1.284626    0.736846   -0.492434    0.001095    0.007652    0.002490
H    -1.798122   -0.947525   -0.479508   -0.006423   -0.000821    0.003410
H     1.848382    0.456617    1.245157    0.008647   -0.024288   -0.006437
15
* Frequency(6) -2083.1772
C    -1.604869   -0.063039    1.484629   -0.000433    0.000488    0.003071
C     0.262384   -0.643742   -0.038092   -0.035563    0.000470    0.114836
C     1.928481    0.419165   -1.049536   -0.074886   -0.080267   -0.043372
C    -1.160951   -0.218666    0.021015    0.003701   -0.001376   -0.011532
C     1.361380    0.328010    0.289387   -0.011485    0.007964    0.000953
O     1.216614    1.505241   -0.509174   -0.006016    0.006373    0.014162
H     1.427981   -0.150660   -1.643651    1.543556    0.874781   -0.896123
H    -0.999333    0.688814    1.990497    0.001731   -0.000494   -0.002690
H    -2.648419    0.249135    1.541196   -0.003278    0.000073   -0.007697
H    -1.499682   -1.002978    2.025764    0.001042    0.000441   -0.002893
H     0.508733   -1.685264    0.155165    0.015489   -0.032396   -0.104356
H     2.950036    0.573919   -1.382381   -0.052387   -0.059580    0.027443
H    -1.284576    0.737200   -0.492319    0.001095    0.007652    0.002490
H    -1.798419   -0.947563   -0.479350   -0.006423   -0.000821    0.003410
H     1.848782    0.455493    1.244859    0.008647   -0.024288   -0.006437
15
* Frequency(6) -2083.1772
C    -1.604873   -0.063034    1.484658   -0.000433    0.000488    0.003071
C     0.262046   -0.643737   -0.037000   -0.035563    0.000470    0.114836
C     1.927768    0.418401   -1.049948   -0.074886   -0.080267   -0.043372
C    -1.160916   -0.218679    0.020905    0.003701   -0.001376   -0.011532
C     1.361271    0.328086    0.289396   -0.011485    0.007964    0.000953
O     1.216557    1.505301   -0.509039   -0.006016    0.006373    0.014162
H     1.442667   -0.142337   -1.652177    1.543556    0.874781   -0.896123
H    -0.999317    0.688809    1.990471    0.001731   -0.000494   -0.002690
H    -2.648451    0.249135    1.541123   -0.003278    0.000073   -0.007697
H    -1.499672   -1.002973    2.025736    0.001042    0.000441   -0.002893
H     0.508881   -1.685573    0.154172    0.015489   -0.032396   -0.104356
H     2.949537    0.573352   -1.382120   -0.052387   -0.059580    0.027443
H    -1.284565    0.737273   -0.492295    0.001095    0.007652    0.002490
H    -1.798480   -0.947571   -0.479318   -0.006423   -0.000821    0.003410
H     1.848865    0.455262    1.244798    0.008647   -0.024288   -0.006437
15
* Frequency(6) -2083.1772
C    -1.604861   -0.063048    1.484571   -0.000433    0.000488    0.003071
C     0.263052   -0.643750   -0.040248   -0.035563    0.000470    0.114836
C     1.929886    0.420672   -1.048722   -0.074886   -0.080267   -0.043372
C    -1.161020   -0.218640    0.021231    0.003701   -0.001376   -0.011532
C     1.361595    0.327860    0.289369   -0.011485    0.007964    0.000953
O     1.216727    1.505121   -0.509440   -0.006016    0.006373    0.014162
H     1.399009   -0.167080   -1.626831    1.543556    0.874781   -0.896123
H    -0.999366    0.688823    1.990547    0.001731   -0.000494   -0.002690
H    -2.648358    0.249133    1.541341   -0.003278    0.000073   -0.007697
H    -1.499701   -1.002986    2.025818    0.001042    0.000441   -0.002893
H     0.508443   -1.684656    0.157124    0.015489   -0.032396   -0.104356
H     2.951019    0.575037   -1.382896   -0.052387   -0.059580    0.027443
H    -1.284596    0.737056   -0.492365    0.001095    0.007652    0.002490
H    -1.798299   -0.947548   -0.479414   -0.006423   -0.000821    0.003410
H     1.848620    0.455949    1.244980    0.008647   -0.024288   -0.006437
15
* Frequency(6) -2083.1772
C    -1.604834   -0.063078    1.484378   -0.000433    0.000488    0.003071
C     0.265293   -0.643780   -0.047484   -0.035563    0.000470    0.114836
C     1.934605    0.425730   -1.045988   -0.074886   -0.080267   -0.043372
C    -1.161254   -0.218554    0.021958    0.003701   -0.001376   -0.011532
C     1.362319    0.327358    0.289309   -0.011485    0.007964    0.000953
O     1.217106    1.504719   -0.510332   -0.006016    0.006373    0.014162
H     1.301739   -0.222206   -1.570360    1.543556    0.874781   -0.896123
H    -0.999475    0.688854    1.990717    0.001731   -0.000494   -0.002690
H    -2.648151    0.249129    1.541826   -0.003278    0.000073   -0.007697
H    -1.499767   -1.003014    2.026000    0.001042    0.000441   -0.002893
H     0.507466   -1.682615    0.163700    0.015489   -0.032396   -0.104356
H     2.954320    0.578792   -1.384626   -0.052387   -0.059580    0.027443
H    -1.284665    0.736574   -0.492522    0.001095    0.007652    0.002490
H    -1.797894   -0.947496   -0.479629   -0.006423   -0.000821    0.003410
H     1.848075    0.457479    1.245386    0.008647   -0.024288   -0.006437
15
* Frequency(6) -2083.1772
C    -1.604794   -0.063123    1.484098   -0.000433    0.000488    0.003071
C     0.268526   -0.643823   -0.057926   -0.035563    0.000470    0.114836
C     1.941414    0.433028   -1.042045   -0.074886   -0.080267   -0.043372
C    -1.161590   -0.218428    0.023007    0.003701   -0.001376   -0.011532
C     1.363363    0.326634    0.289222   -0.011485    0.007964    0.000953
O     1.217653    1.504140   -0.511620   -0.006016    0.006373    0.014162
H     1.161396   -0.301743   -1.488883    1.543556    0.874781   -0.896123
H    -0.999632    0.688899    1.990961    0.001731   -0.000494   -0.002690
H    -2.647853    0.249122    1.542526   -0.003278    0.000073   -0.007697
H    -1.499862   -1.003054    2.026263    0.001042    0.000441   -0.002893
H     0.506058   -1.679669    0.173188    0.015489   -0.032396   -0.104356
H     2.959083    0.584209   -1.387121   -0.052387   -0.059580    0.027443
H    -1.284765    0.735878   -0.492749    0.001095    0.007652    0.002490
H    -1.797310   -0.947422   -0.479939   -0.006423   -0.000821    0.003410
H     1.847289    0.459687    1.245971    0.008647   -0.024288   -0.006437
15
* Frequency(6) -2083.1772
C    -1.604747   -0.063176    1.483764   -0.000433    0.000488    0.003071
C     0.272402   -0.643874   -0.070440   -0.035563    0.000470    0.114836
C     1.949575    0.441775   -1.037318   -0.074886   -0.080267   -0.043372
C    -1.161993   -0.218279    0.024263    0.003701   -0.001376   -0.011532
C     1.364615    0.325767    0.289118   -0.011485    0.007964    0.000953
O     1.218308    1.503445   -0.513163   -0.006016    0.006373    0.014162
H     0.993189   -0.397071   -1.391229    1.543556    0.874781   -0.896123
H    -0.999821    0.688953    1.991254    0.001731   -0.000494   -0.002690
H    -2.647496    0.249114    1.543364   -0.003278    0.000073   -0.007697
H    -1.499975   -1.003102    2.026579    0.001042    0.000441   -0.002893
H     0.504370   -1.676139    0.184560    0.015489   -0.032396   -0.104356
H     2.964792    0.590702   -1.390112   -0.052387   -0.059580    0.027443
H    -1.284884    0.735044   -0.493020    0.001095    0.007652    0.002490
H    -1.796610   -0.947332   -0.480311   -0.006423   -0.000821    0.003410
H     1.846346    0.462334    1.246673    0.008647   -0.024288   -0.006437
15
* Frequency(6) -2083.1772
C    -1.604697   -0.063232    1.483410   -0.000433    0.000488    0.003071
C     0.276499   -0.643928   -0.083671   -0.035563    0.000470    0.114836
C     1.958203    0.451023   -1.032321   -0.074886   -0.080267   -0.043372
C    -1.162420   -0.218120    0.025592    0.003701   -0.001376   -0.011532
C     1.365938    0.324849    0.289008   -0.011485    0.007964    0.000953
O     1.219001    1.502711   -0.514795   -0.006016    0.006373    0.014162
H     0.815347   -0.497860   -1.287981    1.543556    0.874781   -0.896123
H    -1.000021    0.689010    1.991564    0.001731   -0.000494   -0.002690
H    -2.647118    0.249106    1.544251   -0.003278    0.000073   -0.007697
H    -1.500095   -1.003153    2.026912    0.001042    0.000441   -0.002893
H     0.502585   -1.672406    0.196584    0.015489   -0.032396   -0.104356
H     2.970828    0.597566   -1.393273   -0.052387   -0.059580    0.027443
H    -1.285010    0.734163   -0.493307    0.001095    0.007652    0.002490
H    -1.795870   -0.947238   -0.480704   -0.006423   -0.000821    0.003410
H     1.845350    0.465133    1.247414    0.008647   -0.024288   -0.006437
15
* Frequency(6) -2083.1772
C    -1.604650   -0.063285    1.483075   -0.000433    0.000488    0.003071
C     0.280375   -0.643979   -0.096185   -0.035563    0.000470    0.114836
C     1.966363    0.459770   -1.027595   -0.074886   -0.080267   -0.043372
C    -1.162823   -0.217970    0.026849    0.003701   -0.001376   -0.011532
C     1.367190    0.323981    0.288904   -0.011485    0.007964    0.000953
O     1.219657    1.502017   -0.516338   -0.006016    0.006373    0.014162
H     0.647140   -0.593187   -1.190328    1.543556    0.874781   -0.896123
H    -1.000209    0.689064    1.991857    0.001731   -0.000494   -0.002690
H    -2.646761    0.249098    1.545090   -0.003278    0.000073   -0.007697
H    -1.500209   -1.003201    2.027227    0.001042    0.000441   -0.002893
H     0.500898   -1.668876    0.207956    0.015489   -0.032396   -0.104356
H     2.976537    0.604059   -1.396264   -0.052387   -0.059580    0.027443
H    -1.285129    0.733329   -0.493578    0.001095    0.007652    0.002490
H    -1.795170   -0.947148   -0.481076   -0.006423   -0.000821    0.003410
H     1.844408    0.467779    1.248116    0.008647   -0.024288   -0.006437
15
* Frequency(6) -2083.1772
C    -1.604611   -0.063329    1.482796   -0.000433    0.000488    0.003071
C     0.283608   -0.644022   -0.106626   -0.035563    0.000470    0.114836
C     1.973172    0.467068   -1.023651   -0.074886   -0.080267   -0.043372
C    -1.163160   -0.217845    0.027897    0.003701   -0.001376   -0.011532
C     1.368234    0.323257    0.288818   -0.011485    0.007964    0.000953
O     1.220204    1.501437   -0.517626   -0.006016    0.006373    0.014162
H     0.506797   -0.672724   -1.108850    1.543556    0.874781   -0.896123
H    -1.000367    0.689109    1.992102    0.001731   -0.000494   -0.002690
H    -2.646463    0.249091    1.545790   -0.003278    0.000073   -0.007697
H    -1.500304   -1.003241    2.027490    0.001042    0.000441   -0.002893
H     0.499489   -1.665931    0.217444    0.015489   -0.032396   -0.104356
H     2.981300    0.609476   -1.398759   -0.052387   -0.059580    0.027443
H    -1.285229    0.732633   -0.493805    0.001095    0.007652    0.002490
H    -1.794586   -0.947074   -0.481386   -0.006423   -0.000821    0.003410
H     1.843622    0.469988    1.248701    0.008647   -0.024288   -0.006437
15
* Frequency(6) -2083.1772
C    -1.604583   -0.063360    1.482602   -0.000433    0.000488    0.003071
C     0.285849   -0.644052   -0.113862   -0.035563    0.000470    0.114836
C     1.977891    0.472126   -1.020918   -0.074886   -0.080267   -0.043372
C    -1.163393   -0.217758    0.028624    0.003701   -0.001376   -0.011532
C     1.368958    0.322755    0.288758   -0.011485    0.007964    0.000953
O     1.220583    1.501036   -0.518518   -0.006016    0.006373    0.014162
H     0.409527   -0.727850   -1.052379    1.543556    0.874781   -0.896123
H    -1.000476    0.689140    1.992271    0.001731   -0.000494   -0.002690
H    -2.646257    0.249086    1.546275   -0.003278    0.000073   -0.007697
H    -1.500369   -1.003268    2.027673    0.001042    0.000441   -0.002893
H     0.498513   -1.663889    0.224020    0.015489   -0.032396   -0.104356
H     2.984602    0.613231   -1.400489   -0.052387   -0.059580    0.027443
H    -1.285298    0.732151   -0.493962    0.001095    0.007652    0.002490
H    -1.794181   -0.947022   -0.481601   -0.006423   -0.000821    0.003410
H     1.843077    0.471518    1.249107    0.008647   -0.024288   -0.006437
15
* Frequency(6) -2083.1772
C    -1.604571   -0.063374    1.482515   -0.000433    0.000488    0.003071
C     0.286855   -0.644065   -0.117110   -0.035563    0.000470    0.114836
C     1.980009    0.474396   -1.019691   -0.074886   -0.080267   -0.043372
C    -1.163497   -0.217719    0.028950    0.003701   -0.001376   -0.011532
C     1.369283    0.322530    0.288731   -0.011485    0.007964    0.000953
O     1.220753    1.500855   -0.518918   -0.006016    0.006373    0.014162
H     0.365869   -0.752593   -1.027033    1.543556    0.874781   -0.896123
H    -1.000525    0.689154    1.992348    0.001731   -0.000494   -0.002690
H    -2.646164    0.249084    1.546493   -0.003278    0.000073   -0.007697
H    -1.500399   -1.003281    2.027754    0.001042    0.000441   -0.002893
H     0.498075   -1.662973    0.226972    0.015489   -0.032396   -0.104356
H     2.986083    0.614916   -1.401265   -0.052387   -0.059580    0.027443
H    -1.285329    0.731935   -0.494032    0.001095    0.007652    0.002490
H    -1.793999   -0.946999   -0.481697   -0.006423   -0.000821    0.003410
H     1.842832    0.472205    1.249289    0.008647   -0.024288   -0.006437
15
* Frequency(6) -2083.1772
C    -1.604575   -0.063369    1.482545   -0.000433    0.000488    0.003071
C     0.286517   -0.644061   -0.116018   -0.035563    0.000470    0.114836
C     1.979297    0.473632   -1.020104   -0.074886   -0.080267   -0.043372
C    -1.163462   -0.217733    0.028840    0.003701   -0.001376   -0.011532
C     1.369173    0.322606    0.288740   -0.011485    0.007964    0.000953
O     1.220696    1.500916   -0.518784   -0.006016    0.006373    0.014162
H     0.380555   -0.744270   -1.035560    1.543556    0.874781   -0.896123
H    -1.000508    0.689149    1.992322    0.001731   -0.000494   -0.002690
H    -2.646195    0.249085    1.546419   -0.003278    0.000073   -0.007697
H    -1.500389   -1.003277    2.027727    0.001042    0.000441   -0.002893
H     0.498222   -1.663281    0.225979    0.015489   -0.032396   -0.104356
H     2.985585    0.614349   -1.401004   -0.052387   -0.059580    0.027443
H    -1.285318    0.732007   -0.494008    0.001095    0.007652    0.002490
H    -1.794060   -0.947006   -0.481665   -0.006423   -0.000821    0.003410
H     1.842914    0.471974    1.249227    0.008647   -0.024288   -0.006437
15
* Frequency(6) -2083.1772
C    -1.604595   -0.063347    1.482687   -0.000433    0.000488    0.003071
C     0.284871   -0.644039   -0.110703   -0.035563    0.000470    0.114836
C     1.975831    0.469917   -1.022111   -0.074886   -0.080267   -0.043372
C    -1.163291   -0.217796    0.028307    0.003701   -0.001376   -0.011532
C     1.368642    0.322974    0.288784   -0.011485    0.007964    0.000953
O     1.220418    1.501211   -0.518128   -0.006016    0.006373    0.014162
H     0.451993   -0.703783   -1.077034    1.543556    0.874781   -0.896123
H    -1.000428    0.689126    1.992197    0.001731   -0.000494   -0.002690
H    -2.646347    0.249088    1.546063   -0.003278    0.000073   -0.007697
H    -1.500341   -1.003256    2.027593    0.001042    0.000441   -0.002893
H     0.498939   -1.664780    0.221149    0.015489   -0.032396   -0.104356
H     2.983160    0.611591   -1.399734   -0.052387   -0.059580    0.027443
H    -1.285268    0.732362   -0.493893    0.001095    0.007652    0.002490
H    -1.794358   -0.947044   -0.481507   -0.006423   -0.000821    0.003410
H     1.843315    0.470850    1.248930    0.008647   -0.024288   -0.006437
15
* Frequency(6) -2083.1772
C    -1.604629   -0.063309    1.482926   -0.000433    0.000488    0.003071
C     0.282096   -0.644002   -0.101742   -0.035563    0.000470    0.114836
C     1.969987    0.463654   -1.025496   -0.074886   -0.080267   -0.043372
C    -1.163002   -0.217904    0.027407    0.003701   -0.001376   -0.011532
C     1.367746    0.323596    0.288858   -0.011485    0.007964    0.000953
O     1.219948    1.501708   -0.517023   -0.006016    0.006373    0.014162
H     0.572443   -0.635521   -1.146962    1.543556    0.874781   -0.896123
H    -1.000293    0.689088    1.991988    0.001731   -0.000494   -0.002690
H    -2.646603    0.249094    1.545462   -0.003278    0.000073   -0.007697
H    -1.500259   -1.003222    2.027367    0.001042    0.000441   -0.002893
H     0.500148   -1.667308    0.213006    0.015489   -0.032396   -0.104356
H     2.979072    0.606942   -1.397592   -0.052387   -0.059580    0.027443
H    -1.285182    0.732959   -0.493699    0.001095    0.007652    0.002490
H    -1.794859   -0.947108   -0.481241   -0.006423   -0.000821    0.003410
H     1.843989    0.468955    1.248427    0.008647   -0.024288   -0.006437
15
* Frequency(6) -2083.1772
C    -1.604673   -0.063259    1.483238   -0.000433    0.000488    0.003071
C     0.278492   -0.643955   -0.090106   -0.035563    0.000470    0.114836
C     1.962399    0.455521   -1.029891   -0.074886   -0.080267   -0.043372
C    -1.162627   -0.218043    0.026238    0.003701   -0.001376   -0.011532
C     1.366582    0.324403    0.288955   -0.011485    0.007964    0.000953
O     1.219339    1.502354   -0.515588   -0.006016    0.006373    0.014162
H     0.728851   -0.546879   -1.237765    1.543556    0.874781   -0.896123
H    -1.000118    0.689038    1.991715    0.001731   -0.000494   -0.002690
H    -2.646935    0.249102    1.544683   -0.003278    0.000073   -0.007697
H    -1.500154   -1.003177    2.027074    0.001042    0.000441   -0.002893
H     0.501718   -1.670591    0.202432    0.015489   -0.032396   -0.104356
H     2.973764    0.600905   -1.394811   -0.052387   -0.059580    0.027443
H    -1.285071    0.733734   -0.493447    0.001095    0.007652    0.002490
H    -1.795510   -0.947192   -0.480895   -0.006423   -0.000821    0.003410
H     1.844866    0.466494    1.247775    0.008647   -0.024288   -0.006437
15
* Frequency(6) -2083.1772
C    -1.604722   -0.063204    1.483587   -0.000433    0.000488    0.003071
C     0.274450   -0.643901   -0.077055   -0.035563    0.000470    0.114836
C     1.953889    0.446399   -1.034820   -0.074886   -0.080267   -0.043372
C    -1.162207   -0.218199    0.024928    0.003701   -0.001376   -0.011532
C     1.365277    0.325308    0.289063   -0.011485    0.007964    0.000953
O     1.218655    1.503078   -0.513979   -0.006016    0.006373    0.014162
H     0.904268   -0.447465   -1.339605    1.543556    0.874781   -0.896123
H    -0.999921    0.688981    1.991409    0.001731   -0.000494   -0.002690
H    -2.647307    0.249110    1.543808   -0.003278    0.000073   -0.007697
H    -1.500035   -1.003127    2.026745    0.001042    0.000441   -0.002893
H     0.503478   -1.674273    0.190572    0.015489   -0.032396   -0.104356
H     2.967810    0.594134   -1.391692   -0.052387   -0.059580    0.027443
H    -1.284947    0.734604   -0.493164    0.001095    0.007652    0.002490
H    -1.796240   -0.947285   -0.480508   -0.006423   -0.000821    0.003410
H     1.845848    0.463733    1.247043    0.008647   -0.024288   -0.006437
