17
Coordinates from ORCA-job freq E -421.402965023678
  C          -1.28933892558764     -1.24296628020531      0.25720592772950
  C           2.89885501965511      0.31323830254036     -0.79402052788372
  C           0.37464082995385      0.07028103096746     -1.16527163825542
  C          -0.93961600538256      0.08517628372899     -0.39083230293111
  C           1.60262998084537     -0.12155707838036     -0.31766366817935
  O          -2.03955514142107      1.28992417074717      1.22080273337272
  O           2.27599584604440      1.08149539532228      0.13170422643312
  O          -0.78351802427225      1.10974964698259      0.58178017748480
  H          -1.39486841635078     -2.01597800826761     -0.50426805108376
  H          -2.22930545152224     -1.15802551595698      0.79758703437352
  H          -0.51769563027639     -1.54721521141153      0.96367728596538
  H           3.90612807163678     -0.05931357184802     -0.65162116304347
  H           0.32277188343329     -0.74105015842750     -1.89524649595862
  H           0.49362050127482      1.00329316027639     -1.71697356098995
  H          -1.74331733242274      0.37870234007023     -1.07437732771105
  H           1.55240448451007     -0.87760439213772      0.45936216587991
  H          -2.24252569011798      2.19890888599957      0.97462818479751
