17
Coordinates from ORCA-job freq E -421.312338938380
  C           1.70785948009174     -0.99804708938224     -0.62638067353408
  C           1.31646371154717      0.30799420699718      0.05997870918164
  C           0.03725826750498      0.91984453671138     -0.46345171860990
  O          -0.37814731556905      0.48628979924110     -1.70434787273592
  C          -1.32006888053127      0.35743210232678     -0.64172931265805
  C          -1.60911698326319     -0.57509844102764      0.48612305718970
  O          -1.86672518712452      0.45913876493636      1.48960354874891
  O          -0.81892942722974      1.31410511170595      1.70554553074656
  H           1.85974808619326     -0.84827186960215     -1.69286174570270
  H           0.94188853506351     -1.76471650229226     -0.51039909445384
  H           2.63297666615817     -1.37779042905431     -0.19505664564608
  H           1.22740612100291      0.18825974868924      1.13787051942392
  H           2.10871122036329      1.04390481579560     -0.10083905277072
  H          -0.38044456219915      1.74463669599288      0.45712126007104
  H          -2.12023634478069      1.08076488989382     -0.75571515514058
  H          -0.78618148738737     -1.22391642410413      0.77987753066685
  H          -2.55246289984002     -1.11452891682759      0.45244811522326
