17
Coordinates from ORCA-job freq E -421.309418258636
  C       1.766067     -0.980430     -0.655155
  C       1.313373      0.282836      0.072556
  C       0.054240      0.888223     -0.501738
  O      -0.422125      0.382239     -1.681692
  C      -1.361812      0.338007     -0.648972
  C      -1.655472     -0.537395      0.524757
  O      -1.849135      0.475982      1.529061
  O      -0.818523      1.368016      1.702366
  H       1.927786     -0.773674     -1.709742
  H       1.021331     -1.769367     -0.575410
  H       2.697525     -1.334318     -0.220848
  H       1.173012      0.104331      1.140565
  H       2.101385      1.037626     -0.016930
  H      -0.324033      1.711288      0.414335
  H      -2.145628      1.086547     -0.774644
  H      -0.855456     -1.238981      0.775899
  H      -2.622536     -1.040928      0.503380
17
Coordinates from ORCA-job freq E -421.312145114104
  C       1.737346     -0.986013     -0.651355
  C       1.300984      0.283623      0.073189
  C       0.034701      0.897096     -0.481378
  O      -0.394551      0.429957     -1.702350
  C      -1.330230      0.344648     -0.638200
  C      -1.619652     -0.557516      0.512976
  O      -1.854385      0.491375      1.499903
  O      -0.808985      1.358192      1.686369
  H       1.903213     -0.795015     -1.709059
  H       0.985169     -1.770969     -0.573540
  H       2.663581     -1.358089     -0.216586
  H       1.165992      0.111517      1.139478
  H       2.088940      1.036065     -0.015435
  H      -0.365903      1.745582      0.420493
  H      -2.123802      1.074749     -0.761789
  H      -0.808696     -1.225603      0.799769
  H      -2.573723     -1.079598      0.495302
17
Coordinates from ORCA-job freq E -421.312314086428
  C       1.702367     -1.000289     -0.618139
  C       1.320251      0.315214      0.054984
  C       0.039744      0.926101     -0.464961
  O      -0.380423      0.501358     -1.705747
  C      -1.320417      0.361597     -0.644565
  C      -1.605478     -0.578082      0.477887
  O      -1.863029      0.445592      1.490146
  O      -0.818002      1.303240      1.710639
  H       1.842521     -0.866768     -1.688058
  H       0.935163     -1.762404     -0.480763
  H       2.630719     -1.375927     -0.190367
  H       1.233568      0.205553      1.134102
  H       2.114945      1.046638     -0.115924
  H      -0.378929      1.740913      0.463610
  H      -2.121585      1.085526     -0.750491
  H      -0.782517     -1.230573      0.764130
  H      -2.548897     -1.117687      0.441305
17
Coordinates from ORCA-job freq E -421.312328822744
  C       1.710564     -0.997621     -0.627905
  C       1.316434      0.306634      0.060327
  C       0.036332      0.917327     -0.462393
  O      -0.378032      0.482954     -1.703503
  C      -1.320571      0.356729     -0.641204
  C      -1.612349     -0.574169      0.487657
  O      -1.868757      0.462429      1.488591
  O      -0.818400      1.313862      1.705483
  H       1.862982     -0.845191     -1.694009
  H       0.946389     -1.766284     -0.514191
  H       2.636385     -1.376002     -0.196910
  H       1.228413      0.186036      1.138238
  H       2.107468      1.043859     -0.100464
  H      -0.379704      1.744150      0.457215
  H      -2.119841      1.080881     -0.756345
  H      -0.790688     -1.223645      0.783157
  H      -2.556625     -1.111950      0.454044
17
Coordinates from ORCA-job freq E -421.312245151842
  C       1.717883     -0.989112     -0.648041
  C       1.303990      0.293059      0.067357
  C       0.036447      0.911417     -0.478032
  O      -0.390212      0.449581     -1.705016
  C      -1.326352      0.344660     -0.636004
  C      -1.600938     -0.567569      0.509685
  O      -1.856367      0.483480      1.498258
  O      -0.815266      1.354022      1.686481
  H       1.935256     -0.801340     -1.696990
  H       0.930369     -1.742435     -0.609497
  H       2.608103     -1.404431     -0.177920
  H       1.181858      0.133986      1.136915
  H       2.096863      1.038152     -0.036241
  H      -0.381028      1.753016      0.426164
  H      -2.128300      1.063996     -0.761121
  H      -0.771218     -1.207292      0.806494
  H      -2.541091     -1.113188      0.495295
17
Coordinates from ORCA-job freq E -421.312333536307
  C       1.708327     -0.997702     -0.627224
  C       1.315929      0.307388      0.060283
  C       0.037183      0.919459     -0.464088
  O      -0.378767      0.484660     -1.704390
  C      -1.320341      0.357009     -0.641477
  C      -1.608853     -0.574760      0.487013
  O      -1.866141      0.459915      1.490169
  O      -0.818732      1.315793      1.704700
  H       1.862788     -0.846421     -1.693122
  H       0.941491     -1.763980     -0.514201
  H       2.632182     -1.378683     -0.194292
  H       1.225568      0.186059      1.137887
  H       2.108201      1.043754     -0.098238
  H      -0.380436      1.745016      0.455836
  H      -2.120531      1.080251     -0.755874
  H      -0.785725     -1.223424      0.780672
  H      -2.552143     -1.114332      0.454134
17
Coordinates from ORCA-job freq E -421.312333887935
  C       1.707907     -0.998013     -0.626473
  C       1.316435      0.307940      0.060000
  C       0.037256      0.919794     -0.463490
  O      -0.378182      0.486131     -1.704341
  C      -1.320074      0.357372     -0.641702
  C      -1.609110     -0.575079      0.486217
  O      -1.866713      0.459238      1.489625
  O      -0.818942      1.314256      1.705481
  H       1.860023     -0.848068     -1.692893
  H       0.941871     -1.764655     -0.510757
  H       2.632913     -1.377863     -0.194999
  H       1.227274      0.188074      1.137871
  H       2.108686      1.043879     -0.100648
  H      -0.380462      1.744655      0.457007
  H      -2.120235      1.080714     -0.755698
  H      -0.786180     -1.223889      0.780009
  H      -2.552467     -1.114486      0.452577
17
Coordinates from ORCA-job freq E -421.312338938380
  C       1.707859     -0.998047     -0.626381
  C       1.316464      0.307994      0.059979
  C       0.037258      0.919845     -0.463452
  O      -0.378147      0.486290     -1.704348
  C      -1.320069      0.357432     -0.641729
  C      -1.609117     -0.575098      0.486123
  O      -1.866725      0.459139      1.489604
  O      -0.818929      1.314105      1.705546
  H       1.859748     -0.848272     -1.692862
  H       0.941889     -1.764717     -0.510399
  H       2.632977     -1.377790     -0.195057
  H       1.227406      0.188260      1.137871
  H       2.108711      1.043905     -0.100839
  H      -0.380445      1.744637      0.457121
  H      -2.120236      1.080765     -0.755715
  H      -0.786181     -1.223916      0.779878
  H      -2.552463     -1.114529      0.452448
