15
Coordinates from ORCA-job freq E -271.049592572576
  C           0.30973298700888      1.48156538664576     -1.36154630014081
  C          -1.42803747556978     -1.03747042651600      2.66587011450968
  C           0.55722257241171      0.98475622331861      0.04128828148620
  C          -0.79860339202198      0.29953073828012      2.28653838748066
  C          -0.48359399785268      0.36454345684378      0.83540572194478
  O           0.43986072740689     -0.45107915698576      0.25333160102279
  H          -0.68162809822113      1.92168272509907     -1.45470142966989
  H           0.37478297260330      0.64415910742092     -2.05507003390223
  H           1.05032706485827      2.22428905706902     -1.65184106356854
  H          -0.76608138050488     -1.85879098681025      2.39378124712606
  H          -1.61553432454218     -1.08860948338576      3.73724782422547
  H          -2.37368939469108     -1.17890870897033      2.14361679156036
  H           1.42423470112505      1.39047851566279      0.55614639701110
  H           0.13357915696252      0.44750257669104      2.84773797851373
  H          -1.46078311897285      1.12715097563696      2.54188148240056
