15
* (null), Energy   -1000.0000000
C    -1.578917   -0.266862    1.372325    0.000150   -0.000467   -0.000150
C     2.285264    1.214256   -0.239992   -0.020302    0.002157    0.147984
C    -1.183127   -0.540523   -0.072293   -0.001877   -0.001512   -0.001652
C     0.328911   -0.666763   -0.255713   -0.010408   -0.002425   -0.004610
C     1.055658    0.592297    0.034442   -0.073357   -0.037846   -0.124207
O     1.081658    1.751177   -0.778000   -0.026012   -0.015055    0.006015
H     1.778794    1.156483    0.999410    1.752426    0.822042   -0.426462
H    -2.660839   -0.199305    1.478618    0.000490   -0.000642    0.000086
H    -1.146822    0.670909    1.722552   -0.000489    0.001880   -0.000033
H    -1.225464   -1.063340    2.029762   -0.000880   -0.001555   -0.001218
H     3.170218    0.959832   -0.806961   -0.053577   -0.072297    0.123413
H    -1.651891   -1.463040   -0.418901   -0.006720    0.000998    0.001901
H    -1.547407    0.260648   -0.718216    0.000211   -0.000244   -0.000376
H     0.726637   -1.451398    0.392180    0.004233    0.008361    0.002976
H     0.568974   -0.942726   -1.289229   -0.022235   -0.041866   -0.002681
15
* Frequency(6) -2320.2254
C    -1.578900   -0.266915    1.372308    0.000150   -0.000467   -0.000150
C     2.282957    1.214501   -0.223175   -0.020302    0.002157    0.147984
C    -1.183340   -0.540695   -0.072481   -0.001877   -0.001512   -0.001652
C     0.327728   -0.667038   -0.256237   -0.010408   -0.002425   -0.004610
C     1.047321    0.587996    0.020326   -0.073357   -0.037846   -0.124207
O     1.078702    1.749466   -0.777317   -0.026012   -0.015055    0.006015
H     1.977948    1.249904    0.950945    1.752426    0.822042   -0.426462
H    -2.660783   -0.199378    1.478628    0.000490   -0.000642    0.000086
H    -1.146878    0.671123    1.722548   -0.000489    0.001880   -0.000033
H    -1.225564   -1.063517    2.029624   -0.000880   -0.001555   -0.001218
H     3.164130    0.951616   -0.792936   -0.053577   -0.072297    0.123413
H    -1.652655   -1.462927   -0.418685   -0.006720    0.000998    0.001901
H    -1.547383    0.260620   -0.718259    0.000211   -0.000244   -0.000376
H     0.727118   -1.450447    0.392519    0.004233    0.008361    0.002976
H     0.566448   -0.947484   -1.289534   -0.022235   -0.041866   -0.002681
15
* Frequency(6) -2320.2254
C    -1.578885   -0.266963    1.372293    0.000150   -0.000467   -0.000150
C     2.280900    1.214720   -0.208180   -0.020302    0.002157    0.147984
C    -1.183530   -0.540848   -0.072648   -0.001877   -0.001512   -0.001652
C     0.326673   -0.667284   -0.256704   -0.010408   -0.002425   -0.004610
C     1.039888    0.584161    0.007741   -0.073357   -0.037846   -0.124207
O     1.076066    1.747941   -0.776707   -0.026012   -0.015055    0.006015
H     2.155521    1.333201    0.907732    1.752426    0.822042   -0.426462
H    -2.660733   -0.199443    1.478636    0.000490   -0.000642    0.000086
H    -1.146927    0.671313    1.722544   -0.000489    0.001880   -0.000033
H    -1.225653   -1.063674    2.029501   -0.000880   -0.001555   -0.001218
H     3.158701    0.944290   -0.780430   -0.053577   -0.072297    0.123413
H    -1.653336   -1.462825   -0.418492   -0.006720    0.000998    0.001901
H    -1.547362    0.260596   -0.718297    0.000211   -0.000244   -0.000376
H     0.727547   -1.449600    0.392820    0.004233    0.008361    0.002976
H     0.564195   -0.951726   -1.289805   -0.022235   -0.041866   -0.002681
15
* Frequency(6) -2320.2254
C    -1.578873   -0.266999    1.372281    0.000150   -0.000467   -0.000150
C     2.279315    1.214888   -0.196632   -0.020302    0.002157    0.147984
C    -1.183677   -0.540966   -0.072777   -0.001877   -0.001512   -0.001652
C     0.325861   -0.667473   -0.257064   -0.010408   -0.002425   -0.004610
C     1.034163    0.581207   -0.001952   -0.073357   -0.037846   -0.124207
O     1.074036    1.746766   -0.776238   -0.026012   -0.015055    0.006015
H     2.292269    1.397348    0.874453    1.752426    0.822042   -0.426462
H    -2.660695   -0.199493    1.478643    0.000490   -0.000642    0.000086
H    -1.146965    0.671460    1.722542   -0.000489    0.001880   -0.000033
H    -1.225722   -1.063796    2.029406   -0.000880   -0.001555   -0.001218
H     3.154520    0.938649   -0.770800   -0.053577   -0.072297    0.123413
H    -1.653860   -1.462748   -0.418344   -0.006720    0.000998    0.001901
H    -1.547345    0.260577   -0.718326    0.000211   -0.000244   -0.000376
H     0.727878   -1.448948    0.393052    0.004233    0.008361    0.002976
H     0.562459   -0.954993   -1.290015   -0.022235   -0.041866   -0.002681
15
* Frequency(6) -2320.2254
C    -1.578866   -0.267021    1.372274    0.000150   -0.000467   -0.000150
C     2.278376    1.214988   -0.189783   -0.020302    0.002157    0.147984
C    -1.183764   -0.541036   -0.072853   -0.001877   -0.001512   -0.001652
C     0.325380   -0.667585   -0.257277   -0.010408   -0.002425   -0.004610
C     1.030768    0.579456   -0.007700   -0.073357   -0.037846   -0.124207
O     1.072832    1.746069   -0.775960   -0.026012   -0.015055    0.006015
H     2.373375    1.435393    0.854716    1.752426    0.822042   -0.426462
H    -2.660672   -0.199523    1.478647    0.000490   -0.000642    0.000086
H    -1.146988    0.671547    1.722540   -0.000489    0.001880   -0.000033
H    -1.225763   -1.063868    2.029349   -0.000880   -0.001555   -0.001218
H     3.152040    0.935303   -0.765088   -0.053577   -0.072297    0.123413
H    -1.654171   -1.462701   -0.418256   -0.006720    0.000998    0.001901
H    -1.547335    0.260565   -0.718344    0.000211   -0.000244   -0.000376
H     0.728074   -1.448561    0.393190    0.004233    0.008361    0.002976
H     0.561430   -0.956930   -1.290139   -0.022235   -0.041866   -0.002681
15
* Frequency(6) -2320.2254
C    -1.578865   -0.267025    1.372273    0.000150   -0.000467   -0.000150
C     2.278183    1.215009   -0.188375   -0.020302    0.002157    0.147984
C    -1.183781   -0.541051   -0.072869   -0.001877   -0.001512   -0.001652
C     0.325281   -0.667608   -0.257321   -0.010408   -0.002425   -0.004610
C     1.030070    0.579096   -0.008882   -0.073357   -0.037846   -0.124207
O     1.072585    1.745926   -0.775902   -0.026012   -0.015055    0.006015
H     2.390048    1.443215    0.850658    1.752426    0.822042   -0.426462
H    -2.660668   -0.199529    1.478648    0.000490   -0.000642    0.000086
H    -1.146993    0.671565    1.722540   -0.000489    0.001880   -0.000033
H    -1.225771   -1.063882    2.029338   -0.000880   -0.001555   -0.001218
H     3.151530    0.934615   -0.763914   -0.053577   -0.072297    0.123413
H    -1.654235   -1.462692   -0.418237   -0.006720    0.000998    0.001901
H    -1.547333    0.260563   -0.718347    0.000211   -0.000244   -0.000376
H     0.728114   -1.448481    0.393218    0.004233    0.008361    0.002976
H     0.561219   -0.957329   -1.290164   -0.022235   -0.041866   -0.002681
15
* Frequency(6) -2320.2254
C    -1.578869   -0.267012    1.372277    0.000150   -0.000467   -0.000150
C     2.278757    1.214948   -0.192560   -0.020302    0.002157    0.147984
C    -1.183728   -0.541008   -0.072822   -0.001877   -0.001512   -0.001652
C     0.325575   -0.667540   -0.257190   -0.010408   -0.002425   -0.004610
C     1.032145    0.580166   -0.005369   -0.073357   -0.037846   -0.124207
O     1.073321    1.746352   -0.776072   -0.026012   -0.015055    0.006015
H     2.340483    1.419964    0.862720    1.752426    0.822042   -0.426462
H    -2.660682   -0.199511    1.478645    0.000490   -0.000642    0.000086
H    -1.146979    0.671512    1.722541   -0.000489    0.001880   -0.000033
H    -1.225746   -1.063838    2.029372   -0.000880   -0.001555   -0.001218
H     3.153046    0.936660   -0.767404   -0.053577   -0.072297    0.123413
H    -1.654045   -1.462720   -0.418291   -0.006720    0.000998    0.001901
H    -1.547339    0.260570   -0.718337    0.000211   -0.000244   -0.000376
H     0.727994   -1.448718    0.393134    0.004233    0.008361    0.002976
H     0.561848   -0.956145   -1.290088   -0.022235   -0.041866   -0.002681
15
* Frequency(6) -2320.2254
C    -1.578878   -0.266983    1.372287    0.000150   -0.000467   -0.000150
C     2.280036    1.214812   -0.201886   -0.020302    0.002157    0.147984
C    -1.183610   -0.540913   -0.072718   -0.001877   -0.001512   -0.001652
C     0.326231   -0.667387   -0.256900   -0.010408   -0.002425   -0.004610
C     1.036768    0.582551    0.002458   -0.073357   -0.037846   -0.124207
O     1.074960    1.747300   -0.776451   -0.026012   -0.015055    0.006015
H     2.230050    1.368161    0.889595    1.752426    0.822042   -0.426462
H    -2.660712   -0.199470    1.478640    0.000490   -0.000642    0.000086
H    -1.146948    0.671393    1.722543   -0.000489    0.001880   -0.000033
H    -1.225691   -1.063740    2.029449   -0.000880   -0.001555   -0.001218
H     3.156422    0.941216   -0.775182   -0.053577   -0.072297    0.123413
H    -1.653622   -1.462783   -0.418411   -0.006720    0.000998    0.001901
H    -1.547353    0.260585   -0.718313    0.000211   -0.000244   -0.000376
H     0.727727   -1.449245    0.392947    0.004233    0.008361    0.002976
H     0.563249   -0.953506   -1.289919   -0.022235   -0.041866   -0.002681
15
* Frequency(6) -2320.2254
C    -1.578892   -0.266940    1.372300    0.000150   -0.000467   -0.000150
C     2.281882    1.214616   -0.215341   -0.020302    0.002157    0.147984
C    -1.183439   -0.540775   -0.072568   -0.001877   -0.001512   -0.001652
C     0.327177   -0.667166   -0.256481   -0.010408   -0.002425   -0.004610
C     1.043438    0.585992    0.013751   -0.073357   -0.037846   -0.124207
O     1.077325    1.748669   -0.776998   -0.026012   -0.015055    0.006015
H     2.070716    1.293420    0.928369    1.752426    0.822042   -0.426462
H    -2.660757   -0.199412    1.478632    0.000490   -0.000642    0.000086
H    -1.146903    0.671222    1.722546   -0.000489    0.001880   -0.000033
H    -1.225611   -1.063599    2.029559   -0.000880   -0.001555   -0.001218
H     3.161293    0.947789   -0.786403   -0.053577   -0.072297    0.123413
H    -1.653011   -1.462874   -0.418584   -0.006720    0.000998    0.001901
H    -1.547372    0.260608   -0.718279    0.000211   -0.000244   -0.000376
H     0.727343   -1.450005    0.392676    0.004233    0.008361    0.002976
H     0.565271   -0.949700   -1.289676   -0.022235   -0.041866   -0.002681
15
* Frequency(6) -2320.2254
C    -1.578908   -0.266889    1.372317    0.000150   -0.000467   -0.000150
C     2.284094    1.214380   -0.231467   -0.020302    0.002157    0.147984
C    -1.183235   -0.540611   -0.072388   -0.001877   -0.001512   -0.001652
C     0.328311   -0.666902   -0.255978   -0.010408   -0.002425   -0.004610
C     1.051432    0.590116    0.027287   -0.073357   -0.037846   -0.124207
O     1.080159    1.750310   -0.777654   -0.026012   -0.015055    0.006015
H     1.879748    1.203839    0.974842    1.752426    0.822042   -0.426462
H    -2.660810   -0.199342    1.478623    0.000490   -0.000642    0.000086
H    -1.146850    0.671018    1.722550   -0.000489    0.001880   -0.000033
H    -1.225515   -1.063430    2.029692   -0.000880   -0.001555   -0.001218
H     3.167132    0.955667   -0.799851   -0.053577   -0.072297    0.123413
H    -1.652278   -1.462982   -0.418791   -0.006720    0.000998    0.001901
H    -1.547395    0.260634   -0.718238    0.000211   -0.000244   -0.000376
H     0.726881   -1.450916    0.392352    0.004233    0.008361    0.002976
H     0.567694   -0.945138   -1.289384   -0.022235   -0.041866   -0.002681
15
* Frequency(6) -2320.2254
C    -1.578925   -0.266835    1.372334    0.000150   -0.000467   -0.000150
C     2.286434    1.214132   -0.248517   -0.020302    0.002157    0.147984
C    -1.183019   -0.540436   -0.072198   -0.001877   -0.001512   -0.001652
C     0.329510   -0.666623   -0.255447   -0.010408   -0.002425   -0.004610
C     1.059883    0.594477    0.041597   -0.073357   -0.037846   -0.124207
O     1.083156    1.752044   -0.778347   -0.026012   -0.015055    0.006015
H     1.677840    1.109127    1.023978    1.752426    0.822042   -0.426462
H    -2.660867   -0.199268    1.478613    0.000490   -0.000642    0.000086
H    -1.146794    0.670801    1.722553   -0.000489    0.001880   -0.000033
H    -1.225413   -1.063250    2.029833   -0.000880   -0.001555   -0.001218
H     3.173305    0.963997   -0.814071   -0.053577   -0.072297    0.123413
H    -1.651504   -1.463097   -0.419010   -0.006720    0.000998    0.001901
H    -1.547419    0.260662   -0.718195    0.000211   -0.000244   -0.000376
H     0.726394   -1.451879    0.392009    0.004233    0.008361    0.002976
H     0.570255   -0.940314   -1.289075   -0.022235   -0.041866   -0.002681
15
* Frequency(6) -2320.2254
C    -1.578942   -0.266785    1.372350    0.000150   -0.000467   -0.000150
C     2.288646    1.213897   -0.264644   -0.020302    0.002157    0.147984
C    -1.182814   -0.540272   -0.072018   -0.001877   -0.001512   -0.001652
C     0.330644   -0.666359   -0.254945   -0.010408   -0.002425   -0.004610
C     1.067877    0.598601    0.055133   -0.073357   -0.037846   -0.124207
O     1.085991    1.753685   -0.779002   -0.026012   -0.015055    0.006015
H     1.486872    1.019546    1.070451    1.752426    0.822042   -0.426462
H    -2.660920   -0.199198    1.478603    0.000490   -0.000642    0.000086
H    -1.146740    0.670596    1.722557   -0.000489    0.001880   -0.000033
H    -1.225317   -1.063081    2.029965   -0.000880   -0.001555   -0.001218
H     3.179143    0.971876   -0.827519   -0.053577   -0.072297    0.123413
H    -1.650772   -1.463206   -0.419217   -0.006720    0.000998    0.001901
H    -1.547442    0.260689   -0.718154    0.000211   -0.000244   -0.000376
H     0.725932   -1.452790    0.391685    0.004233    0.008361    0.002976
H     0.572678   -0.935752   -1.288782   -0.022235   -0.041866   -0.002681
15
* Frequency(6) -2320.2254
C    -1.578955   -0.266742    1.372364    0.000150   -0.000467   -0.000150
C     2.290492    1.213701   -0.278099   -0.020302    0.002157    0.147984
C    -1.182643   -0.540134   -0.071868   -0.001877   -0.001512   -0.001652
C     0.331591   -0.666138   -0.254526   -0.010408   -0.002425   -0.004610
C     1.074547    0.602042    0.066426   -0.073357   -0.037846   -0.124207
O     1.088356    1.755054   -0.779549   -0.026012   -0.015055    0.006015
H     1.327538    0.944804    1.109226    1.752426    0.822042   -0.426462
H    -2.660965   -0.199140    1.478595    0.000490   -0.000642    0.000086
H    -1.146696    0.670425    1.722560   -0.000489    0.001880   -0.000033
H    -1.225237   -1.062940    2.030076   -0.000880   -0.001555   -0.001218
H     3.184015    0.978449   -0.838740   -0.053577   -0.072297    0.123413
H    -1.650161   -1.463297   -0.419390   -0.006720    0.000998    0.001901
H    -1.547461    0.260711   -0.718119    0.000211   -0.000244   -0.000376
H     0.725547   -1.453550    0.391414    0.004233    0.008361    0.002976
H     0.574700   -0.931945   -1.288539   -0.022235   -0.041866   -0.002681
15
* Frequency(6) -2320.2254
C    -1.578965   -0.266713    1.372373    0.000150   -0.000467   -0.000150
C     2.291771    1.213565   -0.287424   -0.020302    0.002157    0.147984
C    -1.182525   -0.540039   -0.071763   -0.001877   -0.001512   -0.001652
C     0.332247   -0.665985   -0.254235   -0.010408   -0.002425   -0.004610
C     1.079170    0.604427    0.074253   -0.073357   -0.037846   -0.124207
O     1.089995    1.756002   -0.779928   -0.026012   -0.015055    0.006015
H     1.217105    0.893002    1.136100    1.752426    0.822042   -0.426462
H    -2.660996   -0.199099    1.478590    0.000490   -0.000642    0.000086
H    -1.146665    0.670307    1.722562   -0.000489    0.001880   -0.000033
H    -1.225182   -1.062842    2.030153   -0.000880   -0.001555   -0.001218
H     3.187391    0.983005   -0.846518   -0.053577   -0.072297    0.123413
H    -1.649737   -1.463360   -0.419510   -0.006720    0.000998    0.001901
H    -1.547475    0.260726   -0.718096    0.000211   -0.000244   -0.000376
H     0.725281   -1.454077    0.391227    0.004233    0.008361    0.002976
H     0.576101   -0.929307   -1.288370   -0.022235   -0.041866   -0.002681
15
* Frequency(6) -2320.2254
C    -1.578969   -0.266700    1.372378    0.000150   -0.000467   -0.000150
C     2.292345    1.213504   -0.291610   -0.020302    0.002157    0.147984
C    -1.182472   -0.539996   -0.071717   -0.001877   -0.001512   -0.001652
C     0.332541   -0.665917   -0.254105   -0.010408   -0.002425   -0.004610
C     1.081245    0.605498    0.077766   -0.073357   -0.037846   -0.124207
O     1.090731    1.756428   -0.780099   -0.026012   -0.015055    0.006015
H     1.167540    0.869751    1.148162    1.752426    0.822042   -0.426462
H    -2.661009   -0.199081    1.478588    0.000490   -0.000642    0.000086
H    -1.146651    0.670254    1.722563   -0.000489    0.001880   -0.000033
H    -1.225157   -1.062798    2.030187   -0.000880   -0.001555   -0.001218
H     3.188906    0.985050   -0.850008   -0.053577   -0.072297    0.123413
H    -1.649547   -1.463388   -0.419564   -0.006720    0.000998    0.001901
H    -1.547481    0.260733   -0.718085    0.000211   -0.000244   -0.000376
H     0.725161   -1.454314    0.391143    0.004233    0.008361    0.002976
H     0.576730   -0.928123   -1.288294   -0.022235   -0.041866   -0.002681
15
* Frequency(6) -2320.2254
C    -1.578968   -0.266704    1.372376    0.000150   -0.000467   -0.000150
C     2.292152    1.213524   -0.290202   -0.020302    0.002157    0.147984
C    -1.182490   -0.540011   -0.071732   -0.001877   -0.001512   -0.001652
C     0.332442   -0.665940   -0.254149   -0.010408   -0.002425   -0.004610
C     1.080547    0.605138    0.076584   -0.073357   -0.037846   -0.124207
O     1.090483    1.756285   -0.780041   -0.026012   -0.015055    0.006015
H     1.184213    0.877572    1.144105    1.752426    0.822042   -0.426462
H    -2.661005   -0.199087    1.478588    0.000490   -0.000642    0.000086
H    -1.146656    0.670271    1.722563   -0.000489    0.001880   -0.000033
H    -1.225165   -1.062812    2.030176   -0.000880   -0.001555   -0.001218
H     3.188396    0.984362   -0.848834   -0.053577   -0.072297    0.123413
H    -1.649611   -1.463378   -0.419546   -0.006720    0.000998    0.001901
H    -1.547479    0.260731   -0.718089    0.000211   -0.000244   -0.000376
H     0.725201   -1.454234    0.391171    0.004233    0.008361    0.002976
H     0.576518   -0.928521   -1.288319   -0.022235   -0.041866   -0.002681
15
* Frequency(6) -2320.2254
C    -1.578961   -0.266726    1.372369    0.000150   -0.000467   -0.000150
C     2.291213    1.213624   -0.283353   -0.020302    0.002157    0.147984
C    -1.182577   -0.540080   -0.071809   -0.001877   -0.001512   -0.001652
C     0.331960   -0.666052   -0.254362   -0.010408   -0.002425   -0.004610
C     1.077152    0.603386    0.070836   -0.073357   -0.037846   -0.124207
O     1.089280    1.755588   -0.779763   -0.026012   -0.015055    0.006015
H     1.265318    0.915618    1.124367    1.752426    0.822042   -0.426462
H    -2.660982   -0.199117    1.478592    0.000490   -0.000642    0.000086
H    -1.146679    0.670358    1.722561   -0.000489    0.001880   -0.000033
H    -1.225206   -1.062884    2.030119   -0.000880   -0.001555   -0.001218
H     3.185917    0.981016   -0.843122   -0.053577   -0.072297    0.123413
H    -1.649922   -1.463332   -0.419458   -0.006720    0.000998    0.001901
H    -1.547469    0.260720   -0.718106    0.000211   -0.000244   -0.000376
H     0.725397   -1.453847    0.391309    0.004233    0.008361    0.002976
H     0.575489   -0.930459   -1.288444   -0.022235   -0.041866   -0.002681
15
* Frequency(6) -2320.2254
C    -1.578949   -0.266762    1.372358    0.000150   -0.000467   -0.000150
C     2.289628    1.213792   -0.271805   -0.020302    0.002157    0.147984
C    -1.182723   -0.540198   -0.071938   -0.001877   -0.001512   -0.001652
C     0.331148   -0.666241   -0.254722   -0.010408   -0.002425   -0.004610
C     1.071427    0.600433    0.061143   -0.073357   -0.037846   -0.124207
O     1.087250    1.754413   -0.779294   -0.026012   -0.015055    0.006015
H     1.402067    0.979765    1.091089    1.752426    0.822042   -0.426462
H    -2.660944   -0.199167    1.478599    0.000490   -0.000642    0.000086
H    -1.146717    0.670505    1.722559   -0.000489    0.001880   -0.000033
H    -1.225275   -1.063006    2.030024   -0.000880   -0.001555   -0.001218
H     3.181736    0.975374   -0.833492   -0.053577   -0.072297    0.123413
H    -1.650447   -1.463254   -0.419309   -0.006720    0.000998    0.001901
H    -1.547452    0.260701   -0.718135    0.000211   -0.000244   -0.000376
H     0.725727   -1.453195    0.391541    0.004233    0.008361    0.002976
H     0.573754   -0.933726   -1.288653   -0.022235   -0.041866   -0.002681
15
* Frequency(6) -2320.2254
C    -1.578934   -0.266809    1.372342    0.000150   -0.000467   -0.000150
C     2.287571    1.214011   -0.256810   -0.020302    0.002157    0.147984
C    -1.182913   -0.540352   -0.072105   -0.001877   -0.001512   -0.001652
C     0.330094   -0.666487   -0.255189   -0.010408   -0.002425   -0.004610
C     1.063994    0.596598    0.048557   -0.073357   -0.037846   -0.124207
O     1.084614    1.752888   -0.778684   -0.026012   -0.015055    0.006015
H     1.579640    1.063062    1.047875    1.752426    0.822042   -0.426462
H    -2.660894   -0.199232    1.478608    0.000490   -0.000642    0.000086
H    -1.146766    0.670696    1.722555   -0.000489    0.001880   -0.000033
H    -1.225364   -1.063163    2.029901   -0.000880   -0.001555   -0.001218
H     3.176307    0.968049   -0.820986   -0.053577   -0.072297    0.123413
H    -1.651128   -1.463153   -0.419117   -0.006720    0.000998    0.001901
H    -1.547431    0.260676   -0.718173    0.000211   -0.000244   -0.000376
H     0.726156   -1.452348    0.391842    0.004233    0.008361    0.002976
H     0.571501   -0.937968   -1.288924   -0.022235   -0.041866   -0.002681
15
* Frequency(6) -2320.2254
C    -1.578917   -0.266862    1.372325    0.000150   -0.000467   -0.000150
C     2.285264    1.214256   -0.239992   -0.020302    0.002157    0.147984
C    -1.183127   -0.540523   -0.072293   -0.001877   -0.001512   -0.001652
C     0.328911   -0.666763   -0.255713   -0.010408   -0.002425   -0.004610
C     1.055658    0.592297    0.034442   -0.073357   -0.037846   -0.124207
O     1.081658    1.751177   -0.778000   -0.026012   -0.015055    0.006015
H     1.778794    1.156483    0.999410    1.752426    0.822042   -0.426462
H    -2.660839   -0.199305    1.478618    0.000490   -0.000642    0.000086
H    -1.146822    0.670909    1.722552   -0.000489    0.001880   -0.000033
H    -1.225464   -1.063340    2.029762   -0.000880   -0.001555   -0.001218
H     3.170218    0.959832   -0.806961   -0.053577   -0.072297    0.123413
H    -1.651891   -1.463040   -0.418901   -0.006720    0.000998    0.001901
H    -1.547407    0.260648   -0.718216    0.000211   -0.000244   -0.000376
H     0.726637   -1.451398    0.392180    0.004233    0.008361    0.002976
H     0.568974   -0.942726   -1.289229   -0.022235   -0.041866   -0.002681
