17
Coordinates from ORCA-job freq E -421.374971546379
  C          -1.97518581473826     -0.18686018408016     -0.54051158556326
  C          -1.12193072201187     -0.32727920309855      0.71010078931816
  O          -1.20312060377335      0.96694392027063      1.30655898259697
  O          -2.56165606184178      1.26202393587966      1.21791041562236
  C           0.33405752593185     -0.65358947837687      0.48074524815038
  O           0.66504414571501     -1.15658962165139     -0.80447277435015
  C           1.14636819574791      0.13138240488935     -0.45023412493385
  C           2.62859844741086      0.27186032551387     -0.27755195074249
  H          -1.53830987458843      0.38030659802472     -1.35674676338538
  H          -2.56269090019777     -1.04069803488700     -0.85446902612058
  H          -2.72612278120669      0.69476074603736      0.14485260858134
  H          -1.58258251530657     -1.05726311225855      1.38130848696065
  H           0.84259883271576     -1.15265013225535      1.29902397839447
  H           0.64684649823146      0.94215984216137     -0.97279908581861
  H           3.12089384136799      0.32748276867672     -1.24817136192019
  H           3.02852269755836     -0.58366050641753      0.26459933510885
  H           2.85866708898555      1.18167073157172      0.27633282810133
