17
Coordinates from ORCA-job scan E -27.258110212370
  C      -2.251262     -0.624027     -0.215110
  C      -1.032142      0.032011      0.507984
  O      -1.365720      1.397169      0.211890
  O      -2.574762      1.354497      0.891435
  C       0.262026     -0.443879      0.054782
  O       0.627992     -0.428428     -1.288443
  C       1.346787      0.421754     -0.434842
  C       2.746112      0.091129     -0.032037
  H      -2.147781     -0.398198     -1.264320
  H      -2.414835     -1.631229      0.115649
  H      -2.972961      0.182351      0.259286
  H      -1.278008     -0.099565      1.570066
  H       0.602580     -1.387332      0.569050
  H       1.092695      1.486624     -0.609638
  H       3.432567      0.948127     -0.279471
  H       3.134327     -0.817114     -0.542337
  H       2.792383     -0.083888      1.062533
17
Coordinates from ORCA-job scan E -27.265246314510
  C      -2.259933     -0.630605     -0.211772
  C      -1.042219      0.024810      0.510577
  O      -1.363893      1.392524      0.219567
  O      -2.581865      1.395166      0.856312
  C       0.267221     -0.451198      0.055070
  O       0.636201     -0.427313     -1.288479
  C       1.350844      0.421232     -0.428819
  C       2.757329      0.096689     -0.031974
  H      -2.170741     -0.412335     -1.266306
  H      -2.437471     -1.640433      0.113964
  H      -2.963850      0.192119      0.274192
  H      -1.274918     -0.118265      1.573975
  H       0.604232     -1.387078      0.561912
  H       1.094707      1.479433     -0.593713
  H       3.431403      0.948611     -0.273098
  H       3.141957     -0.798811     -0.548675
  H       2.810995     -0.084546      1.053744
17
Coordinates from ORCA-job scan E -27.270452951080
  C      -2.268682     -0.634880     -0.208429
  C      -1.051315      0.017415      0.513188
  O      -1.361163      1.384202      0.226953
  O      -2.583437      1.430568      0.823767
  C       0.272745     -0.459755      0.057129
  O       0.644134     -0.427823     -1.286488
  C       1.353897      0.420001     -0.421363
  C       2.768723      0.103615     -0.032095
  H      -2.194008     -0.429942     -1.268494
  H      -2.463926     -1.645783      0.110926
  H      -2.959818      0.207664      0.280679
  H      -1.265589     -0.137739      1.578983
  H       0.604899     -1.387672      0.557711
  H       1.094959      1.471950     -0.576094
  H       3.429217      0.952220     -0.268349
  H       3.148483     -0.779894     -0.557134
  H       2.830878     -0.084147      1.045584
17
Coordinates from ORCA-job scan E -27.274067574170
  C      -2.275423     -0.637983     -0.204783
  C      -1.058170      0.010053      0.516050
  O      -1.353822      1.376842      0.235232
  O      -2.584455      1.462531      0.789617
  C       0.277142     -0.468573      0.061132
  O       0.650029     -0.427814     -1.282430
  C       1.354793      0.418611     -0.411872
  C       2.777878      0.110497     -0.033223
  H      -2.212593     -0.449719     -1.269848
  H      -2.489641     -1.648334      0.108555
  H      -2.958324      0.224717      0.279579
  H      -1.251460     -0.157447      1.584492
  H       0.603982     -1.391331      0.556793
  H       1.092434      1.466575     -0.555265
  H       3.425904      0.959358     -0.266260
  H       3.151971     -0.762773     -0.569534
  H       2.849754     -0.085209      1.038240
17
Coordinates from ORCA-job scan E -27.276619355350
  C      -2.279566     -0.639867     -0.201135
  C      -1.063273      0.003114      0.519768
  O      -1.342970      1.371400      0.244809
  O      -2.585485      1.489339      0.756624
  C       0.280038     -0.477174      0.067140
  O       0.653332     -0.426802     -1.276447
  C       1.353516      0.417286     -0.400671
  C       2.784361      0.116721     -0.035863
  H      -2.222616     -0.471151     -1.270596
  H      -2.513231     -1.647944      0.107994
  H      -2.958916      0.242515      0.268690
  H      -1.235145     -0.175801      1.590744
  H       0.601521     -1.397982      0.559038
  H       1.087357      1.463385     -0.531632
  H       3.421417      0.968673     -0.267385
  H       3.152171     -0.747852     -0.585415
  H       2.867487     -0.087860      1.030813
17
Coordinates from ORCA-job scan E -27.278500156410
  C      -2.280959     -0.640717     -0.197635
  C      -1.067244     -0.003361      0.524795
  O      -1.329892      1.367822      0.255908
  O      -2.586273      1.511083      0.725036
  C       0.281377     -0.485199      0.074733
  O       0.653724     -0.424325     -1.269089
  C       1.350261      0.416351     -0.388353
  C       2.788085      0.121933     -0.040070
  H      -2.222594     -0.493059     -1.270791
  H      -2.533644     -1.645076      0.109615
  H      -2.959992      0.259560      0.249511
  H      -1.219616     -0.191896      1.597868
  H       0.597785     -1.406722      0.563248
  H       1.080218      1.462118     -0.505934
  H       3.415685      0.978534     -0.271423
  H       3.149236     -0.735140     -0.603673
  H       2.883841     -0.091906      1.022730
17
Coordinates from ORCA-job scan E -27.279928916480
  C      -2.280002     -0.640869     -0.194572
  C      -1.070683     -0.009486      0.531511
  O      -1.316351      1.365466      0.268718
  O      -2.586704      1.528488      0.694947
  C       0.281462     -0.492381      0.083456
  O       0.651223     -0.420020     -1.260893
  C       1.345524      0.416128     -0.375448
  C       2.789504      0.126042     -0.045729
  H      -2.212568     -0.515107     -1.270643
  H      -2.551291     -1.640205      0.113478
  H      -2.959970      0.275171      0.223811
  H      -1.207055     -0.205429      1.606162
  H       0.593347     -1.416309      0.568056
  H       1.071832      1.462338     -0.478837
  H       3.409049      0.987498     -0.277921
  H       3.143636     -0.724409     -0.623181
  H       2.899045     -0.096915      1.013559
17
Coordinates from ORCA-job scan E -27.281038593030
  C      -2.277540     -0.640697     -0.192227
  C      -1.073843     -0.015322      0.540011
  O      -1.303693      1.363819      0.283243
  O      -2.586897      1.542238      0.666052
  C       0.280791     -0.498359      0.092740
  O       0.646159     -0.413526     -1.252421
  C       1.340042      0.416942     -0.362475
  C       2.789316      0.129040     -0.052518
  H      -2.194156     -0.537270     -1.270210
  H      -2.567139     -1.633781      0.119377
  H      -2.958359      0.288761      0.193917
  H      -1.198658     -0.216540      1.615688
  H       0.589031     -1.425644      0.572256
  H       1.063303      1.463852     -0.451109
  H       3.402376      0.994591     -0.286362
  H       3.135979     -0.715674     -0.642830
  H       2.913286     -0.102428      1.003344
17
Coordinates from ORCA-job scan E -27.281925215010
  C      -2.274269     -0.640554     -0.190840
  C      -1.076778     -0.020908      0.549926
  O      -1.292908      1.362477      0.299107
  O      -2.586981      1.553149      0.638757
  C       0.279786     -0.502862      0.101922
  O       0.639100     -0.404805     -1.244238
  C       1.334463      0.418933     -0.349969
  C       2.788116      0.131050     -0.059923
  H      -2.169756     -0.559882     -1.269490
  H      -2.582246     -1.626106      0.126965
  H      -2.954768      0.300338      0.161999
  H      -1.194490     -0.225935      1.626036
  H       0.585529     -1.433948      0.575044
  H       1.055558      1.466530     -0.423729
  H       3.396426      0.999391     -0.296184
  H       3.126798     -0.709030     -0.661487
  H       2.926418     -0.107835      0.992579
17
Coordinates from ORCA-job scan E -27.282656222670
  C      -2.270757     -0.640610     -0.190434
  C      -1.079395     -0.026277      0.560600
  O      -1.284061      1.361276      0.315862
  O      -2.586838      1.561844      0.613121
  C       0.278753     -0.505784      0.110400
  O       0.630800     -0.394091     -1.236783
  C       1.329272      0.422061     -0.338331
  C       2.786360      0.132275     -0.067378
  H      -2.142278     -0.583047     -1.268378
  H      -2.597295     -1.617407      0.135754
  H      -2.949667      0.309965      0.130158
  H      -1.193783     -0.234554      1.636521
  H       0.583228     -1.440818      0.576019
  H       1.049215      1.470258     -0.397552
  H       3.391666      1.001938     -0.306874
  H       3.116589     -0.704515     -0.678198
  H       2.938189     -0.112513      0.981970
17
Coordinates from ORCA-job scan E -27.283272460110
  C      -2.267253     -0.640949     -0.190979
  C      -1.081693     -0.031521      0.571204
  O      -1.277179      1.360020      0.333042
  O      -2.586373      1.568932      0.590281
  C       0.277822     -0.507244      0.117648
  O       0.622077     -0.381955     -1.230425
  C       1.324713      0.426098     -0.327915
  C       2.784343      0.133006     -0.074374
  H      -2.114085     -0.607153     -1.266906
  H      -2.612961     -1.607637      0.145499
  H      -2.942984      0.318364      0.099354
  H      -1.195457     -0.243403      1.646331
  H       0.582216     -1.446121      0.575069
  H       1.044458      1.474787     -0.373410
  H       3.388184      1.002548     -0.318075
  H       3.105844     -0.702057     -0.692108
  H       2.948325     -0.115713      0.972240
17
Coordinates from ORCA-job scan E -27.283798883270
  C      -2.264117     -0.641440     -0.192254
  C      -1.083589     -0.036761      0.581112
  O      -1.271389      1.358687      0.350580
  O      -2.585244      1.574699      0.569745
  C       0.277103     -0.507508      0.123394
  O       0.613686     -0.368935     -1.225324
  C       1.320930      0.430777     -0.318815
  C       2.782320      0.133513     -0.080564
  H      -2.087541     -0.631789     -1.265088
  H      -2.629425     -1.596834      0.155733
  H      -2.935861      0.325612      0.070796
  H      -1.198398     -0.253217      1.654913
  H       0.582452     -1.450046      0.572266
  H       1.041244      1.479904     -0.351608
  H       3.385934      1.001684     -0.329706
  H       3.095036     -0.701566     -0.702677
  H       2.956858     -0.116778      0.963974
17
Coordinates from ORCA-job scan E -27.284249909320
  C      -2.261354     -0.642035     -0.194211
  C      -1.085215     -0.042133      0.589536
  O      -1.267012      1.356978      0.368018
  O      -2.583683      1.579529      0.554210
  C       0.276587     -0.507039      0.127298
  O       0.606380     -0.356079     -1.221759
  C       1.317906      0.435628     -0.311372
  C       2.780442      0.134152     -0.085614
  H      -2.063823     -0.657434     -1.263175
  H      -2.647429     -1.584592      0.166460
  H      -2.927257      0.333129      0.043776
  H      -1.201594     -0.264630      1.661598
  H       0.583748     -1.452814      0.567789
  H       1.039220      1.485083     -0.332951
  H       3.384585      0.999840     -0.341719
  H       3.084800     -0.702840     -0.709123
  H       2.963698     -0.114742      0.957715
17
Coordinates from ORCA-job scan E -27.284638504720
  C      -2.259416     -0.642310     -0.196457
  C      -1.086344     -0.047824      0.596816
  O      -1.261747      1.355149      0.386313
  O      -2.580664      1.583553      0.538416
  C       0.276358     -0.506197      0.129858
  O       0.600194     -0.343340     -1.219251
  C       1.315526      0.440543     -0.304950
  C       2.778769      0.135009     -0.089684
  H      -2.044427     -0.681710     -1.261166
  H      -2.665735     -1.571617      0.176393
  H      -2.920564      0.339109      0.020800
  H      -1.204488     -0.277685      1.666816
  H       0.585933     -1.455099      0.562017
  H       1.038041      1.490364     -0.316204
  H       3.383932      0.997393     -0.354773
  H       3.075048     -0.705884     -0.711850
  H       2.969581     -0.109453      0.953382
17
Coordinates from ORCA-job scan E -27.284968119110
  C      -2.257627     -0.642631     -0.199355
  C      -1.087532     -0.053613      0.601611
  O      -1.259550      1.352431      0.403115
  O      -2.578704      1.586765      0.534595
  C       0.276250     -0.505598      0.130313
  O       0.595993     -0.333014     -1.218620
  C       1.313721      0.444643     -0.300850
  C       2.777428      0.136496     -0.092330
  H      -2.027945     -0.707909     -1.259427
  H      -2.686710     -1.556400      0.186816
  H      -2.908977      0.348551     -0.003776
  H      -1.206406     -0.292355      1.669402
  H       0.588604     -1.456664      0.555312
  H       1.037139      1.494506     -0.304172
  H       3.383400      0.994668     -0.368033
  H       3.067119     -0.710051     -0.709541
  H       2.973795     -0.099824      0.951415
17
Coordinates from ORCA-job scan E -27.285256491370
  C      -2.256755     -0.642046     -0.202087
  C      -1.088040     -0.059993      0.606775
  O      -1.253051      1.349978      0.422807
  O      -2.573350      1.590116      0.519747
  C       0.276343     -0.505035      0.130988
  O       0.591881     -0.322011     -1.217619
  C       1.312003      0.448884     -0.296139
  C       2.776008      0.138048     -0.094779
  H      -2.015877     -0.728169     -1.257796
  H      -2.704750     -1.542503      0.193904
  H      -2.904670      0.352835     -0.020127
  H      -1.207899     -0.308291      1.672109
  H       0.591709     -1.458846      0.548291
  H       1.036391      1.499086     -0.290860
  H       3.382983      0.991487     -0.383964
  H       3.058530     -0.716090     -0.705130
  H       2.978542     -0.087449      0.950358
17
Coordinates from ORCA-job scan E -27.285510894400
  C      -2.256151     -0.641330     -0.205565
  C      -1.088616     -0.066455      0.609679
  O      -1.249916      1.346551      0.440938
  O      -2.569675      1.591969      0.519783
  C       0.276600     -0.505273      0.129812
  O       0.589645     -0.314305     -1.218397
  C       1.310648      0.451933     -0.293850
  C       2.774927      0.140423     -0.095979
  H      -2.005416     -0.750157     -1.256587
  H      -2.725718     -1.526203      0.200993
  H      -2.894523      0.362025     -0.040407
  H      -1.208470     -0.325456      1.672401
  H       0.595007     -1.460719      0.540866
  H       1.035223      1.502004     -0.282488
  H       3.382307      0.987856     -0.401038
  H       3.051998     -0.723263     -0.695041
  H       2.982126     -0.069599      0.951355
17
Coordinates from ORCA-job scan E -27.285731010110
  C      -2.255402     -0.639732     -0.209441
  C      -1.089028     -0.073510      0.612490
  O      -1.245634      1.342583      0.460394
  O      -2.564756      1.594300      0.518234
  C       0.276831     -0.506359      0.128821
  O       0.587504     -0.308001     -1.219015
  C       1.308913      0.454273     -0.291722
  C       2.773518      0.143173     -0.096960
  H      -1.996565     -0.766984     -1.256138
  H      -2.744446     -1.510771      0.204276
  H      -2.885556      0.370002     -0.056466
  H      -1.208739     -0.343908      1.672370
  H       0.598233     -1.463392      0.534070
  H       1.033164      1.504211     -0.274664
  H       3.380857      0.983331     -0.421977
  H       3.045082     -0.732521     -0.680980
  H       2.986021     -0.046694      0.953184
17
Coordinates from ORCA-job scan E -27.285926139130
  C      -2.255048     -0.637531     -0.213811
  C      -1.089275     -0.080609      0.614977
  O      -1.241391      1.338341      0.480314
  O      -2.559566      1.595544      0.519617
  C       0.277206     -0.507919      0.127759
  O       0.585839     -0.303263     -1.219772
  C       1.307287      0.455956     -0.290226
  C       2.772201      0.146174     -0.097653
  H      -1.989110     -0.780200     -1.256503
  H      -2.761981     -1.496094      0.204807
  H      -2.877340      0.378135     -0.071174
  H      -1.208927     -0.362751      1.671809
  H       0.601471     -1.466137      0.527877
  H       1.030848      1.505613     -0.268396
  H       3.379103      0.977350     -0.445753
  H       3.038551     -0.743302     -0.662848
  H       2.990130     -0.019308      0.955449
17
Coordinates from ORCA-job scan E -27.286102074830
  C      -2.254334     -0.634762     -0.218604
  C      -1.089571     -0.087983      0.617486
  O      -1.237202      1.333550      0.500318
  O      -2.554131      1.597032      0.522094
  C       0.277518     -0.510133      0.127129
  O       0.584060     -0.299936     -1.220206
  C       1.305310      0.456991     -0.288873
  C       2.770624      0.149351     -0.098361
  H      -1.981836     -0.789266     -1.257724
  H      -2.777347     -1.482620      0.202226
  H      -2.868837      0.386147     -0.083562
  H      -1.209533     -0.381958      1.671042
  H       0.604550     -1.469321      0.522798
  H       1.027771      1.506331     -0.262801
  H       3.376617      0.970037     -0.472421
  H       3.031787     -0.755270     -0.641595
  H       2.994552      0.011812      0.957529
17
Coordinates from ORCA-job scan E -27.286263591330
  C      -2.253719     -0.631536     -0.223817
  C      -1.089844     -0.095302      0.619996
  O      -1.233128      1.328524      0.520291
  O      -2.548623      1.597742      0.526534
  C       0.277913     -0.512647      0.126853
  O       0.582378     -0.297760     -1.220394
  C       1.303327      0.457569     -0.287741
  C       2.769067      0.152580     -0.099066
  H      -1.975043     -0.794832     -1.259808
  H      -2.791010     -1.470452      0.197160
  H      -2.860948      0.394118     -0.094628
  H      -1.210648     -0.401024      1.670080
  H       0.607605     -1.472455      0.518711
  H       1.024484      1.506496     -0.258085
  H       3.373721      0.960918     -0.501209
  H       3.025103     -0.767938     -0.617388
  H       2.999363      0.045997      0.958985
17
Coordinates from ORCA-job scan E -27.286413608650
  C      -2.252788     -0.627881     -0.229375
  C      -1.090203     -0.102701      0.622567
  O      -1.229175      1.323129      0.539959
  O      -2.543068      1.598522      0.531930
  C       0.278274     -0.515575      0.127110
  O       0.580585     -0.296717     -1.220159
  C       1.301095      0.457685     -0.286612
  C       2.767347      0.155850     -0.099868
  H      -1.968251     -0.796808     -1.262763
  H      -2.802584     -1.459685      0.189642
  H      -2.853082      0.401885     -0.103719
  H      -1.212459     -0.419992      1.668991
  H       0.610580     -1.475768      0.515831
  H       1.020716      1.506182     -0.253887
  H       3.370186      0.950211     -0.531820
  H       3.018304     -0.780942     -0.590850
  H       3.004518      0.082604      0.959498
17
Coordinates from ORCA-job scan E -27.286553784380
  C      -2.251872     -0.623830     -0.235277
  C      -1.090580     -0.109989      0.625090
  O      -1.225333      1.317558      0.559300
  O      -2.537570      1.598694      0.538927
  C       0.278703     -0.518727      0.127771
  O       0.578932     -0.296752     -1.219626
  C       1.298854      0.457419     -0.285610
  C       2.765666      0.159126     -0.100697
  H      -1.961839     -0.795721     -1.266574
  H      -2.812562     -1.450183      0.180165
  H      -2.845840      0.409534     -0.111434
  H      -1.214905     -0.438646      1.667686
  H       0.613590     -1.478966      0.514037
  H       1.016810      1.505434     -0.250495
  H       3.366213      0.937704     -0.563596
  H       3.011727     -0.793863     -0.562039
  H       3.010004      0.121208      0.958846
17
Coordinates from ORCA-job scan E -27.286684600870
  C      -2.250727     -0.619385     -0.241477
  C      -1.091035     -0.117258      0.627546
  O      -1.221598      1.311734      0.578182
  O      -2.532137      1.598790      0.546952
  C       0.279125     -0.522190      0.128898
  O       0.577350     -0.297922     -1.218732
  C       1.296463      0.456743     -0.284648
  C       2.763924      0.162430     -0.101584
  H      -1.955575     -0.791665     -1.271206
  H      -2.820867     -1.441833      0.168833
  H      -2.838874      0.416980     -0.117379
  H      -1.218015     -0.457088      1.666154
  H       0.616609     -1.482195      0.513433
  H       1.012587      1.504271     -0.247784
  H       3.361659      0.923621     -0.596203
  H       3.005366     -0.806383     -0.531373
  H       3.015742      0.161350      0.956864
17
Coordinates from ORCA-job scan E -27.286805903910
  C      -2.249578     -0.614538     -0.247989
  C      -1.091515     -0.124397      0.629851
  O      -1.217957      1.305774      0.596685
  O      -2.526850      1.598348      0.556468
  C       0.279604     -0.525855      0.130386
  O       0.576027     -0.300251     -1.217585
  C       1.294081      0.455683     -0.283850
  C       2.762256      0.165762     -0.102469
  H      -1.949701     -0.785067     -1.276610
  H      -2.827945     -1.434397      0.155977
  H      -2.832555      0.424320     -0.121988
  H      -1.221692     -0.475258      1.664309
  H       0.619719     -1.485269      0.513934
  H       1.008241      1.502692     -0.246032
  H       3.356673      0.907886     -0.629150
  H       2.999504     -0.818185     -0.498897
  H       3.021683      0.202753      0.953435
17
Coordinates from ORCA-job scan E -27.286917102480
  C      -2.248249     -0.609272     -0.254787
  C      -1.092060     -0.131491      0.632015
  O      -1.214392      1.299612      0.614828
  O      -2.521679      1.597739      0.567088
  C       0.280084     -0.529797      0.132275
  O       0.574899     -0.303808     -1.216154
  C       1.291598      0.454201     -0.283190
  C       2.760580      0.169155     -0.103383
  H      -1.943972     -0.776081     -1.282702
  H      -2.833837     -1.427671      0.141666
  H      -2.826586      0.431536     -0.125084
  H      -1.225928     -0.493300      1.662148
  H       0.622907     -1.488296      0.515610
  H       1.003601      1.500680     -0.245206
  H       3.351156      0.890712     -0.662177
  H       2.994165     -0.829021     -0.464939
  H       3.027711      0.245104      0.948468
17
Coordinates from ORCA-job scan E -27.287017434180
  C      -2.246885     -0.603552     -0.261894
  C      -1.092636     -0.138501      0.634035
  O      -1.210863      1.293297      0.632807
  O      -2.516636      1.596640      0.579099
  C       0.280610     -0.533963      0.134519
  O       0.574051     -0.308655     -1.214494
  C       1.289099      0.452298     -0.282777
  C       2.758961      0.172629     -0.104311
  H      -1.938438     -0.765029     -1.289400
  H      -2.838909     -1.421402      0.126082
  H      -2.821141      0.438757     -0.127076
  H      -1.230677     -0.511246      1.659639
  H       0.626242     -1.491155      0.518439
  H       0.998735      1.498206     -0.245538
  H       3.345211      0.872094     -0.694951
  H       2.989538     -0.838650     -0.429580
  H       3.033735      0.288233      0.941878
17
Coordinates from ORCA-job scan E -27.287106099670
  C      -2.245328     -0.597339     -0.269303
  C      -1.093280     -0.145541      0.635982
  O      -1.207320      1.286729      0.650760
  O      -2.511615      1.595374      0.592158
  C       0.281143     -0.538441      0.137197
  O       0.573375     -0.314894     -1.212545
  C       1.286458      0.449930     -0.282600
  C       2.757300      0.176229     -0.105309
  H      -1.932785     -0.752005     -1.296605
  H      -2.843196     -1.415386      0.109195
  H      -2.815883      0.446028     -0.127929
  H      -1.235982     -0.529281      1.656818
  H       0.629733     -1.493939      0.522543
  H       0.993427      1.495226     -0.247024
  H       3.338739      0.852247     -0.727327
  H       2.985606     -0.846879     -0.393123
  H       3.039605      0.331944      0.933591
17
Coordinates from ORCA-job scan E -27.287182420080
  C      -2.243669     -0.590572     -0.277044
  C      -1.093970     -0.152632      0.637908
  O      -1.203691      1.279892      0.668960
  O      -2.506552      1.593705      0.606456
  C       0.281730     -0.543224      0.140328
  O       0.572896     -0.322652     -1.210305
  C       1.283701      0.447083     -0.282760
  C       2.755613      0.179995     -0.106400
  H      -1.926969     -0.737196     -1.304244
  H      -2.846978     -1.409390      0.091061
  H      -2.810849      0.453520     -0.128038
  H      -1.241863     -0.547507      1.653683
  H       0.633476     -1.496551      0.528002
  H       0.987652      1.491681     -0.249901
  H       3.331806      0.831217     -0.759087
  H       2.982475     -0.853511     -0.355678
  H       3.045189      0.376144      0.923534
17
Coordinates from ORCA-job scan E -27.287245964530
  C      -2.241742     -0.583182     -0.285127
  C      -1.094742     -0.159919      0.639915
  O      -1.199902      1.272650      0.687631
  O      -2.501281      1.591940      0.621686
  C       0.282351     -0.548420      0.144041
  O       0.572498     -0.332128     -1.207669
  C       1.280678      0.443698     -0.283266
  C       2.753776      0.183989     -0.107661
  H      -1.920660     -0.720586     -1.312238
  H      -2.850257     -1.403211      0.071553
  H      -2.805677      0.461319     -0.127407
  H      -1.248417     -0.566162      1.650267
  H       0.637530     -1.499050      0.535048
  H       0.981151      1.487494     -0.254241
  H       3.324304      0.809247     -0.790156
  H       2.980095     -0.858382     -0.317550
  H       3.050291      0.420704      0.911649
17
Coordinates from ORCA-job scan E -27.287296678800
  C      -2.239597     -0.575067     -0.293601
  C      -1.095577     -0.167462      0.642065
  O      -1.195862      1.264930      0.707106
  O      -2.495690      1.589876      0.638059
  C       0.283059     -0.554058      0.148408
  O       0.572216     -0.343591     -1.204590
  C       1.277374      0.439727     -0.284253
  C       2.751770      0.188271     -0.109130
  H      -1.913792     -0.702246     -1.320545
  H      -2.853273     -1.396585      0.050632
  H      -2.800325      0.469647     -0.126391
  H      -1.255713     -0.585417      1.646547
  H       0.642046     -1.501313      0.543906
  H       0.973836      1.482560     -0.260399
  H       3.316280      0.786467     -0.820349
  H       2.978539     -0.861303     -0.278888
  H       3.054709      0.465563      0.897898
17
Coordinates from ORCA-job scan E -27.287335016770
  C      -2.237047     -0.566105     -0.302500
  C      -1.096509     -0.175428      0.644456
  O      -1.191477      1.256550      0.727671
  O      -2.489571      1.587807      0.655359
  C       0.283850     -0.560273      0.153605
  O       0.571972     -0.357423     -1.200924
  C       1.273610      0.435063     -0.285792
  C       2.749441      0.192931     -0.110896
  H      -1.906029     -0.682075     -1.329114
  H      -2.856029     -1.389242      0.028100
  H      -2.794411      0.478640     -0.124975
  H      -1.263885     -0.605566      1.642512
  H       0.647150     -1.503335      0.554965
  H       0.965393      1.476729     -0.268634
  H       3.307627      0.763248     -0.849572
  H       2.977766     -0.862104     -0.240071
  H       3.058145      0.510584      0.882285
17
Coordinates from ORCA-job scan E -27.287362114100
  C      -2.234100     -0.556139     -0.311889
  C      -1.097518     -0.183899      0.647142
  O      -1.186634      1.247387      0.749695
  O      -2.482764      1.585549      0.673848
  C       0.284788     -0.567135      0.159760
  O       0.571841     -0.374123     -1.196569
  C       1.269332      0.429585     -0.288095
  C       2.746728      0.198056     -0.113007
  H      -1.897268     -0.660084     -1.337916
  H      -2.858760     -1.380817      0.003870
  H      -2.787826      0.488582     -0.123460
  H      -1.273039     -0.626816      1.638089
  H       0.653057     -1.504926      0.568636
  H       0.955653      1.469787     -0.279525
  H       3.298402      0.739967     -0.877554
  H       2.977863     -0.860579     -0.201443
  H       3.060243      0.555606      0.864894
17
Coordinates from ORCA-job scan E -27.287380033960
  C      -2.230538     -0.545001     -0.321797
  C      -1.098635     -0.193034      0.650207
  O      -1.181214      1.237233      0.773448
  O      -2.475005      1.583400      0.693347
  C       0.285881     -0.574802      0.167103
  O       0.571804     -0.394313     -1.191314
  C       1.264337      0.423099     -0.291327
  C       2.743437      0.203759     -0.115565
  H      -1.887140     -0.636180     -1.346883
  H      -2.861472     -1.370938     -0.022239
  H      -2.780155      0.499659     -0.121813
  H      -1.283345     -0.649425      1.633230
  H       0.659951     -1.505976      0.585502
  H       0.944231      1.461442     -0.293595
  H       3.288530      0.717408     -0.904033
  H       2.978826     -0.856562     -0.163762
  H       3.060503      0.600234      0.845966
17
Coordinates from ORCA-job scan E -27.287392109220
  C      -2.226326     -0.532536     -0.332227
  C      -1.099832     -0.202865      0.653692
  O      -1.175087      1.225988      0.799144
  O      -2.466088      1.581263      0.713979
  C       0.287198     -0.583351      0.175812
  O       0.571991     -0.418708     -1.184968
  C       1.258540      0.415387     -0.295784
  C       2.739454      0.210131     -0.118636
  H      -1.875517     -0.610505     -1.355917
  H      -2.864360     -1.359175     -0.050162
  H      -2.771225      0.512168     -0.120304
  H      -1.294912     -0.673435      1.627863
  H       0.668069     -1.506164      0.606150
  H       0.930883      1.451309     -0.311660
  H       3.278135      0.696702     -0.928422
  H       2.980767     -0.849922     -0.128137
  H       3.058307      0.643716      0.826053
17
Coordinates from ORCA-job scan E -27.287403348870
  C      -2.221273     -0.518726     -0.343022
  C      -1.101106     -0.213368      0.657644
  O      -1.168148      1.213641      0.826585
  O      -2.455755      1.579533      0.735193
  C       0.288754     -0.592852      0.186104
  O       0.572461     -0.447977     -1.177246
  C       1.251776      0.406203     -0.301709
  C       2.734571      0.217219     -0.122312
  H      -1.862161     -0.583448     -1.364778
  H      -2.867383     -1.345222     -0.079573
  H      -2.760675      0.526199     -0.118980
  H      -1.307794     -0.698601      1.622038
  H       0.677562     -1.505160      0.631200
  H       0.915281      1.438954     -0.334402
  H       3.267311      0.679984     -0.949818
  H       2.983722     -0.840767     -0.096805
  H       3.052853      0.684390      0.806358
17
Coordinates from ORCA-job scan E -27.287420422790
  C      -2.215486     -0.504040     -0.353632
  C      -1.102360     -0.224073      0.661992
  O      -1.160385      1.200747      0.854543
  O      -2.443956      1.578585      0.755744
  C       0.290570     -0.603058      0.197926
  O       0.573369     -0.482174     -1.168018
  C       1.244125      0.395490     -0.309329
  C       2.728741      0.224856     -0.126557
  H      -1.847455     -0.556601     -1.372930
  H      -2.870600     -1.329191     -0.108904
  H      -2.748553      0.541529     -0.118234
  H      -1.321610     -0.723606      1.616100
  H       0.688396     -1.502427      0.660710
  H       0.897576      1.424122     -0.362232
  H       3.256554      0.671138     -0.966184
  H       2.987791     -0.829751     -0.074111
  H       3.043280      0.718456      0.789592
17
Coordinates from ORCA-job scan E -27.287447480070
  C      -2.209788     -0.490758     -0.362233
  C      -1.103318     -0.233327      0.666254
  O      -1.152261      1.189544      0.878299
  O      -2.431465      1.579552      0.771388
  C       0.292489     -0.612747      0.210022
  O       0.574700     -0.517927     -1.158113
  C       1.236387      0.384289     -0.318137
  C       2.722465      0.232098     -0.130830
  H      -1.833626     -0.535113     -1.378961
  H      -2.873962     -1.313076     -0.132914
  H      -2.736034      0.556283     -0.118701
  H      -1.334403     -0.744109      1.611411
  H       0.699522     -1.497753      0.691776
  H       0.879616      1.408108     -0.392764
  H       3.247308      0.677051     -0.972993
  H       2.992811     -0.819120     -0.068721
  H       3.029556      0.737007      0.781693
17
Coordinates from ORCA-job scan E -27.287474110630
  C      -2.204103     -0.479049     -0.369382
  C      -1.104027     -0.241163      0.670313
  O      -1.145021      1.179920      0.898995
  O      -2.419962      1.581098      0.783694
  C       0.294300     -0.621218      0.221495
  O       0.575966     -0.551305     -1.148277
  C       1.229263      0.373587     -0.326774
  C       2.716239      0.238488     -0.134970
  H      -1.820410     -0.518212     -1.383502
  H      -2.877015     -1.297677     -0.152657
  H      -2.723814      0.569785     -0.120197
  H      -1.345846     -0.761189      1.607562
  H       0.709765     -1.492282      0.720858
  H       0.863407      1.392528     -0.421893
  H       3.238960      0.688988     -0.975510
  H       2.997596     -0.809744     -0.071506
  H       3.014702      0.747445      0.778228
17
Coordinates from ORCA-job scan E -27.287497760570
  C      -2.197540     -0.465893     -0.377610
  C      -1.105052     -0.249913      0.674481
  O      -1.138222      1.168614      0.922670
  O      -2.408483      1.581574      0.798700
  C       0.296090     -0.630032      0.233629
  O       0.577482     -0.585818     -1.137346
  C       1.221733      0.362044     -0.335304
  C       2.709694      0.245264     -0.139590
  H      -1.805383     -0.498254     -1.388721
  H      -2.879573     -1.280758     -0.175668
  H      -2.710754      0.584238     -0.121111
  H      -1.358467     -0.780820      1.602373
  H       0.720117     -1.486240      0.750869
  H       0.846439      1.375429     -0.451377
  H       3.229389      0.695686     -0.982033
  H       3.002311     -0.799337     -0.068049
  H       3.000218      0.764216      0.770562
17
Coordinates from ORCA-job scan E -27.287520648280
  C      -2.190353     -0.451811     -0.386398
  C      -1.106251     -0.259224      0.678533
  O      -1.131741      1.156069      0.947927
  O      -2.397014      1.581203      0.815458
  C       0.297825     -0.639015      0.245938
  O       0.579413     -0.620712     -1.125667
  C       1.213976      0.349925     -0.343584
  C       2.702858      0.252264     -0.144469
  H      -1.789283     -0.476324     -1.394214
  H      -2.881583     -1.262773     -0.200601
  H      -2.697141      0.599217     -0.121412
  H      -1.371707     -0.801936      1.596044
  H       0.730321     -1.479692      0.781055
  H       0.828997      1.357112     -0.480653
  H       3.219010      0.698557     -0.991256
  H       3.006805     -0.788115     -0.060150
  H       2.985866      0.785255      0.759923
17
Coordinates from ORCA-job scan E -27.287543712000
  C      -2.182682     -0.437423     -0.395197
  C      -1.107506     -0.268672      0.682447
  O      -1.125512      1.142902      0.973482
  O      -2.385498      1.580464      0.832522
  C       0.299460     -0.647938      0.258200
  O       0.581652     -0.655464     -1.113447
  C       1.206116      0.337429     -0.351640
  C       2.695757      0.259302     -0.149496
  H      -1.772583     -0.454296     -1.399499
  H      -2.883245     -1.243966     -0.225760
  H      -2.683006      0.614388     -0.121567
  H      -1.385070     -0.823317      1.589073
  H       0.740146     -1.472612      0.810999
  H       0.811471      1.337909     -0.509470
  H       3.208227      0.700538     -1.001136
  H       3.011174     -0.776413     -0.051381
  H       2.971097      0.807171      0.748346
17
Coordinates from ORCA-job scan E -27.287566959280
  C      -2.174669     -0.422750     -0.403949
  C      -1.108866     -0.278004      0.686136
  O      -1.120087      1.129372      0.999239
  O      -2.374744      1.579110      0.850159
  C       0.301123     -0.656523      0.270518
  O       0.584319     -0.689953     -1.100575
  C       1.198413      0.324742     -0.359512
  C       2.688578      0.266159     -0.154690
  H      -1.755409     -0.431401     -1.404544
  H      -2.883997     -1.224997     -0.251353
  H      -2.668994      0.629385     -0.121201
  H      -1.398577     -0.844647      1.581346
  H       0.749798     -1.464717      0.840725
  H       0.794138      1.317935     -0.538172
  H       3.197383      0.701201     -1.011688
  H       3.015226     -0.764530     -0.041722
  H       2.956363      0.829620      0.735758
17
Coordinates from ORCA-job scan E -27.287590384580
  C      -2.166211     -0.407861     -0.412618
  C      -1.110294     -0.287243      0.689669
  O      -1.115274      1.115478      1.025051
  O      -2.364475      1.577265      0.868084
  C       0.302737     -0.664798      0.282877
  O       0.587286     -0.724144     -1.087075
  C       1.190755      0.311850     -0.367170
  C       2.681232      0.272859     -0.160067
  H      -1.737669     -0.408002     -1.409287
  H      -2.883912     -1.205748     -0.277227
  H      -2.654898      0.644240     -0.120461
  H      -1.412157     -0.865893      1.572999
  H       0.759156     -1.456027      0.870244
  H       0.776901      1.297210     -0.566556
  H       3.186388      0.700983     -1.022671
  H       3.018963     -0.752414     -0.031675
  H       2.941468      0.852246      0.722360
17
Coordinates from ORCA-job scan E -27.287615293060
  C      -2.156913     -0.392412     -0.421469
  C      -1.111720     -0.297176      0.693138
  O      -1.109971      1.100208      1.051535
  O      -2.353117      1.574985      0.886565
  C       0.304059     -0.673483      0.294925
  O       0.590447     -0.758142     -1.073154
  C       1.182658      0.298552     -0.374228
  C       2.673305      0.279983     -0.165586
  H      -1.718999     -0.384642     -1.413961
  H      -2.883816     -1.184751     -0.303660
  H      -2.639398      0.659803     -0.119707
  H      -1.426050     -0.888369      1.563711
  H       0.767658     -1.447347      0.899407
  H       0.758994      1.275573     -0.593724
  H       3.174485      0.698298     -1.035271
  H       3.022371     -0.738954     -0.018657
  H       2.926004      0.877875      0.706611
17
Coordinates from ORCA-job scan E -27.287639867950
  C      -2.146661     -0.376538     -0.430617
  C      -1.113057     -0.308337      0.696485
  O      -1.103684      1.082685      1.078902
  O      -2.340292      1.571443      0.906263
  C       0.304772     -0.682781      0.305410
  O       0.593505     -0.789650     -1.059862
  C       1.174251      0.285828     -0.379416
  C       2.664964      0.287839     -0.171016
  H      -1.699819     -0.362087     -1.418869
  H      -2.884280     -1.161405     -0.330476
  H      -2.621950      0.676228     -0.119094
  H      -1.440197     -0.913182      1.552909
  H       0.773737     -1.440310      0.926479
  H       0.740693      1.254509     -0.616849
  H       3.161710      0.687699     -1.051936
  H       3.024808     -0.723075      0.003137
  H       2.911499      0.911139      0.685026
17
Coordinates from ORCA-job scan E -27.287664278560
  C      -2.137413     -0.360869     -0.438899
  C      -1.114827     -0.317139      0.699182
  O      -1.101895      1.067550      1.105343
  O      -2.333093      1.567370      0.925968
  C       0.306558     -0.689792      0.317653
  O       0.597755     -0.822240     -1.044824
  C       1.167417      0.272776     -0.386489
  C       2.657732      0.293814     -0.176909
  H      -1.681047     -0.336420     -1.422593
  H      -2.881678     -1.141597     -0.357080
  H      -2.608650      0.690361     -0.116636
  H      -1.453818     -0.934176      1.541958
  H       0.782380     -1.429306      0.954827
  H       0.724749      1.232084     -0.644483
  H       3.151484      0.682371     -1.064563
  H       3.027441     -0.710062      0.016289
  H       2.896904      0.935278      0.667732
17
Coordinates from ORCA-job scan E -27.287686598170
  C      -2.127457     -0.345060     -0.447222
  C      -1.116726     -0.325945      0.701834
  O      -1.101534      1.051545      1.132674
  O      -2.327355      1.561893      0.946567
  C       0.308194     -0.695851      0.329532
  O       0.601683     -0.852651     -1.029636
  C       1.160897      0.260559     -0.392682
  C       2.650712      0.299417     -0.183124
  H      -1.661435     -0.310265     -1.426047
  H      -2.878019     -1.121530     -0.384326
  H      -2.595404      0.704048     -0.113788
  H      -1.467374     -0.956058      1.529908
  H       0.789912     -1.417740      0.982144
  H       0.709533      1.210372     -0.670159
  H       3.141678      0.671723     -1.079252
  H       3.028909     -0.696513      0.033318
  H       2.883784      0.962057      0.646736
17
Coordinates from ORCA-job scan E -27.287704659170
  C      -2.116227     -0.329327     -0.455386
  C      -1.118332     -0.335311      0.704765
  O      -1.099216      1.034738      1.159105
  O      -2.318559      1.557137      0.965549
  C       0.309094     -0.702518      0.341318
  O       0.605337     -0.883804     -1.013839
  C       1.153205      0.247448     -0.398587
  C       2.642438      0.305615     -0.189413
  H      -1.640748     -0.286857     -1.429206
  H      -2.874842     -1.099213     -0.410540
  H      -2.579364      0.718781     -0.112060
  H      -1.480909     -0.978151      1.517984
  H       0.796237     -1.405917      1.009922
  H       0.692893      1.187391     -0.694907
  H       3.130271      0.664776     -1.092585
  H       3.030637     -0.681814      0.047171
  H       2.868083      0.987026      0.627184
17
Coordinates from ORCA-job scan E -27.287713718480
  C      -2.108637     -0.315906     -0.462293
  C      -1.120818     -0.339966      0.706332
  O      -1.110244      1.021344      1.186562
  O      -2.328260      1.545493      0.988794
  C       0.311852     -0.700647      0.351232
  O       0.608148     -0.901394     -1.001111
  C       1.151820      0.242103     -0.403237
  C       2.640596      0.306482     -0.195921
  H      -1.624545     -0.257756     -1.431156
  H      -2.866356     -1.087621     -0.436476
  H      -2.576002      0.725739     -0.106070
  H      -1.490770     -0.997384      1.504042
  H       0.802690     -1.391004      1.030436
  H       0.686829      1.174286     -0.715351
  H       3.128869      0.635692     -1.110237
  H       3.027639     -0.673160      0.072785
  H       2.867186      1.013701      0.598146
17
Coordinates from ORCA-job scan E -27.287727103230
  C      -2.096473     -0.299789     -0.469870
  C      -1.122099     -0.350568      0.708756
  O      -1.104076      1.003046      1.210466
  O      -2.313814      1.542728      1.005374
  C       0.311906     -0.709820      0.362506
  O       0.613120     -0.935137     -0.984459
  C       1.142534      0.226371     -0.409009
  C       2.630329      0.314176     -0.201696
  H      -1.603588     -0.237546     -1.433786
  H      -2.864737     -1.061372     -0.460537
  H      -2.556210      0.742466     -0.104997
  H      -1.504390     -1.019046      1.491673
  H       0.807815     -1.379983      1.058227
  H       0.667949      1.147622     -0.739732
  H       3.115117      0.635245     -1.120756
  H       3.030764     -0.655477      0.083064
  H       2.845851      1.037084      0.581251
17
Coordinates from ORCA-job scan E -27.287729687510
  C      -2.087488     -0.286999     -0.475665
  C      -1.123853     -0.356053      0.710723
  O      -1.108196      0.990094      1.232745
  O      -2.313584      1.536677      1.021457
  C       0.313306     -0.711139      0.373352
  O       0.616893     -0.959730     -0.969097
  C       1.138112      0.216013     -0.415157
  C       2.625038      0.317088     -0.207662
  H      -1.586770     -0.217309     -1.434952
  H      -2.859628     -1.044724     -0.481038
  H      -2.546184      0.752773     -0.102594
  H      -1.514305     -1.035419      1.480124
  H       0.813750     -1.364315      1.081775
  H       0.657920      1.127805     -0.763484
  H       3.108616      0.632150     -1.129431
  H       3.031938     -0.646702      0.087539
  H       2.834434      1.049791      0.567841
17
Coordinates from ORCA-job scan E -27.287730571290
  C      -2.089341     -0.289937     -0.474438
  C      -1.123608     -0.354700      0.710474
  O      -1.108341      0.992670      1.228887
  O      -2.314523      1.537708      1.017986
  C       0.312982     -0.709706      0.371208
  O       0.615829     -0.954174     -0.972134
  C       1.139345      0.218619     -0.414132
  C       2.626544      0.316186     -0.206537
  H      -1.590583     -0.223084     -1.434913
  H      -2.861313     -1.047862     -0.475939
  H      -2.548084      0.750694     -0.103690
  H      -1.511963     -1.032662      1.482234
  H       0.812269     -1.366380      1.077310
  H       0.661062      1.132647     -0.759209
  H       3.110486      0.633577     -1.127317
  H       3.031801     -0.649366      0.085181
  H       2.837436      1.045770      0.571504
17
Coordinates from ORCA-job scan E -27.287730916250
  C      -2.089359     -0.289928     -0.474452
  C      -1.123739     -0.354861      0.710489
  O      -1.109018      0.991928      1.229953
  O      -2.314843      1.537503      1.018163
  C       0.312971     -0.709047      0.370993
  O       0.615893     -0.953808     -0.972236
  C       1.139559      0.218946     -0.414252
  C       2.626797      0.316174     -0.206529
  H      -1.590972     -0.224543     -1.435190
  H      -2.862368     -1.046831     -0.475185
  H      -2.547566      0.751141     -0.104145
  H      -1.511697     -1.033888      1.481549
  H       0.811975     -1.365653      1.077462
  H       0.661855      1.133190     -0.759583
  H       3.110876      0.632850     -1.127481
  H       3.031809     -0.649303      0.085800
  H       2.837824      1.046130      0.571122
17
Coordinates from ORCA-job scan E -27.287367140940
  C      -2.089401     -0.289952     -0.474357
  C      -1.123724     -0.355204      0.709961
  O      -1.110011      0.991975      1.228725
  O      -2.316367      1.536860      1.015929
  C       0.313117     -0.709233      0.370854
  O       0.616364     -0.954271     -0.972251
  C       1.139716      0.218707     -0.414442
  C       2.626894      0.316234     -0.206429
  H      -1.591688     -0.223733     -1.435388
  H      -2.862819     -1.046439     -0.475200
  H      -2.545135      0.751851     -0.099507
  H      -1.511717     -1.034080      1.481137
  H       0.812082     -1.365582      1.077590
  H       0.661932      1.132787     -0.760098
  H       3.111115      0.632767     -1.127356
  H       3.032006     -0.649103      0.086221
  H       2.837634      1.046417      0.571088
17
Coordinates from ORCA-job scan E -27.287367838890
  C      -2.089772     -0.290120     -0.474225
  C      -1.123521     -0.354988      0.710709
  O      -1.108795      0.991788      1.230299
  O      -2.314387      1.537521      1.013230
  C       0.313175     -0.709136      0.371080
  O       0.616011     -0.953727     -0.972235
  C       1.139721      0.218929     -0.414129
  C       2.626973      0.316071     -0.206452
  H      -1.591908     -0.222622     -1.435118
  H      -2.861785     -1.048045     -0.475860
  H      -2.549814      0.751785     -0.100308
  H      -1.511255     -1.034162      1.481785
  H       0.812229     -1.365835      1.077395
  H       0.662076      1.133241     -0.759318
  H       3.110987      0.632894     -1.127384
  H       3.031979     -0.649461      0.085690
  H       2.838083      1.045868      0.571317
17
Coordinates from ORCA-job scan E -27.287369806070
  C      -2.089190     -0.290208     -0.474451
  C      -1.123451     -0.355044      0.710817
  O      -1.109498      0.991804      1.229980
  O      -2.317411      1.534777      1.016049
  C       0.313259     -0.709123      0.371080
  O       0.616033     -0.953689     -0.972286
  C       1.139683      0.218988     -0.414203
  C       2.626941      0.316204     -0.206577
  H      -1.590938     -0.226259     -1.435391
  H      -2.863898     -1.045386     -0.474394
  H      -2.545896      0.755065     -0.103154
  H      -1.511039     -1.034382      1.481836
  H       0.812431     -1.365780      1.077335
  H       0.662010      1.133285     -0.759367
  H       3.110875      0.633097     -1.127525
  H       3.032024     -0.649313      0.085508
  H       2.838061      1.045966      0.571218
17
Coordinates from ORCA-job scan E -27.287370904030
  C      -2.088847     -0.290441     -0.474437
  C      -1.123623     -0.355083      0.710742
  O      -1.109622      0.991843      1.229799
  O      -2.316718      1.536682      1.015233
  C       0.313123     -0.709205      0.371069
  O       0.616011     -0.953968     -0.972247
  C       1.139550      0.218825     -0.414300
  C       2.626797      0.316141     -0.206593
  H      -1.590687     -0.224179     -1.435268
  H      -2.862801     -1.046348     -0.475250
  H      -2.546509      0.753126     -0.101014
  H      -1.511361     -1.034360      1.481707
  H       0.812304     -1.365724      1.077449
  H       0.661863      1.133057     -0.759626
  H       3.110772      0.632951     -1.127551
  H       3.031912     -0.649322      0.085631
  H       2.837834      1.046005      0.571131
17
Coordinates from ORCA-job scan E -27.287010346080
  C      -2.088890     -0.290465     -0.474343
  C      -1.123609     -0.355425      0.710212
  O      -1.110615      0.991891      1.228569
  O      -2.318240      1.536039      1.012996
  C       0.313268     -0.709390      0.370930
  O       0.616481     -0.954431     -0.972261
  C       1.139706      0.218586     -0.414490
  C       2.626892      0.316202     -0.206493
  H      -1.591401     -0.223369     -1.435464
  H      -2.863251     -1.045955     -0.475263
  H      -2.544070      0.753829     -0.096369
  H      -1.511383     -1.034550      1.481293
  H       0.812410     -1.365652      1.077577
  H       0.661939      1.132654     -0.760142
  H       3.111010      0.632867     -1.127426
  H       3.032107     -0.649122      0.086054
  H       2.837642      1.046291      0.571098
17
Coordinates from ORCA-job scan E -27.287011140220
  C      -2.089245     -0.290727     -0.474216
  C      -1.123340     -0.355045      0.711110
  O      -1.109072      0.991791      1.230215
  O      -2.315944      1.536528      1.009832
  C       0.313307     -0.709116      0.371271
  O       0.615914     -0.953706     -0.972159
  C       1.139754      0.218902     -0.414086
  C       2.627044      0.315908     -0.206562
  H      -1.591735     -0.221483     -1.435148
  H      -2.861684     -1.048168     -0.476272
  H      -2.550096      0.753357     -0.097127
  H      -1.510880     -1.034395      1.482161
  H       0.812487     -1.365852      1.077436
  H       0.662205      1.133296     -0.759151
  H       3.110939      0.632846     -1.127519
  H       3.032034     -0.649690      0.085389
  H       2.838310      1.045554      0.571302
17
Coordinates from ORCA-job scan E -27.287014280870
  C      -2.088486     -0.290864     -0.474517
  C      -1.123231     -0.355016      0.711220
  O      -1.109923      0.991928      1.229613
  O      -2.319817      1.532925      1.013445
  C       0.313409     -0.709001      0.371309
  O       0.615888     -0.953655     -0.972166
  C       1.139763      0.218983     -0.414179
  C       2.627062      0.315997     -0.206741
  H      -1.590633     -0.225455     -1.435513
  H      -2.864033     -1.045124     -0.474650
  H      -2.545559      0.757082     -0.100399
  H      -1.510667     -1.034463      1.482262
  H       0.812678     -1.365694      1.077450
  H       0.662207      1.133372     -0.759227
  H       3.110892      0.632941     -1.127731
  H       3.032081     -0.649596      0.085188
  H       2.838367      1.045643      0.571112
17
Coordinates from ORCA-job scan E -27.287015942980
  C      -2.088078     -0.291143     -0.474504
  C      -1.123425     -0.355022      0.711116
  O      -1.110141      0.992045      1.229348
  O      -2.319160      1.535222      1.012588
  C       0.313280     -0.709115      0.371279
  O       0.615935     -0.954063     -0.972124
  C       1.139645      0.218742     -0.414331
  C       2.626923      0.315898     -0.206764
  H      -1.590382     -0.222724     -1.435389
  H      -2.862644     -1.046368     -0.475739
  H      -2.546401      0.754693     -0.097673
  H      -1.511076     -1.034391      1.482081
  H       0.812555     -1.365596      1.077618
  H       0.662066      1.133025     -0.759628
  H       3.110825      0.632699     -1.127766
  H       3.031981     -0.649610      0.085393
  H       2.838096      1.045709      0.570970
17
Coordinates from ORCA-job scan E -27.286663350560
  C      -2.088111     -0.291050     -0.474165
  C      -1.123224     -0.355428      0.710743
  O      -1.111036      0.991930      1.228185
  O      -2.320712      1.533956      1.010252
  C       0.313595     -0.709352      0.371211
  O       0.616504     -0.954541     -0.972092
  C       1.139929      0.218473     -0.414469
  C       2.627157      0.315925     -0.206687
  H      -1.591184     -0.221907     -1.435397
  H      -2.862978     -1.045967     -0.475655
  H      -2.545760      0.756525     -0.093997
  H      -1.510866     -1.034661      1.481832
  H       0.812868     -1.365597      1.077771
  H       0.662250      1.132601     -0.760040
  H       3.111152      0.632607     -1.127681
  H       3.032331     -0.649452      0.085743
  H       2.838083      1.045939      0.570923
17
Coordinates from ORCA-job scan E -27.286665827560
  C      -2.087909     -0.291678     -0.474480
  C      -1.123157     -0.355137      0.711177
  O      -1.110525      0.992119      1.228817
  O      -2.320862      1.533785      1.009799
  C       0.313513     -0.709063      0.371385
  O       0.616067     -0.954083     -0.972053
  C       1.139872      0.218719     -0.414306
  C       2.627157      0.315788     -0.206772
  H      -1.591043     -0.221949     -1.435688
  H      -2.863071     -1.046299     -0.475884
  H      -2.546130      0.756444     -0.094468
  H      -1.510638     -1.034527      1.482268
  H       0.812773     -1.365558      1.077703
  H       0.662350      1.133031     -0.759576
  H       3.111053      0.632586     -1.127779
  H       3.032173     -0.649746      0.085356
  H       2.838375      1.045568      0.570977
17
Coordinates from ORCA-job scan E -27.286317555510
  C      -2.087943     -0.291585     -0.474143
  C      -1.122956     -0.355542      0.710803
  O      -1.111419      0.992004      1.227654
  O      -2.322411      1.532515      1.007463
  C       0.313827     -0.709300      0.371316
  O       0.616636     -0.954560     -0.972020
  C       1.140155      0.218450     -0.414444
  C       2.627390      0.315814     -0.206695
  H      -1.591843     -0.221133     -1.435695
  H      -2.863404     -1.045898     -0.475799
  H      -2.545491      0.758277     -0.090792
  H      -1.510428     -1.034797      1.482019
  H       0.813085     -1.365558      1.077856
  H       0.662534      1.132608     -0.759988
  H       3.111380      0.632494     -1.127694
  H       3.032523     -0.649589      0.085707
  H       2.838363      1.045798      0.570929
17
Coordinates from ORCA-job scan E -27.286321477810
  C      -2.087394     -0.292297     -0.474495
  C      -1.122912     -0.355166      0.711381
  O      -1.110996      0.992274      1.228410
  O      -2.322968      1.532365      1.007154
  C       0.313703     -0.709008      0.371529
  O       0.616099     -0.954164     -0.971973
  C       1.140028      0.218649     -0.414324
  C       2.627325      0.315613     -0.206869
  H      -1.591177     -0.220863     -1.435899
  H      -2.863094     -1.046324     -0.476213
  H      -2.545955      0.758237     -0.091197
  H      -1.510313     -1.034631      1.482496
  H       0.812985     -1.365481      1.077843
  H       0.662564      1.132985     -0.759573
  H       3.111191      0.632370     -1.127909
  H       3.032294     -0.649944      0.085252
  H       2.838617      1.045386      0.570863
17
Coordinates from ORCA-job scan E -27.286323517030
  C      -2.086498     -0.293103     -0.474752
  C      -1.122916     -0.354561      0.712064
  O      -1.110898      0.992577      1.228857
  O      -2.324340      1.531813      1.007130
  C       0.313636     -0.708688      0.371725
  O       0.615647     -0.953911     -0.971932
  C       1.139991      0.218750     -0.414317
  C       2.627355      0.315270     -0.207126
  H      -1.590202     -0.219593     -1.435825
  H      -2.862330     -1.046846     -0.476609
  H      -2.547001      0.758003     -0.091512
  H      -1.510388     -1.034144      1.483008
  H       0.812991     -1.365296      1.077880
  H       0.662731      1.133259     -0.759367
  H       3.111134      0.632041     -1.128209
  H       3.032123     -0.650436      0.084780
  H       2.838964      1.044868      0.570682
17
Coordinates from ORCA-job scan E -27.286323747610
  C      -2.086351     -0.293296     -0.474704
  C      -1.122901     -0.354322      0.712147
  O      -1.111047      0.992710      1.228536
  O      -2.324879      1.531492      1.007213
  C       0.313670     -0.708582      0.371718
  O       0.615637     -0.953848     -0.971939
  C       1.140092      0.218770     -0.414333
  C       2.627475      0.315135     -0.207156
  H      -1.590189     -0.218896     -1.435748
  H      -2.862118     -1.047090     -0.476532
  H      -2.547528      0.757744     -0.091475
  H      -1.510390     -1.033869      1.483126
  H       0.813011     -1.365237      1.077840
  H       0.662929      1.133334     -0.759375
  H       3.111275      0.631911     -1.128226
  H       3.032153     -0.650624      0.084694
  H       2.839158      1.044671      0.570691
17
Coordinates from ORCA-job scan E -27.285984711610
  C      -2.086387     -0.293202     -0.474371
  C      -1.122701     -0.354726      0.711773
  O      -1.111939      0.992594      1.227373
  O      -2.326422      1.530218      1.004877
  C       0.313984     -0.708818      0.371649
  O       0.616205     -0.954325     -0.971907
  C       1.140375      0.218502     -0.414472
  C       2.627708      0.315161     -0.207078
  H      -1.590989     -0.218083     -1.435753
  H      -2.862452     -1.046689     -0.476446
  H      -2.546889      0.759577     -0.087799
  H      -1.510182     -1.034138      1.482875
  H       0.813322     -1.365237      1.077993
  H       0.663113      1.132911     -0.759788
  H       3.111603      0.631819     -1.128140
  H       3.032502     -0.650467      0.085045
  H       2.839145      1.044902      0.570644
17
Coordinates from ORCA-job scan E -27.285986115140
  C      -2.086166     -0.293736     -0.474584
  C      -1.122636     -0.354442      0.712083
  O      -1.111652      0.992881      1.227682
  O      -2.326726      1.530195      1.004625
  C       0.313903     -0.708587      0.371753
  O       0.615851     -0.953958     -0.971905
  C       1.140342      0.218687     -0.414355
  C       2.627720      0.315010     -0.207146
  H      -1.590805     -0.217928     -1.435964
  H      -2.862300     -1.047172     -0.476647
  H      -2.547279      0.759448     -0.087959
  H      -1.509993     -1.033983      1.483210
  H       0.813202     -1.365220      1.077906
  H       0.663226      1.133251     -0.759435
  H       3.111550      0.631757     -1.128212
  H       3.032363     -0.650756      0.084730
  H       2.839398      1.044553      0.570694
17
Coordinates from ORCA-job scan E -27.285651297810
  C      -2.086203     -0.293641     -0.474252
  C      -1.122436     -0.354844      0.711708
  O      -1.112543      0.992765      1.226519
  O      -2.328266      1.528917      1.002290
  C       0.314216     -0.708822      0.371684
  O       0.616418     -0.954434     -0.971873
  C       1.140625      0.218420     -0.414493
  C       2.627953      0.315036     -0.207069
  H      -1.591602     -0.217117     -1.435967
  H      -2.862632     -1.046771     -0.476559
  H      -2.546643      0.761284     -0.084285
  H      -1.509785     -1.034250      1.482959
  H       0.813512     -1.365219      1.078058
  H       0.663410      1.132829     -0.759848
  H       3.111877      0.631665     -1.128126
  H       3.032711     -0.650599      0.085081
  H       2.839386      1.044783      0.570648
17
Coordinates from ORCA-job scan E -27.285654770270
  C      -2.085740     -0.294395     -0.474584
  C      -1.122386     -0.354465      0.712197
  O      -1.112150      0.993099      1.227132
  O      -2.328786      1.528926      1.002008
  C       0.314092     -0.708535      0.371845
  O       0.615922     -0.954013     -0.971866
  C       1.140534      0.218627     -0.414373
  C       2.627919      0.314828     -0.207207
  H      -1.591097     -0.216833     -1.436191
  H      -2.862273     -1.047389     -0.476958
  H      -2.547182      0.761212     -0.084506
  H      -1.509623     -1.034038      1.483412
  H       0.813371     -1.365172      1.077995
  H       0.663490      1.133223     -0.759430
  H       3.111747      0.631545     -1.128287
  H       3.032498     -0.650970      0.084655
  H       2.839662      1.044349      0.570634
17
Coordinates from ORCA-job scan E -27.285656579480
  C      -2.085005     -0.295292     -0.474808
  C      -1.122379     -0.353843      0.712758
  O      -1.112034      0.993521      1.227342
  O      -2.330047      1.528604      1.001951
  C       0.314015     -0.708209      0.371956
  O       0.615503     -0.953664     -0.971907
  C       1.140552      0.218769     -0.414349
  C       2.628000      0.314469     -0.207401
  H      -1.590411     -0.215546     -1.436137
  H      -2.861434     -1.048246     -0.477346
  H      -2.548367      0.760860     -0.084558
  H      -1.509616     -1.033427      1.483942
  H       0.813300     -1.365055      1.077925
  H       0.663742      1.133569     -0.759164
  H       3.111778      0.631236     -1.128492
  H       3.032337     -0.651509      0.084202
  H       2.840064      1.043765      0.570563
17
Coordinates from ORCA-job scan E -27.285656829120
  C      -2.084894     -0.295551     -0.474744
  C      -1.122360     -0.353567      0.712834
  O      -1.112148      0.993736      1.226915
  O      -2.330591      1.528327      1.001984
  C       0.314041     -0.708087      0.371920
  O       0.615474     -0.953525     -0.971960
  C       1.140672      0.218818     -0.414352
  C       2.628141      0.314307     -0.207414
  H      -1.590470     -0.214772     -1.436042
  H      -2.861145     -1.048664     -0.477293
  H      -2.549014      0.760497     -0.084443
  H      -1.509588     -1.033043      1.484129
  H       0.813289     -1.365035      1.077822
  H       0.663983      1.133705     -0.759108
  H       3.111948      0.631105     -1.128479
  H       3.032359     -0.651750      0.084088
  H       2.840303      1.043500      0.570620
17
Coordinates from ORCA-job scan E -27.285331667330
  C      -2.084932     -0.295454     -0.474416
  C      -1.122162     -0.353967      0.712458
  O      -1.113038      0.993620      1.225753
  O      -2.332128      1.527041      0.999651
  C       0.314353     -0.708322      0.371850
  O       0.616041     -0.954000     -0.971929
  C       1.140955      0.218551     -0.414491
  C       2.628375      0.314333     -0.207336
  H      -1.591266     -0.213964     -1.436044
  H      -2.861478     -1.048263     -0.477203
  H      -2.548378      0.762333     -0.080769
  H      -1.509382     -1.033308      1.483877
  H       0.813598     -1.365033      1.077975
  H       0.664167      1.133283     -0.759521
  H       3.112275      0.631013     -1.128393
  H       3.032707     -0.651593      0.084440
  H       2.840291      1.043730      0.570574
17
Coordinates from ORCA-job scan E -27.285333183780
  C      -2.084730     -0.296040     -0.474617
  C      -1.122098     -0.353670      0.712750
  O      -1.112739      0.993940      1.226011
  O      -2.332424      1.527086      0.999385
  C       0.314270     -0.708092      0.371924
  O       0.615693     -0.953603     -0.971962
  C       1.140935      0.218745     -0.414375
  C       2.628398      0.314171     -0.207390
  H      -1.591123     -0.213782     -1.436242
  H      -2.861278     -1.048864     -0.477409
  H      -2.548868      0.762202     -0.080872
  H      -1.509174     -1.033096      1.484240
  H       0.813463     -1.365044      1.077843
  H       0.664303      1.133646     -0.759148
  H       3.112246      0.630954     -1.128439
  H       3.032567     -0.651903      0.084122
  H       2.840557      1.043352      0.570656
17
Coordinates from ORCA-job scan E -27.285012825980
  C      -2.084769     -0.295943     -0.474291
  C      -1.121900     -0.354070      0.712375
  O      -1.113628      0.993824      1.224850
  O      -2.333958      1.525796      0.997052
  C       0.314582     -0.708326      0.371855
  O       0.616260     -0.954078     -0.971931
  C       1.141218      0.218479     -0.414514
  C       2.628631      0.314198     -0.207312
  H      -1.591918     -0.212976     -1.436242
  H      -2.861610     -1.048464     -0.477318
  H      -2.548234      0.764041     -0.077200
  H      -1.508968     -1.033360      1.483987
  H       0.813771     -1.365042      1.077995
  H       0.664488      1.133225     -0.759560
  H       3.112573      0.630862     -1.128353
  H       3.032915     -0.651746      0.084474
  H       2.840545      1.043582      0.570609
17
Coordinates from ORCA-job scan E -27.285016620320
  C      -2.084317     -0.296775     -0.474617
  C      -1.121853     -0.353681      0.712835
  O      -1.113224      0.994176      1.225428
  O      -2.334455      1.525910      0.996765
  C       0.314455     -0.708042      0.371980
  O       0.615778     -0.953633     -0.971961
  C       1.141142      0.218694     -0.414399
  C       2.628609      0.313982     -0.207433
  H      -1.591462     -0.212678     -1.436463
  H      -2.861206     -1.049214     -0.477718
  H      -2.548888      0.764006     -0.077350
  H      -1.508783     -1.033102      1.484456
  H       0.813611     -1.365019      1.077886
  H       0.664591      1.133637     -0.759132
  H       3.112470      0.630746     -1.128484
  H       3.032702     -0.652133      0.084054
  H       2.840828      1.043125      0.570629
17
Coordinates from ORCA-job scan E -27.285018688400
  C      -2.083585     -0.297830     -0.474825
  C      -1.121850     -0.353023      0.713367
  O      -1.113074      0.994657      1.225539
  O      -2.335699      1.525718      0.996662
  C       0.314368     -0.707704      0.372036
  O       0.615357     -0.953210     -0.972068
  C       1.141186      0.218864     -0.414372
  C       2.628716      0.313596     -0.207600
  H      -1.590862     -0.211299     -1.436391
  H      -2.860275     -1.050312     -0.478115
  H      -2.550301      0.763639     -0.077295
  H      -1.508728     -1.032372      1.485059
  H       0.813499     -1.364950      1.077728
  H       0.664898      1.134043     -0.758815
  H       3.112547      0.630439     -1.128642
  H       3.032534     -0.652724      0.083585
  H       2.841268      1.042470      0.570621
17
Coordinates from ORCA-job scan E -27.285018985960
  C      -2.083489     -0.298150     -0.474740
  C      -1.121829     -0.352724      0.713434
  O      -1.113171      0.994923      1.225019
  O      -2.336248      1.525460      0.996658
  C       0.314392     -0.707575      0.371974
  O       0.615323     -0.953022     -0.972155
  C       1.141324      0.218931     -0.414368
  C       2.628876      0.313416     -0.207598
  H      -1.590980     -0.210451     -1.436276
  H      -2.859954     -1.050837     -0.478057
  H      -2.551056      0.763215     -0.077141
  H      -1.508670     -1.031912      1.485300
  H       0.813471     -1.364959      1.077575
  H       0.665174      1.134218     -0.758721
  H       3.112745      0.630309     -1.128603
  H       3.032554     -0.653000      0.083458
  H       2.841538      1.042159      0.570716
17
Coordinates from ORCA-job scan E -27.284709472470
  C      -2.083530     -0.298051     -0.474418
  C      -1.121632     -0.353121      0.713058
  O      -1.114060      0.994806      1.223860
  O      -2.337781      1.524163      0.994328
  C       0.314702     -0.707807      0.371904
  O       0.615888     -0.953496     -0.972123
  C       1.141605      0.218665     -0.414506
  C       2.629109      0.313442     -0.207520
  H      -1.591771     -0.209649     -1.436274
  H      -2.860285     -1.050436     -0.477965
  H      -2.550419      0.765056     -0.073471
  H      -1.508465     -1.032175      1.485047
  H       0.813778     -1.364956      1.077728
  H       0.665358      1.133798     -0.759134
  H       3.113072      0.630216     -1.128517
  H       3.032902     -0.652844      0.083810
  H       2.841526      1.042389      0.570670
17
Coordinates from ORCA-job scan E -27.284711103890
  C      -2.083342     -0.298689     -0.474608
  C      -1.121568     -0.352817      0.713325
  O      -1.113760      0.995149      1.224070
  O      -2.338070      1.524268      0.994058
  C       0.314621     -0.707582      0.371950
  O       0.615557     -0.953081     -0.972185
  C       1.141602      0.218865     -0.414394
  C       2.629146      0.313274     -0.207558
  H      -1.591682     -0.209448     -1.436467
  H      -2.860067     -1.051123     -0.478158
  H      -2.550992      0.764939     -0.073526
  H      -1.508233     -1.031928      1.485421
  H       0.813633     -1.364987      1.077561
  H       0.665518      1.134174     -0.758752
  H       3.113068      0.630162     -1.128538
  H       3.032767     -0.653167      0.083498
  H       2.841801      1.041992      0.570780
17
Coordinates from ORCA-job scan E -27.284712069990
  C      -2.083010     -0.299560     -0.474679
  C      -1.121523     -0.352273      0.713630
  O      -1.113624      0.995701      1.223817
  O      -2.338921      1.524206      0.993852
  C       0.314560     -0.707303      0.371900
  O       0.615250     -0.952572     -0.972374
  C       1.141712      0.219076     -0.414324
  C       2.629305      0.312952     -0.207604
  H      -1.591592     -0.208489     -1.436417
  H      -2.859402     -1.052235     -0.478309
  H      -2.552237      0.764507     -0.073391
  H      -1.508037     -1.031235      1.485942
  H       0.813489     -1.365045      1.077265
  H       0.665887      1.134634     -0.758355
  H       3.113234      0.629996     -1.128528
  H       3.032657     -0.653708      0.083096
  H       2.842250      1.041350      0.570954
17
Coordinates from ORCA-job scan E -27.284410641790
  C      -2.083051     -0.299460     -0.474360
  C      -1.121327     -0.352669      0.713255
  O      -1.114513      0.995584      1.222660
  O      -2.340452      1.522901      0.991525
  C       0.314870     -0.707535      0.371830
  O       0.615814     -0.953045     -0.972343
  C       1.141993      0.218811     -0.414463
  C       2.629538      0.312978     -0.207526
  H      -1.592381     -0.207690     -1.436414
  H      -2.859732     -1.051834     -0.478216
  H      -2.551599      0.766351     -0.069724
  H      -1.507833     -1.031496      1.485689
  H       0.813795     -1.365042      1.077417
  H       0.666071      1.134216     -0.758768
  H       3.113561      0.629902     -1.128442
  H       3.033004     -0.653552      0.083448
  H       2.842239      1.041580      0.570908
17
Coordinates from ORCA-job scan E -27.284412578280
  C      -2.082786     -0.300128     -0.474551
  C      -1.121289     -0.352365      0.713531
  O      -1.114234      0.995892      1.222890
  O      -2.340801      1.523029      0.991302
  C       0.314786     -0.707325      0.371865
  O       0.615498     -0.952666     -0.972416
  C       1.141983      0.218988     -0.414375
  C       2.629566      0.312805     -0.207577
  H      -1.592196     -0.207414     -1.436564
  H      -2.859434     -1.052535     -0.478438
  H      -2.552220      0.766279     -0.069750
  H      -1.507655     -1.031210      1.486070
  H       0.813656     -1.365066      1.077255
  H       0.666215      1.134559     -0.758427
  H       3.113554      0.629832     -1.128477
  H       3.032868     -0.653869      0.083146
  H       2.842488      1.041195      0.570993
17
Coordinates from ORCA-job scan E -27.284413817960
  C      -2.082339     -0.301125     -0.474635
  C      -1.121267     -0.351784      0.713868
  O      -1.114089      0.996429      1.222636
  O      -2.341748      1.522979      0.991118
  C       0.314718     -0.707036      0.371801
  O       0.615181     -0.952155     -0.972626
  C       1.142093      0.219194     -0.414325
  C       2.629727      0.312458     -0.207635
  H      -1.592019     -0.206278     -1.436485
  H      -2.858669     -1.053740     -0.478627
  H      -2.553620      0.765860     -0.069581
  H      -1.507491     -1.030422      1.486662
  H       0.813507     -1.365122      1.076937
  H       0.666593      1.135023     -0.758043
  H       3.113730      0.629635     -1.128478
  H       3.032748     -0.654440      0.082734
  H       2.842943      1.040523      0.571157
17
Coordinates from ORCA-job scan E -27.284121385120
  C      -2.082381     -0.301023     -0.474320
  C      -1.121071     -0.352178      0.713492
  O      -1.114978      0.996312      1.221480
  O      -2.343279      1.521668      0.988793
  C       0.315026     -0.707266      0.371731
  O       0.615745     -0.952627     -0.972595
  C       1.142374      0.218930     -0.414464
  C       2.629960      0.312484     -0.207557
  H      -1.592805     -0.205482     -1.436481
  H      -2.858999     -1.053339     -0.478534
  H      -2.552980      0.767707     -0.065917
  H      -1.507287     -1.030681      1.486408
  H       0.813812     -1.365117      1.077089
  H       0.666778      1.134606     -0.758456
  H       3.114057      0.629541     -1.128392
  H       3.033094     -0.654285      0.083085
  H       2.842931      1.040753      0.571111
17
Coordinates from ORCA-job scan E -27.284123367000
  C      -2.082134     -0.301718     -0.474509
  C      -1.121029     -0.351876      0.713751
  O      -1.114693      0.996620      1.221690
  O      -2.343599      1.521819      0.988566
  C       0.314948     -0.707056      0.371756
  O       0.615442     -0.952246     -0.972672
  C       1.142374      0.219109     -0.414375
  C       2.629996      0.312314     -0.207597
  H      -1.592676     -0.205205     -1.436646
  H      -2.858732     -1.054058     -0.478737
  H      -2.553630      0.767649     -0.065929
  H      -1.507085     -1.030402      1.486787
  H       0.813672     -1.365146      1.076917
  H       0.666934      1.134951     -0.758117
  H       3.114064      0.629474     -1.128412
  H       3.032964     -0.654599      0.082795
  H       2.843184      1.040370      0.571210
17
Coordinates from ORCA-job scan E -27.284124676290
  C      -2.081699     -0.302779     -0.474590
  C      -1.121003     -0.351290      0.714067
  O      -1.114540      0.997168      1.221400
  O      -2.344523      1.521810      0.988366
  C       0.314883     -0.706764      0.371674
  O       0.615138     -0.951719     -0.972896
  C       1.142500      0.219323     -0.414323
  C       2.630172      0.311964     -0.207641
  H      -1.592572     -0.204046     -1.436575
  H      -2.857986     -1.055314     -0.478901
  H      -2.555103      0.767246     -0.065737
  H      -1.506885     -1.029606      1.487384
  H       0.813515     -1.365212      1.076577
  H       0.667337      1.135428     -0.757727
  H       3.114264      0.629280     -1.128391
  H       3.032850     -0.655178      0.082392
  H       2.843650      1.039688      0.571397
17
Coordinates from ORCA-job scan E -27.283841671280
  C      -2.081741     -0.302676     -0.474277
  C      -1.120808     -0.351682      0.713691
  O      -1.115429      0.997051      1.220246
  O      -2.346053      1.520491      0.986044
  C       0.315191     -0.706994      0.371604
  O       0.615700     -0.952191     -0.972865
  C       1.142780      0.219059     -0.414462
  C       2.630404      0.311990     -0.207563
  H      -1.593355     -0.203253     -1.436568
  H      -2.858315     -1.054913     -0.478807
  H      -2.554460      0.769095     -0.062076
  H      -1.506682     -1.029863      1.487129
  H       0.813819     -1.365206      1.076729
  H       0.667522      1.135012     -0.758140
  H       3.114591      0.629186     -1.128304
  H       3.033195     -0.655023      0.082744
  H       2.843639      1.039917      0.571351
17
Coordinates from ORCA-job scan E -27.283843730160
  C      -2.081491     -0.303390     -0.474465
  C      -1.120770     -0.351387      0.713936
  O      -1.115147      0.997352      1.220450
  O      -2.346363      1.520676      0.985829
  C       0.315113     -0.706790      0.371618
  O       0.615411     -0.951817     -0.972951
  C       1.142784      0.219234     -0.414380
  C       2.630442      0.311822     -0.207598
  H      -1.593238     -0.202978     -1.436730
  H      -2.858044     -1.055652     -0.479005
  H      -2.555134      0.769070     -0.062068
  H      -1.506480     -1.029584      1.487498
  H       0.813677     -1.365238      1.076552
  H       0.667680      1.135350     -0.757812
  H       3.114606      0.629122     -1.128317
  H       3.033069     -0.655332      0.082464
  H       2.843884      1.039540      0.571454
17
Coordinates from ORCA-job scan E -27.283845123930
  C      -2.081045     -0.304511     -0.474545
  C      -1.120750     -0.350803      0.714236
  O      -1.114984      0.997898      1.220144
  O      -2.347267      1.520717      0.985633
  C       0.315047     -0.706500      0.371518
  O       0.615120     -0.951286     -0.973191
  C       1.142917      0.219449     -0.414333
  C       2.630623      0.311472     -0.207632
  H      -1.593162     -0.201802     -1.436657
  H      -2.857289     -1.056958     -0.479163
  H      -2.556668      0.768706     -0.061849
  H      -1.506269     -1.028773      1.488102
  H       0.813510     -1.365310      1.076196
  H       0.668093      1.135830     -0.757426
  H       3.114819      0.628931     -1.128281
  H       3.032957     -0.655912      0.082070
  H       2.844348      1.038853      0.571655
17
Coordinates from ORCA-job scan E -27.283572033850
  C      -2.081087     -0.304406     -0.474236
  C      -1.120556     -0.351193      0.713860
  O      -1.115873      0.997781      1.218992
  O      -2.348798      1.519391      0.983314
  C       0.315354     -0.706729      0.371448
  O       0.615681     -0.951757     -0.973160
  C       1.143197      0.219186     -0.414472
  C       2.630855      0.311497     -0.207554
  H      -1.593943     -0.201013     -1.436649
  H      -2.857618     -1.056557     -0.479068
  H      -2.556023      0.770558     -0.058191
  H      -1.506067     -1.029029      1.487847
  H       0.813813     -1.365305      1.076348
  H       0.668278      1.135414     -0.757839
  H       3.115146      0.628836     -1.128195
  H       3.033301     -0.655758      0.082421
  H       2.844337      1.039082      0.571610
17
Coordinates from ORCA-job scan E -27.283574177690
  C      -2.080839     -0.305142     -0.474426
  C      -1.120520     -0.350905      0.714091
  O      -1.115588      0.998074      1.219194
  O      -2.349089      1.519607      0.983110
  C       0.315278     -0.706531      0.371453
  O       0.615405     -0.951391     -0.973251
  C       1.143204      0.219357     -0.414394
  C       2.630894      0.311334     -0.207583
  H      -1.593845     -0.200741     -1.436815
  H      -2.857352     -1.057311     -0.479263
  H      -2.556717      0.770567     -0.058165
  H      -1.505859     -1.028753      1.488209
  H       0.813670     -1.365337      1.076167
  H       0.668437      1.135745     -0.757523
  H       3.115167      0.628775     -1.128199
  H       3.033179     -0.656059      0.082154
  H       2.844574      1.038713      0.571717
17
Coordinates from ORCA-job scan E -27.283575660760
  C      -2.080382     -0.306319     -0.474510
  C      -1.120505     -0.350328      0.714372
  O      -1.115411      0.998610      1.218879
  O      -2.349963      1.519698      0.982922
  C       0.315213     -0.706246      0.371337
  O       0.615129     -0.950865     -0.973502
  C       1.143342      0.219570     -0.414354
  C       2.631077      0.310987     -0.207608
  H      -1.593805     -0.199550     -1.436747
  H      -2.856599     -1.058657     -0.479418
  H      -2.558306      0.770251     -0.057918
  H      -1.505637     -1.027938      1.488814
  H       0.813496     -1.365414      1.075801
  H       0.668856      1.136220     -0.757150
  H       3.115393      0.628586     -1.128148
  H       3.033069     -0.656635      0.081776
  H       2.845029      1.038032      0.571928
17
Coordinates from ORCA-job scan E -27.283312982750
  C      -2.080425     -0.306213     -0.474204
  C      -1.120311     -0.350716      0.713996
  O      -1.116301      0.998493      1.217729
  O      -2.351494      1.518364      0.980607
  C       0.315519     -0.706473      0.371267
  O       0.615689     -0.951335     -0.973471
  C       1.143622      0.219307     -0.414493
  C       2.631309      0.311012     -0.207530
  H      -1.594582     -0.198765     -1.436737
  H      -2.856927     -1.058256     -0.479322
  H      -2.557657      0.772106     -0.054263
  H      -1.505435     -1.028192      1.488559
  H       0.813798     -1.365408      1.075952
  H       0.669041      1.135806     -0.757562
  H       3.115719      0.628491     -1.128062
  H       3.033413     -0.656481      0.082127
  H       2.845018      1.038261      0.571883
17
Coordinates from ORCA-job scan E -27.283315221110
  C      -2.080174     -0.306969     -0.474396
  C      -1.120280     -0.350437      0.714212
  O      -1.116015      0.998777      1.217930
  O      -2.351769      1.518612      0.980419
  C       0.315445     -0.706282      0.371264
  O       0.615429     -0.950982     -0.973566
  C       1.143632      0.219473     -0.414422
  C       2.631349      0.310853     -0.207554
  H      -1.594499     -0.198495     -1.436906
  H      -2.856664     -1.059024     -0.479515
  H      -2.558372      0.772151     -0.054217
  H      -1.505226     -1.027922      1.488911
  H       0.813654     -1.365440      1.075771
  H       0.669201      1.136126     -0.757261
  H       3.115747      0.628431     -1.128060
  H       3.033294     -0.656774      0.081875
  H       2.845246      1.037902      0.571992
17
Coordinates from ORCA-job scan E -27.283316808140
  C      -2.079701     -0.308206     -0.474487
  C      -1.120270     -0.349867      0.714475
  O      -1.115824      0.999300      1.217609
  O      -2.352616      1.518752      0.980250
  C       0.315380     -0.706001      0.371134
  O       0.615171     -0.950467     -0.973825
  C       1.143776      0.219680     -0.414390
  C       2.631534      0.310509     -0.207570
  H      -1.594488     -0.197282     -1.436843
  H      -2.855909     -1.060408     -0.479671
  H      -2.560021      0.771894     -0.053939
  H      -1.504996     -1.027104      1.489513
  H       0.813474     -1.365517      1.075400
  H       0.669624      1.136590     -0.756908
  H       3.115985      0.628242     -1.127997
  H       3.033188     -0.657342      0.081516
  H       2.845690      1.037230      0.572210
17
Coordinates from ORCA-job scan E -27.283065066740
  C      -2.079745     -0.308099     -0.474185
  C      -1.120077     -0.350253      0.714099
  O      -1.116714      0.999184      1.216461
  O      -2.354146      1.517411      0.977938
  C       0.315685     -0.706228      0.371063
  O       0.615729     -0.950936     -0.973794
  C       1.144055      0.219418     -0.414529
  C       2.631766      0.310534     -0.207492
  H      -1.595261     -0.196500     -1.436832
  H      -2.856235     -1.060008     -0.479575
  H      -2.559369      0.773751     -0.050287
  H      -1.504795     -1.027357      1.489258
  H       0.813775     -1.365510      1.075551
  H       0.669809      1.136177     -0.757320
  H       3.116311      0.628147     -1.127911
  H       3.033531     -0.657189      0.081867
  H       2.845679      1.037459      0.572165
17
Coordinates from ORCA-job scan E -27.283067404060
  C      -2.079491     -0.308874     -0.474381
  C      -1.120049     -0.349983      0.714300
  O      -1.116426      0.999456      1.216661
  O      -2.354404      1.517688      0.977769
  C       0.315613     -0.706043      0.371053
  O       0.615485     -0.950598     -0.973891
  C       1.144068      0.219576     -0.414465
  C       2.631806      0.310381     -0.207512
  H      -1.595195     -0.196230     -1.437005
  H      -2.855976     -1.060787     -0.479768
  H      -2.560105      0.773836     -0.050222
  H      -1.504585     -1.027094      1.489599
  H       0.813631     -1.365541      1.075372
  H       0.669968      1.136484     -0.757037
  H       3.116345      0.628087     -1.127902
  H       3.033417     -0.657471      0.081630
  H       2.845896      1.037113      0.572275
17
Coordinates from ORCA-job scan E -27.283069106300
  C      -2.079000     -0.310171     -0.474480
  C      -1.120045     -0.349423      0.714542
  O      -1.116221      0.999964      1.216337
  O      -2.355221      1.517877      0.977627
  C       0.315550     -0.705769      0.370909
  O       0.615248     -0.950101     -0.974156
  C       1.144217      0.219775     -0.414444
  C       2.631993      0.310041     -0.207520
  H      -1.595213     -0.194992     -1.436949
  H      -2.855219     -1.062210     -0.479930
  H      -2.561817      0.773645     -0.049909
  H      -1.504348     -1.026277      1.490194
  H       0.813446     -1.365614      1.075000
  H       0.670395      1.136933     -0.756710
  H       3.116594      0.627896     -1.127828
  H       3.033315     -0.658029      0.081295
  H       2.846326      1.036455      0.572495
17
Coordinates from ORCA-job scan E -27.282828842620
  C      -2.079044     -0.310062     -0.474183
  C      -1.119853     -0.349807      0.714167
  O      -1.117111      0.999848      1.215191
  O      -2.356752      1.516530      0.975318
  C       0.315854     -0.705994      0.370839
  O       0.615805     -0.950569     -0.974126
  C       1.144496      0.219514     -0.414583
  C       2.632224      0.310066     -0.207442
  H      -1.595983     -0.194213     -1.436936
  H      -2.855544     -1.061809     -0.479833
  H      -2.561161      0.775504     -0.046260
  H      -1.504148     -1.026528      1.489939
  H       0.813745     -1.365607      1.075152
  H       0.670579      1.136521     -0.757122
  H       3.116920      0.627800     -1.127742
  H       3.033657     -0.657876      0.081646
  H       2.846316      1.036683      0.572450
17
Coordinates from ORCA-job scan E -27.282831284940
  C      -2.078787     -0.310856     -0.474382
  C      -1.119828     -0.349547      0.714352
  O      -1.116822      1.000109      1.215390
  O      -2.356993      1.516835      0.975173
  C       0.315784     -0.705816      0.370821
  O       0.615578     -0.950248     -0.974223
  C       1.144512      0.219665     -0.414526
  C       2.632265      0.309918     -0.207457
  H      -1.595932     -0.193942     -1.437114
  H      -2.855289     -1.062599     -0.480028
  H      -2.561918      0.775632     -0.046172
  H      -1.503937     -1.026273      1.490267
  H       0.813602     -1.365635      1.074975
  H       0.670737      1.136814     -0.756860
  H       3.116960      0.627740     -1.127728
  H       3.033548     -0.658147      0.081427
  H       2.846520      1.036352      0.572559
17
Coordinates from ORCA-job scan E -27.282833117460
  C      -2.078274     -0.312217     -0.474494
  C      -1.119831     -0.348998      0.714572
  O      -1.116600      1.000599      1.215063
  O      -2.357780      1.517074      0.975068
  C       0.315723     -0.705548      0.370665
  O       0.615363     -0.949774     -0.974492
  C       1.144666      0.219853     -0.414518
  C       2.632453      0.309583     -0.207456
  H      -1.595980     -0.192673     -1.437067
  H      -2.854527     -1.064061     -0.480200
  H      -2.563702      0.775516     -0.045820
  H      -1.503696     -1.025458      1.490854
  H       0.813411     -1.365703      1.074608
  H       0.671166      1.137243     -0.756564
  H       3.117221      0.627544     -1.127643
  H       3.033451     -0.658692      0.081120
  H       2.846933      1.035712      0.572781
17
Coordinates from ORCA-job scan E -27.282604893120
  C      -2.078319     -0.312107     -0.474201
  C      -1.119640     -0.349379      0.714196
  O      -1.117491      1.000483      1.213919
  O      -2.359312      1.515720      0.972763
  C       0.316025     -0.705773      0.370594
  O       0.615919     -0.950241     -0.974462
  C       1.144944      0.219593     -0.414657
  C       2.632684      0.309608     -0.207379
  H      -1.596746     -0.191898     -1.437052
  H      -2.854851     -1.063661     -0.480102
  H      -2.563040      0.777378     -0.042174
  H      -1.503497     -1.025707      1.490598
  H       0.813708     -1.365695      1.074759
  H       0.671350      1.136832     -0.756977
  H       3.117546      0.627448     -1.127557
  H       3.033792     -0.658540      0.081471
  H       2.846923      1.035940      0.572736
17
Coordinates from ORCA-job scan E -27.282607446770
  C      -2.078058     -0.312918     -0.474406
  C      -1.119619     -0.349130      0.714365
  O      -1.117199      1.000732      1.214115
  O      -2.359535      1.516052      0.972646
  C       0.315959     -0.705603      0.370570
  O       0.615710     -0.949939     -0.974560
  C       1.144963      0.219734     -0.414608
  C       2.632725      0.309465     -0.207389
  H      -1.596710     -0.191624     -1.437235
  H      -2.854598     -1.064461     -0.480300
  H      -2.563820      0.777551     -0.042063
  H      -1.503287     -1.025460      1.490913
  H       0.813566     -1.365719      1.074588
  H       0.671507      1.137107     -0.756737
  H       3.117593      0.627388     -1.127537
  H       3.033689     -0.658799      0.081272
  H       2.847114      1.035625      0.572843
17
Coordinates from ORCA-job scan E -27.282609427620
  C      -2.077521     -0.314348     -0.474533
  C      -1.119629     -0.348591      0.714561
  O      -1.116959      1.001205      1.213783
  O      -2.360292      1.516341      0.972588
  C       0.315899     -0.705342      0.370401
  O       0.615522     -0.949494     -0.974830
  C       1.145123      0.219910     -0.414615
  C       2.632914      0.309135     -0.207381
  H      -1.596788     -0.190316     -1.437199
  H      -2.853828     -1.065967     -0.480488
  H      -2.565684      0.777519     -0.041664
  H      -1.503043     -1.024648      1.491488
  H       0.813370     -1.365778      1.074227
  H       0.671938      1.137513     -0.756480
  H       3.117868      0.627184     -1.127442
  H       3.033598     -0.659329      0.080997
  H       2.847509      1.035007      0.573062
17
Coordinates from ORCA-job scan E -27.282609674970
  C      -2.077497     -0.314715     -0.474414
  C      -1.119607     -0.348368      0.714546
  O      -1.116986      1.001477      1.213176
  O      -2.360624      1.516197      0.972533
  C       0.315923     -0.705257      0.370282
  O       0.615533     -0.949290     -0.974970
  C       1.145268      0.219981     -0.414608
  C       2.633070      0.308991     -0.207328
  H      -1.597092     -0.189590     -1.437075
  H      -2.853595     -1.066514     -0.480378
  H      -2.566439      0.777172     -0.041486
  H      -1.502923     -1.024193      1.491739
  H       0.813318     -1.365851      1.074018
  H       0.672206      1.137688     -0.756368
  H       3.118081      0.627115     -1.127332
  H       3.033626     -0.659565      0.080916
  H       2.847736      1.034724      0.573226
17
Coordinates from ORCA-job scan E -27.282394696510
  C      -2.077541     -0.314604     -0.474125
  C      -1.119417     -0.348747      0.714171
  O      -1.117878      1.001362      1.212035
  O      -2.362158      1.514835      0.970233
  C       0.316224     -0.705480      0.370211
  O       0.616087     -0.949756     -0.974941
  C       1.145545      0.219722     -0.414747
  C       2.633300      0.309016     -0.207250
  H      -1.597854     -0.188820     -1.437059
  H      -2.853918     -1.066113     -0.480281
  H      -2.565769      0.779036     -0.037844
  H      -1.502724     -1.024440      1.491483
  H       0.813614     -1.365842      1.074169
  H       0.672389      1.137279     -0.756780
  H       3.118406      0.627018     -1.127247
  H       3.033966     -0.659413      0.081267
  H       2.847726      1.034951      0.573180
17
Coordinates from ORCA-job scan E -27.282397077120
  C      -2.077338     -0.315408     -0.474351
  C      -1.119381     -0.348514      0.714330
  O      -1.117547      1.001648      1.212287
  O      -2.362317      1.515250      0.970089
  C       0.316148     -0.705312      0.370182
  O       0.615859     -0.949415     -0.975052
  C       1.145554      0.219884     -0.414680
  C       2.633331      0.308884     -0.207249
  H      -1.597854     -0.188747     -1.437284
  H      -2.853701     -1.066944     -0.480479
  H      -2.566483      0.779269     -0.037742
  H      -1.502470     -1.024232      1.491784
  H       0.813454     -1.365892      1.073976
  H       0.672538      1.137585     -0.756489
  H       3.118437      0.626991     -1.127211
  H       3.033852     -0.659671      0.081050
  H       2.847916      1.034626      0.573316
17
Coordinates from ORCA-job scan E -27.282398708890
  C      -2.076907     -0.316688     -0.474491
  C      -1.119386     -0.348062      0.714482
  O      -1.117287      1.002101      1.212064
  O      -2.362903      1.515646      0.970032
  C       0.316074     -0.705090      0.370013
  O       0.615672     -0.948970     -0.975327
  C       1.145679      0.220063     -0.414672
  C       2.633480      0.308606     -0.207228
  H      -1.597935     -0.187863     -1.437290
  H      -2.853009     -1.068348     -0.480650
  H      -2.568068      0.779360     -0.037374
  H      -1.502225     -1.023532      1.492275
  H       0.813247     -1.365984      1.073615
  H       0.672902      1.137982     -0.756206
  H       3.118661      0.626855     -1.127102
  H       3.033751     -0.660138      0.080785
  H       2.848251      1.034064      0.573549
17
Coordinates from ORCA-job scan E -27.282398959340
  C      -2.076860     -0.317081     -0.474388
  C      -1.119375     -0.347849      0.714465
  O      -1.117295      1.002350      1.211495
  O      -2.363208      1.515546      0.969995
  C       0.316090     -0.705012      0.369887
  O       0.615683     -0.948770     -0.975476
  C       1.145813      0.220133     -0.414671
  C       2.633623      0.308468     -0.207175
  H      -1.598211     -0.187190     -1.437174
  H      -2.852760     -1.068907     -0.480554
  H      -2.568816      0.779076     -0.037185
  H      -1.502122     -1.023074      1.492528
  H       0.813188     -1.366061      1.073400
  H       0.673153      1.138152     -0.756099
  H       3.118864      0.626792     -1.126992
  H       3.033772     -0.660364      0.080709
  H       2.848458      1.033790      0.573711
17
Coordinates from ORCA-job scan E -27.282197140340
  C      -2.076904     -0.316968     -0.474104
  C      -1.119186     -0.348226      0.714090
  O      -1.118187      1.002235      1.210356
  O      -2.364745      1.514176      0.967700
  C       0.316390     -0.705234      0.369816
  O       0.616235     -0.949235     -0.975446
  C       1.146090      0.219874     -0.414810
  C       2.633853      0.308492     -0.207098
  H      -1.598969     -0.186424     -1.437156
  H      -2.853082     -1.068507     -0.480456
  H      -2.568139      0.780943     -0.033547
  H      -1.501924     -1.023319      1.492272
  H       0.813483     -1.366051      1.073551
  H       0.673336      1.137744     -0.756511
  H       3.119188      0.626696     -1.126906
  H       3.034111     -0.660213      0.081059
  H       2.848448      1.034017      0.573666
17
Coordinates from ORCA-job scan E -27.282199686890
  C      -2.076680     -0.317789     -0.474341
  C      -1.119162     -0.348011      0.714232
  O      -1.117855      1.002483      1.210622
  O      -2.364879      1.514622      0.967601
  C       0.316316     -0.705078      0.369781
  O       0.616031     -0.948930     -0.975554
  C       1.146097      0.220020     -0.414758
  C       2.633878      0.308372     -0.207095
  H      -1.598960     -0.186352     -1.437388
  H      -2.852869     -1.069325     -0.480661
  H      -2.568862      0.781243     -0.033420
  H      -1.501690     -1.023124      1.492554
  H       0.813328     -1.366092      1.073370
  H       0.673471      1.138019     -0.756260
  H       3.119221      0.626665     -1.126869
  H       3.034002     -0.660446      0.080872
  H       2.848611      1.033724      0.573790
17
Coordinates from ORCA-job scan E -27.282201527370
  C      -2.076191     -0.319151     -0.474516
  C      -1.119184     -0.347578      0.714363
  O      -1.117567      1.002874      1.210434
  O      -2.365421      1.515081      0.967620
  C       0.316244     -0.704868      0.369603
  O       0.615877     -0.948541     -0.975822
  C       1.146218      0.220176     -0.414774
  C       2.634018      0.308108     -0.207069
  H      -1.599035     -0.185445     -1.437418
  H      -2.852180     -1.070739     -0.480854
  H      -2.570515      0.781472     -0.033006
  H      -1.501466     -1.022443      1.493026
  H       0.813124     -1.366165      1.073029
  H       0.673818      1.138370     -0.756041
  H       3.119448      0.626520     -1.126759
  H       3.033907     -0.660879      0.080656
  H       2.848905      1.033210      0.574004
17
Coordinates from ORCA-job scan E -27.282201783300
  C      -2.076133     -0.319532     -0.474421
  C      -1.119175     -0.347385      0.714338
  O      -1.117573      1.003092      1.209885
  O      -2.365698      1.514973      0.967610
  C       0.316265     -0.704800      0.369483
  O       0.615905     -0.948379     -0.975955
  C       1.146349      0.220230     -0.414782
  C       2.634154      0.307983     -0.207017
  H      -1.599311     -0.184769     -1.437310
  H      -2.851958     -1.071249     -0.480763
  H      -2.571246      0.781226     -0.032820
  H      -1.501374     -1.022019      1.493255
  H       0.813074     -1.366228      1.072841
  H       0.674053      1.138509     -0.755969
  H       3.119646      0.626452     -1.126654
  H       3.033934     -0.661078      0.080608
  H       2.849088      1.032973      0.574147
17
Coordinates from ORCA-job scan E -27.282013854280
  C      -2.076177     -0.319418     -0.474141
  C      -1.118988     -0.347759      0.713963
  O      -1.118466      1.002978      1.208749
  O      -2.367237      1.513596      0.965320
  C       0.316564     -0.705020      0.369413
  O       0.616455     -0.948842     -0.975926
  C       1.146625      0.219972     -0.414921
  C       2.634383      0.308007     -0.206940
  H      -1.600064     -0.184008     -1.437290
  H      -2.852279     -1.070848     -0.480665
  H      -2.570562      0.783094     -0.029186
  H      -1.501177     -1.022262      1.492999
  H       0.813367     -1.366217      1.072992
  H       0.674237      1.138102     -0.756381
  H       3.119969      0.626355     -1.126569
  H       3.034271     -0.660929      0.080958
  H       2.849078      1.033200      0.574102
17
Coordinates from ORCA-job scan E -27.282016537000
  C      -2.075946     -0.320254     -0.474390
  C      -1.118966     -0.347558      0.714089
  O      -1.118132      1.003209      1.209024
  O      -2.367357      1.514066      0.965262
  C       0.316494     -0.704873      0.369376
  O       0.616271     -0.948567     -0.976026
  C       1.146633      0.220104     -0.414877
  C       2.634406      0.307894     -0.206935
  H      -1.600063     -0.183935     -1.437533
  H      -2.852073     -1.071665     -0.480879
  H      -2.571304      0.783454     -0.029036
  H      -1.500945     -1.022090      1.493256
  H       0.813216     -1.366247      1.072827
  H       0.674366      1.138353     -0.756161
  H       3.120005      0.626320     -1.126532
  H       3.034169     -0.661143      0.080795
  H       2.849224      1.032932      0.574216
17
Coordinates from ORCA-job scan E -27.282018565460
  C      -2.075416     -0.321683     -0.474598
  C      -1.118997     -0.347144      0.714195
  O      -1.117825      1.003568      1.208864
  O      -2.367868      1.514577      0.965365
  C       0.316426     -0.704673      0.369195
  O       0.616149     -0.948232     -0.976280
  C       1.146756      0.220237     -0.414913
  C       2.634542      0.307641     -0.206907
  H      -1.600147     -0.182997     -1.437587
  H      -2.851380     -1.073102     -0.481107
  H      -2.573037      0.783813     -0.028570
  H      -1.500726     -1.021441      1.493693
  H       0.813011     -1.366295      1.072519
  H       0.674704      1.138659     -0.756006
  H       3.120239      0.626158     -1.126422
  H       3.034081     -0.661548      0.080626
  H       2.849487      1.032463      0.574409
17
Coordinates from ORCA-job scan E -27.282018836760
  C      -2.075345     -0.322062     -0.474512
  C      -1.118991     -0.346964      0.714161
  O      -1.117828      1.003763      1.208325
  O      -2.368129      1.514462      0.965391
  C       0.316450     -0.704611      0.369081
  O       0.616193     -0.948105     -0.976399
  C       1.146885      0.220276     -0.414931
  C       2.634675      0.307524     -0.206856
  H      -1.600423     -0.182294     -1.437483
  H      -2.851163     -1.073590     -0.481030
  H      -2.573777      0.783603     -0.028375
  H      -1.500646     -1.021036      1.493904
  H       0.812967     -1.366342      1.072356
  H       0.674930      1.138768     -0.755969
  H       3.120436      0.626081     -1.126323
  H       3.034113     -0.661727      0.080603
  H       2.849652      1.032255      0.574535
17
Coordinates from ORCA-job scan E -27.281845488180
  C      -2.075389     -0.321948     -0.474237
  C      -1.118805     -0.347336      0.713786
  O      -1.118722      1.003650      1.207192
  O      -2.369670      1.513078      0.963105
  C       0.316748     -0.704830      0.369010
  O       0.616742     -0.948567     -0.976370
  C       1.147160      0.220019     -0.415071
  C       2.634903      0.307548     -0.206779
  H      -1.601172     -0.181537     -1.437462
  H      -2.851483     -1.073189     -0.480932
  H      -2.573083      0.785473     -0.024744
  H      -1.500450     -1.021277      1.493648
  H       0.813258     -1.366331      1.072507
  H       0.675113      1.138363     -0.756381
  H       3.120759      0.625984     -1.126238
  H       3.034449     -0.661578      0.080953
  H       2.849642      1.032482      0.574490
17
Coordinates from ORCA-job scan E -27.281848312780
  C      -2.075148     -0.322796     -0.474496
  C      -1.118788     -0.347148      0.713895
  O      -1.118387      1.003864      1.207470
  O      -2.369778      1.513569      0.963094
  C       0.316682     -0.704692      0.368971
  O       0.616580     -0.948325     -0.976464
  C       1.147171      0.220136     -0.415039
  C       2.634925      0.307442     -0.206772
  H      -1.601178     -0.181454     -1.437713
  H      -2.851276     -1.074009     -0.481162
  H      -2.573851      0.785891     -0.024565
  H      -1.500226     -1.021120      1.493884
  H       0.813110     -1.366350      1.072358
  H       0.675237      1.138586     -0.756197
  H       3.120799      0.625942     -1.126200
  H       3.034354     -0.661775      0.080816
  H       2.849770      1.032240      0.574593
17
Coordinates from ORCA-job scan E -27.281850571640
  C      -2.074574     -0.324306     -0.474743
  C      -1.118828     -0.346748      0.713971
  O      -1.118052      1.004192      1.207321
  O      -2.370259      1.514134      0.963305
  C       0.316617     -0.704500      0.368784
  O       0.616494     -0.948050     -0.976706
  C       1.147297      0.220242     -0.415099
  C       2.635058      0.307197     -0.206739
  H      -1.601275     -0.180462     -1.437794
  H      -2.850559     -1.075497     -0.481437
  H      -2.575692      0.786392     -0.024025
  H      -1.500017     -1.020485      1.494291
  H       0.812901     -1.366371      1.072083
  H       0.675570      1.138843     -0.756114
  H       3.121045      0.625758     -1.126088
  H       3.034274     -0.662152      0.080702
  H       2.849999      1.031815      0.574764
17
Coordinates from ORCA-job scan E -27.281850863020
  C      -2.074489     -0.324688     -0.474666
  C      -1.118826     -0.346578      0.713927
  O      -1.118050      1.004372      1.206783
  O      -2.370510      1.514008      0.963373
  C       0.316646     -0.704444      0.368673
  O       0.616555     -0.947956     -0.976812
  C       1.147427      0.220266     -0.415128
  C       2.635188      0.307085     -0.206689
  H      -1.601556     -0.179723     -1.437695
  H      -2.850339     -1.075975     -0.481379
  H      -2.576456      0.786216     -0.023813
  H      -1.499948     -1.020092      1.494487
  H       0.812862     -1.366403      1.071944
  H       0.675789      1.138924     -0.756113
  H       3.121244      0.625669     -1.125994
  H       3.034312     -0.662315      0.080705
  H       2.850148      1.031634      0.574874
17
Coordinates from ORCA-job scan E -27.281692844950
  C      -2.074533     -0.324572     -0.474396
  C      -1.118641     -0.346947      0.713552
  O      -1.118945      1.004260      1.205653
  O      -2.372053      1.512618      0.961092
  C       0.316942     -0.704662      0.368602
  O       0.617102     -0.948417     -0.976783
  C       1.147701      0.220010     -0.415267
  C       2.635415      0.307109     -0.206612
  H      -1.602300     -0.178971     -1.437672
  H      -2.850657     -1.075575     -0.481281
  H      -2.575753      0.788086     -0.020185
  H      -1.499753     -1.020331      1.494230
  H       0.813151     -1.366391      1.072094
  H       0.675972      1.138520     -0.756525
  H       3.121567      0.625571     -1.125909
  H       3.034646     -0.662167      0.081054
  H       2.850138      1.031860      0.574828
17
Coordinates from ORCA-job scan E -27.281695819130
  C      -2.074285     -0.325434     -0.474667
  C      -1.118627     -0.346771      0.713642
  O      -1.118608      1.004461      1.205925
  O      -2.372149      1.513128      0.961135
  C       0.316881     -0.704532      0.368560
  O       0.616963     -0.948207     -0.976870
  C       1.147714      0.220112     -0.415246
  C       2.635438      0.307010     -0.206602
  H      -1.602315     -0.178876     -1.437931
  H      -2.850447     -1.076404     -0.481526
  H      -2.576552      0.788563     -0.019972
  H      -1.499535     -1.020185      1.494445
  H       0.813006     -1.366399      1.071962
  H       0.676092      1.138716     -0.756377
  H       3.121614      0.625522     -1.125869
  H       3.034559     -0.662347      0.080945
  H       2.850250      1.031643      0.574921
17
Coordinates from ORCA-job scan E -27.281698358650
  C      -2.073662     -0.327043     -0.474959
  C      -1.118677     -0.346381      0.713683
  O      -1.118240      1.004771      1.205772
  O      -2.372610      1.513751      0.961475
  C       0.316819     -0.704348      0.368364
  O       0.616916     -0.947993     -0.977102
  C       1.147848      0.220191     -0.415335
  C       2.635572      0.306769     -0.206563
  H      -1.602436     -0.177814     -1.438044
  H      -2.849689     -1.077973     -0.481860
  H      -2.578543      0.789222     -0.019338
  H      -1.499334     -1.019553      1.494823
  H       0.812791     -1.366391      1.071719
  H       0.676427      1.138924     -0.756371
  H       3.121879      0.625310     -1.125753
  H       3.034487     -0.662701      0.080889
  H       2.850449      1.031260      0.575074
17
Coordinates from ORCA-job scan E -27.281698677270
  C      -2.073564     -0.327430     -0.474891
  C      -1.118676     -0.346216      0.713627
  O      -1.118231      1.004939      1.205226
  O      -2.372853      1.513611      0.961592
  C       0.316853     -0.704296      0.368255
  O       0.616995     -0.947933     -0.977196
  C       1.147981      0.220199     -0.415374
  C       2.635702      0.306661     -0.206513
  H      -1.602726     -0.177031     -1.437949
  H      -2.849460     -1.078450     -0.481823
  H      -2.579342      0.789081     -0.019103
  H      -1.499275     -1.019165      1.495005
  H       0.812754     -1.366407      1.071603
  H       0.676643      1.138977     -0.756408
  H       3.122083      0.625206     -1.125662
  H       3.034531     -0.662849      0.080920
  H       2.850584      1.031104      0.575168
17
Coordinates from ORCA-job scan E -27.281556823000
  C      -2.073608     -0.327314     -0.474626
  C      -1.118492     -0.346583      0.713252
  O      -1.119127      1.004827      1.204099
  O      -2.374400      1.512216      0.959316
  C       0.317147     -0.704512      0.368185
  O       0.617540     -0.948393     -0.977167
  C       1.148253      0.219944     -0.415514
  C       2.635928      0.306684     -0.206436
  H      -1.603465     -0.176284     -1.437925
  H      -2.849777     -1.078050     -0.481725
  H      -2.578628      0.790951     -0.015478
  H      -1.499082     -1.019401      1.494748
  H       0.813041     -1.366394      1.071753
  H       0.676825      1.138574     -0.756819
  H       3.122405      0.625108     -1.125577
  H       3.034864     -0.662701      0.081268
  H       2.850573      1.031329      0.575122
17
Coordinates from ORCA-job scan E -27.281559959530
  C      -2.073353     -0.328190     -0.474910
  C      -1.118482     -0.346417      0.713321
  O      -1.118788      1.005018      1.204357
  O      -2.374487      1.512742      0.959419
  C       0.317091     -0.704391      0.368139
  O       0.617425     -0.948215     -0.977248
  C       1.148272      0.220032     -0.415505
  C       2.635951      0.306591     -0.206422
  H      -1.603493     -0.176173     -1.438193
  H      -2.849560     -1.078893     -0.481988
  H      -2.579465      0.791488     -0.015225
  H      -1.498870     -1.019263      1.494942
  H       0.812899     -1.366391      1.071636
  H       0.676944      1.138743     -0.756708
  H       3.122460      0.625050     -1.125535
  H       3.034785     -0.662866      0.081188
  H       2.850670      1.031137      0.575206
17
Coordinates from ORCA-job scan E -27.281562852310
  C      -2.072675     -0.329922     -0.475256
  C      -1.118542     -0.346031      0.713319
  O      -1.118378      1.005319      1.204182
  O      -2.374934      1.513427      0.959922
  C       0.317034     -0.704212      0.367929
  O       0.617424     -0.948066     -0.977471
  C       1.148418      0.220080     -0.415625
  C       2.636091      0.306351     -0.206375
  H      -1.603647     -0.175021     -1.438343
  H      -2.848743     -1.080579     -0.482392
  H      -2.581654      0.792329     -0.014470
  H      -1.498675     -1.018617      1.495293
  H       0.812672     -1.366352      1.071425
  H       0.677289      1.138898     -0.756789
  H       3.122754      0.624802     -1.125410
  H       3.034724     -0.663199      0.081198
  H       2.850839      1.030795      0.575339
17
Coordinates from ORCA-job scan E -27.281563206050
  C      -2.072563     -0.330320     -0.475199
  C      -1.118542     -0.345870      0.713248
  O      -1.118361      1.005481      1.203616
  O      -2.375175      1.513270      0.960098
  C       0.317072     -0.704164      0.367820
  O       0.617523     -0.948040     -0.977555
  C       1.148556      0.220073     -0.415677
  C       2.636223      0.306245     -0.206323
  H      -1.603951     -0.174184     -1.438253
  H      -2.848497     -1.081067     -0.482379
  H      -2.582505      0.792226     -0.014204
  H      -1.498628     -1.018226      1.495462
  H       0.812637     -1.366352      1.071330
  H       0.677506      1.138923     -0.756865
  H       3.122967      0.624681     -1.125321
  H       3.034774     -0.663336      0.081258
  H       2.850962      1.030661      0.575419
17
Coordinates from ORCA-job scan E -27.281438479150
  C      -2.072607     -0.330203     -0.474939
  C      -1.118360     -0.346234      0.712874
  O      -1.119258      1.005371      1.202492
  O      -2.376724      1.511869      0.957827
  C       0.317365     -0.704379      0.367750
  O       0.618066     -0.948498     -0.977526
  C       1.148827      0.219819     -0.415816
  C       2.636448      0.306268     -0.206247
  H      -1.604686     -0.173443     -1.438228
  H      -2.848812     -1.080668     -0.482282
  H      -2.581779      0.794094     -0.010581
  H      -1.498435     -1.018460      1.495205
  H       0.812922     -1.366338      1.071481
  H       0.677688      1.138522     -0.757277
  H       3.123288      0.624582     -1.125236
  H       3.035106     -0.663188      0.081607
  H       2.850951      1.030886      0.575373
17
Coordinates from ORCA-job scan E -27.281441794610
  C      -2.072347     -0.331093     -0.475236
  C      -1.118353     -0.346077      0.712920
  O      -1.118916      1.005555      1.202728
  O      -2.376804      1.512408      0.957999
  C       0.317314     -0.704266      0.367699
  O       0.617976     -0.948353     -0.977601
  C       1.148852      0.219891     -0.415820
  C       2.636474      0.306179     -0.206229
  H      -1.604731     -0.173313     -1.438505
  H      -2.848585     -1.081530     -0.482563
  H      -2.582662      0.794693     -0.010284
  H      -1.498231     -1.018324      1.495379
  H       0.812783     -1.366324      1.071380
  H       0.677807      1.138663     -0.757204
  H       3.123354      0.624513     -1.125190
  H       3.035035     -0.663337      0.081557
  H       2.851033      1.030718      0.575448
17
Coordinates from ORCA-job scan E -27.281445139830
  C      -2.071605     -0.332979     -0.475648
  C      -1.118422     -0.345687      0.712864
  O      -1.118453      1.005857      1.202505
  O      -2.377247      1.513161      0.958708
  C       0.317262     -0.704090      0.367470
  O       0.618030     -0.948276     -0.977819
  C       1.149018      0.219905     -0.415977
  C       2.636623      0.305936     -0.206169
  H      -1.604930     -0.172050     -1.438702
  H      -2.847686     -1.083375     -0.483056
  H      -2.585110      0.795753     -0.009373
  H      -1.498041     -1.017649      1.495702
  H       0.812540     -1.366249      1.071201
  H       0.678170      1.138760     -0.757385
  H       3.123688      0.624220     -1.125053
  H       3.034987     -0.663654      0.081645
  H       2.851175      1.030417      0.575563
17
Coordinates from ORCA-job scan E -27.281445541570
  C      -2.071477     -0.333397     -0.475605
  C      -1.118424     -0.345524      0.712773
  O      -1.118425      1.006020      1.201903
  O      -2.377492      1.512982      0.958961
  C       0.317306     -0.704045      0.367358
  O       0.618153     -0.948284     -0.977895
  C       1.149164      0.219882     -0.416045
  C       2.636761      0.305829     -0.206114
  H      -1.605259     -0.171144     -1.438619
  H      -2.847413     -1.083892     -0.483070
  H      -2.586042      0.795692     -0.009061
  H      -1.498004     -1.017241      1.495859
  H       0.812504     -1.366232      1.071127
  H       0.678394      1.138757     -0.757507
  H       3.123917      0.624077     -1.124961
  H       3.035046     -0.663781      0.081740
  H       2.851287      1.030304      0.575630
17
Coordinates from ORCA-job scan E -27.281339105820
  C      -2.071522     -0.333280     -0.475351
  C      -1.118243     -0.345886      0.712399
  O      -1.119323      1.005913      1.200782
  O      -2.379044      1.511576      0.956695
  C       0.317597     -0.704258      0.367288
  O       0.618693     -0.948741     -0.977865
  C       1.149435      0.219628     -0.416184
  C       2.636985      0.305852     -0.206037
  H      -1.605988     -0.170409     -1.438592
  H      -2.847727     -1.083494     -0.482974
  H      -2.585300      0.797559     -0.005440
  H      -1.497813     -1.017473      1.495602
  H       0.812787     -1.366216      1.071277
  H       0.678575      1.138357     -0.757918
  H       3.124236      0.623977     -1.124877
  H       3.035375     -0.663634      0.082088
  H       2.851275      1.030529      0.575583
17
Coordinates from ORCA-job scan E -27.281342618940
  C      -2.071256     -0.334185     -0.475661
  C      -1.118239     -0.345737      0.712420
  O      -1.118978      1.006093      1.200987
  O      -2.379121      1.512123      0.956944
  C       0.317551     -0.704153      0.367231
  O       0.618631     -0.948630     -0.977935
  C       1.149467      0.219684     -0.416201
  C       2.637015      0.305766     -0.206015
  H      -1.606052     -0.170256     -1.438880
  H      -2.847484     -1.084380     -0.483277
  H      -2.586239      0.798222     -0.005093
  H      -1.497616     -1.017336      1.495755
  H       0.812649     -1.366190      1.071193
  H       0.678697      1.138469     -0.757885
  H       3.124316      0.623897     -1.124827
  H       3.035314     -0.663769      0.082071
  H       2.851343      1.030385      0.575649
17
Coordinates from ORCA-job scan E -27.281346557820
  C      -2.070437     -0.336266     -0.476159
  C      -1.118319     -0.345335      0.712295
  O      -1.118447      1.006412      1.200686
  O      -2.379570      1.512952      0.957923
  C       0.317507     -0.703979      0.366976
  O       0.618752     -0.948635     -0.978147
  C       1.149660      0.219660     -0.416403
  C       2.637181      0.305515     -0.205939
  H      -1.606314     -0.168850     -1.439137
  H      -2.846471     -1.086444     -0.483882
  H      -2.589031      0.799552     -0.003977
  H      -1.497431     -1.016607      1.496048
  H       0.812384     -1.366073      1.071050
  H       0.679091      1.138500     -0.758186
  H       3.124704      0.623544     -1.124671
  H       3.035282     -0.664071      0.082252
  H       2.851458      1.030126      0.575746
17
Coordinates from ORCA-job scan E -27.281347024320
  C      -2.070290     -0.336713     -0.476132
  C      -1.118321     -0.345166      0.712181
  O      -1.118404      1.006582      1.200032
  O      -2.379825      1.512746      0.958273
  C       0.317557     -0.703935      0.366860
  O       0.618903     -0.948682     -0.978215
  C       1.149819      0.219617     -0.416489
  C       2.637327      0.305404     -0.205879
  H      -1.606673     -0.167861     -1.439061
  H      -2.846158     -1.087008     -0.483931
  H      -2.590070      0.799546     -0.003605
  H      -1.497406     -1.016173      1.496195
  H       0.812346     -1.366036      1.070998
  H       0.679326      1.138464     -0.758360
  H       3.124955      0.623373     -1.124577
  H       3.035350     -0.664190      0.082387
  H       2.851561      1.030035      0.575799
17
Coordinates from ORCA-job scan E -27.281260327720
  C      -2.070334     -0.336595     -0.475886
  C      -1.118143     -0.345524      0.711807
  O      -1.119303      1.006476      1.198914
  O      -2.381381      1.511337      0.956014
  C       0.317845     -0.704146      0.366789
  O       0.619441     -0.949138     -0.978185
  C       1.150088      0.219365     -0.416629
  C       2.637550      0.305427     -0.205803
  H      -1.607396     -0.167132     -1.439034
  H      -2.846471     -1.086611     -0.483837
  H      -2.589311      0.801408      0.000015
  H      -1.497217     -1.016402      1.495937
  H       0.812626     -1.366019      1.071148
  H       0.679507      1.138065     -0.758771
  H       3.125273      0.623272     -1.124492
  H       3.035677     -0.664044      0.082735
  H       2.851548      1.030259      0.575752
17
Coordinates from ORCA-job scan E -27.281264062910
  C      -2.070064     -0.337516     -0.476211
  C      -1.118141     -0.345381      0.711799
  O      -1.118953      1.006657      1.199076
  O      -2.381458      1.511885      0.956353
  C       0.317807     -0.704049      0.366727
  O       0.619408     -0.949063     -0.978249
  C       1.150130      0.219403     -0.416660
  C       2.637586      0.305344     -0.205774
  H      -1.607484     -0.166951     -1.439333
  H      -2.846208     -1.087528     -0.484164
  H      -2.590318      0.802139      0.000421
  H      -1.497028     -1.016257      1.496068
  H       0.812490     -1.365980      1.071081
  H       0.679634      1.138147     -0.758782
  H       3.125369      0.623176     -1.124437
  H       3.035628     -0.664165      0.082753
  H       2.851604      1.030139      0.575809
17
Coordinates from ORCA-job scan E -27.281268798100
  C      -2.069150     -0.339848     -0.476820
  C      -1.118232     -0.344955      0.711584
  O      -1.118334      1.007013      1.198649
  O      -2.381930      1.512797      0.957696
  C       0.317771     -0.703873      0.366436
  O       0.619614     -0.949168     -0.978458
  C       1.150363      0.219330     -0.416921
  C       2.637779      0.305078     -0.205676
  H      -1.607835     -0.165354     -1.439667
  H      -2.845036     -1.089891     -0.484917
  H      -2.593574      0.803811      0.001812
  H      -1.496848     -1.015442      1.496328
  H       0.812194     -1.365808      1.070980
  H       0.680076      1.138097     -0.759236
  H       3.125833      0.622742     -1.124254
  H       3.035616     -0.664456      0.083055
  H       2.851690      1.029927      0.575885
17
Coordinates from ORCA-job scan E -27.281269354680
  C      -2.068978     -0.340337     -0.476816
  C      -1.118236     -0.344773      0.711438
  O      -1.118271      1.007198      1.197922
  O      -2.382205      1.512556      0.958175
  C       0.317829     -0.703829      0.366311
  O       0.619801     -0.949260     -0.978519
  C       1.150540      0.219264     -0.417030
  C       2.637937      0.304960     -0.205610
  H      -1.608235     -0.164257     -1.439604
  H      -2.844664     -1.090526     -0.485012
  H      -2.594761      0.803873      0.002269
  H      -1.496837     -1.014967      1.496464
  H       0.812150     -1.365747      1.070952
  H       0.680329      1.138024     -0.759472
  H       3.126115      0.622534     -1.124154
  H       3.035696     -0.664570      0.083239
  H       2.851784      1.029858      0.575923
17
Coordinates from ORCA-job scan E -27.281204248070
  C      -2.069022     -0.340219     -0.476577
  C      -1.118059     -0.345128      0.711064
  O      -1.119171      1.007095      1.196807
  O      -2.383765      1.511144      0.955923
  C       0.318115     -0.704038      0.366240
  O       0.620336     -0.949713     -0.978489
  C       1.150807      0.219013     -0.417169
  C       2.638158      0.304982     -0.205534
  H      -1.608952     -0.163535     -1.439576
  H      -2.844976     -1.090130     -0.484919
  H      -2.593981      0.805730      0.005888
  H      -1.496650     -1.015192      1.496205
  H       0.812427     -1.365728      1.071102
  H       0.680510      1.137627     -0.759884
  H       3.126432      0.622433     -1.124070
  H       3.036020     -0.664424      0.083587
  H       2.851771      1.030083      0.575876
17
Coordinates from ORCA-job scan E -27.281208222920
  C      -2.068749     -0.341154     -0.476919
  C      -1.118059     -0.344989      0.711024
  O      -1.118817      1.007280      1.196913
  O      -2.383848      1.511686      0.956364
  C       0.318084     -0.703949      0.366170
  O       0.620336     -0.949676     -0.978546
  C       1.150861      0.219033     -0.417216
  C       2.638202      0.304901     -0.205499
  H      -1.609069     -0.163317     -1.439886
  H      -2.844687     -1.091084     -0.485274
  H      -2.595069      0.806529      0.006360
  H      -1.496470     -1.015033      1.496315
  H       0.812292     -1.365675      1.071053
  H       0.680645      1.137677     -0.759943
  H       3.126548      0.622318     -1.124009
  H       3.035983     -0.664532      0.083644
  H       2.851815      1.029987      0.575924
17
Coordinates from ORCA-job scan E -27.281213997860
  C      -2.067715     -0.343802     -0.477670
  C      -1.118162     -0.344521      0.710689
  O      -1.118084      1.007701      1.196293
  O      -2.384368      1.512680      0.958194
  C       0.318061     -0.703767      0.365832
  O       0.620653     -0.949907     -0.978752
  C       1.151152      0.218897     -0.417552
  C       2.638435      0.304609     -0.205370
  H      -1.609545     -0.161458     -1.440319
  H      -2.843291     -1.093849     -0.486225
  H      -2.598945      0.808629      0.008122
  H      -1.496296     -1.014087      1.496536
  H       0.811953     -1.365432      1.071005
  H       0.681157      1.137525     -0.760592
  H       3.127119      0.621772     -1.123791
  H       3.036000     -0.664816      0.084102
  H       2.851872      1.029829      0.575974
17
Coordinates from ORCA-job scan E -27.281214668300
  C      -2.067515     -0.344339     -0.477694
  C      -1.118166     -0.344320      0.710505
  O      -1.117998      1.007911      1.195469
  O      -2.384672      1.512389      0.958832
  C       0.318128     -0.703722      0.365696
  O       0.620882     -0.950051     -0.978804
  C       1.151352      0.218806     -0.417689
  C       2.638610      0.304480     -0.205296
  H      -1.609997     -0.160227     -1.440268
  H      -2.842842     -1.094576     -0.486377
  H      -2.600313      0.808765      0.008685
  H      -1.496301     -1.013554      1.496659
  H       0.811902     -1.365343      1.071004
  H       0.681437      1.137409     -0.760903
  H       3.127439      0.621517     -1.123683
  H       3.036093     -0.664927      0.084345
  H       2.851960      1.029783      0.575996
17
Coordinates from ORCA-job scan E -27.281173414200
  C      -2.067559     -0.344221     -0.477462
  C      -1.117993     -0.344671      0.710130
  O      -1.118899      1.007812      1.194358
  O      -2.386238      1.510976      0.956587
  C       0.318411     -0.703929      0.365625
  O       0.621413     -0.950503     -0.978774
  C       1.151617      0.218556     -0.417828
  C       2.638829      0.304503     -0.205220
  H      -1.610708     -0.159513     -1.440240
  H      -2.843153     -1.094181     -0.486286
  H      -2.599509      0.810613      0.012304
  H      -1.496117     -1.013775      1.496400
  H       0.812174     -1.365321      1.071155
  H       0.681616      1.137014     -0.761315
  H       3.127754      0.621415     -1.123599
  H       3.036414     -0.664781      0.084693
  H       2.851946      1.030007      0.575948
17
Coordinates from ORCA-job scan E -27.281177614240
  C      -2.067282     -0.345167     -0.477821
  C      -1.117994     -0.344534      0.710057
  O      -1.118541      1.008006      1.194396
  O      -2.386332      1.511501      0.957137
  C       0.318388     -0.703846      0.365548
  O       0.621447     -0.950505     -0.978824
  C       1.151685      0.218556     -0.417891
  C       2.638882      0.304421     -0.205178
  H      -1.610860     -0.159245     -1.440559
  H      -2.842829     -1.095177     -0.486672
  H      -2.600684      0.811475      0.012849
  H      -1.495947     -1.013596      1.496490
  H       0.812040     -1.365253      1.071124
  H       0.681762      1.137030     -0.761424
  H       3.127893      0.621278     -1.123531
  H       3.036390     -0.664877      0.084791
  H       2.851979      1.029935      0.575985
17
Coordinates from ORCA-job scan E -27.281184540830
  C      -2.066116     -0.348161     -0.478734
  C      -1.118107     -0.344007      0.709575
  O      -1.117678      1.008523      1.193505
  O      -2.386930      1.512548      0.959556
  C       0.318382     -0.703656      0.365153
  O       0.621900     -0.950887     -0.979023
  C       1.152050      0.218344     -0.418318
  C       2.639168      0.304092     -0.205013
  H      -1.611507     -0.157036     -1.441099
  H      -2.841147     -1.098423     -0.487865
  H      -2.605304      0.814038      0.015067
  H      -1.495782     -1.012471      1.496667
  H       0.811649     -1.364923      1.071142
  H       0.682368      1.136755     -0.762309
  H       3.128598      0.620588     -1.123270
  H       3.036442     -0.665159      0.085439
  H       2.852010      1.029837      0.576003
17
Coordinates from ORCA-job scan E -27.281185309840
  C      -2.065898     -0.348714     -0.478775
  C      -1.118111     -0.343785      0.709357
  O      -1.117575      1.008763      1.192581
  O      -2.387268      1.512186      0.960332
  C       0.318458     -0.703608      0.365009
  O       0.622165     -0.951079     -0.979066
  C       1.152271      0.218228     -0.418480
  C       2.639359      0.303952     -0.204933
  H      -1.612018     -0.155666     -1.441049
  H      -2.840620     -1.099225     -0.488070
  H      -2.606821      0.814206      0.015724
  H      -1.495804     -1.011880      1.496781
  H       0.811590     -1.364806      1.071168
  H       0.682672      1.136599     -0.762690
  H       3.128955      0.620286     -1.123157
  H       3.036548     -0.665268      0.085736
  H       2.852094      1.029812      0.576007
17
Coordinates from ORCA-job scan E -27.281170064510
  C      -2.065943     -0.348596     -0.478553
  C      -1.117941     -0.344132      0.708982
  O      -1.118478      1.008668      1.191473
  O      -2.388839      1.510773      0.958096
  C       0.318737     -0.703813      0.364938
  O       0.622693     -0.951529     -0.979035
  C       1.152534      0.217979     -0.418619
  C       2.639576      0.303975     -0.204857
  H      -1.612722     -0.154961     -1.441021
  H      -2.840930     -1.098832     -0.487983
  H      -2.605987      0.816044      0.019345
  H      -1.495624     -1.012097      1.496521
  H       0.811858     -1.364782      1.071319
  H       0.682851      1.136205     -0.763102
  H       3.129268      0.620183     -1.123073
  H       3.036866     -0.665122      0.086085
  H       2.852078      1.030037      0.575958
17
Coordinates from ORCA-job scan E -27.281174392140
  C      -2.065663     -0.349548     -0.478923
  C      -1.117942     -0.343992      0.708879
  O      -1.118116      1.008875      1.191442
  O      -2.388950      1.511274      0.958739
  C       0.318722     -0.703735      0.364854
  O       0.622758     -0.951567     -0.979079
  C       1.152616      0.217961     -0.418698
  C       2.639640      0.303890     -0.204809
  H      -1.612914     -0.154626     -1.441341
  H      -2.840567     -1.099869     -0.488400
  H      -2.607245      0.816943      0.019959
  H      -1.495462     -1.011892      1.496596
  H       0.811723     -1.364700      1.071306
  H       0.683009      1.136191     -0.763257
  H       3.129430      0.620022     -1.122999
  H       3.036854     -0.665211      0.086221
  H       2.852105      1.029984      0.575986
17
Coordinates from ORCA-job scan E -27.281181997430
  C      -2.064404     -0.352766     -0.479950
  C      -1.118062     -0.343408      0.708270
  O      -1.117155      1.009496      1.190260
  O      -2.389637      1.512289      0.961641
  C       0.318735     -0.703538      0.364414
  O       0.623331     -0.952088     -0.979264
  C       1.153051      0.217678     -0.419203
  C       2.639977      0.303523     -0.204612
  H      -1.613763     -0.152019     -1.441934
  H      -2.838607     -1.103511     -0.489809
  H      -2.612468      0.819787      0.022577
  H      -1.495307     -1.010590      1.496743
  H       0.811287     -1.364291      1.071389
  H       0.683703      1.135802     -0.764354
  H       3.130258      0.619192     -1.122703
  H       3.036940     -0.665494      0.087042
  H       2.852120      1.029939      0.575969
17
Coordinates from ORCA-job scan E -27.281182776820
  C      -2.064200     -0.353252     -0.479973
  C      -1.118061     -0.343174      0.708049
  O      -1.117060      1.009759      1.189291
  O      -2.389997      1.511843      0.962422
  C       0.318814     -0.703489      0.364275
  O       0.623603     -0.952297     -0.979296
  C       1.153277      0.217552     -0.419370
  C       2.640173      0.303377     -0.204533
  H      -1.614316     -0.150559     -1.441857
  H      -2.838045     -1.104300     -0.490032
  H      -2.613969      0.819863      0.023243
  H      -1.495339     -1.009974      1.496858
  H       0.811226     -1.364164      1.071433
  H       0.684014      1.135631     -0.764754
  H       3.130622      0.618868     -1.122595
  H       3.037049     -0.665604      0.087356
  H       2.852206      1.029921      0.575959
17
Coordinates from ORCA-job scan E -27.281194104170
  C      -2.064244     -0.353135     -0.479761
  C      -1.117894     -0.343516      0.707673
  O      -1.117965      1.009667      1.188187
  O      -2.391575      1.510431      0.960196
  C       0.319090     -0.703691      0.364204
  O       0.624128     -0.952745     -0.979264
  C       1.153538      0.217305     -0.419510
  C       2.640387      0.303400     -0.204457
  H      -1.615014     -0.149863     -1.441829
  H      -2.838354     -1.103908     -0.489948
  H      -2.613103      0.821688      0.026866
  H      -1.495162     -1.010186      1.496597
  H       0.811489     -1.364137      1.071584
  H       0.684191      1.135239     -0.765168
  H       3.130934      0.618765     -1.122510
  H       3.037362     -0.665458      0.087706
  H       2.852188      1.030146      0.575910
17
Coordinates from ORCA-job scan E -27.281198397370
  C      -2.063963     -0.354088     -0.480134
  C      -1.117897     -0.343374      0.707553
  O      -1.117601      1.009888      1.188104
  O      -2.391701      1.510918      0.960883
  C       0.319079     -0.703616      0.364115
  O       0.624212     -0.952805     -0.979304
  C       1.153630      0.217275     -0.419598
  C       2.640458      0.303311     -0.204405
  H      -1.615248     -0.149454     -1.442140
  H      -2.837952     -1.104982     -0.490391
  H      -2.614411      0.822586      0.027530
  H      -1.495001     -1.009959      1.496669
  H       0.811352     -1.364046      1.071581
  H       0.684360      1.135206     -0.765351
  H       3.131112      0.618585     -1.122433
  H       3.037357     -0.665546      0.087866
  H       2.852213      1.030102      0.575932
17
Coordinates from ORCA-job scan E -27.281205698090
  C      -2.062716     -0.357247     -0.481140
  C      -1.118015     -0.342769      0.706907
  O      -1.116637      1.010568      1.186752
  O      -2.392432      1.511824      0.963839
  C       0.319100     -0.703422      0.363667
  O       0.624824     -0.953379     -0.979473
  C       1.154091      0.216962     -0.420125
  C       2.640815      0.302926     -0.204198
  H      -1.616267     -0.146548     -1.442667
  H      -2.835860     -1.108713     -0.491879
  H      -2.619715      0.825283      0.030271
  H      -1.494845     -1.008575      1.496826
  H       0.810902     -1.363614      1.071695
  H       0.685086      1.134771     -0.766517
  H       3.131981      0.617694     -1.122127
  H       3.037456     -0.665834      0.088750
  H       2.852230      1.030075      0.575896
17
Coordinates from ORCA-job scan E -27.281206441480
  C      -2.062534     -0.357662     -0.481134
  C      -1.118010     -0.342528      0.706706
  O      -1.116555      1.010850      1.185784
  O      -2.392806      1.511335      0.964532
  C       0.319177     -0.703371      0.363536
  O       0.625080     -0.953577     -0.979500
  C       1.154314      0.216840     -0.420284
  C       2.641009      0.302773     -0.204123
  H      -1.616856     -0.145018     -1.442549
  H      -2.835278     -1.109481     -0.492107
  H      -2.621133      0.825219      0.030906
  H      -1.494868     -1.007954      1.496960
  H       0.810840     -1.363491      1.071739
  H       0.685395      1.134610     -0.766897
  H       3.132337      0.617365     -1.122027
  H       3.037559     -0.665954      0.089051
  H       2.852326      1.030045      0.575882
17
Coordinates from ORCA-job scan E -27.281159846880
  C      -2.062475     -0.357818     -0.481405
  C      -1.118230     -0.342077      0.707209
  O      -1.115342      1.010967      1.187257
  O      -2.390688      1.513223      0.967497
  C       0.318813     -0.703105      0.363630
  O       0.624383     -0.952980     -0.979543
  C       1.153968      0.217169     -0.420097
  C       2.640726      0.302742     -0.204225
  H      -1.615932     -0.145935     -1.442588
  H      -2.834865     -1.110002     -0.492214
  H      -2.622333      0.822793      0.026060
  H      -1.495100     -1.007676      1.497310
  H       0.810494     -1.363530      1.071537
  H       0.685159      1.135133     -0.766343
  H       3.131923      0.617504     -1.122140
  H       3.037145     -0.666149      0.088583
  H       2.852352      1.029744      0.575949
17
Coordinates from ORCA-job scan E -27.281169742350
  C      -2.062986     -0.356428     -0.480583
  C      -1.118113     -0.341905      0.707229
  O      -1.115976      1.011233      1.185964
  O      -2.391190      1.511415      0.966886
  C       0.318952     -0.703111      0.363639
  O       0.624462     -0.952912     -0.979536
  C       1.154148      0.217155     -0.420054
  C       2.640927      0.302627     -0.204219
  H      -1.616489     -0.144601     -1.441806
  H      -2.834864     -1.109109     -0.491601
  H      -2.621699      0.820565      0.025478
  H      -1.495241     -1.007157      1.497469
  H       0.810649     -1.363613      1.071502
  H       0.685379      1.135163     -0.766266
  H       3.132114      0.617399     -1.122136
  H       3.037292     -0.666303      0.088533
  H       2.852632      1.029582      0.575978
17
Coordinates from ORCA-job scan E -27.281178731870
  C      -2.064516     -0.353866     -0.479101
  C      -1.117647     -0.341429      0.707551
  O      -1.117040      1.012421      1.184054
  O      -2.392356      1.508554      0.964808
  C       0.319151     -0.702925      0.363749
  O       0.624116     -0.951959     -0.979634
  C       1.154473      0.217519     -0.419613
  C       2.641365      0.302287     -0.204216
  H      -1.617750     -0.143249     -1.440696
  H      -2.835176     -1.108055     -0.490432
  H      -2.619999      0.816040      0.023925
  H      -1.494824     -1.006329      1.498116
  H       0.810811     -1.364056      1.071052
  H       0.685948      1.135917     -0.765143
  H       3.132368      0.617428     -1.122102
  H       3.037441     -0.666978      0.087809
  H       2.853632      1.028683      0.576350
17
Coordinates from ORCA-job scan E -27.281180258550
  C      -2.065112     -0.353395     -0.478755
  C      -1.117486     -0.341251      0.707774
  O      -1.117281      1.013006      1.183982
  O      -2.392674      1.508585      0.963701
  C       0.319071     -0.702795      0.363745
  O       0.623673     -0.951130     -0.979867
  C       1.154467      0.217884     -0.419301
  C       2.641433      0.302139     -0.204222
  H      -1.617898     -0.144039     -1.440502
  H      -2.835139     -1.108313     -0.490069
  H      -2.619119      0.814935      0.023366
  H      -1.494456     -1.006111      1.498429
  H       0.810704     -1.364429      1.070581
  H       0.686104      1.136600     -0.764195
  H       3.132294      0.617671     -1.122048
  H       3.037325     -0.667397      0.087156
  H       2.854090      1.028038      0.576701
17
Coordinates from ORCA-job scan E -27.281181409060
  C      -2.065842     -0.353242     -0.478425
  C      -1.117399     -0.341064      0.708073
  O      -1.117425      1.013666      1.184192
  O      -2.392712      1.509563      0.962034
  C       0.318823     -0.702625      0.363599
  O       0.622930     -0.949690     -0.980422
  C       1.154347      0.218531     -0.418831
  C       2.641414      0.301979     -0.204185
  H      -1.617810     -0.146158     -1.440374
  H      -2.834985     -1.109134     -0.489504
  H      -2.617743      0.814030      0.022751
  H      -1.493999     -1.005750      1.498959
  H       0.810428     -1.365130      1.069616
  H       0.686222      1.137785     -0.762606
  H       3.132078      0.618246     -1.121862
  H       3.037029     -0.668011      0.086070
  H       2.854643      1.027005      0.577392
17
Coordinates from ORCA-job scan E -27.281181409080
  C      -2.065842     -0.353242     -0.478425
  C      -1.117399     -0.341064      0.708073
  O      -1.117425      1.013666      1.184192
  O      -2.392712      1.509563      0.962034
  C       0.318823     -0.702625      0.363599
  O       0.622930     -0.949690     -0.980422
  C       1.154347      0.218531     -0.418831
  C       2.641414      0.301979     -0.204185
  H      -1.617810     -0.146158     -1.440374
  H      -2.834985     -1.109134     -0.489504
  H      -2.617743      0.814030      0.022751
  H      -1.493999     -1.005750      1.498959
  H       0.810428     -1.365130      1.069616
  H       0.686222      1.137785     -0.762606
  H       3.132078      0.618246     -1.121862
  H       3.037029     -0.668011      0.086070
  H       2.854643      1.027005      0.577392
17
Coordinates from ORCA-job scan E -27.281181372320
  C      -2.065906     -0.353458     -0.478447
  C      -1.117482     -0.341028      0.708054
  O      -1.117259      1.013660      1.184204
  O      -2.392368      1.510086      0.962055
  C       0.318740     -0.702614      0.363467
  O       0.622844     -0.949418     -0.980618
  C       1.154306      0.218659     -0.418791
  C       2.641376      0.301990     -0.204119
  H      -1.617788     -0.146776     -1.440440
  H      -2.834983     -1.109414     -0.489337
  H      -2.617657      0.813981      0.022591
  H      -1.494014     -1.005573      1.499094
  H       0.810336     -1.365296      1.069322
  H       0.686216      1.138005     -0.762367
  H       3.132053      0.618415     -1.121735
  H       3.036946     -0.668074      0.085945
  H       2.854639      1.026855      0.577599
