15
Coordinates from ORCA-job freq E -270.974706334722
  C          -5.19815470060350     -1.41533494353409      1.17271784681505
  C          -4.21684672219369     -0.83522470677570      0.19737888871238
  C          -2.73705277940181     -1.20400327382023      0.34004714883691
  C          -1.35238438595444      1.11333310477878      0.03053421435880
  C          -2.35471797382596      0.22691746124398      0.60224651263923
  O          -1.33160144494309      0.69100795563453      1.40404813203055
  H          -3.74373990859201      0.42848388801876      0.60740434455302
  H          -4.84786675669042     -1.28467530326224      2.19839982214174
  H          -5.32431281141570     -2.49074055031098      1.00854335388786
  H          -6.17731811307632     -0.94707051317322      1.08508057124572
  H          -4.56483304935425     -0.70781883404602     -0.82368824851307
  H          -2.55464595646378     -1.82380552837895      1.21854899154389
  H          -2.27045172987266     -1.66730499183538     -0.52804957781651
  H          -0.55172357430179      0.70224578180624     -0.57439382329680
  H          -1.58052609331030      2.16079045365454     -0.12217917713880
