15
* (null), Energy   -1000.0000000
C    -5.198155   -1.415335    1.172718    0.002471    0.013295   -0.000307
C    -4.216847   -0.835225    0.197379   -0.015332   -0.124285   -0.032126
C    -2.737053   -1.204003    0.340047   -0.008476   -0.007115   -0.008288
C    -1.352384    1.113333    0.030534    0.002939   -0.009702    0.007332
C    -2.354718    0.226917    0.602247   -0.111364    0.028195   -0.009862
O    -1.331601    0.691008    1.404048   -0.004846    0.005948   -0.001217
H    -3.743740    0.428484    0.607404    1.647096    0.989512    0.505658
H    -4.847867   -1.284675    2.198400    0.002287   -0.002972    0.007248
H    -5.324313   -2.490741    1.008543    0.003308   -0.004961    0.008165
H    -6.177318   -0.947071    1.085081   -0.006500   -0.003692   -0.000582
H    -4.564833   -0.707819   -0.823688   -0.003553    0.143457    0.009010
H    -2.554646   -1.823806    1.218549   -0.004979    0.005436    0.002927
H    -2.270452   -1.667305   -0.528050   -0.003088   -0.013270   -0.000555
H    -0.551724    0.702246   -0.574394   -0.013913   -0.015951   -0.001928
H    -1.580526    2.160790   -0.122179    0.002456   -0.005022    0.004741
15
* Frequency(6) -2033.9804
C    -5.197874   -1.413824    1.172683    0.002471    0.013295   -0.000307
C    -4.218589   -0.849349    0.193728   -0.015332   -0.124285   -0.032126
C    -2.738016   -1.204812    0.339105   -0.008476   -0.007115   -0.008288
C    -1.352050    1.112231    0.031367    0.002939   -0.009702    0.007332
C    -2.367374    0.230122    0.601126   -0.111364    0.028195   -0.009862
O    -1.332152    0.691684    1.403910   -0.004846    0.005948   -0.001217
H    -3.556556    0.540937    0.664870    1.647096    0.989512    0.505658
H    -4.847607   -1.285013    2.199224    0.002287   -0.002972    0.007248
H    -5.323937   -2.491304    1.009471    0.003308   -0.004961    0.008165
H    -6.178057   -0.947490    1.085014   -0.006500   -0.003692   -0.000582
H    -4.565237   -0.691516   -0.822664   -0.003553    0.143457    0.009010
H    -2.555212   -1.823188    1.218882   -0.004979    0.005436    0.002927
H    -2.270803   -1.668813   -0.528113   -0.003088   -0.013270   -0.000555
H    -0.553305    0.700433   -0.574613   -0.013913   -0.015951   -0.001928
H    -1.580247    2.160220   -0.121640    0.002456   -0.005022    0.004741
15
* Frequency(6) -2033.9804
C    -5.197624   -1.412477    1.172652    0.002471    0.013295   -0.000307
C    -4.220143   -0.861943    0.190473   -0.015332   -0.124285   -0.032126
C    -2.738875   -1.205533    0.338265   -0.008476   -0.007115   -0.008288
C    -1.351753    1.111248    0.032110    0.002939   -0.009702    0.007332
C    -2.378658    0.232979    0.600126   -0.111364    0.028195   -0.009862
O    -1.332643    0.692287    1.403787   -0.004846    0.005948   -0.001217
H    -3.389656    0.641204    0.716108    1.647096    0.989512    0.505658
H    -4.847375   -1.285314    2.199958    0.002287   -0.002972    0.007248
H    -5.323602   -2.491807    1.010299    0.003308   -0.004961    0.008165
H    -6.178715   -0.947864    1.084956   -0.006500   -0.003692   -0.000582
H    -4.565597   -0.676979   -0.821751   -0.003553    0.143457    0.009010
H    -2.555716   -1.822637    1.219178   -0.004979    0.005436    0.002927
H    -2.271116   -1.670158   -0.528169   -0.003088   -0.013270   -0.000555
H    -0.554715    0.698817   -0.574808   -0.013913   -0.015951   -0.001928
H    -1.579998    2.159711   -0.121160    0.002456   -0.005022    0.004741
15
* Frequency(6) -2033.9804
C    -5.197431   -1.411439    1.172628    0.002471    0.013295   -0.000307
C    -4.221339   -0.871641    0.187966   -0.015332   -0.124285   -0.032126
C    -2.739536   -1.206088    0.337619   -0.008476   -0.007115   -0.008288
C    -1.351523    1.110490    0.032682    0.002939   -0.009702    0.007332
C    -2.387349    0.235179    0.599357   -0.111364    0.028195   -0.009862
O    -1.333021    0.692751    1.403692   -0.004846    0.005948   -0.001217
H    -3.261127    0.718419    0.755566    1.647096    0.989512    0.505658
H    -4.847197   -1.285546    2.200523    0.002287   -0.002972    0.007248
H    -5.323343   -2.492194    1.010936    0.003308   -0.004961    0.008165
H    -6.179223   -0.948152    1.084910   -0.006500   -0.003692   -0.000582
H    -4.565874   -0.665785   -0.821048   -0.003553    0.143457    0.009010
H    -2.556105   -1.822213    1.219407   -0.004979    0.005436    0.002927
H    -2.271357   -1.671193   -0.528212   -0.003088   -0.013270   -0.000555
H    -0.555800    0.697572   -0.574959   -0.013913   -0.015951   -0.001928
H    -1.579806    2.159319   -0.120790    0.002456   -0.005022    0.004741
15
* Frequency(6) -2033.9804
C    -5.197316   -1.410824    1.172614    0.002471    0.013295   -0.000307
C    -4.222049   -0.877393    0.186479   -0.015332   -0.124285   -0.032126
C    -2.739929   -1.206417    0.337235   -0.008476   -0.007115   -0.008288
C    -1.351387    1.110041    0.033022    0.002939   -0.009702    0.007332
C    -2.392503    0.236484    0.598900   -0.111364    0.028195   -0.009862
O    -1.333246    0.693026    1.403635   -0.004846    0.005948   -0.001217
H    -3.184897    0.764215    0.778969    1.647096    0.989512    0.505658
H    -4.847091   -1.285684    2.200859    0.002287   -0.002972    0.007248
H    -5.323190   -2.492424    1.011314    0.003308   -0.004961    0.008165
H    -6.179524   -0.948323    1.084883   -0.006500   -0.003692   -0.000582
H    -4.566039   -0.659145   -0.820631   -0.003553    0.143457    0.009010
H    -2.556335   -1.821961    1.219542   -0.004979    0.005436    0.002927
H    -2.271500   -1.671807   -0.528238   -0.003088   -0.013270   -0.000555
H    -0.556444    0.696834   -0.575048   -0.013913   -0.015951   -0.001928
H    -1.579693    2.159087   -0.120570    0.002456   -0.005022    0.004741
15
* Frequency(6) -2033.9804
C    -5.197293   -1.410698    1.172611    0.002471    0.013295   -0.000307
C    -4.222194   -0.878576    0.186173   -0.015332   -0.124285   -0.032126
C    -2.740009   -1.206485    0.337156   -0.008476   -0.007115   -0.008288
C    -1.351359    1.109949    0.033091    0.002939   -0.009702    0.007332
C    -2.393562    0.236752    0.598806   -0.111364    0.028195   -0.009862
O    -1.333292    0.693083    1.403624   -0.004846    0.005948   -0.001217
H    -3.169225    0.773630    0.783780    1.647096    0.989512    0.505658
H    -4.847069   -1.285712    2.200928    0.002287   -0.002972    0.007248
H    -5.323159   -2.492471    1.011391    0.003308   -0.004961    0.008165
H    -6.179585   -0.948358    1.084878   -0.006500   -0.003692   -0.000582
H    -4.566072   -0.657781   -0.820546   -0.003553    0.143457    0.009010
H    -2.556383   -1.821910    1.219570   -0.004979    0.005436    0.002927
H    -2.271529   -1.671934   -0.528243   -0.003088   -0.013270   -0.000555
H    -0.556577    0.696682   -0.575066   -0.013913   -0.015951   -0.001928
H    -1.579669    2.159039   -0.120525    0.002456   -0.005022    0.004741
15
* Frequency(6) -2033.9804
C    -5.197363   -1.411074    1.172620    0.002471    0.013295   -0.000307
C    -4.221761   -0.875061    0.187082   -0.015332   -0.124285   -0.032126
C    -2.739770   -1.206284    0.337391   -0.008476   -0.007115   -0.008288
C    -1.351442    1.110224    0.032884    0.002939   -0.009702    0.007332
C    -2.390412    0.235955    0.599085   -0.111364    0.028195   -0.009862
O    -1.333155    0.692914    1.403658   -0.004846    0.005948   -0.001217
H    -3.215812    0.745643    0.769478    1.647096    0.989512    0.505658
H    -4.847134   -1.285628    2.200723    0.002287   -0.002972    0.007248
H    -5.323252   -2.492331    1.011160    0.003308   -0.004961    0.008165
H    -6.179402   -0.948254    1.084894   -0.006500   -0.003692   -0.000582
H    -4.565972   -0.661838   -0.820800   -0.003553    0.143457    0.009010
H    -2.556242   -1.822063    1.219487   -0.004979    0.005436    0.002927
H    -2.271442   -1.671558   -0.528227   -0.003088   -0.013270   -0.000555
H    -0.556183    0.697133   -0.575012   -0.013913   -0.015951   -0.001928
H    -1.579739    2.159181   -0.120659    0.002456   -0.005022    0.004741
15
* Frequency(6) -2033.9804
C    -5.197518   -1.411911    1.172639    0.002471    0.013295   -0.000307
C    -4.220795   -0.867228    0.189106   -0.015332   -0.124285   -0.032126
C    -2.739235   -1.205836    0.337913   -0.008476   -0.007115   -0.008288
C    -1.351628    1.110835    0.032422    0.002939   -0.009702    0.007332
C    -2.383395    0.234178    0.599707   -0.111364    0.028195   -0.009862
O    -1.332849    0.692540    1.403735   -0.004846    0.005948   -0.001217
H    -3.319607    0.683287    0.737613    1.647096    0.989512    0.505658
H    -4.847278   -1.285441    2.200266    0.002287   -0.002972    0.007248
H    -5.323461   -2.492018    1.010646    0.003308   -0.004961    0.008165
H    -6.178992   -0.948021    1.084931   -0.006500   -0.003692   -0.000582
H    -4.565748   -0.670878   -0.821368   -0.003553    0.143457    0.009010
H    -2.555928   -1.822406    1.219303   -0.004979    0.005436    0.002927
H    -2.271247   -1.670722   -0.528192   -0.003088   -0.013270   -0.000555
H    -0.555306    0.698138   -0.574890   -0.013913   -0.015951   -0.001928
H    -1.579894    2.159497   -0.120958    0.002456   -0.005022    0.004741
15
* Frequency(6) -2033.9804
C    -5.197743   -1.413120    1.172667    0.002471    0.013295   -0.000307
C    -4.219401   -0.855928    0.192027   -0.015332   -0.124285   -0.032126
C    -2.738465   -1.205189    0.338667   -0.008476   -0.007115   -0.008288
C    -1.351895    1.111717    0.031756    0.002939   -0.009702    0.007332
C    -2.373269    0.231614    0.600604   -0.111364    0.028195   -0.009862
O    -1.332409    0.691999    1.403845   -0.004846    0.005948   -0.001217
H    -3.469364    0.593318    0.691638    1.647096    0.989512    0.505658
H    -4.847486   -1.285170    2.199607    0.002287   -0.002972    0.007248
H    -5.323762   -2.491567    1.009903    0.003308   -0.004961    0.008165
H    -6.178401   -0.947686    1.084984   -0.006500   -0.003692   -0.000582
H    -4.565425   -0.683922   -0.822187   -0.003553    0.143457    0.009010
H    -2.555475   -1.822900    1.219037   -0.004979    0.005436    0.002927
H    -2.270966   -1.669515   -0.528142   -0.003088   -0.013270   -0.000555
H    -0.554041    0.699589   -0.574715   -0.013913   -0.015951   -0.001928
H    -1.580117    2.159954   -0.121389    0.002456   -0.005022    0.004741
15
* Frequency(6) -2033.9804
C    -5.198012   -1.414569    1.172700    0.002471    0.013295   -0.000307
C    -4.217730   -0.842385    0.195528   -0.015332   -0.124285   -0.032126
C    -2.737541   -1.204413    0.339570   -0.008476   -0.007115   -0.008288
C    -1.352215    1.112774    0.030957    0.002939   -0.009702    0.007332
C    -2.361133    0.228542    0.601678   -0.111364    0.028195   -0.009862
O    -1.331881    0.691351    1.403978   -0.004846    0.005948   -0.001217
H    -3.648854    0.485488    0.636534    1.647096    0.989512    0.505658
H    -4.847735   -1.284847    2.198817    0.002287   -0.002972    0.007248
H    -5.324122   -2.491026    1.009014    0.003308   -0.004961    0.008165
H    -6.177693   -0.947283    1.085047   -0.006500   -0.003692   -0.000582
H    -4.565038   -0.699555   -0.823169   -0.003553    0.143457    0.009010
H    -2.554933   -1.823492    1.218718   -0.004979    0.005436    0.002927
H    -2.270630   -1.668069   -0.528082   -0.003088   -0.013270   -0.000555
H    -0.552525    0.701327   -0.574505   -0.013913   -0.015951   -0.001928
H    -1.580385    2.160501   -0.121906    0.002456   -0.005022    0.004741
15
* Frequency(6) -2033.9804
C    -5.198297   -1.416101    1.172736    0.002471    0.013295   -0.000307
C    -4.215963   -0.828065    0.199230   -0.015332   -0.124285   -0.032126
C    -2.736564   -1.203593    0.340525   -0.008476   -0.007115   -0.008288
C    -1.352554    1.113892    0.030112    0.002939   -0.009702    0.007332
C    -2.348303    0.225293    0.602815   -0.111364    0.028195   -0.009862
O    -1.331322    0.690665    1.404118   -0.004846    0.005948   -0.001217
H    -3.838626    0.371480    0.578274    1.647096    0.989512    0.505658
H    -4.847998   -1.284504    2.197982    0.002287   -0.002972    0.007248
H    -5.324503   -2.490455    1.008073    0.003308   -0.004961    0.008165
H    -6.176944   -0.946858    1.085114   -0.006500   -0.003692   -0.000582
H    -4.564628   -0.716083   -0.824207   -0.003553    0.143457    0.009010
H    -2.554359   -1.824119    1.218380   -0.004979    0.005436    0.002927
H    -2.270274   -1.666541   -0.528018   -0.003088   -0.013270   -0.000555
H    -0.550922    0.703165   -0.574283   -0.013913   -0.015951   -0.001928
H    -1.580668    2.161080   -0.122452    0.002456   -0.005022    0.004741
15
* Frequency(6) -2033.9804
C    -5.198566   -1.417550    1.172769    0.002471    0.013295   -0.000307
C    -4.214293   -0.814521    0.202731   -0.015332   -0.124285   -0.032126
C    -2.735641   -1.202818    0.341428   -0.008476   -0.007115   -0.008288
C    -1.352874    1.114949    0.029313    0.002939   -0.009702    0.007332
C    -2.336167    0.222221    0.603889   -0.111364    0.028195   -0.009862
O    -1.330794    0.690017    1.404251   -0.004846    0.005948   -0.001217
H    -4.018116    0.263649    0.523171    1.647096    0.989512    0.505658
H    -4.848248   -1.284180    2.197192    0.002287   -0.002972    0.007248
H    -5.324864   -2.489914    1.007183    0.003308   -0.004961    0.008165
H    -6.176235   -0.946455    1.085177   -0.006500   -0.003692   -0.000582
H    -4.564241   -0.731716   -0.825189   -0.003553    0.143457    0.009010
H    -2.553817   -1.824711    1.218061   -0.004979    0.005436    0.002927
H    -2.269937   -1.665095   -0.527957   -0.003088   -0.013270   -0.000555
H    -0.549406    0.704903   -0.574073   -0.013913   -0.015951   -0.001928
H    -1.580935    2.161627   -0.122969    0.002456   -0.005022    0.004741
15
* Frequency(6) -2033.9804
C    -5.198791   -1.418759    1.172797    0.002471    0.013295   -0.000307
C    -4.212899   -0.803221    0.205652   -0.015332   -0.124285   -0.032126
C    -2.734870   -1.202171    0.342181   -0.008476   -0.007115   -0.008288
C    -1.353141    1.115831    0.028646    0.002939   -0.009702    0.007332
C    -2.326041    0.219657    0.604786   -0.111364    0.028195   -0.009862
O    -1.330354    0.689476    1.404361   -0.004846    0.005948   -0.001217
H    -4.167873    0.173681    0.477196    1.647096    0.989512    0.505658
H    -4.848456   -1.283910    2.196533    0.002287   -0.002972    0.007248
H    -5.325165   -2.489463    1.006441    0.003308   -0.004961    0.008165
H    -6.175644   -0.946120    1.085230   -0.006500   -0.003692   -0.000582
H    -4.563918   -0.744759   -0.826008   -0.003553    0.143457    0.009010
H    -2.553364   -1.825205    1.217795   -0.004979    0.005436    0.002927
H    -2.269656   -1.663888   -0.527907   -0.003088   -0.013270   -0.000555
H    -0.548141    0.706353   -0.573897   -0.013913   -0.015951   -0.001928
H    -1.581159    2.162084   -0.123400    0.002456   -0.005022    0.004741
15
* Frequency(6) -2033.9804
C    -5.198947   -1.419596    1.172816    0.002471    0.013295   -0.000307
C    -4.211933   -0.795389    0.207676   -0.015332   -0.124285   -0.032126
C    -2.734336   -1.201723    0.342704   -0.008476   -0.007115   -0.008288
C    -1.353326    1.116443    0.028184    0.002939   -0.009702    0.007332
C    -2.319024    0.217880    0.605408   -0.111364    0.028195   -0.009862
O    -1.330048    0.689102    1.404438   -0.004846    0.005948   -0.001217
H    -4.271668    0.111325    0.445331    1.647096    0.989512    0.505658
H    -4.848600   -1.283723    2.196077    0.002287   -0.002972    0.007248
H    -5.325373   -2.489150    1.005926    0.003308   -0.004961    0.008165
H    -6.175235   -0.945887    1.085267   -0.006500   -0.003692   -0.000582
H    -4.563694   -0.753800   -0.826576   -0.003553    0.143457    0.009010
H    -2.553050   -1.825548    1.217611   -0.004979    0.005436    0.002927
H    -2.269462   -1.663052   -0.527872   -0.003088   -0.013270   -0.000555
H    -0.547264    0.707358   -0.573776   -0.013913   -0.015951   -0.001928
H    -1.581313    2.162400   -0.123699    0.002456   -0.005022    0.004741
15
* Frequency(6) -2033.9804
C    -5.199017   -1.419972    1.172825    0.002471    0.013295   -0.000307
C    -4.211499   -0.791874    0.208585   -0.015332   -0.124285   -0.032126
C    -2.734096   -1.201521    0.342938   -0.008476   -0.007115   -0.008288
C    -1.353410    1.116717    0.027977    0.002939   -0.009702    0.007332
C    -2.315874    0.217083    0.605687   -0.111364    0.028195   -0.009862
O    -1.329911    0.688933    1.404472   -0.004846    0.005948   -0.001217
H    -4.318254    0.083338    0.431029    1.647096    0.989512    0.505658
H    -4.848664   -1.283639    2.195872    0.002287   -0.002972    0.007248
H    -5.325467   -2.489010    1.005695    0.003308   -0.004961    0.008165
H    -6.175051   -0.945783    1.085283   -0.006500   -0.003692   -0.000582
H    -4.563594   -0.757857   -0.826831   -0.003553    0.143457    0.009010
H    -2.552909   -1.825701    1.217528   -0.004979    0.005436    0.002927
H    -2.269374   -1.662676   -0.527856   -0.003088   -0.013270   -0.000555
H    -0.546871    0.707809   -0.573721   -0.013913   -0.015951   -0.001928
H    -1.581383    2.162542   -0.123833    0.002456   -0.005022    0.004741
15
* Frequency(6) -2033.9804
C    -5.198993   -1.419846    1.172822    0.002471    0.013295   -0.000307
C    -4.211645   -0.793056    0.208279   -0.015332   -0.124285   -0.032126
C    -2.734177   -1.201589    0.342859   -0.008476   -0.007115   -0.008288
C    -1.353382    1.116625    0.028047    0.002939   -0.009702    0.007332
C    -2.316933    0.217351    0.605593   -0.111364    0.028195   -0.009862
O    -1.329957    0.688990    1.404461   -0.004846    0.005948   -0.001217
H    -4.302583    0.092752    0.435840    1.647096    0.989512    0.505658
H    -4.848643   -1.283667    2.195941    0.002287   -0.002972    0.007248
H    -5.325435   -2.489057    1.005773    0.003308   -0.004961    0.008165
H    -6.175113   -0.945818    1.085278   -0.006500   -0.003692   -0.000582
H    -4.563628   -0.756492   -0.826745   -0.003553    0.143457    0.009010
H    -2.552957   -1.825650    1.217556   -0.004979    0.005436    0.002927
H    -2.269404   -1.662803   -0.527861   -0.003088   -0.013270   -0.000555
H    -0.547003    0.707658   -0.573740   -0.013913   -0.015951   -0.001928
H    -1.581359    2.162494   -0.123788    0.002456   -0.005022    0.004741
15
* Frequency(6) -2033.9804
C    -5.198879   -1.419231    1.172808    0.002471    0.013295   -0.000307
C    -4.212354   -0.798808    0.206792   -0.015332   -0.124285   -0.032126
C    -2.734569   -1.201918    0.342476   -0.008476   -0.007115   -0.008288
C    -1.353246    1.116176    0.028386    0.002939   -0.009702    0.007332
C    -2.322087    0.218656    0.605136   -0.111364    0.028195   -0.009862
O    -1.330182    0.689265    1.404405   -0.004846    0.005948   -0.001217
H    -4.226353    0.138549    0.459242    1.647096    0.989512    0.505658
H    -4.848537   -1.283805    2.196276    0.002287   -0.002972    0.007248
H    -5.325282   -2.489287    1.006151    0.003308   -0.004961    0.008165
H    -6.175414   -0.945989    1.085251   -0.006500   -0.003692   -0.000582
H    -4.563792   -0.749853   -0.826328   -0.003553    0.143457    0.009010
H    -2.553187   -1.825398    1.217691   -0.004979    0.005436    0.002927
H    -2.269547   -1.663417   -0.527887   -0.003088   -0.013270   -0.000555
H    -0.547647    0.706919   -0.573829   -0.013913   -0.015951   -0.001928
H    -1.581246    2.162262   -0.123568    0.002456   -0.005022    0.004741
15
* Frequency(6) -2033.9804
C    -5.198686   -1.418193    1.172784    0.002471    0.013295   -0.000307
C    -4.213551   -0.808507    0.204285   -0.015332   -0.124285   -0.032126
C    -2.735231   -1.202474    0.341829   -0.008476   -0.007115   -0.008288
C    -1.353016    1.115419    0.028958    0.002939   -0.009702    0.007332
C    -2.330778    0.220856    0.604367   -0.111364    0.028195   -0.009862
O    -1.330560    0.689729    1.404310   -0.004846    0.005948   -0.001217
H    -4.097823    0.215764    0.498701    1.647096    0.989512    0.505658
H    -4.848358   -1.284036    2.196842    0.002287   -0.002972    0.007248
H    -5.325024   -2.489674    1.006788    0.003308   -0.004961    0.008165
H    -6.175921   -0.946277    1.085206   -0.006500   -0.003692   -0.000582
H    -4.564069   -0.738658   -0.825625   -0.003553    0.143457    0.009010
H    -2.553576   -1.824974    1.217920   -0.004979    0.005436    0.002927
H    -2.269788   -1.664452   -0.527930   -0.003088   -0.013270   -0.000555
H    -0.548733    0.705675   -0.573979   -0.013913   -0.015951   -0.001928
H    -1.581054    2.161870   -0.123198    0.002456   -0.005022    0.004741
15
* Frequency(6) -2033.9804
C    -5.198435   -1.416846    1.172753    0.002471    0.013295   -0.000307
C    -4.215104   -0.821100    0.201030   -0.015332   -0.124285   -0.032126
C    -2.736090   -1.203195    0.340989   -0.008476   -0.007115   -0.008288
C    -1.352718    1.114436    0.029701    0.002939   -0.009702    0.007332
C    -2.342062    0.223713    0.603367   -0.111364    0.028195   -0.009862
O    -1.331051    0.690332    1.404186   -0.004846    0.005948   -0.001217
H    -3.930924    0.316031    0.549939    1.647096    0.989512    0.505658
H    -4.848127   -1.284338    2.197576    0.002287   -0.002972    0.007248
H    -5.324689   -2.490177    1.007615    0.003308   -0.004961    0.008165
H    -6.176579   -0.946651    1.085147   -0.006500   -0.003692   -0.000582
H    -4.564429   -0.724122   -0.824712   -0.003553    0.143457    0.009010
H    -2.554080   -1.824423    1.218216   -0.004979    0.005436    0.002927
H    -2.270101   -1.665797   -0.527987   -0.003088   -0.013270   -0.000555
H    -0.550142    0.704058   -0.574175   -0.013913   -0.015951   -0.001928
H    -1.580805    2.161361   -0.122718    0.002456   -0.005022    0.004741
15
* Frequency(6) -2033.9804
C    -5.198155   -1.415335    1.172718    0.002471    0.013295   -0.000307
C    -4.216847   -0.835225    0.197379   -0.015332   -0.124285   -0.032126
C    -2.737053   -1.204003    0.340047   -0.008476   -0.007115   -0.008288
C    -1.352384    1.113333    0.030534    0.002939   -0.009702    0.007332
C    -2.354718    0.226917    0.602247   -0.111364    0.028195   -0.009862
O    -1.331601    0.691008    1.404048   -0.004846    0.005948   -0.001217
H    -3.743740    0.428484    0.607404    1.647096    0.989512    0.505658
H    -4.847867   -1.284675    2.198400    0.002287   -0.002972    0.007248
H    -5.324313   -2.490741    1.008543    0.003308   -0.004961    0.008165
H    -6.177318   -0.947071    1.085081   -0.006500   -0.003692   -0.000582
H    -4.564833   -0.707819   -0.823688   -0.003553    0.143457    0.009010
H    -2.554646   -1.823806    1.218549   -0.004979    0.005436    0.002927
H    -2.270452   -1.667305   -0.528050   -0.003088   -0.013270   -0.000555
H    -0.551724    0.702246   -0.574394   -0.013913   -0.015951   -0.001928
H    -1.580526    2.160790   -0.122179    0.002456   -0.005022    0.004741
