17
Coordinates from ORCA-job freq E -421.385547723272
  C          -2.24877818455688     -0.07868033828855     -0.78243280885854
  C           1.99409032791763      0.69604056497030     -0.10238175235388
  C           0.07669375550970     -0.93943102757834     -0.24696604734240
  C          -0.96308661547681      0.15862371461746     -0.02311993465957
  C           1.38159414744409     -0.57083946538130      0.41484911189979
  O           0.59420605048447      1.78699160628557      0.29232055751420
  O           2.56269688063635     -0.94121152815940     -0.14511951223336
  O          -0.42371795646220      1.38855256377091     -0.51495240662328
  H           1.97085266656214      0.89137728244703     -1.16107001657237
  H          -2.95159446008911      0.73410417095986     -0.61008314257688
  H          -2.70481902646267     -1.01222804685246     -0.45573011445740
  H          -2.04710935532364     -0.14714613899698     -1.85124916896067
  H           2.73562555818292      1.19523708711278      0.49855077128278
  H          -0.30086160103232     -1.88085571000200      0.15726459179188
  H           0.24722619873404     -1.06892180805293     -1.31805092253819
  H          -1.15261535509360      0.28934539278369      1.04619719719515
  H           1.34798096902591     -0.59954831963565      1.50765359749275
