17
Coordinates from ORCA-job freq E -421.375935513906
  C      -3.273270     -0.140407     -0.364853
  C      -1.963430     -0.801765     -0.629990
  C       0.300147      0.465940     -1.496203
  C       1.603490      0.698244     -0.737676
  C      -0.718593     -0.117887     -0.601318
  O      -0.596389     -0.778077      0.522892
  O       3.758659      1.470038     -1.009709
  O       2.524166      1.203781     -1.676707
  H      -4.038877     -0.607517     -0.983096
  H      -3.223631      0.924386     -0.578570
  H      -3.568085     -0.270698      0.676893
  H      -1.975193     -1.885099     -0.685796
  H       0.492587     -0.207161     -2.341702
  H      -0.057927      1.411660     -1.915440
  H       1.457907      1.419503      0.075698
  H       1.971148     -0.241949     -0.308890
  H       4.316390      1.777345     -1.735790
17
Coordinates from ORCA-job freq E -421.378093426260
  C      -3.263428     -0.121557     -0.324593
  C      -1.974674     -0.795209     -0.644277
  C       0.322559      0.429365     -1.535271
  C       1.589773      0.718330     -0.751122
  C      -0.714214     -0.142371     -0.643261
  O      -0.561169     -0.826026      0.446719
  O       3.686197      1.512879     -0.932071
  O       2.522649      1.194981     -1.693101
  H      -4.079758     -0.572298     -0.891398
  H      -3.213192      0.946943     -0.525416
  H      -3.495360     -0.257634      0.734244
  H      -1.996424     -1.870507     -0.785651
  H       0.553282     -0.267249     -2.349968
  H      -0.046855      1.345628     -2.000252
  H       1.414793      1.474025      0.018621
  H       1.968008     -0.187610     -0.272127
  H       4.296914      1.738647     -1.641334
17
Coordinates from ORCA-job freq E -421.378615856298
  C      -3.243801     -0.093675     -0.289924
  C      -1.987687     -0.795284     -0.671288
  C       0.334436      0.382136     -1.558604
  C       1.569589      0.743826     -0.753548
  C      -0.705170     -0.185674     -0.667205
  O      -0.547990     -0.926666      0.383729
  O       3.651536      1.591235     -0.900285
  O       2.517501      1.216167     -1.684426
  H      -4.093986     -0.503835     -0.837420
  H      -3.166591      0.978290     -0.463352
  H      -3.441717     -0.249925      0.773356
  H      -2.045849     -1.860102     -0.871224
  H       0.609641     -0.341281     -2.336318
  H      -0.056731      1.263177     -2.070130
  H       1.347062      1.523902     -0.021144
  H       1.961019     -0.129603     -0.227526
  H       4.307837      1.707649     -1.594947
17
Coordinates from ORCA-job freq E -421.379194449930
  C      -3.209595     -0.059708     -0.244029
  C      -2.001896     -0.795503     -0.708690
  C       0.350184      0.325607     -1.583971
  C       1.548016      0.771213     -0.764053
  C      -0.691657     -0.247289     -0.700224
  O      -0.541175     -1.059901      0.295763
  O       3.567072      1.760270     -0.895474
  O       2.517807      1.206951     -1.689703
  H      -4.098918     -0.405333     -0.773280
  H      -3.089722      1.015157     -0.370168
  H      -3.370300     -0.257356      0.818777
  H      -2.116046     -1.842014     -0.971278
  H       0.673171     -0.423535     -2.318582
  H      -0.061058      1.166790     -2.143309
  H       1.274283      1.594231     -0.098799
  H       1.940704     -0.051157     -0.161919
  H       4.318227      1.621912     -1.481319
17
Coordinates from ORCA-job freq E -421.379930657106
  C      -3.159238     -0.011798     -0.209177
  C      -2.016421     -0.797745     -0.747786
  C       0.373749      0.254297     -1.605085
  C       1.512553      0.801877     -0.761082
  C      -0.676771     -0.331317     -0.743442
  O      -0.555970     -1.219269      0.191109
  O       3.511856      1.850259     -0.870648
  O       2.449447      1.338880     -1.670065
  H      -4.107725     -0.364479     -0.613475
  H      -3.029611      1.051112     -0.412505
  H      -3.201887     -0.134863      0.876420
  H      -2.203779     -1.811291     -1.085166
  H       0.772172     -0.511228     -2.283707
  H      -0.059632      1.043794     -2.219093
  H       1.155919      1.592862     -0.096456
  H       1.969618      0.012518     -0.160747
  H       4.274817      1.556727     -1.379354
17
Coordinates from ORCA-job freq E -421.380197752693
  C      -3.119486      0.018802     -0.173186
  C      -2.028962     -0.797323     -0.773566
  C       0.383010      0.211495     -1.642119
  C       1.510621      0.775913     -0.790328
  C      -0.672857     -0.381401     -0.792539
  O      -0.564878     -1.291110      0.122915
  O       3.405691      2.026996     -0.929074
  O       2.472546      1.277795     -1.696122
  H      -4.101990     -0.317679     -0.502297
  H      -2.983216      1.075606     -0.404485
  H      -3.081414     -0.084126      0.914492
  H      -2.264923     -1.798410     -1.118322
  H       0.786046     -0.555520     -2.314898
  H      -0.040816      1.003141     -2.260343
  H       1.135817      1.588040     -0.163179
  H       1.949263      0.010293     -0.146360
  H       4.224648      1.557822     -1.120847
17
Coordinates from ORCA-job freq E -421.380593141215
  C      -3.113818     -0.008727     -0.157234
  C      -2.010320     -0.799467     -0.766966
  C       0.373397      0.250171     -1.658011
  C       1.485486      0.855131     -0.815580
  C      -0.661966     -0.360327     -0.795462
  O      -0.527963     -1.276309      0.110074
  O       3.467734      1.968252     -0.970969
  O       2.460334      1.321780     -1.727953
  H      -4.090012     -0.371419     -0.477113
  H      -3.006570      1.050279     -0.393970
  H      -3.064308     -0.106912      0.930312
  H      -2.229557     -1.800253     -1.123037
  H       0.805752     -0.514190     -2.316377
  H      -0.079198      1.012933     -2.291146
  H       1.112644      1.686751     -0.214064
  H       1.915082      0.101965     -0.149435
  H       4.172382      1.310680     -0.973323
17
Coordinates from ORCA-job freq E -421.380595268199
  C      -3.115193     -0.011216     -0.157412
  C      -2.011418     -0.799832     -0.769278
  C       0.373013      0.251917     -1.654583
  C       1.481113      0.862734     -0.810662
  C      -0.662854     -0.361176     -0.794434
  O      -0.529890     -1.281263      0.106973
  O       3.474866      1.953212     -0.958423
  O       2.462137      1.318948     -1.720762
  H      -4.091401     -0.374389     -0.476614
  H      -3.009270      1.048170     -0.393291
  H      -3.064210     -0.110190      0.929967
  H      -2.230534     -1.798834     -1.130400
  H       0.810873     -0.512355     -2.309426
  H      -0.081098      1.011035     -2.290969
  H       1.106317      1.700022     -0.218023
  H       1.905872      0.114428     -0.135948
  H       4.190778      1.309125     -1.006971
17
Coordinates from ORCA-job freq E -421.380614336076
  C      -3.115796     -0.012156     -0.157661
  C      -2.010800     -0.799864     -0.768462
  C       0.372425      0.253539     -1.654957
  C       1.482144      0.862751     -0.811885
  C      -0.662802     -0.359390     -0.793868
  O      -0.528697     -1.278221      0.108653
  O       3.476252      1.954170     -0.962716
  O       2.462555      1.319356     -1.722842
  H      -4.091392     -0.376628     -0.477268
  H      -3.010948      1.047215     -0.394065
  H      -3.065403     -0.110487      0.929801
  H      -2.228432     -1.799621     -1.128408
  H       0.808685     -0.510627     -2.310993
  H      -0.081849      1.013480     -2.290266
  H       1.108797      1.699584     -0.217811
  H       1.907161      0.113339     -0.138619
  H       4.187200      1.303897     -0.998892
17
Coordinates from ORCA-job freq E -421.380610653258
  C      -3.115947     -0.012353     -0.157773
  C      -2.010673     -0.799920     -0.768279
  C       0.372289      0.253898     -1.654968
  C       1.482266      0.862783     -0.811995
  C      -0.662792     -0.359094     -0.793764
  O      -0.528427     -1.277662      0.108985
  O       3.476538      1.954016     -0.963152
  O       2.462640      1.319311     -1.723056
  H      -4.091410     -0.377086     -0.477492
  H      -3.011292      1.047002     -0.394336
  H      -3.065749     -0.110484      0.929720
  H      -2.228011     -1.799843     -1.127951
  H       0.808320     -0.510151     -2.311303
  H      -0.082049      1.014022     -2.290000
  H       1.109182      1.699596     -0.217729
  H       1.907232      0.113178     -0.138909
  H       4.186982      1.303125     -0.998255
