17
Coordinates from ORCA-job freq E -421.380610653258
  C          -3.11594669583652     -0.01235260224922     -0.15777300005806
  C          -2.01067340216382     -0.79992046523376     -0.76827918443275
  C           0.37228945347258      0.25389837297787     -1.65496756863667
  C           1.48226564185000      0.86278268542716     -0.81199479518365
  C          -0.66279185837337     -0.35909433801969     -0.79376404445876
  O          -0.52842711574006     -1.27766237938566      0.10898517150685
  O           3.47653794419558      1.95401567457000     -0.96315161001360
  O           2.46264049695421      1.31931147351501     -1.72305645486777
  H          -4.09141000109606     -0.37708629168990     -0.47749169262454
  H          -3.01129153468539      1.04700208108197     -0.39433565818899
  H          -3.06574914489309     -0.11048415162600      0.92971952680551
  H          -2.22801148939346     -1.79984330341106     -1.12795078725333
  H           0.80831998432408     -0.51015126408708     -2.31130340051965
  H          -0.08204851211072      1.01402154796352     -2.29000044245522
  H           1.10918155227635      1.69959623539843     -0.21772931599973
  H           1.90723214729448      0.11317782681497     -0.13890895316109
  H           4.18698153392527      1.30312489795345     -0.99825479045852
