15
Coordinates from ORCA-job freq E -271.061942812182
  C           2.16106032226005     -0.57430452303260      0.58632808937835
  C          -2.34854122548364      0.27574106898697      0.46762191020213
  C           1.37146629568380     -0.21971293471233     -0.62038253536281
  C          -0.86039436299813      0.16572762780715      0.61736878486283
  C           0.06337577053389      0.41023941448484     -0.51688446963199
  O          -0.12505724180390      1.36650432580401      0.54032096619198
  H           1.91701735607690      0.09233864552485      1.41408976778411
  H           3.23183475568471     -0.50784619344738      0.39445403506533
  H           1.96216742634970     -1.60137122126189      0.91693850324104
  H          -2.78619461397456     -0.70105513587391      0.26149859511350
  H          -2.59540184923626      0.95367454781178     -0.34830406811677
  H          -2.79497424271248      0.66360050186801      1.38385201008489
  H           1.71196969400756     -0.51994462790990     -1.60033415137827
  H          -0.50630281526200     -0.51183899092425      1.39118828402686
  H          -0.40202526912563      0.70824649487466     -1.45096372146119
