17
Coordinates from ORCA-job scan E -27.294374639460
  C      -2.523441     -0.434673     -0.265385
  C      -0.458883      0.053621      0.898075
  C       0.798763      0.355626      0.335723
  C       1.334070     -0.324891     -0.838596
  C      -1.758615      0.630141      0.492182
  O       2.857218     -0.180105     -2.451490
  O       0.961819      1.058980     -0.891435
  O       2.697191     -0.485039     -1.032691
  H      -1.891972     -0.846902     -1.050006
  H      -2.790385     -1.247246      0.403020
  H      -3.419161     -0.037723     -0.716087
  H      -0.592830     -0.918256      1.363162
  H       1.522369      0.752356      1.030749
  H       0.673004     -0.875327     -1.459861
  H      -1.612311      1.485460     -0.176376
  H      -2.351372      0.984264      1.331506
  H       3.174756      0.738501     -2.375655
17
Coordinates from ORCA-job scan E -27.305113448320
  C      -2.598951     -0.444363     -0.257733
  C      -0.461215      0.034804      0.890184
  C       0.812610      0.381486      0.312749
  C       1.354661     -0.270734     -0.874463
  C      -1.770708      0.610947      0.488403
  O       2.992936     -0.206895     -2.419068
  O       0.927462      1.088359     -0.909534
  O       2.713049     -0.437845     -1.028065
  H      -2.017247     -0.862754     -1.077040
  H      -2.868351     -1.259994      0.411453
  H      -3.507544     -0.013250     -0.667538
  H      -0.547348     -0.915573      1.402967
  H       1.566151      0.740614      1.021239
  H       0.705934     -0.892949     -1.475819
  H      -1.618592      1.471572     -0.171149
  H      -2.338104      0.964545      1.352530
  H       3.275476      0.720817     -2.402280
17
Coordinates from ORCA-job scan E -27.310134509510
  C      -2.641047     -0.451646     -0.252682
  C      -0.467133      0.011531      0.890094
  C       0.812822      0.396888      0.304188
  C       1.346666     -0.217695     -0.906588
  C      -1.765260      0.589436      0.470758
  O       3.085435     -0.220906     -2.382460
  O       0.877018      1.109186     -0.903326
  O       2.695120     -0.394429     -1.029080
  H      -2.097779     -0.885921     -1.088173
  H      -2.924040     -1.253931      0.425862
  H      -3.545900      0.014961     -0.635916
  H      -0.505022     -0.907842      1.452193
  H       1.588744      0.711025      1.016467
  H       0.718278     -0.891232     -1.491157
  H      -1.592057      1.441777     -0.189472
  H      -2.316237      0.947847      1.347019
  H       3.350613      0.709738     -2.430891
17
Coordinates from ORCA-job scan E -27.311819414470
  C      -2.656585     -0.463137     -0.251751
  C      -0.469994     -0.007050      0.891725
  C       0.815792      0.394418      0.318180
  C       1.330371     -0.170878     -0.924530
  C      -1.751973      0.573920      0.440429
  O       3.119159     -0.230638     -2.368275
  O       0.863521      1.142887     -0.860402
  O       2.673646     -0.376207     -1.030543
  H      -2.140553     -0.912623     -1.095927
  H      -2.938935     -1.250767      0.442662
  H      -3.560620      0.019682     -0.616024
  H      -0.483397     -0.884029      1.515842
  H       1.603727      0.649915      1.037686
  H       0.706017     -0.844274     -1.516457
  H      -1.554642      1.404034     -0.238858
  H      -2.299052      0.959727      1.309342
  H       3.363738      0.703808     -2.456262
17
Coordinates from ORCA-job scan E -27.313098255290
  C      -2.662117     -0.483369     -0.249020
  C      -0.471590     -0.021779      0.895823
  C       0.824989      0.375085      0.348710
  C       1.308695     -0.120384     -0.935511
  C      -1.732448      0.559966      0.395194
  O       3.110626     -0.228677     -2.376570
  O       0.883525      1.191268     -0.781216
  O       2.645398     -0.373615     -1.042591
  H      -2.170478     -0.961206     -1.092122
  H      -2.938917     -1.246567      0.473466
  H      -3.566466      0.004397     -0.604516
  H      -0.480041     -0.836502      1.597479
  H       1.622444      0.546478      1.077572
  H       0.670565     -0.750520     -1.557411
  H      -1.504262      1.348292     -0.322212
  H      -2.280237      1.001150      1.238197
  H       3.360533      0.704769     -2.468436
17
Coordinates from ORCA-job scan E -27.314513109090
  C      -2.663612     -0.512623     -0.238828
  C      -0.473244     -0.031478      0.900871
  C       0.838989      0.336452      0.389112
  C       1.283359     -0.063578     -0.941750
  C      -1.707587      0.545109      0.334653
  O       3.066351     -0.206327     -2.407589
  O       0.939112      1.246737     -0.666402
  O       2.607852     -0.383972     -1.070603
  H      -2.194370     -1.042732     -1.063426
  H      -2.938129     -1.231688      0.528077
  H      -3.565617     -0.028347     -0.603235
  H      -0.497318     -0.760532      1.689870
  H       1.642245      0.393158      1.124036
  H       0.616611     -0.604921     -1.610803
  H      -1.442427      1.267219     -0.437669
  H      -2.254373      1.069340      1.130046
  H       3.362378      0.716969     -2.459524
17
Coordinates from ORCA-job scan E -27.315756371120
  C      -2.665311     -0.544611     -0.217312
  C      -0.476307     -0.030245      0.902567
  C       0.852907      0.285422      0.422776
  C       1.262637     -0.010830     -0.945814
  C      -1.686697      0.532283      0.272490
  O       3.006179     -0.159599     -2.450183
  O       1.024520      1.289888     -0.543316
  O       2.567187     -0.404649     -1.114034
  H      -2.211787     -1.142591     -1.003729
  H      -2.942505     -1.202771      0.601768
  H      -3.563187     -0.075029     -0.609002
  H      -0.533718     -0.671845      1.762994
  H       1.653893      0.218713      1.155774
  H       0.563222     -0.430268     -1.663335
  H      -1.391042      1.176271     -0.556553
  H      -2.225923      1.145398      1.006774
  H       3.386151      0.733253     -2.425028
17
Coordinates from ORCA-job scan E -27.316413954670
  C      -2.669535     -0.575087     -0.186950
  C      -0.481971     -0.019664      0.901925
  C       0.862516      0.232490      0.441729
  C       1.247741      0.040012     -0.952271
  C      -1.673984      0.520764      0.217673
  O       2.955450     -0.095307     -2.489018
  O       1.116042      1.315127     -0.430221
  O       2.523642     -0.424101     -1.169364
  H      -2.224696     -1.242507     -0.920971
  H      -2.954708     -1.162982      0.681752
  H      -3.562095     -0.128624     -0.616251
  H      -0.578676     -0.585809      1.811375
  H       1.655334      0.048551      1.162716
  H       0.522357     -0.249244     -1.706908
  H      -1.358972      1.088414     -0.659459
  H      -2.200777      1.210423      0.889674
  H       3.442554      0.736332     -2.378596
17
Coordinates from ORCA-job scan E -27.316596959070
  C      -2.666529     -0.584732     -0.176759
  C      -0.485481     -0.006868      0.904012
  C       0.863407      0.217948      0.440750
  C       1.244060      0.052862     -0.958010
  C      -1.677356      0.523369      0.210058
  O       2.945317     -0.074586     -2.500033
  O       1.143522      1.320022     -0.405481
  O       2.507118     -0.434402     -1.192896
  H      -2.212687     -1.268338     -0.890060
  H      -2.957909     -1.152926      0.703093
  H      -3.557394     -0.153109     -0.624986
  H      -0.598832     -0.564391      1.817331
  H       1.654688      0.004125      1.156248
  H       0.511094     -0.196800     -1.721040
  H      -1.366162      1.079484     -0.675793
  H      -2.204451      1.223189      0.870935
  H       3.477816      0.723938     -2.360532
17
Coordinates from ORCA-job scan E -27.316698581050
  C      -2.656120     -0.591359     -0.175301
  C      -0.487680      0.009359      0.911922
  C       0.862438      0.211813      0.439241
  C       1.238902      0.060737     -0.962234
  C      -1.681627      0.529746      0.213120
  O       2.938752     -0.069303     -2.507091
  O       1.156043      1.323221     -0.394701
  O       2.489768     -0.445738     -1.210313
  H      -2.184804     -1.279700     -0.872459
  H      -2.958797     -1.150750      0.706431
  H      -3.543135     -0.172780     -0.643855
  H      -0.613587     -0.550671      1.821956
  H       1.655426     -0.018509      1.148642
  H       0.499015     -0.167846     -1.727352
  H      -1.377233      1.090310     -0.672054
  H      -2.216364      1.223157      0.874569
  H       3.499226      0.707100     -2.353685
17
Coordinates from ORCA-job scan E -27.316727737780
  C      -2.643989     -0.593279     -0.182156
  C      -0.487129      0.019663      0.920895
  C       0.861507      0.212446      0.441588
  C       1.233403      0.061830     -0.961155
  C      -1.681779      0.534474      0.218783
  O       2.929962     -0.076699     -2.510470
  O       1.157218      1.323525     -0.392551
  O       2.478447     -0.453925     -1.214812
  H      -2.159037     -1.277983     -0.873490
  H      -2.955325     -1.154542      0.695272
  H      -3.527303     -0.179752     -0.662206
  H      -0.616698     -0.542248      1.829141
  H       1.656697     -0.022170      1.147082
  H       0.488616     -0.163113     -1.723287
  H      -1.379508      1.104040     -0.661186
  H      -2.226059      1.217110      0.883520
  H       3.491198      0.699410     -2.358133
17
Coordinates from ORCA-job scan E -27.316753260600
  C      -2.622712     -0.594288     -0.197554
  C      -0.485322      0.034296      0.935835
  C       0.860157      0.216313      0.447279
  C       1.223647      0.059290     -0.956965
  C      -1.680793      0.541738      0.229307
  O       2.911925     -0.093375     -2.514845
  O       1.156119      1.322348     -0.393055
  O       2.462641     -0.466519     -1.216714
  H      -2.117339     -1.267802     -0.885233
  H      -2.944480     -1.165358      0.669569
  H      -3.501226     -0.185958     -0.690657
  H      -0.616438     -0.528654      1.843117
  H       1.658953     -0.019847      1.147947
  H       0.471475     -0.165731     -1.712060
  H      -1.379895      1.128052     -0.639883
  H      -2.241901      1.204668      0.899571
  H       3.465409      0.689612     -2.368824
17
Coordinates from ORCA-job scan E -27.316771262810
  C      -2.599940     -0.594927     -0.215183
  C      -0.483678      0.048667      0.951221
  C       0.858856      0.220947      0.453993
  C       1.212371      0.055565     -0.951837
  C      -1.679750      0.548625      0.240156
  O       2.890022     -0.111068     -2.519424
  O       1.155465      1.320769     -0.393681
  O       2.446362     -0.478986     -1.217437
  H      -2.074999     -1.253735     -0.902448
  H      -2.928400     -1.179988      0.639913
  H      -3.475220     -0.191117     -0.717565
  H      -0.613691     -0.511044      1.860585
  H       1.661048     -0.016404      1.150158
  H       0.452745     -0.169390     -1.699309
  H      -1.379050      1.152183     -0.617148
  H      -2.258773      1.190792      0.914819
  H       3.436852      0.677897     -2.379980
17
Coordinates from ORCA-job scan E -27.316787590440
  C      -2.574241     -0.595692     -0.235436
  C      -0.482694      0.064458      0.967935
  C       0.857272      0.226126      0.461365
  C       1.198679      0.051319     -0.946316
  C      -1.679620      0.555789      0.252304
  O       2.863622     -0.130088     -2.524774
  O       1.155738      1.319214     -0.393998
  O       2.427629     -0.492380     -1.218421
  H      -2.028913     -1.234884     -0.925338
  H      -2.905159     -1.199754      0.605331
  H      -3.448341     -0.197136     -0.743899
  H      -0.609100     -0.487000      1.882776
  H       1.662801     -0.013117      1.152856
  H       0.431226     -0.171736     -1.685920
  H      -1.378979      1.178441     -0.591301
  H      -2.278711      1.174256      0.930807
  H       3.409012      0.660972     -2.391136
17
Coordinates from ORCA-job scan E -27.316797392230
  C      -2.560337     -0.596653     -0.246674
  C      -0.483162      0.073177      0.976724
  C       0.856194      0.228546      0.464986
  C       1.190262      0.049670     -0.943944
  C      -1.680829      0.559398      0.259091
  O       2.848154     -0.139540     -2.528171
  O       1.157148      1.318929     -0.393192
  O       2.416478     -0.499288     -1.219850
  H      -2.005004     -1.222308     -0.940961
  H      -2.887959     -1.213928      0.585791
  H      -3.436365     -0.201787     -0.754641
  H      -0.605511     -0.468889      1.897698
  H       1.663027     -0.012971      1.154118
  H       0.419169     -0.169692     -1.680495
  H      -1.380141      1.192351     -0.576939
  H      -2.290974      1.164578      0.939155
  H       3.400070      0.647192     -2.395861
17
Coordinates from ORCA-job scan E -27.316801307900
  C      -2.557992     -0.597381     -0.248932
  C      -0.484265      0.075120      0.978112
  C       0.855645      0.228772      0.464990
  C       1.188092      0.049971     -0.944333
  C      -1.682590      0.560190      0.261076
  O       2.845210     -0.140994     -2.529156
  O       1.158000      1.319591     -0.392679
  O       2.413805     -0.500213     -1.220887
  H      -2.001451     -1.217398     -0.947261
  H      -2.880716     -1.220264      0.581343
  H      -3.436976     -0.204209     -0.753113
  H      -0.604031     -0.461380      1.902705
  H       1.662314     -0.013688      1.154023
  H       0.417193     -0.166721     -1.681762
  H      -1.382215      1.195637     -0.573283
  H      -2.295001      1.161989      0.941859
  H       3.405198      0.639765     -2.395864
17
Coordinates from ORCA-job scan E -27.316802016330
  C      -2.557989     -0.597571     -0.248974
  C      -0.484802      0.075452      0.977987
  C       0.855302      0.228787      0.464523
  C       1.188010      0.050389     -0.944789
  C      -1.683552      0.560478      0.261731
  O       2.845725     -0.141501     -2.529206
  O       1.157733      1.320101     -0.392797
  O       2.413631     -0.499993     -1.221069
  H      -2.001476     -1.215615     -0.949058
  H      -2.878571     -1.222286      0.580782
  H      -3.438350     -0.205069     -0.751307
  H      -0.603945     -0.459950      1.903317
  H       1.661787     -0.013561      1.153831
  H       0.417767     -0.165775     -1.683131
  H      -1.383840      1.196627     -0.572337
  H      -2.296027      1.161292      0.943273
  H       3.408817      0.636984     -2.395939
17
Coordinates from ORCA-job scan E -27.317142563460
  C      -2.560090     -0.597818     -0.246394
  C      -0.486587      0.075532      0.979849
  C       0.853496      0.228188      0.466128
  C       1.189717      0.049741     -0.953233
  C      -1.685300      0.560366      0.263400
  O       2.853789     -0.140080     -2.530320
  O       1.158017      1.318658     -0.395116
  O       2.413600     -0.499345     -1.224491
  H      -2.003817     -1.216489     -0.946115
  H      -2.880730     -1.221875      0.583835
  H      -3.440413     -0.205443     -0.748894
  H      -0.605753     -0.459179      1.905576
  H       1.659474     -0.014220      1.156008
  H       0.421009     -0.164649     -1.693697
  H      -1.385528      1.195860     -0.571146
  H      -2.297544      1.161803      0.944601
  H       3.416880      0.637738     -2.393156
17
Coordinates from ORCA-job scan E -27.317151462680
  C      -2.558392     -0.597775     -0.247466
  C      -0.486055      0.076421      0.979984
  C       0.853048      0.229510      0.467176
  C       1.188444      0.050265     -0.952280
  C      -1.684930      0.560849      0.263482
  O       2.851983     -0.141156     -2.530575
  O       1.156746      1.318731     -0.394276
  O       2.412735     -0.500389     -1.224125
  H      -2.001248     -1.215099     -0.947673
  H      -2.878528     -1.222950      0.582121
  H      -3.439073     -0.205945     -0.749765
  H      -0.605135     -0.459251      1.905138
  H       1.659534     -0.014044      1.155443
  H       0.418423     -0.164849     -1.690847
  H      -1.385386      1.197066     -0.570556
  H      -2.297818      1.161256      0.944994
  H       3.415871      0.636147     -2.393938
17
Coordinates from ORCA-job scan E -27.317154667250
  C      -2.556959     -0.597605     -0.248616
  C      -0.485701      0.077419      0.980119
  C       0.852929      0.231229      0.468121
  C       1.187555      0.050335     -0.951308
  C      -1.685016      0.561487      0.263847
  O       2.850269     -0.142063     -2.530769
  O       1.155758      1.318511     -0.394432
  O       2.412244     -0.501348     -1.223802
  H      -1.998949     -1.213138     -0.949712
  H      -2.876247     -1.224361      0.580100
  H      -3.438232     -0.206357     -0.750346
  H      -0.604837     -0.459745      1.904497
  H       1.660466     -0.013092      1.154854
  H       0.416159     -0.166207     -1.687729
  H      -1.385960      1.198872     -0.569462
  H      -2.298576      1.160426      0.946005
  H       3.415316      0.634423     -2.394531
17
Coordinates from ORCA-job scan E -27.317155029830
  C      -2.556799     -0.597423     -0.248868
  C      -0.485710      0.077579      0.980109
  C       0.853002      0.231784      0.468206
  C       1.187569      0.049944     -0.951116
  C      -1.685193      0.561688      0.264113
  O       2.850086     -0.142124     -2.530706
  O       1.155452      1.318285     -0.395149
  O       2.412380     -0.501513     -1.223694
  H      -1.998696     -1.212356     -0.950416
  H      -2.875732     -1.224768      0.579537
  H      -3.438308     -0.206223     -0.750223
  H      -0.604920     -0.460333      1.904062
  H       1.660954     -0.012057      1.154712
  H       0.415897     -0.167507     -1.687011
  H      -1.386345      1.199568     -0.568902
  H      -2.298834      1.160095      0.946643
  H       3.415418      0.634150     -2.394462
17
Coordinates from ORCA-job scan E -27.317376645880
  C      -2.558902     -0.597667     -0.246282
  C      -0.487491      0.077661      0.981967
  C       0.851199      0.231183      0.469800
  C       1.189278      0.049292     -0.959573
  C      -1.686938      0.561579      0.265783
  O       2.858151     -0.140704     -2.531797
  O       1.155739      1.316836     -0.397482
  O       2.412352     -0.500861     -1.227129
  H      -2.001043     -1.213232     -0.947470
  H      -2.877892     -1.224354      0.582601
  H      -3.440375     -0.206592     -0.747800
  H      -0.606721     -0.459560      1.906319
  H       1.658647     -0.012719      1.156877
  H       0.419138     -0.166393     -1.697597
  H      -1.388032      1.198803     -0.567714
  H      -2.300345      1.160612      0.947974
  H       3.423455      0.634904     -2.391643
17
Coordinates from ORCA-job scan E -27.317385806480
  C      -2.557390     -0.597543     -0.247276
  C      -0.486913      0.078423      0.982070
  C       0.850915      0.232622      0.470778
  C       1.188007      0.049425     -0.958662
  C      -1.686487      0.561988      0.265826
  O       2.856368     -0.141178     -2.532014
  O       1.154574      1.316696     -0.397067
  O       2.411499     -0.502017     -1.226938
  H      -1.998798     -1.212217     -0.948654
  H      -2.876224     -1.225018      0.581082
  H      -3.438971     -0.206809     -0.748867
  H      -0.606061     -0.460122      1.905626
  H       1.659063     -0.012090      1.156202
  H       0.416332     -0.167250     -1.694508
  H      -1.387669      1.199879     -0.567171
  H      -2.300483      1.160176      0.948220
  H       3.422459      0.633821     -2.391811
17
Coordinates from ORCA-job scan E -27.317390145970
  C      -2.556160     -0.597158     -0.248343
  C      -0.486376      0.079225      0.982031
  C       0.850952      0.234681      0.471634
  C       1.187019      0.048770     -0.957697
  C      -1.686374      0.562577      0.266119
  O       2.854806     -0.141160     -2.532056
  O       1.153303      1.316057     -0.398008
  O       2.411071     -0.503338     -1.226789
  H      -1.996926     -1.210619     -0.950277
  H      -2.874595     -1.225801      0.579284
  H      -3.438014     -0.206691     -0.749670
  H      -0.605517     -0.461608      1.904340
  H       1.660524     -0.010214      1.155284
  H       0.413509     -0.170076     -1.690662
  H      -1.387907      1.201614     -0.566130
  H      -2.300909      1.159502      0.949112
  H       3.421813      0.633028     -2.391337
17
Coordinates from ORCA-job scan E -27.317390813610
  C      -2.556327     -0.596833     -0.248383
  C      -0.486304      0.079152      0.981805
  C       0.851093      0.235282      0.471516
  C       1.187131      0.047923     -0.957632
  C      -1.686471      0.562727      0.266309
  O       2.855116     -0.140654     -2.531794
  O       1.152766      1.315584     -0.399276
  O       2.411417     -0.503640     -1.226742
  H      -1.997271     -1.210063     -0.950663
  H      -2.874578     -1.225779      0.579085
  H      -3.438301     -0.206206     -0.749375
  H      -0.605463     -0.462779      1.903485
  H       1.661194     -0.008706      1.154964
  H       0.413272     -0.172254     -1.689861
  H      -1.388175      1.202133     -0.565731
  H      -2.300853      1.159357      0.949689
  H       3.421976      0.633543     -2.390558
17
Coordinates from ORCA-job scan E -27.317504051520
  C      -2.558431     -0.597075     -0.245791
  C      -0.488079      0.079239      0.983658
  C       0.849296      0.234682      0.473098
  C       1.188842      0.047256     -0.966105
  C      -1.688212      0.562623      0.267976
  O       2.863182     -0.139230     -2.532854
  O       1.153053      1.314127     -0.401622
  O       2.411395     -0.502986     -1.230188
  H      -1.999622     -1.210940     -0.947712
  H      -2.876737     -1.225359      0.582159
  H      -3.440369     -0.206573     -0.746943
  H      -0.607257     -0.462000      1.905743
  H       1.658896     -0.009364      1.157117
  H       0.416509     -0.171169     -1.700474
  H      -1.389859      1.201370     -0.564549
  H      -2.302356      1.159883      0.951020
  H       3.429970      0.634303     -2.387697
17
Coordinates from ORCA-job scan E -27.317512969400
  C      -2.557227     -0.596876     -0.246554
  C      -0.487471      0.079801      0.983578
  C       0.849034      0.236050      0.473875
  C       1.187695      0.047131     -0.965342
  C      -1.687724      0.562976      0.267938
  O       2.861916     -0.139339     -2.532913
  O       1.151763      1.313846     -0.401533
  O       2.410710     -0.504169     -1.230029
  H      -1.997922     -1.210119     -0.948621
  H      -2.875439     -1.225719      0.581019
  H      -3.439230     -0.206584     -0.747751
  H      -0.606526     -0.462870      1.904801
  H       1.659316     -0.008568      1.156369
  H       0.413909     -0.172433     -1.697584
  H      -1.389446      1.202220     -0.564210
  H      -2.302234      1.159629      0.951184
  H       3.429097      0.633812     -2.387392
17
Coordinates from ORCA-job scan E -27.317517755720
  C      -2.556520     -0.596348     -0.247219
  C      -0.486824      0.080270      0.983157
  C       0.849120      0.238092      0.474406
  C       1.186877      0.046012     -0.964605
  C      -1.687511      0.563482      0.268043
  O       2.861222     -0.138607     -2.532645
  O       1.150232      1.312929     -0.403055
  O       2.410572     -0.505645     -1.229948
  H      -1.997012     -1.208854     -0.949772
  H      -2.874423     -1.225948      0.579900
  H      -3.438738     -0.206100     -0.748080
  H      -0.605801     -0.465013      1.902934
  H       1.660842     -0.006380      1.155214
  H       0.411259     -0.176085     -1.693846
  H      -1.389557      1.203547     -0.563592
  H      -2.302140      1.159323      0.951886
  H       3.428622      0.634111     -2.385941
17
Coordinates from ORCA-job scan E -27.317518727290
  C      -2.557028     -0.595929     -0.247005
  C      -0.486685      0.080004      0.982670
  C       0.849316      0.238718      0.474091
  C       1.187110      0.044863     -0.964673
  C      -1.687559      0.563591      0.268103
  O       2.862051     -0.137614     -2.532180
  O       1.149570      1.312262     -0.404715
  O       2.411125     -0.506067     -1.229959
  H      -1.997984     -1.208484     -0.949887
  H      -2.874766     -1.225592      0.580130
  H      -3.439353     -0.205391     -0.747451
  H      -0.605658     -0.466634      1.901665
  H       1.661614     -0.004659      1.154714
  H       0.411092     -0.178837     -1.693029
  H      -1.389767      1.203820     -0.563475
  H      -2.301762      1.159423      0.952339
  H       3.428904      0.635314     -2.384502
17
Coordinates from ORCA-job scan E -27.317532156990
  C      -2.559130     -0.596168     -0.244408
  C      -0.488454      0.080098      0.984518
  C       0.847524      0.238121      0.475662
  C       1.188824      0.044175     -0.973159
  C      -1.689296      0.563492      0.269767
  O       2.870114     -0.136185     -2.533199
  O       1.149858      1.310796     -0.407073
  O       2.411112     -0.505412     -1.233416
  H      -2.000336     -1.209364     -0.946930
  H      -2.876922     -1.225165      0.583214
  H      -3.441420     -0.205757     -0.745015
  H      -0.607445     -0.465845      1.903924
  H       1.659326     -0.005311      1.156856
  H       0.414327     -0.177787     -1.703668
  H      -1.391447      1.203057     -0.562303
  H      -2.303258      1.159960      0.953664
  H       3.436843      0.636083     -2.381598
17
Coordinates from ORCA-job scan E -27.317540850580
  C      -2.558164     -0.595944     -0.244978
  C      -0.487836      0.080528      0.984294
  C       0.847285      0.239417      0.476295
  C       1.187777      0.043926     -0.972508
  C      -1.688791      0.563798      0.269638
  O       2.869216     -0.136027     -2.533154
  O       1.148574      1.310427     -0.407141
  O       2.410535     -0.506598     -1.233299
  H      -1.999063     -1.208713     -0.947623
  H      -2.875869     -1.225323      0.582399
  H      -3.440515     -0.205671     -0.745582
  H      -0.606701     -0.466879      1.902809
  H       1.659726     -0.004514      1.156059
  H       0.411892     -0.179195     -1.700956
  H      -1.391004      1.203694     -0.562178
  H      -2.302943      1.159873      0.953714
  H       3.436099      0.635988     -2.380954
17
Coordinates from ORCA-job scan E -27.317545946680
  C      -2.557879     -0.595349     -0.245292
  C      -0.487120      0.080763      0.983555
  C       0.847410      0.241409      0.476581
  C       1.187101      0.042556     -0.971953
  C      -1.688514      0.564232      0.269545
  O       2.869173     -0.134739     -2.532666
  O       1.146982      1.309327     -0.408967
  O       2.410594     -0.508166     -1.233303
  H      -1.998933     -1.207749     -0.948391
  H      -2.875270     -1.225158      0.581881
  H      -3.440443     -0.204990     -0.745457
  H      -0.605894     -0.469422      1.900509
  H       1.661257     -0.002288      1.154723
  H       0.409400     -0.183232     -1.697354
  H      -1.391031      1.204631     -0.561994
  H      -2.302439      1.159905      0.954182
  H       3.435826      0.637057     -2.378762
17
Coordinates from ORCA-job scan E -27.317547137070
  C      -2.558666     -0.594879     -0.244851
  C      -0.486935      0.080348      0.982852
  C       0.847644      0.242018      0.476105
  C       1.187436      0.041224     -0.972138
  C      -1.688526      0.564302      0.269477
  O       2.870411     -0.133353     -2.532046
  O       1.146282      1.308525     -0.410860
  O       2.411296     -0.508667     -1.233382
  H      -2.000424     -1.207560     -0.948267
  H      -2.875882     -1.224544      0.582499
  H      -3.441345     -0.204146     -0.744524
  H      -0.605704     -0.471331      1.898932
  H       1.662074     -0.000509      1.154082
  H       0.409314     -0.186302     -1.696574
  H      -1.391199      1.204665     -0.562156
  H      -2.301798      1.160226      0.954490
  H       3.436241      0.638771     -2.376804
17
Coordinates from ORCA-job scan E -27.317468696530
  C      -2.560766     -0.595116     -0.242251
  C      -0.488697      0.080449      0.984695
  C       0.845858      0.241425      0.477663
  C       1.189157      0.040514     -0.980638
  C      -1.690258      0.564208      0.271135
  O       2.878467     -0.131918     -2.533017
  O       1.146573      1.307051     -0.413230
  O       2.411293     -0.508011     -1.236848
  H      -2.002776     -1.208443     -0.945304
  H      -2.878034     -1.224109      0.585591
  H      -3.443410     -0.204511     -0.742084
  H      -0.607485     -0.470532      1.901192
  H       1.659796     -0.001153      1.156214
  H       0.412548     -0.185291     -1.707240
  H      -1.392876      1.203901     -0.560994
  H      -2.303287      1.160773      0.955807
  H       3.444116      0.639550     -2.373854
17
Coordinates from ORCA-job scan E -27.317477279450
  C      -2.559949     -0.594884     -0.242692
  C      -0.488073      0.080801      0.984375
  C       0.845627      0.242669      0.478205
  C       1.188164      0.040202     -0.980060
  C      -1.689744      0.564483      0.270942
  O       2.877805     -0.131580     -2.532913
  O       1.145299      1.306628     -0.413374
  O       2.410766     -0.509198     -1.236771
  H      -2.001772     -1.207909     -0.945856
  H      -2.877123     -1.224145      0.584993
  H      -3.442657     -0.204380     -0.742487
  H      -0.606734     -0.471638      1.899976
  H       1.660172     -0.000397      1.155379
  H       0.410216     -0.186742     -1.704653
  H      -1.392419      1.204396     -0.561017
  H      -2.302847      1.160797      0.955776
  H       3.443488      0.639684     -2.372987
17
Coordinates from ORCA-job scan E -27.317482581840
  C      -2.559937     -0.594263     -0.242762
  C      -0.487311      0.080893      0.983419
  C       0.845768      0.244614      0.478319
  C       1.187568      0.038704     -0.979637
  C      -1.689427      0.564868      0.270707
  O       2.878186     -0.129899     -2.532286
  O       1.143697      1.305412     -0.415357
  O       2.410915     -0.510825     -1.236863
  H      -2.002155     -1.207160     -0.946360
  H      -2.876776     -1.223734      0.584895
  H      -3.442871     -0.203605     -0.742041
  H      -0.605877     -0.474375      1.897409
  H       1.661685      0.001772      1.153903
  H       0.407820     -0.190941     -1.701166
  H      -1.392406      1.205062     -0.561143
  H      -2.302074      1.161057      0.956073
  H       3.443416      0.641208     -2.370273
17
Coordinates from ORCA-job scan E -27.317483916740
  C      -2.560909     -0.593769     -0.242161
  C      -0.487095      0.080386      0.982568
  C       0.846024      0.245201      0.477727
  C       1.187964      0.037268     -0.979909
  C      -1.689419      0.564909      0.270546
  O       2.879688     -0.128227     -2.531564
  O       1.142997      1.304524     -0.417382
  O       2.411694     -0.511383     -1.237011
  H      -2.003991     -1.207102     -0.946066
  H      -2.877555     -1.222955      0.585788
  H      -3.443967     -0.202689     -0.740893
  H      -0.605658     -0.476434      1.895637
  H       1.662523      0.003538      1.153149
  H       0.407780     -0.194170     -1.700423
  H      -1.392556      1.204927     -0.561507
  H      -2.301257      1.161529      0.956274
  H       3.443958      0.643234     -2.367937
17
Coordinates from ORCA-job scan E -27.317321162790
  C      -2.563005     -0.594003     -0.239558
  C      -0.488852      0.080494      0.984404
  C       0.844244      0.244612      0.479273
  C       1.189692      0.036535     -0.988422
  C      -1.691145      0.564819      0.272197
  O       2.887736     -0.126786     -2.532482
  O       1.143289      1.303041     -0.419765
  O       2.411701     -0.510726     -1.240488
  H      -2.006341     -1.207987     -0.943096
  H      -2.879701     -1.222510      0.588887
  H      -3.446029     -0.203054     -0.738452
  H      -0.607434     -0.475624      1.897899
  H       1.660255      0.002904      1.155269
  H       0.411014     -0.193199     -1.711115
  H      -1.394229      1.204161     -0.560357
  H      -2.302738      1.162086      0.957580
  H       3.451762      0.644023     -2.364940
17
Coordinates from ORCA-job scan E -27.317329745470
  C      -2.562269     -0.593773     -0.239922
  C      -0.488220      0.080808      0.984026
  C       0.844010      0.245826      0.479758
  C       1.188716      0.036196     -0.987891
  C      -1.690625      0.565077      0.271965
  O       2.887213     -0.126328     -2.532347
  O       1.142027      1.302581     -0.419940
  O       2.411177     -0.511919     -1.240449
  H      -2.005484     -1.207527     -0.943562
  H      -2.878862     -1.222481      0.588422
  H      -3.445361     -0.202910     -0.738757
  H      -0.606674     -0.476742      1.896631
  H       1.660609      0.003608      1.154401
  H       0.408726     -0.194644     -1.708605
  H      -1.393768      1.204572     -0.560472
  H      -2.302226      1.162173      0.957499
  H       3.451233      0.644271     -2.363920
17
Coordinates from ORCA-job scan E -27.317335206460
  C      -2.562409     -0.593150     -0.239839
  C      -0.487426      0.080828      0.982934
  C       0.844151      0.247744      0.479756
  C       1.188146      0.034638     -0.987559
  C      -1.690288      0.565432      0.271640
  O       2.887842     -0.124374     -2.531641
  O       1.140436      1.301294     -0.421997
  O       2.411330     -0.513597     -1.240631
  H      -2.006159     -1.206916     -0.943900
  H      -2.878642     -1.221935      0.588587
  H      -3.445742     -0.202105     -0.738110
  H      -0.605779     -0.479536      1.893917
  H       1.662100      0.005682      1.152808
  H       0.406358     -0.198881     -1.705192
  H      -1.393747      1.205075     -0.560795
  H      -2.301294      1.162567      0.957689
  H       3.451346      0.646023     -2.360833
17
Coordinates from ORCA-job scan E -27.317336634720
  C      -2.563487     -0.592649     -0.239136
  C      -0.487190      0.080274      0.981989
  C       0.844416      0.248311      0.479082
  C       1.188569      0.033150     -0.987896
  C      -1.690271      0.565457      0.271421
  O       2.889498     -0.122500     -2.530855
  O       1.139753      1.300353     -0.424092
  O       2.412126     -0.514202     -1.240851
  H      -2.008194     -1.206944     -0.943494
  H      -2.879509     -1.221062      0.589654
  H      -3.446953     -0.201163     -0.736826
  H      -0.605540     -0.481643      1.892039
  H       1.662946      0.007400      1.151961
  H       0.406326     -0.202172     -1.704476
  H      -1.393897      1.204835     -0.561287
  H      -2.300374      1.163130      0.957822
  H       3.452001      0.648212     -2.358220
17
Coordinates from ORCA-job scan E -27.317096860450
  C      -2.565579     -0.592880     -0.236530
  C      -0.488940      0.080390      0.983820
  C       0.842643      0.247727      0.480616
  C       1.190305      0.032394     -0.996423
  C      -1.691991      0.565371      0.273065
  O       2.897535     -0.121053     -2.531718
  O       1.140047      1.298861     -0.426488
  O       2.412144     -0.513543     -1.244338
  H      -2.010542     -1.207831     -0.940518
  H      -2.881649     -1.220608      0.592760
  H      -3.449011     -0.201527     -0.734383
  H      -0.607309     -0.480822      1.894303
  H       1.660688      0.006778      1.154071
  H       0.409563     -0.201242     -1.715194
  H      -1.395567      1.204067     -0.560149
  H      -2.301847      1.163696      0.959116
  H       3.459730      0.649009     -2.355174
17
Coordinates from ORCA-job scan E -27.317105528000
  C      -2.564881     -0.592657     -0.236847
  C      -0.488301      0.080689      0.983406
  C       0.842400      0.248926      0.481063
  C       1.189322      0.032043     -0.995923
  C      -1.691466      0.565619      0.272807
  O       2.897095     -0.120506     -2.531568
  O       1.138792      1.298374     -0.426673
  O       2.411594     -0.514750     -1.244338
  H      -2.009760     -1.207419     -0.940931
  H      -2.880840     -1.220547      0.592375
  H      -3.448387     -0.201388     -0.734630
  H      -0.606538     -0.481920      1.893011
  H       1.661022      0.007425      1.153169
  H       0.407279     -0.202657     -1.712730
  H      -1.395108      1.204430     -0.560323
  H      -2.301292      1.163817      0.959004
  H       3.459288      0.649308     -2.354038
17
Coordinates from ORCA-job scan E -27.317111132850
  C      -2.565098     -0.592045     -0.236669
  C      -0.487480      0.080683      0.982227
  C       0.842532      0.250831      0.480979
  C       1.188741      0.030464     -0.995659
  C      -1.691120      0.565958      0.272427
  O       2.897871     -0.118350     -2.530816
  O       1.137219      1.297037     -0.428761
  O       2.411695     -0.516479     -1.244614
  H      -2.010588     -1.206895     -0.941165
  H      -2.880670     -1.219935      0.592703
  H      -3.448859     -0.200590     -0.733857
  H      -0.605607     -0.484688      1.890224
  H       1.662492      0.009390      1.151471
  H       0.404889     -0.206868     -1.709362
  H      -1.395099      1.204839     -0.560767
  H      -2.300270      1.164284      0.959133
  H       3.459574      0.651152     -2.350659
17
Coordinates from ORCA-job scan E -27.317112628900
  C      -2.566233     -0.591545     -0.235899
  C      -0.487229      0.080111      0.981222
  C       0.842799      0.251383      0.480242
  C       1.189168      0.028951     -0.996048
  C      -1.691100      0.565974      0.272173
  O       2.899613     -0.116323     -2.529988
  O       1.136561      1.296062     -0.430895
  O       2.412470     -0.517127     -1.244908
  H      -2.012733     -1.206977     -0.940686
  H      -2.881575     -1.219013      0.593882
  H      -3.450135     -0.199647     -0.732487
  H      -0.605351     -0.486784      1.888294
  H       1.663340      0.011047      1.150542
  H       0.404840     -0.210171     -1.708663
  H      -1.395261      1.204536     -0.561341
  H      -2.299291      1.164899      0.959223
  H       3.460336      0.653411     -2.347827
17
Coordinates from ORCA-job scan E -27.317114523760
  C      -2.569443     -0.590473     -0.233622
  C      -0.486812      0.078316      0.978866
  C       0.843378      0.251701      0.478192
  C       1.190603      0.025583     -0.997337
  C      -1.690951      0.565728      0.271369
  O       2.904387     -0.111556     -2.527953
  O       1.135363      1.294045     -0.435506
  O       2.414588     -0.518138     -1.245595
  H      -2.018703     -1.207884     -0.938845
  H      -2.884457     -1.216372      0.597474
  H      -3.453533     -0.197330     -0.728896
  H      -0.604940     -0.491310      1.884232
  H       1.664643      0.014352      1.148864
  H       0.405944     -0.216921     -1.708620
  H      -1.395287      1.202921     -0.563273
  H      -2.296591      1.166759      0.958904
  H       3.462030      0.659366     -2.341415
17
Coordinates from ORCA-job scan E -27.317115216530
  C      -2.571800     -0.589917     -0.231831
  C      -0.486569      0.076895      0.977326
  C       0.843687      0.251229      0.476794
  C       1.191670      0.023747     -0.998347
  C      -1.690659      0.565349      0.270526
  O       2.907820     -0.108511     -2.526620
  O       1.134862      1.292977     -0.437822
  O       2.416031     -0.518541     -1.246042
  H      -2.023085     -1.209153     -0.937034
  H      -2.886798     -1.214252      0.600451
  H      -3.455874     -0.195885     -0.726428
  H      -0.604708     -0.493806      1.881998
  H       1.664939      0.015577      1.148123
  H       0.407222     -0.220075     -1.709516
  H      -1.394857      1.201030     -0.565218
  H      -2.294454      1.168404      0.957980
  H       3.462793      0.663718     -2.337502
17
Coordinates from ORCA-job scan E -27.317115609770
  C      -2.574004     -0.589593     -0.230036
  C      -0.486348      0.075538      0.975948
  C       0.843931      0.250352      0.475623
  C       1.192632      0.022568     -0.999302
  C      -1.690231      0.564852      0.269439
  O       2.910958     -0.105919     -2.525479
  O       1.134766      1.292233     -0.439089
  O       2.417281     -0.518752     -1.246448
  H      -2.027192     -1.210881     -0.934916
  H      -2.889145     -1.212073      0.603581
  H      -3.457955     -0.194792     -0.724237
  H      -0.604524     -0.495518      1.880372
  H       1.664812      0.015558      1.147694
  H       0.408564     -0.221552     -1.710832
  H      -1.394103      1.198656     -0.567602
  H      -2.292291      1.170246      0.956433
  H       3.463067      0.667866     -2.334313
17
Coordinates from ORCA-job scan E -27.316808367080
  C      -2.575605     -0.589740     -0.228294
  C      -0.488704      0.075914      0.978706
  C       0.842039      0.249784      0.479287
  C       1.195551      0.021209     -1.005302
  C      -1.691851      0.564916      0.270726
  O       2.916062     -0.103727     -2.529320
  O       1.135641      1.290269     -0.438973
  O       2.420438     -0.519749     -1.252070
  H      -2.028430     -1.211924     -0.932101
  H      -2.891629     -1.211270      0.605699
  H      -3.459024     -0.195145     -0.723611
  H      -0.607802     -0.494178      1.883618
  H       1.661840      0.015155      1.152734
  H       0.412729     -0.221145     -1.718811
  H      -1.394834      1.197773     -0.566716
  H      -2.294267      1.171204      0.956621
  H       3.468067      0.669441     -2.335357
17
Coordinates from ORCA-job scan E -27.316816880990
  C      -2.574213     -0.589794     -0.228849
  C      -0.487778      0.076575      0.978392
  C       0.841845      0.250850      0.479782
  C       1.193886      0.021652     -1.005061
  C      -1.691056      0.565183      0.270324
  O       2.914614     -0.103995     -2.528392
  O       1.135016      1.289921     -0.438779
  O       2.418011     -0.520187     -1.251193
  H      -2.026589     -1.211648     -0.932595
  H      -2.890107     -1.211525      0.605051
  H      -3.457718     -0.195572     -0.724297
  H      -0.606617     -0.494241      1.882854
  H       1.662130      0.014127      1.151399
  H       0.409930     -0.220921     -1.716834
  H      -1.394139      1.198131     -0.567055
  H      -2.293742      1.171239      0.956183
  H       3.466746      0.668991     -2.334092
17
Coordinates from ORCA-job scan E -27.316820772060
  C      -2.573425     -0.589741     -0.229089
  C      -0.486839      0.077207      0.977625
  C       0.841918      0.252492      0.479610
  C       1.192294      0.021910     -1.005412
  C      -1.690788      0.565527      0.270194
  O       2.914788     -0.104045     -2.526976
  O       1.134176      1.289578     -0.439802
  O       2.415726     -0.520769     -1.250202
  H      -2.025621     -1.210980     -0.933249
  H      -2.888690     -1.211993      0.604657
  H      -3.457332     -0.195883     -0.724108
  H      -0.605241     -0.495081      1.881316
  H       1.663374      0.013885      1.149078
  H       0.406736     -0.221787     -1.714867
  H      -1.394494      1.198978     -0.567016
  H      -2.293481      1.171024      0.956531
  H       3.467118      0.668464     -2.331455
17
Coordinates from ORCA-job scan E -27.316821321440
  C      -2.573858     -0.589595     -0.228722
  C      -0.486717      0.077105      0.977103
  C       0.842009      0.252928      0.478960
  C       1.192161      0.021565     -1.005993
  C      -1.691002      0.565580      0.270320
  O       2.916145     -0.103538     -2.526361
  O       1.133697      1.289407     -0.440983
  O       2.415631     -0.520977     -1.250151
  H      -2.026401     -1.210749     -0.933230
  H      -2.888747     -1.211970      0.605073
  H      -3.457996     -0.195668     -0.723275
  H      -0.604944     -0.495933      1.880364
  H       1.663958      0.014697      1.148042
  H       0.406232     -0.222920     -1.714799
  H      -1.395084      1.199224     -0.566889
  H      -2.293324      1.170964      0.957074
  H       3.468459      0.668667     -2.329696
17
Coordinates from ORCA-job scan E -27.316448948710
  C      -2.575463     -0.589741     -0.226975
  C      -0.489073      0.077482      0.979860
  C       0.840115      0.252360      0.482616
  C       1.195089      0.020207     -1.012002
  C      -1.692623      0.565645      0.271609
  O       2.921253     -0.101341     -2.530190
  O       1.134570      1.287440     -0.440870
  O       2.418794     -0.521972     -1.255786
  H      -2.027645     -1.211792     -0.930411
  H      -2.891234     -1.211165      0.607196
  H      -3.459070     -0.196019     -0.722641
  H      -0.608221     -0.494594      1.883610
  H       1.660988      0.014294      1.153078
  H       0.410402     -0.222516     -1.722792
  H      -1.395817      1.198342     -0.566004
  H      -2.295298      1.171924      0.957264
  H       3.473452      0.670234     -2.330726
17
Coordinates from ORCA-job scan E -27.316457528530
  C      -2.574281     -0.589617     -0.227466
  C      -0.488206      0.078067      0.979439
  C       0.839915      0.253703      0.482708
  C       1.193481      0.020138     -1.012024
  C      -1.692082      0.565992      0.271579
  O       2.920450     -0.101312     -2.529112
  O       1.133441      1.286959     -0.441707
  O       2.416562     -0.522468     -1.255008
  H      -2.026127     -1.211031     -0.931198
  H      -2.889699     -1.211605      0.606430
  H      -3.458114     -0.196163     -0.722933
  H      -0.607001     -0.495270      1.882412
  H       1.661592      0.014548      1.151375
  H       0.407628     -0.223583     -1.720840
  H      -1.395637      1.199218     -0.565747
  H      -2.294930      1.171628      0.957638
  H       3.473229      0.669584     -2.328709
17
Coordinates from ORCA-job scan E -27.316463254820
  C      -2.573663     -0.589227     -0.227600
  C      -0.487024      0.078628      0.978257
  C       0.839927      0.256134      0.481840
  C       1.191543      0.019478     -1.012866
  C      -1.691969      0.566506      0.271888
  O       2.921659     -0.100598     -2.527040
  O       1.131417      1.286227     -0.444671
  O       2.413989     -0.523398     -1.254000
  H      -2.025590     -1.209571     -0.932344
  H      -2.888033     -1.212272      0.605905
  H      -3.458162     -0.195969     -0.722041
  H      -0.605097     -0.497397      1.879718
  H       1.663509      0.016322      1.147886
  H       0.403659     -0.226875     -1.718360
  H      -1.396616      1.200855     -0.564974
  H      -2.294573      1.170992      0.959159
  H       3.475245      0.668952     -2.323923
17
Coordinates from ORCA-job scan E -27.316464233320
  C      -2.574442     -0.588942     -0.226986
  C      -0.486822      0.078330      0.977481
  C       0.840026      0.256686      0.480836
  C       1.191465      0.018686     -1.013698
  C      -1.692196      0.566536      0.272029
  O       2.923688     -0.099481     -2.526159
  O       1.130582      1.285862     -0.446586
  O       2.414027     -0.523773     -1.254085
  H      -2.027024     -1.209322     -0.932211
  H      -2.888351     -1.212045      0.606651
  H      -3.459218     -0.195456     -0.720748
  H      -0.604640     -0.498783      1.878301
  H       1.664281      0.017757      1.146477
  H       0.403122     -0.228905     -1.718297
  H      -1.397300      1.201028     -0.564897
  H      -2.294158      1.171010      0.959869
  H       3.477179      0.669599     -2.321141
17
Coordinates from ORCA-job scan E -27.316465351950
  C      -2.576728     -0.588326     -0.225196
  C      -0.486552      0.077222      0.975766
  C       0.840238      0.257022      0.478622
  C       1.191907      0.016676     -1.015483
  C      -1.692467      0.566361      0.271920
  O       2.928297     -0.096304     -2.524466
  O       1.129168      1.284921     -0.450346
  O       2.414943     -0.524494     -1.254765
  H      -2.031192     -1.209638     -0.931060
  H      -2.890002     -1.210753      0.609191
  H      -3.461872     -0.194091     -0.717706
  H      -0.604016     -0.501648      1.875509
  H       1.665365      0.020404      1.144170
  H       0.403128     -0.232943     -1.718965
  H      -1.398144      1.200330     -0.565624
  H      -2.292664      1.171755      0.960517
  H       3.480809      0.672293     -2.315249
17
Coordinates from ORCA-job scan E -27.316465710470
  C      -2.578218     -0.588023     -0.223983
  C      -0.486406      0.076381      0.974811
  C       0.840373      0.256650      0.477587
  C       1.192449      0.015482     -1.016289
  C      -1.692312      0.566110      0.271403
  O       2.930586     -0.094083     -2.523650
  O       1.128816      1.284238     -0.451853
  O       2.415774     -0.524882     -1.255374
  H      -2.033963     -1.210510     -0.929801
  H      -2.891458     -1.209425      0.611184
  H      -3.463359     -0.193262     -0.716077
  H      -0.603839     -0.502973      1.874233
  H       1.665540      0.021044      1.143475
  H       0.403695     -0.234660     -1.719634
  H      -1.397939      1.199085     -0.566874
  H      -2.291341      1.172784      0.959932
  H       3.481821      0.674832     -2.312254
17
Coordinates from ORCA-job scan E -27.316039163370
  C      -2.579820     -0.588164     -0.222243
  C      -0.488757      0.076763      0.977567
  C       0.838483      0.256098      0.481237
  C       1.195390      0.014115     -1.022303
  C      -1.693934      0.566178      0.272691
  O       2.935680     -0.091888     -2.527439
  O       1.129691      1.282276     -0.451733
  O       2.418949     -0.525878     -1.261027
  H      -2.035200     -1.211544     -0.926993
  H      -2.893938     -1.208619      0.613299
  H      -3.464434     -0.193609     -0.715451
  H      -0.607106     -0.501638      1.877484
  H       1.662582      0.020658      1.148506
  H       0.407863     -0.234278     -1.727647
  H      -1.398677      1.198210     -0.565988
  H      -2.293321      1.173743      0.960124
  H       3.486768      0.676365     -2.313249
17
Coordinates from ORCA-job scan E -27.316047820890
  C      -2.578469     -0.588145     -0.222770
  C      -0.487788      0.077343      0.977239
  C       0.838278      0.257083      0.481784
  C       1.193810      0.014204     -1.021936
  C      -1.693001      0.566440      0.272182
  O       2.934058     -0.091724     -2.526516
  O       1.129050      1.281650     -0.451665
  O       2.416604     -0.526389     -1.260295
  H      -2.033501     -1.211366     -0.927385
  H      -2.892562     -1.208650      0.612753
  H      -3.463104     -0.193880     -0.716161
  H      -0.605934     -0.501761      1.876699
  H       1.662777      0.019688      1.147357
  H       0.405217     -0.234502     -1.725585
  H      -1.397736      1.198410     -0.566508
  H      -2.292582      1.173950      0.959497
  H       3.485103      0.676435     -2.311855
17
Coordinates from ORCA-job scan E -27.316051839940
  C      -2.577837     -0.587989     -0.222910
  C      -0.486781      0.077820      0.976380
  C       0.838367      0.258647      0.481631
  C       1.192408      0.014003     -1.022156
  C      -1.692567      0.566757      0.271875
  O       2.934167     -0.091139     -2.525071
  O       1.128226      1.280972     -0.452876
  O       2.414487     -0.527169     -1.259526
  H      -2.032889     -1.210875     -0.927848
  H      -2.891422     -1.208770      0.612596
  H      -3.462793     -0.193954     -0.715905
  H      -0.604554     -0.502740      1.875047
  H       1.663930      0.019523      1.145231
  H       0.402261     -0.236011     -1.723485
  H      -1.397793      1.198976     -0.566785
  H      -2.291995      1.174005      0.959557
  H       3.485006      0.676733     -2.308920
17
Coordinates from ORCA-job scan E -27.316052574980
  C      -2.578396     -0.587799     -0.222437
  C      -0.486596      0.077643      0.975715
  C       0.838493      0.259124      0.480902
  C       1.192331      0.013500     -1.022773
  C      -1.692731      0.566796      0.271905
  O       2.935689     -0.090314     -2.524336
  O       1.127740      1.280674     -0.454226
  O       2.414405     -0.527525     -1.259560
  H      -2.033933     -1.210730     -0.927714
  H      -2.891599     -1.208588      0.613206
  H      -3.463582     -0.193642     -0.714921
  H      -0.604193     -0.503740      1.873896
  H       1.664566      0.020365      1.144092
  H       0.401736     -0.237452     -1.723307
  H      -1.398328      1.199091     -0.566839
  H      -2.291657      1.174076      0.959989
  H       3.486274      0.677309     -2.306755
17
Coordinates from ORCA-job scan E -27.315573709780
  C      -2.580001     -0.587939     -0.220693
  C      -0.488946      0.078026      0.978469
  C       0.836601      0.258575      0.484543
  C       1.195280      0.012133     -1.028795
  C      -1.694354      0.566864      0.273194
  O       2.940788     -0.088115     -2.528110
  O       1.128612      1.278710     -0.454108
  O       2.417589     -0.528519     -1.265227
  H      -2.035176     -1.211762     -0.924902
  H      -2.894080     -1.207780      0.615325
  H      -3.464662     -0.193989     -0.714287
  H      -0.607457     -0.502405      1.877147
  H       1.661610      0.019982      1.149117
  H       0.405909     -0.237076     -1.731334
  H      -1.399068      1.198215     -0.565953
  H      -2.293635      1.175036      0.960183
  H       3.491211      0.678830     -2.307733
17
Coordinates from ORCA-job scan E -27.315582622500
  C      -2.578946     -0.587811     -0.221063
  C      -0.488066      0.078550      0.977947
  C       0.836400      0.259880      0.484547
  C       1.193702      0.011983     -1.028879
  C      -1.693799      0.567187      0.273093
  O       2.940212     -0.087834     -2.526992
  O       1.127473      1.278134     -0.455006
  O       2.415392     -0.529056     -1.264571
  H      -2.033898     -1.211121     -0.925548
  H      -2.892667     -1.208101      0.614768
  H      -3.463834     -0.194099     -0.714430
  H      -0.606227     -0.503088      1.875869
  H       1.662187      0.020179      1.147354
  H       0.403176     -0.238215     -1.729443
  H      -1.398872      1.198958     -0.565850
  H      -2.293140      1.174844      0.960471
  H       3.491125      0.678397     -2.305431
17
Coordinates from ORCA-job scan E -27.315588978640
  C      -2.578566     -0.587412     -0.220937
  C      -0.486789      0.079002      0.976480
  C       0.836420      0.262342      0.483446
  C       1.191757      0.011188     -1.029905
  C      -1.693641      0.567660      0.273244
  O       2.941871     -0.086542     -2.524709
  O       1.125407      1.277233     -0.458200
  O       2.412733     -0.530124     -1.263788
  H      -2.033847     -1.209878     -0.926427
  H      -2.891172     -1.208548      0.614687
  H      -3.464154     -0.193851     -0.713173
  H      -0.604202     -0.505302      1.872879
  H       1.664122      0.021846      1.143556
  H       0.399121     -0.241712     -1.726975
  H      -1.399857      1.200346     -0.565410
  H      -2.292485      1.174416      0.961838
  H       3.493502      0.678121     -2.299768
17
Coordinates from ORCA-job scan E -27.315590136080
  C      -2.579497     -0.587126     -0.220165
  C      -0.486551      0.078634      0.975550
  C       0.836537      0.262885      0.482294
  C       1.191705      0.010342     -1.030866
  C      -1.693859      0.567660      0.273305
  O       2.944137     -0.085094     -2.523704
  O       1.124588      1.276817     -0.460252
  O       2.412745     -0.530570     -1.264014
  H      -2.035577     -1.209755     -0.926131
  H      -2.891600     -1.208198      0.615695
  H      -3.465384     -0.193309     -0.711660
  H      -0.603698     -0.506745      1.871304
  H       1.664918      0.023231      1.141973
  H       0.398563     -0.243825     -1.726955
  H      -1.400565      1.200368     -0.565516
  H      -2.291916      1.174548      0.962463
  H       3.495674      0.678922     -2.296483
17
Coordinates from ORCA-job scan E -27.315591508730
  C      -2.582162     -0.586495     -0.217997
  C      -0.486222      0.077347      0.973509
  C       0.836796      0.263128      0.479734
  C       1.192245      0.008181     -1.032957
  C      -1.694113      0.567405      0.273012
  O       2.949297     -0.081139     -2.521741
  O       1.123228      1.275753     -0.464328
  O       2.413677     -0.531438     -1.265050
  H      -2.040466     -1.210373     -0.924571
  H      -2.893552     -1.206591      0.618860
  H      -3.468450     -0.191854     -0.708112
  H      -0.603010     -0.509752      1.868186
  H       1.666057      0.025788      1.139318
  H       0.398574     -0.248052     -1.727789
  H      -1.401448      1.199294     -0.566668
  H      -2.290069      1.175573      0.962894
  H       3.499838      0.682012     -2.289464
17
Coordinates from ORCA-job scan E -27.315591944710
  C      -2.583827     -0.586188     -0.216596
  C      -0.486059      0.076420      0.972426
  C       0.836957      0.262629      0.478562
  C       1.192846      0.006904     -1.033894
  C      -1.693926      0.567109      0.272376
  O       2.951794     -0.078511     -2.520816
  O       1.122953      1.274991     -0.465917
  O       2.414537     -0.531897     -1.265880
  H      -2.043574     -1.211439     -0.923063
  H      -2.895179     -1.205066      0.621180
  H      -3.470106     -0.190985     -0.706276
  H      -0.602837     -0.511089      1.866820
  H       1.666230      0.026291      1.138518
  H       0.399166     -0.249777     -1.728578
  H      -1.401206      1.197809     -0.568176
  H      -2.288556      1.176779      0.962122
  H       3.501007      0.684807     -2.285972
17
Coordinates from ORCA-job scan E -27.315072066290
  C      -2.585430     -0.586322     -0.214861
  C      -0.488404      0.076807      0.975180
  C       0.835069      0.262097      0.482195
  C       1.195810      0.005530     -1.039922
  C      -1.695550      0.567180      0.273664
  O       2.956877     -0.076314     -2.524543
  O       1.123827      1.273034     -0.465792
  O       2.417734     -0.532889     -1.271566
  H      -2.044810     -1.212460     -0.920263
  H      -2.897654     -1.204256      0.623289
  H      -3.471188     -0.191328     -0.705652
  H      -0.606090     -0.509759      1.870075
  H       1.663288      0.025927      1.143537
  H       0.403338     -0.249423     -1.736626
  H      -1.401951      1.196939     -0.567288
  H      -2.290539      1.177735      0.962319
  H       3.505893      0.686288     -2.286910
17
Coordinates from ORCA-job scan E -27.315081141040
  C      -2.584079     -0.586315     -0.215351
  C      -0.487415      0.077395      0.974837
  C       0.834845      0.263023      0.482747
  C       1.194178      0.005580     -1.039556
  C      -1.694570      0.567436      0.273093
  O       2.955280     -0.076007     -2.523618
  O       1.123191      1.272311     -0.465670
  O       2.415334     -0.533408     -1.270926
  H      -2.043134     -1.212374     -0.920569
  H      -2.896302     -1.204217      0.622832
  H      -3.469842     -0.191617     -0.706356
  H      -0.604911     -0.509773      1.869333
  H       1.663431      0.024788      1.142387
  H       0.400651     -0.249580     -1.734596
  H      -1.400940      1.197055     -0.567921
  H      -2.289725      1.178016      0.961581
  H       3.504228      0.686474     -2.285410
17
Coordinates from ORCA-job scan E -27.315085360730
  C      -2.583446     -0.586193     -0.215435
  C      -0.486374      0.077889      0.973931
  C       0.834922      0.264550      0.482566
  C       1.192712      0.005386     -1.039808
  C      -1.694099      0.567743      0.272708
  O       2.955431     -0.075237     -2.522140
  O       1.122415      1.271564     -0.466817
  O       2.413099     -0.534233     -1.270292
  H      -2.042551     -1.211999     -0.920925
  H      -2.895163     -1.204279      0.622797
  H      -3.469528     -0.191748     -0.706065
  H      -0.603504     -0.510579      1.867723
  H       1.664530      0.024364      1.140196
  H       0.397622     -0.250955     -1.732528
  H      -1.400961      1.197522     -0.568342
  H      -2.289063      1.178150      0.961518
  H       3.504180      0.686841     -2.282253
17
Coordinates from ORCA-job scan E -27.315086146600
  C      -2.584005     -0.586024     -0.214931
  C      -0.486173      0.077725      0.973230
  C       0.835049      0.265032      0.481798
  C       1.192610      0.004918     -1.040467
  C      -1.694264      0.567779      0.272715
  O       2.956972     -0.074327     -2.521367
  O       1.121969      1.271272     -0.468161
  O       2.412936     -0.534625     -1.270399
  H      -2.043604     -1.211890     -0.920753
  H      -2.895317     -1.204097      0.623458
  H      -3.470328     -0.191476     -0.705043
  H      -0.603122     -0.511499      1.866572
  H       1.665160      0.025105      1.138983
  H       0.397046     -0.252323     -1.732358
  H      -1.401521      1.197612     -0.568442
  H      -2.288708      1.178235      0.961923
  H       3.505522      0.687371     -2.279921
17
Coordinates from ORCA-job scan E -27.314525904110
  C      -2.585610     -0.586157     -0.213192
  C      -0.488517      0.078112      0.975981
  C       0.833159      0.264502      0.485422
  C       1.195583      0.003545     -1.046504
  C      -1.695889      0.567850      0.274005
  O       2.962058     -0.072126     -2.525077
  O       1.122840      1.269315     -0.468040
  O       2.416142     -0.535612     -1.276100
  H      -2.044846     -1.212908     -0.917949
  H      -2.897794     -1.203285      0.625571
  H      -3.471414     -0.191818     -0.704411
  H      -0.606372     -0.510170      1.869827
  H       1.662220      0.024743      1.143996
  H       0.401223     -0.251974     -1.740421
  H      -1.402269      1.196741     -0.567553
  H      -2.290690      1.179191      0.962122
  H       3.510397      0.688840     -2.280843
17
Coordinates from ORCA-job scan E -27.314535329100
  C      -2.584559     -0.586053     -0.213522
  C      -0.487617      0.078644      0.975420
  C       0.832937      0.265799      0.485393
  C       1.193949      0.003403     -1.046621
  C      -1.695319      0.568167      0.273869
  O       2.961530     -0.071706     -2.523942
  O       1.121693      1.268688     -0.468919
  O       2.413854     -0.536152     -1.275535
  H      -2.043592     -1.212330     -0.918540
  H      -2.896373     -1.203589      0.625090
  H      -3.470596     -0.191968     -0.704513
  H      -0.605119     -0.510744      1.868562
  H       1.662760      0.024821      1.142169
  H       0.398433     -0.253044     -1.738554
  H      -1.402070      1.197440     -0.567520
  H      -2.290149      1.179030      0.962367
  H       3.510456      0.688381     -2.278367
17
Coordinates from ORCA-job scan E -27.314542168260
  C      -2.584182     -0.585715     -0.213309
  C      -0.486281      0.079125      0.973841
  C       0.832926      0.268307      0.484181
  C       1.191881      0.002691     -1.047761
  C      -1.695157      0.568629      0.273963
  O       2.963288     -0.070129     -2.521579
  O       1.119627      1.267761     -0.472117
  O       2.410940     -0.537256     -1.274948
  H      -2.043583     -1.211188     -0.919330
  H      -2.894813     -1.204049      0.625157
  H      -3.470956     -0.191828     -0.703133
  H      -0.603010     -0.512745      1.865559
  H       1.664661      0.026255      1.138142
  H       0.394197     -0.256381     -1.736097
  H      -1.403121      1.198768     -0.567200
  H      -2.289429      1.178628      0.963691
  H       3.513231      0.687914     -2.272222
17
Coordinates from ORCA-job scan E -27.314543423490
  C      -2.585125     -0.585461     -0.212488
  C      -0.486026      0.078766      0.972857
  C       0.833037      0.268865      0.482955
  C       1.191791      0.001910     -1.048802
  C      -1.695390      0.568618      0.274007
  O       2.965590     -0.068534     -2.520530
  O       1.118834      1.267375     -0.474183
  O       2.410834     -0.537725     -1.275296
  H      -2.045345     -1.211105     -0.918985
  H      -2.895209     -1.203716      0.626241
  H      -3.472220     -0.191343     -0.701544
  H      -0.602477     -0.514095      1.863975
  H       1.665457      0.027551      1.136434
  H       0.393556     -0.258394     -1.736097
  H      -1.403889      1.198762     -0.567349
  H      -2.288846      1.178759      0.964308
  H       3.515647      0.688553     -2.268667
17
Coordinates from ORCA-job scan E -27.314544906300
  C      -2.587807     -0.584894     -0.210218
  C      -0.485678      0.077502      0.970736
  C       0.833287      0.269093      0.480250
  C       1.192263     -0.000122     -1.051060
  C      -1.695673      0.568339      0.273683
  O       2.970780     -0.064257     -2.518488
  O       1.117548      1.266377     -0.478273
  O       2.411542     -0.538638     -1.276623
  H      -2.050285     -1.211808     -0.917313
  H      -2.897102     -1.202132      0.629556
  H      -3.475339     -0.190000     -0.697861
  H      -0.601753     -0.516905      1.860873
  H       1.666600      0.029926      1.133554
  H       0.393400     -0.262390     -1.736990
  H      -1.404883      1.197616     -0.568588
  H      -2.286976      1.179787      0.964705
  H       3.520295      0.691293     -2.261108
17
Coordinates from ORCA-job scan E -27.314545374480
  C      -2.589462     -0.584612     -0.208778
  C      -0.485509      0.076598      0.969643
  C       0.833446      0.268549      0.479023
  C       1.192822     -0.001359     -1.052071
  C      -1.695489      0.568033      0.273030
  O       2.973250     -0.061454     -2.517534
  O       1.117320      1.265623     -0.479856
  O       2.412296     -0.539128     -1.277631
  H      -2.053388     -1.212917     -0.915738
  H      -2.898698     -1.200601      0.631938
  H      -3.476992     -0.189181     -0.695991
  H      -0.601576     -0.518128      1.859552
  H       1.666780      0.030324      1.132671
  H       0.393890     -0.263992     -1.737813
  H      -1.404670      1.196091     -0.570141
  H      -2.285454      1.181003      0.963891
  H       3.521652      0.693940     -2.257359
17
Coordinates from ORCA-job scan E -27.313956318720
  C      -2.591065     -0.584740     -0.207047
  C      -0.487847      0.076989      0.972394
  C       0.831562      0.268034      0.482640
  C       1.195808     -0.002736     -1.058115
  C      -1.697114      0.568106      0.274320
  O       2.978319     -0.059254     -2.521193
  O       1.118193      1.263674     -0.479728
  O       2.415516     -0.540110     -1.283353
  H      -2.054623     -1.213924     -0.912947
  H      -2.901168     -1.199788      0.634040
  H      -3.478080     -0.189519     -0.695368
  H      -0.604814     -0.516804      1.862810
  H       1.663854      0.029979      1.137679
  H       0.398067     -0.263662     -1.745897
  H      -1.405422      1.195226     -0.569249
  H      -2.287439      1.181954      0.964093
  H       3.526475      0.695362     -2.258241
17
Coordinates from ORCA-job scan E -27.313965909030
  C      -2.589701     -0.584743     -0.207515
  C      -0.486838      0.077590      0.972041
  C       0.831319      0.268923      0.483187
  C       1.194111     -0.002723     -1.057756
  C      -1.696099      0.568360      0.273708
  O       2.976743     -0.058812     -2.520261
  O       1.117534      1.262857     -0.479579
  O       2.413047     -0.540629     -1.282807
  H      -2.052947     -1.213899     -0.913198
  H      -2.899818     -1.199706      0.633639
  H      -3.476713     -0.189826     -0.696071
  H      -0.603620     -0.516715      1.862113
  H       1.663962      0.028716      1.136505
  H       0.395314     -0.263777     -1.743884
  H      -1.404364      1.195293     -0.569955
  H      -2.286572      1.182279      0.963288
  H       3.524862      0.695600     -2.256620
17
Coordinates from ORCA-job scan E -27.313970430210
  C      -2.589040     -0.584650     -0.207567
  C      -0.485755      0.078117      0.971095
  C       0.831379      0.270452      0.482971
  C       1.192547     -0.002911     -1.058050
  C      -1.695601      0.568668      0.273277
  O       2.976924     -0.057865     -2.518738
  O       1.116755      1.262043     -0.480709
  O       2.410652     -0.541489     -1.282311
  H      -2.052345     -1.213590     -0.913497
  H      -2.898636     -1.199754      0.633672
  H      -3.476378     -0.190014     -0.695754
  H      -0.602162     -0.517352      1.860546
  H       1.665030      0.028100      1.134207
  H       0.392149     -0.265064     -1.741807
  H      -1.404380      1.195719     -0.570458
  H      -2.285864      1.182443      0.963165
  H       3.524944      0.695933     -2.253205
17
Coordinates from ORCA-job scan E -27.313971288400
  C      -2.589588     -0.584502     -0.207043
  C      -0.485537      0.077971      0.970363
  C       0.831502      0.270955      0.482158
  C       1.192408     -0.003340     -1.058759
  C      -1.695774      0.568702      0.273277
  O       2.978483     -0.056869     -2.517926
  O       1.116325      1.261767     -0.482067
  O       2.410393     -0.541911     -1.282500
  H      -2.053389     -1.213496     -0.913307
  H      -2.898749     -1.199593      0.634364
  H      -3.477182     -0.189783     -0.694697
  H      -0.601752     -0.518195      1.859397
  H       1.665661      0.028772      1.132906
  H       0.391500     -0.266378     -1.741634
  H      -1.404980      1.195806     -0.570576
  H      -2.285508      1.182520      0.963572
  H       3.526408      0.696362     -2.250693
17
Coordinates from ORCA-job scan E -27.313353203190
  C      -2.591194     -0.584629     -0.205307
  C      -0.487874      0.078361      0.973112
  C       0.829616      0.270443      0.485767
  C       1.195403     -0.004714     -1.064812
  C      -1.697400      0.568775      0.274568
  O       2.983555     -0.054666     -2.521568
  O       1.117194      1.259817     -0.481942
  O       2.413622     -0.542887     -1.288237
  H      -2.054630     -1.214502     -0.910512
  H      -2.901221     -1.198778      0.636470
  H      -3.478274     -0.190120     -0.694066
  H      -0.604986     -0.516872      1.862654
  H       1.662738      0.028430      1.137907
  H       0.395681     -0.266051     -1.749733
  H      -1.405734      1.194940     -0.569682
  H      -2.287492      1.183471      0.963776
  H       3.531218      0.697770     -2.251557
17
Coordinates from ORCA-job scan E -27.313363167290
  C      -2.590149     -0.584552     -0.205596
  C      -0.486955      0.078898      0.972511
  C       0.829375      0.271729      0.485700
  C       1.193715     -0.004837     -1.064969
  C      -1.696816      0.569083      0.274396
  O       2.983075     -0.054097     -2.520415
  O       1.116036      1.259146     -0.482802
  O       2.411241     -0.543417     -1.287777
  H      -2.053406     -1.213992     -0.911045
  H      -2.899797     -1.199065      0.636067
  H      -3.477469     -0.190311     -0.694125
  H      -0.603711     -0.517329      1.861415
  H       1.663242      0.028389      1.136012
  H       0.392833     -0.267043     -1.747893
  H      -1.405534      1.195589     -0.569721
  H      -2.286906      1.183337      0.963977
  H       3.531445      0.697257     -2.248900
17
Coordinates from ORCA-job scan E -27.313370564110
  C      -2.589771     -0.584283     -0.205295
  C      -0.485559      0.079404      0.970816
  C       0.829331      0.274288      0.484372
  C       1.191511     -0.005437     -1.066237
  C      -1.696650      0.569529      0.274433
  O       2.984927     -0.052201     -2.517965
  O       1.113953      1.258207     -0.486005
  O       2.408044     -0.544531     -1.287417
  H      -2.053434     -1.212958     -0.911742
  H      -2.898166     -1.199545      0.636284
  H      -3.477866     -0.190290     -0.692619
  H      -0.601513     -0.519102      1.858416
  H       1.665109      0.029590      1.131739
  H       0.388388     -0.270199     -1.745441
  H      -1.406655      1.196851     -0.569522
  H      -2.286122      1.182955      0.965258
  H       3.534696      0.696508     -2.242239
17
Coordinates from ORCA-job scan E -27.313371940390
  C      -2.590722     -0.584067     -0.204422
  C      -0.485288      0.079058      0.969780
  C       0.829434      0.274870      0.483069
  C       1.191372     -0.006130     -1.067365
  C      -1.696902      0.569505      0.274463
  O       2.987261     -0.050442     -2.516872
  O       1.113175      1.257867     -0.488087
  O       2.407802     -0.545008     -1.287903
  H      -2.055220     -1.212917     -0.911350
  H      -2.898522     -1.199239      0.637441
  H      -3.479162     -0.189872     -0.690953
  H      -0.600948     -0.520357      1.856826
  H       1.665906      0.030803      1.129899
  H       0.387647     -0.272098     -1.745453
  H      -1.407493      1.196819     -0.569710
  H      -2.285531      1.183078      0.965872
  H       3.537411      0.696917     -2.238400
17
Coordinates from ORCA-job scan E -27.313373558560
  C      -2.593410     -0.583575     -0.202055
  C      -0.484921      0.077825      0.967583
  C       0.829669      0.275102      0.480219
  C       1.191757     -0.007985     -1.069801
  C      -1.697223      0.569197      0.274119
  O       2.992461     -0.045821     -2.514758
  O       1.111939      1.256973     -0.492190
  O       2.408253     -0.545930     -1.289557
  H      -2.060189     -1.213703     -0.909571
  H      -2.900334     -1.197703      0.640897
  H      -3.482329     -0.188662     -0.687135
  H      -0.600182     -0.522970      1.853746
  H       1.667052      0.033017      1.126789
  H       0.387292     -0.275829     -1.746395
  H      -1.408616      1.195612     -0.571018
  H      -2.283656      1.184089      0.966248
  H       3.542658      0.699151     -2.230284
17
Coordinates from ORCA-job scan E -27.313374063610
  C      -2.595042     -0.583325     -0.200585
  C      -0.484750      0.076952      0.966491
  C       0.829822      0.274524      0.478944
  C       1.192264     -0.009155     -1.070884
  C      -1.697047      0.568881      0.273459
  O       2.994873     -0.042851     -2.513785
  O       1.111745      1.256253     -0.493755
  O       2.408887     -0.546424     -1.290756
  H      -2.063260     -1.214845     -0.907943
  H      -2.901883     -1.196187      0.643321
  H      -3.483967     -0.187905     -0.685242
  H      -0.599999     -0.524083      1.852476
  H       1.667233      0.033323      1.125833
  H       0.387669     -0.277282     -1.747246
  H      -1.408441      1.194058     -0.572594
  H      -2.282144      1.185296      0.965405
  H       3.544258      0.701556     -2.226302
17
Coordinates from ORCA-job scan E -27.312738653950
  C      -2.596645     -0.583448     -0.198858
  C      -0.487080      0.077345      0.969240
  C       0.827942      0.274026      0.482546
  C       1.195273     -0.010529     -1.076946
  C      -1.698673      0.568955      0.274749
  O       2.999928     -0.040648     -2.517373
  O       1.112617      1.254313     -0.493623
  O       2.412129     -0.547392     -1.296517
  H      -2.064494     -1.215839     -0.905161
  H      -2.904348     -1.195371      0.645416
  H      -3.485061     -0.188238     -0.684620
  H      -0.603221     -0.522766      1.855736
  H       1.664325      0.032997      1.130830
  H       0.391849     -0.276970     -1.755369
  H      -1.409199      1.193198     -0.571699
  H      -2.284132      1.186241      0.965614
  H       3.549012      0.702913     -2.227128
17
Coordinates from ORCA-job scan E -27.312748789660
  C      -2.595274     -0.583461     -0.199301
  C      -0.486052      0.077955      0.968876
  C       0.827684      0.274873      0.483087
  C       1.193514     -0.010545     -1.076600
  C      -1.697624      0.569205      0.274097
  O       2.998371     -0.040063     -2.516430
  O       1.111935      1.253403     -0.493446
  O       2.409594     -0.547899     -1.296075
  H      -2.062826     -1.215878     -0.905353
  H      -2.903006     -1.195244      0.645075
  H      -3.483678     -0.188562     -0.685320
  H      -0.602015     -0.522571      1.855090
  H       1.664398      0.031612      1.129628
  H       0.389033     -0.277038     -1.753375
  H      -1.408096      1.193210     -0.572477
  H      -2.283211      1.186607      0.964740
  H       3.547472      0.703181     -2.225380
17
Coordinates from ORCA-job scan E -27.312753641300
  C      -2.594586     -0.583400     -0.199320
  C      -0.484929      0.078512      0.967890
  C       0.827727      0.276402      0.482835
  C       1.191849     -0.010709     -1.076941
  C      -1.697101      0.569508      0.273619
  O       2.998578     -0.038920     -2.514861
  O       1.111144      1.252526     -0.494555
  O       2.407037     -0.548769     -1.295736
  H      -2.062207     -1.215641     -0.905592
  H      -2.901783     -1.195277      0.645178
  H      -3.483323     -0.188810     -0.684976
  H      -0.600507     -0.523033      1.853578
  H       1.665434      0.030802      1.127221
  H       0.385728     -0.278227     -1.751290
  H      -1.408107      1.193587     -0.573065
  H      -2.282458      1.186801      0.964553
  H       3.547724      0.703436     -2.221705
17
Coordinates from ORCA-job scan E -27.312754584810
  C      -2.595120     -0.583277     -0.198775
  C      -0.484695      0.078384      0.967127
  C       0.827845      0.276931      0.481978
  C       1.191666     -0.011085     -1.077701
  C      -1.697283      0.569540      0.273613
  O       3.000148     -0.037832     -2.514011
  O       1.110722      1.252273     -0.495924
  O       2.406673     -0.549207     -1.296015
  H      -2.063237     -1.215564     -0.905385
  H      -2.901851     -1.195143      0.645898
  H      -3.484129     -0.188627     -0.683883
  H      -0.600067     -0.523796      1.852435
  H       1.666064      0.031405      1.125831
  H       0.384997     -0.279478     -1.751106
  H      -1.408751      1.193675     -0.573197
  H      -2.282104      1.186866      0.964964
  H       3.549339      0.703721     -2.219010
17
Coordinates from ORCA-job scan E -27.312100694490
  C      -2.596726     -0.583398     -0.197045
  C      -0.487024      0.078776      0.969874
  C       0.825964      0.276435      0.485571
  C       1.194683     -0.012456     -1.083772
  C      -1.698909      0.569614      0.274905
  O       3.005205     -0.035627     -2.517580
  O       1.111590      1.250333     -0.495796
  O       2.409923     -0.550167     -1.301792
  H      -2.064476     -1.216555     -0.902599
  H      -2.904317     -1.194326      0.647997
  H      -3.485227     -0.188959     -0.683254
  H      -0.603285     -0.522481      1.855694
  H       1.663160      0.031080      1.130821
  H       0.389181     -0.279168     -1.759245
  H      -1.409511      1.192813     -0.572299
  H      -2.284089      1.187811      0.965174
  H       3.554080      0.705062     -2.219819
17
Coordinates from ORCA-job scan E -27.312111226300
  C      -2.595691     -0.583351     -0.197290
  C      -0.486087      0.079314      0.969234
  C       0.825706      0.277706      0.485467
  C       1.192944     -0.012542     -1.083973
  C      -1.698314      0.569909      0.274698
  O       3.004771     -0.034898     -2.516406
  O       1.110419      1.249626     -0.496632
  O       2.407450     -0.550670     -1.301447
  H      -2.063286     -1.216119     -0.903070
  H      -2.902894     -1.194596      0.647675
  H      -3.484437     -0.189194     -0.683269
  H      -0.601992     -0.522816      1.854489
  H       1.663626      0.030920      1.128858
  H       0.386278     -0.280069     -1.757434
  H      -1.409310      1.193406     -0.572412
  H      -2.283460      1.187703      0.965328
  H       3.554498      0.704458     -2.216981
17
Coordinates from ORCA-job scan E -27.312119259910
  C      -2.595308     -0.583162     -0.196899
  C      -0.484634      0.079847      0.967423
  C       0.825629      0.280320      0.484022
  C       1.190590     -0.012985     -1.085380
  C      -1.698148      0.570332      0.274676
  O       3.006707     -0.032651     -2.513868
  O       1.108302      1.248694     -0.499830
  O       2.403946     -0.551753     -1.301343
  H      -2.063345     -1.215204     -0.903671
  H      -2.901184     -1.195107      0.648044
  H      -3.484869     -0.189309     -0.681636
  H      -0.599705     -0.524345      1.851510
  H       1.665457      0.031886      1.124328
  H       0.381603     -0.283012     -1.754976
  H      -1.410510      1.194594     -0.572334
  H      -2.282617      1.187333      0.966562
  H       3.558307      0.703309     -2.209793
17
Coordinates from ORCA-job scan E -27.312120785170
  C      -2.596260     -0.582992     -0.195977
  C      -0.484346      0.079517      0.966334
  C       0.825718      0.280938      0.482643
  C       1.190393     -0.013563     -1.086603
  C      -1.698424      0.570293      0.274698
  O       3.009067     -0.030713     -2.512732
  O       1.107523      1.248421     -0.501927
  O       2.403548     -0.552213     -1.301983
  H      -2.065145     -1.215205     -0.903236
  H      -2.901488     -1.194841      0.649272
  H      -3.486195     -0.188970     -0.679891
  H      -0.599103     -0.525506      1.849915
  H       1.666253      0.033027      1.122350
  H       0.380744     -0.284782     -1.754994
  H      -1.411429      1.194540     -0.572553
  H      -2.282026      1.187438      0.967181
  H       3.561390      0.703397     -2.205662
17
Coordinates from ORCA-job scan E -27.312122568720
  C      -2.598942     -0.582592     -0.193516
  C      -0.483965      0.078324      0.964069
  C       0.825926      0.281207      0.479650
  C       1.190669     -0.015176     -1.089225
  C      -1.698797      0.569952      0.274348
  O       3.014251     -0.025722     -2.510560
  O       1.106301      1.247685     -0.506037
  O       2.403704     -0.553086     -1.303994
  H      -2.070115     -1.216068     -0.901362
  H      -2.903194     -1.193389      0.652851
  H      -3.489403     -0.187921     -0.675938
  H      -0.598288     -0.527937      1.846855
  H       1.667397      0.035118      1.119007
  H       0.380158     -0.288205     -1.755972
  H      -1.412710      1.193288     -0.573902
  H      -2.280175      1.188401      0.967560
  H       3.567403      0.704908     -2.196997
17
Coordinates from ORCA-job scan E -27.312123113860
  C      -2.600538     -0.582382     -0.192027
  C      -0.483797      0.077489      0.962990
  C       0.826067      0.280615      0.478340
  C       1.191115     -0.016239     -1.090376
  C      -1.698639      0.569623      0.273694
  O       3.016573     -0.022590     -2.509586
  O       1.106124      1.247031     -0.507570
  O       2.404205     -0.553547     -1.305392
  H      -2.073127     -1.217234     -0.899697
  H      -2.904680     -1.191914      0.655295
  H      -3.491017     -0.187241     -0.674032
  H      -0.598098     -0.528946      1.845642
  H       1.667574      0.035357      1.117991
  H       0.380416     -0.289478     -1.756845
  H      -1.412587      1.191722     -0.575477
  H      -2.278697      1.189577      0.966707
  H       3.569326      0.706943     -2.192820
17
Coordinates from ORCA-job scan E -27.311462731980
  C      -2.602141     -0.582499     -0.190304
  C      -0.486119      0.077882      0.965738
  C       0.824192      0.280132      0.481927
  C       1.194144     -0.017606     -1.096455
  C      -1.700265      0.569697      0.274986
  O       3.021610     -0.020385     -2.513099
  O       1.106995      1.245102     -0.507435
  O       2.407469     -0.554494     -1.311196
  H      -2.074358     -1.218214     -0.896924
  H      -2.907140     -1.191096      0.657382
  H      -3.492118     -0.187569     -0.673411
  H      -0.601304     -0.527638      1.848903
  H       1.664685      0.035047      1.122978
  H       0.384597     -0.289180     -1.765008
  H      -1.413350      1.190865     -0.574576
  H      -2.280687      1.190516      0.966922
  H       3.574009      0.708226     -2.193593
17
Coordinates from ORCA-job scan E -27.311473428520
  C      -2.600769     -0.582524     -0.190720
  C      -0.485074      0.078497      0.965363
  C       0.823923      0.280935      0.482458
  C       1.192328     -0.017637     -1.096129
  C      -1.699187      0.569938      0.274295
  O       3.020071     -0.019647     -2.512143
  O       1.106285      1.244103     -0.507229
  O       2.404874     -0.554970     -1.310868
  H      -2.072708     -1.218319     -0.897055
  H      -2.905812     -1.190924      0.657103
  H      -3.490725     -0.187909     -0.674102
  H      -0.600087     -0.527338      1.848313
  H       1.664724      0.033548      1.121746
  H       0.381723     -0.289195     -1.763037
  H      -1.412207      1.190818     -0.575426
  H      -2.279717      1.190919      0.965983
  H       3.572577      0.708490     -2.191716
17
Coordinates from ORCA-job scan E -27.311478638050
  C      -2.600058     -0.582501     -0.190703
  C      -0.483916      0.079078      0.964340
  C       0.823949      0.282461      0.482169
  C       1.190559     -0.017754     -1.096524
  C      -1.698643      0.570232      0.273774
  O       3.020296     -0.018288     -2.510530
  O       1.105468      1.243171     -0.508312
  O       2.402153     -0.555816     -1.310705
  H      -2.072075     -1.218158     -0.897232
  H      -2.904551     -1.190948      0.657279
  H      -3.490353     -0.188222     -0.673730
  H      -0.598533     -0.527622      1.846866
  H       1.665725      0.032553      1.119228
  H       0.378276     -0.290273     -1.760941
  H      -1.412218      1.191142     -0.576094
  H      -2.278924      1.191136      0.965735
  H       3.573064      0.708595     -2.187784
17
Coordinates from ORCA-job scan E -27.311479683390
  C      -2.600573     -0.582406     -0.190140
  C      -0.483666      0.078971      0.963546
  C       0.824059      0.283024      0.481269
  C       1.190327     -0.018060     -1.097337
  C      -1.698837      0.570261      0.273765
  O       3.021872     -0.017096     -2.509644
  O       1.105042      1.242953     -0.509692
  O       2.401673     -0.556250     -1.311083
  H      -2.073084     -1.218096     -0.897012
  H      -2.904567     -1.190849      0.658022
  H      -3.491159     -0.188093     -0.672603
  H      -0.598059     -0.528305      1.845731
  H       1.666351      0.033094      1.117746
  H       0.377453     -0.291452     -1.760739
  H      -1.412911      1.191232     -0.576235
  H      -2.278577      1.191183      0.966154
  H       3.574876      0.708676     -2.184911
17
Coordinates from ORCA-job scan E -27.310810584110
  C      -2.602179     -0.582522     -0.188414
  C      -0.485986      0.079364      0.966292
  C       0.822183      0.282543      0.484849
  C       1.193363     -0.019421     -1.103427
  C      -1.700462      0.570335      0.275059
  O       3.026910     -0.014888     -2.513136
  O       1.105909      1.241025     -0.509561
  O       2.404945     -0.557188     -1.316904
  H      -2.074321     -1.219074     -0.894236
  H      -2.907028     -1.190030      0.660113
  H      -3.492263     -0.188420     -0.671974
  H      -0.601261     -0.527000      1.848991
  H       1.663466      0.032785      1.122728
  H       0.381638     -0.291156     -1.768918
  H      -1.413675      1.190374     -0.575331
  H      -2.280563      1.192120      0.966372
  H       3.579545      0.709941     -2.185667
17
Coordinates from ORCA-job scan E -27.310821699120
  C      -2.601159     -0.582506     -0.188615
  C      -0.485038      0.079899      0.965614
  C       0.821912      0.283796      0.484707
  C       1.191578     -0.019453     -1.103678
  C      -1.699861      0.570613      0.274818
  O       3.026520     -0.013990     -2.511942
  O       1.104722      1.240290     -0.510367
  O       2.402384     -0.557643     -1.316684
  H      -2.073168     -1.218715     -0.894643
  H      -2.905609     -1.190286      0.659873
  H      -3.491493     -0.188702     -0.671945
  H      -0.599955     -0.527212      1.847830
  H       1.663895      0.032512      1.120698
  H       0.378686     -0.291956     -1.767137
  H      -1.413480      1.190906     -0.575515
  H      -2.279897      1.192035      0.966480
  H       3.580182      0.709200     -2.182656
17
Coordinates from ORCA-job scan E -27.310830464120
  C      -2.600766     -0.582410     -0.188134
  C      -0.483529      0.080458      0.963688
  C       0.821795      0.286474      0.483146
  C       1.189062     -0.019687     -1.105236
  C      -1.699702      0.571007      0.274741
  O       3.028532     -0.011348     -2.509314
  O       1.102546      1.239391     -0.513553
  O       2.398549     -0.558638     -1.316865
  H      -2.073249     -1.217926     -0.895147
  H      -2.903811     -1.190843      0.660392
  H      -3.491957     -0.188972     -0.670185
  H      -0.597578     -0.528489      1.844882
  H       1.665683      0.033255      1.115902
  H       0.373761     -0.294658     -1.764660
  H      -1.414771      1.192019     -0.575553
  H      -2.279005      1.191664      0.967671
  H       3.584660      0.707490     -2.174940
17
Coordinates from ORCA-job scan E -27.310832177690
  C      -2.601714     -0.582295     -0.187163
  C      -0.483226      0.080149      0.962548
  C       0.821864      0.287148      0.481690
  C       1.188791     -0.020114     -1.106558
  C      -1.700009      0.570951      0.274761
  O       3.030908     -0.009203     -2.508140
  O       1.101743      1.239211     -0.515666
  O       2.397971     -0.559048     -1.317676
  H      -2.075051     -1.217968     -0.894674
  H      -2.904049     -1.190637      0.661684
  H      -3.493312     -0.188728     -0.668356
  H      -0.596933     -0.529560      1.843281
  H       1.666477      0.034342      1.113777
  H       0.372763     -0.296278     -1.764672
  H      -1.415787      1.191950     -0.575791
  H      -2.278428      1.191736      0.968307
  H       3.588212      0.707130     -2.170515
17
Coordinates from ORCA-job scan E -27.310834174380
  C      -2.604394     -0.582009     -0.184593
  C      -0.482836      0.079002      0.960206
  C       0.822032      0.287497      0.478538
  C       1.188930     -0.021407     -1.109399
  C      -1.700458      0.570566      0.274420
  O       3.036077     -0.003747     -2.505911
  O       1.100482      1.238696     -0.519801
  O       2.397781     -0.559796     -1.320099
  H      -2.080024     -1.218916     -0.892701
  H      -2.905634     -1.189303      0.665399
  H      -3.496580     -0.187873     -0.664238
  H      -0.596053     -0.531839      1.840215
  H       1.667618      0.036367      1.110170
  H       0.371904     -0.299351     -1.765681
  H      -1.417275      1.190659     -0.577162
  H      -2.276626      1.192624      0.968718
  H       3.595277      0.707617     -2.161246
17
Coordinates from ORCA-job scan E -27.310834758370
  C      -2.605918     -0.581854     -0.183122
  C      -0.482685      0.078224      0.959179
  C       0.822147      0.286917      0.477235
  C       1.189304     -0.022303     -1.110580
  C      -1.700330      0.570225      0.273796
  O       3.038228     -0.000510     -2.504986
  O       1.100303      1.238156     -0.521248
  O       2.398142     -0.560164     -1.321675
  H      -2.082900     -1.220078     -0.891043
  H      -2.907022     -1.187920      0.667796
  H      -3.498133     -0.187296     -0.662368
  H      -0.595863     -0.532738      1.839090
  H       1.667769      0.036567      1.109146
  H       0.372045     -0.300386     -1.766556
  H      -1.417214      1.189116     -0.578683
  H      -2.275235      1.193728      0.967882
  H       3.597582      0.709102     -2.157028
17
Coordinates from ORCA-job scan E -27.310169390100
  C      -2.607520     -0.581965     -0.181404
  C      -0.484997      0.078616      0.961927
  C       0.820278      0.286447      0.480810
  C       1.192353     -0.023656     -1.116679
  C      -1.701955      0.570298      0.275091
  O       3.043246      0.001698     -2.508418
  O       1.101173      1.236241     -0.521111
  O       2.401427     -0.561085     -1.327524
  H      -2.084129     -1.221044     -0.888279
  H      -2.909477     -1.187101      0.669875
  H      -3.499239     -0.187619     -0.661747
  H      -0.599053     -0.531441      1.842352
  H       1.664901      0.036270      1.114126
  H       0.376227     -0.300097     -1.774761
  H      -1.417980      1.188262     -0.577775
  H      -2.277225      1.194658      0.968105
  H       3.602191      0.710304     -2.157751
17
Coordinates from ORCA-job scan E -27.310180637690
  C      -2.606157     -0.582005     -0.181789
  C      -0.483942      0.079229      0.961540
  C       0.819999      0.287207      0.481324
  C       1.190485     -0.023685     -1.116380
  C      -1.700858      0.570526      0.274368
  O       3.041726      0.002601     -2.507452
  O       1.100426      1.235163     -0.520877
  O       2.398779     -0.561502     -1.327321
  H      -2.082507     -1.221213     -0.888352
  H      -2.908168     -1.186892      0.669659
  H      -3.497849     -0.187977     -0.662422
  H      -0.597827     -0.531041      1.841821
  H       1.664908      0.034679      1.112861
  H       0.373304     -0.300053     -1.772818
  H      -1.416810      1.188155     -0.578688
  H      -2.276214      1.195091      0.967110
  H       3.600926      0.710504     -2.155750
17
Coordinates from ORCA-job scan E -27.310186232230
  C      -2.605429     -0.582024     -0.181735
  C      -0.482755      0.079829      0.960482
  C       0.820003      0.288735      0.480997
  C       1.188611     -0.023725     -1.116836
  C      -1.700303      0.570804      0.273811
  O       3.041962      0.004210     -2.505805
  O       1.099559      1.234190     -0.521933
  O       2.395894     -0.562276     -1.327354
  H      -2.081867     -1.221128     -0.888469
  H      -2.906872     -1.186918      0.669905
  H      -3.497470     -0.188360     -0.662014
  H      -0.596229     -0.531150      1.840448
  H       1.665866      0.033524      1.110231
  H       0.369714     -0.301008     -1.770708
  H      -1.416834      1.188424     -0.579424
  H      -2.275393      1.195318      0.966813
  H       3.601762      0.710340     -2.151572
17
Coordinates from ORCA-job scan E -27.310187404840
  C      -2.605927     -0.581966     -0.181148
  C      -0.482490      0.079745      0.959657
  C       0.820100      0.289341      0.480052
  C       1.188316     -0.023936     -1.117711
  C      -1.700514      0.570826      0.273800
  O       3.043536      0.005547     -2.504884
  O       1.099113      1.234021     -0.523323
  O       2.395281     -0.562678     -1.327853
  H      -2.082853     -1.221089     -0.888231
  H      -2.906832     -1.186862      0.670679
  H      -3.498278     -0.188298     -0.660846
  H      -0.595718     -0.531755      1.839319
  H       1.666487      0.034009      1.108647
  H       0.368781     -0.302099     -1.770484
  H      -1.417586      1.188514     -0.579575
  H      -2.275058      1.195342      0.967242
  H       3.603863      0.710125     -2.148504
17
Coordinates from ORCA-job scan E -27.309522307290
  C      -2.607531     -0.582076     -0.179427
  C      -0.484800      0.080136      0.962403
  C       0.818230      0.288874      0.483620
  C       1.191372     -0.025282     -1.123819
  C      -1.702137      0.570898      0.275098
  O       3.048554      0.007757     -2.508294
  O       1.099979      1.232107     -0.523190
  O       2.398574     -0.563588     -1.333719
  H      -2.084087     -1.222054     -0.885464
  H      -2.909288     -1.186042      0.672761
  H      -3.499387     -0.188619     -0.660219
  H      -0.598904     -0.530461      1.842580
  H       1.663623      0.033713      1.113623
  H       0.372965     -0.301810     -1.778705
  H      -1.418353      1.187659     -0.578665
  H      -2.277046      1.196270      0.967468
  H       3.608456      0.711307     -2.149213
17
Coordinates from ORCA-job scan E -27.309533992540
  C      -2.606531     -0.582096     -0.179585
  C      -0.483847      0.080663      0.961692
  C       0.817946      0.290108      0.483440
  C       1.189549     -0.025237     -1.124123
  C      -1.701537      0.571156      0.274828
  O       3.048208      0.008835     -2.507085
  O       1.098769      1.231359     -0.523963
  O       2.395934     -0.563967     -1.333630
  H      -2.082977     -1.221769     -0.885811
  H      -2.907877     -1.186291      0.672598
  H      -3.498642     -0.188951     -0.660144
  H      -0.597590     -0.530552      1.841470
  H       1.664013      0.033344      1.111532
  H       0.369976     -0.302503     -1.776952
  H      -1.418172      1.188130     -0.578910
  H      -2.276352      1.196200      0.967536
  H       3.609351      0.710360     -2.146055
17
Coordinates from ORCA-job scan E -27.309543599190
  C      -2.606124     -0.582106     -0.179016
  C      -0.482292      0.081251      0.959656
  C       0.817781      0.292870      0.481766
  C       1.186857     -0.025199     -1.125842
  C      -1.701400      0.571513      0.274708
  O       3.050284      0.011933     -2.504372
  O       1.096493      1.230529     -0.527130
  O       2.391745     -0.564795     -1.334124
  H      -2.083065     -1.221106     -0.886227
  H      -2.905977     -1.186923      0.673256
  H      -3.499139     -0.189397     -0.658254
  H      -0.595123     -0.531579      1.838564
  H       1.665750      0.033901      1.106463
  H       0.364783     -0.304938     -1.774435
  H      -1.419578      1.189172     -0.579044
  H      -2.275435      1.195805      0.968701
  H       3.614661      0.707857     -2.137836
17
Coordinates from ORCA-job scan E -27.309545556300
  C      -2.607062     -0.582060     -0.177997
  C      -0.481978      0.080971      0.958465
  C       0.817819      0.293626      0.480234
  C       1.186494     -0.025425     -1.127271
  C      -1.701752      0.571435      0.274737
  O       3.052666      0.014332     -2.503165
  O       1.095633      1.230476     -0.529257
  O       2.390959     -0.565103     -1.335124
  H      -2.084853     -1.221185     -0.885726
  H      -2.906131     -1.186806      0.674603
  H      -3.500523     -0.189270     -0.656337
  H      -0.594427     -0.532567      1.836951
  H       1.666535      0.034966      1.104182
  H       0.363622     -0.306384     -1.774426
  H      -1.420716      1.189100     -0.579281
  H      -2.274893      1.195822      0.969374
  H       3.618829      0.706859     -2.133125
17
Coordinates from ORCA-job scan E -27.309547829040
  C      -2.609715     -0.581922     -0.175341
  C      -0.481597      0.079889      0.956074
  C       0.817915      0.294126      0.476948
  C       1.186464     -0.026274     -1.130318
  C      -1.702312      0.570997      0.274443
  O       3.057758      0.020306     -2.500926
  O       1.094261      1.230285     -0.533385
  O       2.390379     -0.565594     -1.337973
  H      -2.089768     -1.222196     -0.883701
  H      -2.907547     -1.185676      0.678400
  H      -3.503839     -0.188665     -0.652065
  H      -0.593476     -0.534709      1.833887
  H       1.667649      0.037013      1.100334
  H       0.362461     -0.309025     -1.775434
  H      -1.422466      1.187810     -0.580604
  H      -2.273212      1.196568      0.969875
  H       3.627265      0.705854     -2.123377
17
Coordinates from ORCA-job scan E -27.309548464250
  C      -2.611190     -0.581836     -0.173869
  C      -0.481469      0.079161      0.955089
  C       0.817991      0.293593      0.475636
  C       1.186756     -0.026954     -1.131552
  C      -1.702237      0.570633      0.273861
  O       3.059749      0.023740     -2.500058
  O       1.094032      1.229907     -0.534767
  O       2.390583     -0.565804     -1.339757
  H      -2.092539     -1.223365     -0.882043
  H      -2.908845     -1.184407      0.680772
  H      -3.505366     -0.188209     -0.650193
  H      -0.593275     -0.535540      1.832819
  H       1.667771      0.037242      1.099284
  H       0.362474     -0.309796     -1.776321
  H      -1.422508      1.186287     -0.582059
  H      -2.271925      1.197580      0.969083
  H       3.630219      0.706555     -2.119090
17
Coordinates from ORCA-job scan E -27.309548905220
  C      -2.612664     -0.581728     -0.172344
  C      -0.481310      0.078385      0.954228
  C       0.818149      0.292542      0.474659
  C       1.187187     -0.027860     -1.132495
  C      -1.701834      0.570203      0.272864
  O       3.061241      0.027430     -2.499266
  O       1.094274      1.229174     -0.535562
  O       2.391011     -0.566138     -1.341747
  H      -2.095381     -1.225034     -0.879910
  H      -2.910482     -1.182568      0.683459
  H      -3.506676     -0.187677     -0.648623
  H      -0.593208     -0.536080      1.832092
  H       1.667635      0.036517      1.098822
  H       0.362719     -0.310174     -1.777283
  H      -1.421856      1.184122     -0.584211
  H      -2.270273      1.199138      0.967369
  H       3.631689      0.708536     -2.115214
17
Coordinates from ORCA-job scan E -27.308896038990
  C      -2.614264     -0.581835     -0.170633
  C      -0.483612      0.078773      0.956975
  C       0.816287      0.292085      0.478222
  C       1.190257     -0.029188     -1.138613
  C      -1.703456      0.570272      0.274164
  O       3.066234      0.029640     -2.502605
  O       1.095144      1.227277     -0.535423
  O       2.394320     -0.567019     -1.347646
  H      -2.096607     -1.225984     -0.877158
  H      -2.912931     -1.181749      0.685524
  H      -3.507787     -0.187995     -0.648005
  H      -0.596379     -0.534798      1.835354
  H       1.664790      0.036232      1.103796
  H       0.366899     -0.309884     -1.785530
  H      -1.422624      1.183269     -0.583293
  H      -2.272263      1.200053      0.967601
  H       3.636213      0.709639     -2.115892
17
Coordinates from ORCA-job scan E -27.308908816970
  C      -2.612673     -0.581893     -0.171230
  C      -0.482554      0.079546      0.956648
  C       0.816028      0.293055      0.478831
  C       1.188262     -0.029084     -1.138233
  C      -1.702445      0.570589      0.273577
  O       3.064636      0.030066     -2.501634
  O       1.094383      1.226195     -0.535120
  O       2.391516     -0.567426     -1.347231
  H      -2.094549     -1.225892     -0.877549
  H      -2.911325     -1.181825      0.684930
  H      -3.506222     -0.188467     -0.648873
  H      -0.595123     -0.534209      1.834914
  H       1.664876      0.034603      1.102441
  H       0.363812     -0.309849     -1.783373
  H      -1.421629      1.183538     -0.583894
  H      -2.271507      1.200248      0.966882
  H       3.634734      0.709591     -2.114250
17
Coordinates from ORCA-job scan E -27.308915243640
  C      -2.611500     -0.581963     -0.171557
  C      -0.481348      0.080426      0.955701
  C       0.816010      0.294976      0.478647
  C       1.186117     -0.028840     -1.138570
  C      -1.702025      0.571019      0.273285
  O       3.064649      0.030907     -2.499989
  O       1.093399      1.225318     -0.536090
  O       2.388270     -0.568148     -1.346918
  H      -2.093090     -1.225337     -0.878248
  H      -2.909447     -1.182403      0.684489
  H      -3.505496     -0.189076     -0.648798
  H      -0.593434     -0.534018      1.833685
  H       1.665921      0.033504      1.099639
  H       0.359887     -0.310803     -1.780879
  H      -1.421961      1.184485     -0.584050
  H      -2.271131      1.200030      0.967115
  H       3.635398      0.708709     -2.110626
17
Coordinates from ORCA-job scan E -27.308916349150
  C      -2.611805     -0.581950     -0.171157
  C      -0.481135      0.080439      0.955010
  C       0.816057      0.295692      0.477795
  C       1.185769     -0.028848     -1.139367
  C      -1.702319      0.571082      0.273438
  O       3.066007      0.031864     -2.499196
  O       1.092895      1.225332     -0.537365
  O       2.387586     -0.568425     -1.347286
  H      -2.093693     -1.225094     -0.878278
  H      -2.909182     -1.182635      0.684915
  H      -3.506138     -0.189124     -0.647821
  H      -0.592952     -0.534485      1.832717
  H       1.666497      0.034135      1.098138
  H       0.358969     -0.311759     -1.780600
  H      -1.422847      1.184859     -0.583878
  H      -2.271054      1.199810      0.967810
  H       3.637565      0.707895     -2.108042
17
Coordinates from ORCA-job scan E -27.308272959780
  C      -2.613407     -0.582056     -0.169441
  C      -0.483435      0.080826      0.957757
  C       0.814195      0.295236      0.481353
  C       1.188845     -0.030171     -1.145495
  C      -1.703941      0.571151      0.274740
  O       3.071000      0.034076     -2.502515
  O       1.093763      1.223435     -0.537230
  O       2.390901     -0.569298     -1.353201
  H      -2.094923     -1.226043     -0.875522
  H      -2.911632     -1.181814      0.686986
  H      -3.507251     -0.189441     -0.647196
  H      -0.596121     -0.533206      1.835978
  H       1.663656      0.033850      1.103109
  H       0.363151     -0.311470     -1.788865
  H      -1.423615      1.184006     -0.582958
  H      -2.273041      1.200725      0.968045
  H       3.642075      0.708980     -2.108709
17
Coordinates from ORCA-job scan E -27.308285449330
  C      -2.612329     -0.582124     -0.169642
  C      -0.482472      0.081386      0.957077
  C       0.813869      0.296489      0.481209
  C       1.186925     -0.029983     -1.145791
  C      -1.703335      0.571401      0.274479
  O       3.070549      0.035217     -2.501337
  O       1.092473      1.222707     -0.537899
  O       2.388119     -0.569526     -1.353162
  H      -2.093681     -1.225773     -0.875908
  H      -2.910142     -1.182142      0.686760
  H      -3.506430     -0.189857     -0.647185
  H      -0.594790     -0.533133      1.834988
  H       1.663989      0.033421      1.100995
  H       0.360081     -0.311995     -1.787082
  H      -1.423435      1.184493     -0.583178
  H      -2.272386      1.200599      0.968124
  H       3.643215      0.707606     -2.105612
17
Coordinates from ORCA-job scan E -27.308295780280
  C      -2.611717     -0.582287     -0.169191
  C      -0.480923      0.082087      0.955124
  C       0.813598      0.299403      0.479614
  C       1.184005     -0.029469     -1.147508
  C      -1.703261      0.571740      0.274438
  O       3.072359      0.038435     -2.498739
  O       1.090022      1.222099     -0.540831
  O       2.383549     -0.569974     -1.353769
  H      -2.093392     -1.225087     -0.876474
  H      -2.907980     -1.183080      0.687209
  H      -3.506759     -0.190575     -0.645429
  H      -0.592285     -0.533792      1.832345
  H       1.665621      0.033900      1.095842
  H       0.354654     -0.313952     -1.784458
  H      -1.424979      1.185655     -0.583153
  H      -2.271682      1.199985      0.969416
  H       3.649392      0.703698     -2.097601
17
Coordinates from ORCA-job scan E -27.308297965400
  C      -2.612539     -0.582346     -0.168230
  C      -0.480626      0.081893      0.953969
  C       0.813567      0.300334      0.478095
  C       1.183501     -0.029351     -1.148970
  C      -1.703700      0.571652      0.274552
  O       3.074588      0.040938     -2.497601
  O       1.089040      1.222286     -0.542876
  O       2.382500     -0.570050     -1.354850
  H      -2.094951     -1.225111     -0.876088
  H      -2.907935     -1.183210      0.688421
  H      -3.508078     -0.190642     -0.643542
  H      -0.591553     -0.534649      1.830804
  H       1.666378      0.035028      1.093462
  H       0.353302     -0.315102     -1.784365
  H      -1.426296      1.185709     -0.583232
  H      -2.271322      1.199816      0.970240
  H       3.654344      0.701592     -2.092953
17
Coordinates from ORCA-job scan E -27.308300458070
  C      -2.614938     -0.582441     -0.165722
  C      -0.480321      0.081003      0.951714
  C       0.813505      0.301199      0.474883
  C       1.183202     -0.029426     -1.152046
  C      -1.704470      0.571185      0.274473
  O       3.079243      0.047103     -2.495591
  O       1.087417      1.222683     -0.546768
  O       2.381420     -0.569992     -1.357874
  H      -2.099339     -1.225981     -0.874330
  H      -2.908931     -1.182643      0.691881
  H      -3.511240     -0.190458     -0.639371
  H      -0.590558     -0.536570      1.827906
  H       1.667412      0.037296      1.089519
  H       0.351792     -0.317027     -1.785229
  H      -1.428440      1.184709     -0.584159
  H      -2.270093      1.200130      0.971087
  H       3.664559      0.698018     -2.083537
17
Coordinates from ORCA-job scan E -27.308301126310
  C      -2.616298     -0.582473     -0.164318
  C      -0.480248      0.080370      0.950822
  C       0.813491      0.300846      0.473616
  C       1.183355     -0.029714     -1.153287
  C      -1.704513      0.570797      0.274015
  O       3.080959      0.050683     -2.494883
  O       1.087034      1.222618     -0.548024
  O       2.381398     -0.569878     -1.359779
  H      -2.101855     -1.227076     -0.872800
  H      -2.910034     -1.181662      0.694084
  H      -3.512701     -0.190212     -0.637548
  H      -0.590342     -0.537342      1.826914
  H       1.667487      0.037706      1.088465
  H       0.351630     -0.317408     -1.786072
  H      -1.428688      1.183329     -0.585393
  H      -2.269056      1.200912      0.970481
  H       3.668602      0.697292     -2.079455
17
Coordinates from ORCA-job scan E -27.307680289320
  C      -2.617896     -0.582576     -0.162610
  C      -0.482541      0.080753      0.953573
  C       0.811637      0.300396      0.477174
  C       1.186442     -0.031019     -1.159423
  C      -1.706132      0.570865      0.275318
  O       3.085930      0.052897     -2.498143
  O       1.087908      1.220735     -0.547882
  O       2.384724     -0.570725     -1.365727
  H      -2.103074     -1.228016     -0.870055
  H      -2.912481     -1.180843      0.696145
  H      -3.513814     -0.190523     -0.636933
  H      -0.593503     -0.536074      1.830180
  H       1.664663      0.037424      1.093442
  H       0.355806     -0.317116     -1.794365
  H      -1.429454      1.182479     -0.584469
  H      -2.271048      1.201820      0.970722
  H       3.673052      0.698308     -2.080112
17
Coordinates from ORCA-job scan E -27.307692596560
  C      -2.616582     -0.582671     -0.162927
  C      -0.481498      0.081346      0.953176
  C       0.811322      0.301100      0.477655
  C       1.184481     -0.030918     -1.159196
  C      -1.705049      0.571042      0.274566
  O       3.084417      0.054216     -2.497209
  O       1.087030      1.219586     -0.547566
  O       2.381984     -0.570866     -1.365797
  H      -2.101532     -1.228307     -0.870024
  H      -2.911221     -1.180617      0.696045
  H      -3.512474     -0.190950     -0.637550
  H      -0.592275     -0.535500      1.829776
  H       1.664592      0.035752      1.092119
  H       0.352811     -0.316870     -1.792487
  H      -1.428302      1.182256     -0.585456
  H      -2.270020      1.202256      0.969668
  H       3.672536      0.697933     -2.077958
17
Coordinates from ORCA-job scan E -27.307699082960
  C      -2.615835     -0.582840     -0.162800
  C      -0.480311      0.081980      0.952085
  C       0.811230      0.302709      0.477278
  C       1.182363     -0.030557     -1.159780
  C      -1.704553      0.571248      0.273995
  O       3.084566      0.056543     -2.495611
  O       1.085920      1.218693     -0.548492
  O       2.378741     -0.571171     -1.366274
  H      -2.100855     -1.228378     -0.870052
  H      -2.909839     -1.180768      0.696399
  H      -3.512113     -0.191566     -0.637055
  H      -0.590607     -0.535289      1.828578
  H       1.665418      0.034448      1.089294
  H       0.348920     -0.317398     -1.790333
  H      -1.428461      1.182427     -0.586242
  H      -2.269261      1.202405      0.969351
  H       3.674896      0.696301     -2.073504
17
Coordinates from ORCA-job scan E -27.307700625650
  C      -2.616279     -0.582909     -0.162186
  C      -0.480044      0.081960      0.951222
  C       0.811248      0.303507      0.476276
  C       1.181888     -0.030386     -1.160766
  C      -1.704852      0.571236      0.274027
  O       3.086052      0.058320     -2.494704
  O       1.085311      1.218757     -0.549851
  O       2.377792     -0.571287     -1.367029
  H      -2.101735     -1.228371     -0.869830
  H      -2.909634     -1.180916      0.697179
  H      -3.512929     -0.191721     -0.635807
  H      -0.590013     -0.535757      1.827470
  H       1.665988      0.034935      1.087517
  H       0.347710     -0.318185     -1.790008
  H      -1.429417      1.182554     -0.586329
  H      -2.269047      1.202293      0.969876
  H       3.678181      0.694758     -2.070220
17
Coordinates from ORCA-job scan E -27.307702506910
  C      -2.617848     -0.583024     -0.160413
  C      -0.479733      0.081512      0.949359
  C       0.811229      0.304613      0.473768
  C       1.181414     -0.030219     -1.163185
  C      -1.705566      0.571013      0.274094
  O       3.089683      0.062902     -2.492898
  O       1.084018      1.219114     -0.552975
  O       2.376529     -0.571337     -1.369265
  H      -2.104636     -1.228738     -0.868799
  H      -2.909911     -1.180841      0.699528
  H      -3.515220     -0.191793     -0.632639
  H      -0.589063     -0.537143      1.825038
  H       1.666913      0.036643      1.084119
  H       0.346079     -0.319864     -1.790216
  H      -1.431420      1.182281     -0.586738
  H      -2.268339      1.202290      0.970881
  H       3.686091      0.691377     -2.062821
17
Coordinates from ORCA-job scan E -27.307703086850
  C      -2.618948     -0.583076     -0.159239
  C      -0.479645      0.081044      0.948491
  C       0.811174      0.304613      0.472496
  C       1.181398     -0.030313     -1.164430
  C      -1.705748      0.570733      0.273890
  O       3.091380      0.065996     -2.492121
  O       1.083455      1.219224     -0.554366
  O       2.376261     -0.571198     -1.370903
  H      -2.106669     -1.229428     -0.867716
  H      -2.910593     -1.180298      0.701261
  H      -3.516530     -0.191675     -0.630931
  H      -0.588744     -0.537911      1.823973
  H       1.667091      0.037413      1.082868
  H       0.345705     -0.320405     -1.790829
  H      -1.431999      1.181451     -0.587466
  H      -2.267616      1.202691      0.970806
  H       3.690249      0.689926     -2.058948
17
Coordinates from ORCA-job scan E -27.307703440390
  C      -2.620051     -0.583125     -0.158052
  C      -0.479571      0.080510      0.947839
  C       0.811133      0.304142      0.471555
  C       1.181487     -0.030554     -1.165388
  C      -1.705667      0.570362      0.273396
  O       3.092505      0.069307     -2.491561
  O       1.083173      1.219116     -0.555211
  O       2.376237     -0.570994     -1.372714
  H      -2.108740     -1.230526     -0.866269
  H      -2.911602     -1.179324      0.703192
  H      -3.517642     -0.191484     -0.629529
  H      -0.588570     -0.538458      1.823306
  H       1.667015      0.037564      1.082225
  H       0.345589     -0.320471     -1.791625
  H      -1.431976      1.180062     -0.588693
  H      -2.266654      1.203477      0.970007
  H       3.693554      0.689185     -2.055643
17
Coordinates from ORCA-job scan E -27.307103830570
  C      -2.621648     -0.583226     -0.156349
  C      -0.481858      0.080889      0.950593
  C       0.809285      0.303696      0.475111
  C       1.184585     -0.031838     -1.171532
  C      -1.707285      0.570426      0.274703
  O       3.097461      0.071522     -2.494764
  O       1.084050      1.217245     -0.555067
  O       2.379576     -0.571811     -1.378688
  H      -2.109957     -1.231456     -0.863533
  H      -2.914047     -1.178507      0.705243
  H      -3.518757     -0.191793     -0.628917
  H      -0.591722     -0.537202      1.826572
  H       1.664204      0.037284      1.087203
  H       0.349763     -0.320169     -1.799939
  H      -1.432741      1.179212     -0.587762
  H      -2.268646      1.204374      0.970255
  H       3.697958      0.690140     -2.056293
17
Coordinates from ORCA-job scan E -27.307116948780
  C      -2.620170     -0.583331     -0.156848
  C      -0.480824      0.081585      0.950263
  C       0.808977      0.304576      0.475664
  C       1.182550     -0.031626     -1.171236
  C      -1.706286      0.570666      0.274091
  O       3.095915      0.072382     -2.493849
  O       1.083130      1.216139     -0.554723
  O       2.376755     -0.571923     -1.378501
  H      -2.108085     -1.231510     -0.863793
  H      -2.912570     -1.178535      0.704808
  H      -3.517292     -0.192288     -0.629688
  H      -0.590485     -0.536504      1.826257
  H       1.664217      0.035673      1.085803
  H       0.346696     -0.319952     -1.797921
  H      -1.431742      1.179303     -0.588453
  H      -2.267845      1.204585      0.969475
  H       3.697278      0.689548     -2.054512
17
Coordinates from ORCA-job scan E -27.307123880060
  C      -2.619081     -0.583536     -0.157061
  C      -0.479649      0.082411      0.949311
  C       0.808844      0.306505      0.475429
  C       1.180257     -0.031024     -1.171688
  C      -1.705916      0.570983      0.273779
  O       3.095902      0.073964     -2.492315
  O       1.081870      1.215386     -0.555582
  O       2.373304     -0.572124     -1.378531
  H      -2.106756     -1.231161     -0.864355
  H      -2.910752     -1.179172      0.704540
  H      -3.516660     -0.193054     -0.629489
  H      -0.588787     -0.536092      1.825215
  H       1.665131      0.034556      1.082867
  H       0.342645     -0.320487     -1.795506
  H      -1.432145      1.180037     -0.588699
  H      -2.267483      1.204322      0.969656
  H       3.699496      0.687276     -2.050735
17
Coordinates from ORCA-job scan E -27.307125316330
  C      -2.619354     -0.583640     -0.156637
  C      -0.479439      0.082469      0.948593
  C       0.808809      0.307404      0.474548
  C       1.179755     -0.030681     -1.172559
  C      -1.706288      0.571006      0.273967
  O       3.097192      0.075331     -2.491554
  O       1.081189      1.215622     -0.556815
  O       2.372341     -0.572104     -1.379050
  H      -2.107287     -1.230956     -0.864404
  H      -2.910363     -1.179586      0.704973
  H      -3.517321     -0.193292     -0.628439
  H      -0.588242     -0.536472      1.824258
  H       1.665669      0.035224      1.081199
  H       0.341500     -0.321161     -1.795136
  H      -1.433199      1.180425     -0.588479
  H      -2.267511      1.203982      0.970429
  H       3.702768      0.685215     -2.048057
17
Coordinates from ORCA-job scan E -27.307127076190
  C      -2.620560     -0.583870     -0.155235
  C      -0.479226      0.082196      0.947024
  C       0.808646      0.308778      0.472310
  C       1.179148     -0.030048     -1.174746
  C      -1.707142      0.570830      0.274323
  O       3.100328      0.079298     -2.490073
  O       1.079685      1.216393     -0.559633
  O       2.370920     -0.571767     -1.380869
  H      -2.109460     -1.230973     -0.863897
  H      -2.910237     -1.180077      0.706647
  H      -3.519288     -0.193601     -0.625664
  H      -0.587351     -0.537679      1.822122
  H       1.666514      0.037288      1.077997
  H       0.339867     -0.322451     -1.795208
  H      -1.435402      1.180628     -0.588306
  H      -2.267294      1.203512      0.971890
  H       3.711072      0.680329     -2.041846
17
Coordinates from ORCA-job scan E -27.307127618750
  C      -2.621475     -0.584015     -0.154233
  C      -0.479184      0.081831      0.946306
  C       0.808502      0.308953      0.471204
  C       1.179016     -0.029815     -1.175861
  C      -1.707397      0.570551      0.274240
  O       3.101693      0.082244     -2.489493
  O       1.078989      1.216751     -0.560806
  O       2.370498     -0.571341     -1.382345
  H      -2.111117     -1.231539     -0.863042
  H      -2.910711     -1.179829      0.708074
  H      -3.520435     -0.193657     -0.624151
  H      -0.587043     -0.538352      1.821205
  H       1.666640      0.038197      1.076843
  H       0.339402     -0.322650     -1.795723
  H      -1.436084      1.179986     -0.588787
  H      -2.266829      1.203682      0.971989
  H       3.715756      0.677791     -2.038585
17
Coordinates from ORCA-job scan E -27.307127978840
  C      -2.622486     -0.584192     -0.153114
  C      -0.479155      0.081378      0.945737
  C       0.808358      0.308702      0.470351
  C       1.178955     -0.029658     -1.176779
  C      -1.707423      0.570144      0.273841
  O       3.102564      0.085768     -2.489107
  O       1.078510      1.216942     -0.561497
  O       2.370255     -0.570760     -1.384162
  H      -2.112968     -1.232596     -0.861724
  H      -2.911557     -1.179133      0.709853
  H      -3.521501     -0.193678     -0.622797
  H      -0.586847     -0.538869      1.820597
  H       1.666515      0.038535      1.076205
  H       0.339103     -0.322305     -1.796446
  H      -1.436235      1.178697     -0.589840
  H      -2.266097      1.204257      0.971337
  H       3.720229      0.675555     -2.035618
17
Coordinates from ORCA-job scan E -27.306553922350
  C      -2.624081     -0.584290     -0.151414
  C      -0.481439      0.081751      0.948494
  C       0.806514      0.308257      0.473907
  C       1.182063     -0.030922     -1.182930
  C      -1.709038      0.570206      0.275151
  O       3.107507      0.087985     -2.492263
  O       1.079391      1.215081     -0.561350
  O       2.373605     -0.571551     -1.390161
  H      -2.114181     -1.233520     -0.858993
  H      -2.914001     -1.178317      0.711899
  H      -3.522616     -0.193983     -0.622188
  H      -0.589996     -0.537624      1.823866
  H       1.663715      0.038252      1.081187
  H       0.343272     -0.321993     -1.804782
  H      -1.436997      1.177849     -0.588903
  H      -2.268090      1.205149      0.971590
  H       3.724593      0.676458     -2.036274
17
Coordinates from ORCA-job scan E -27.306567391200
  C      -2.622628     -0.584425     -0.151895
  C      -0.480425      0.082438      0.948162
  C       0.806193      0.309146      0.474466
  C       1.180015     -0.030617     -1.182642
  C      -1.708067      0.570424      0.274536
  O       3.105954      0.088990     -2.491382
  O       1.078430      1.213992     -0.560953
  O       2.370773     -0.571527     -1.390023
  H      -2.112337     -1.233612     -0.859230
  H      -2.912543     -1.178363      0.711492
  H      -3.521182     -0.194517     -0.622939
  H      -0.588771     -0.536890      1.823582
  H       1.663701      0.036638      1.079787
  H       0.340201     -0.321679     -1.802767
  H      -1.436031      1.177907     -0.589606
  H      -2.267314      1.205346      0.970802
  H       3.724251      0.675537     -2.034553
17
Coordinates from ORCA-job scan E -27.306574683970
  C      -2.621543     -0.584705     -0.152095
  C      -0.479279      0.083273      0.947208
  C       0.806011      0.311154      0.474254
  C       1.177657     -0.029784     -1.183103
  C      -1.707752      0.570704      0.274234
  O       3.105885      0.090870     -2.489916
  O       1.077061      1.213339     -0.561710
  O       2.367227     -0.571456     -1.390127
  H      -2.110988     -1.233314     -0.859784
  H      -2.910697     -1.179088      0.711237
  H      -3.520572     -0.195396     -0.622719
  H      -0.587072     -0.536414      1.822581
  H       1.664552      0.035533      1.076831
  H       0.336077     -0.322008     -1.800302
  H      -1.436518      1.178618     -0.589840
  H      -2.267023      1.205024      0.970999
  H       3.727196      0.672435     -2.030910
17
Coordinates from ORCA-job scan E -27.306576297670
  C      -2.621799     -0.584871     -0.151672
  C      -0.479086      0.083354      0.946486
  C       0.805929      0.312161      0.473384
  C       1.177092     -0.029243     -1.183984
  C      -1.708175      0.570707      0.274448
  O       3.107128      0.092452     -2.489190
  O       1.076285      1.213708     -0.562896
  O       2.366157     -0.571247     -1.390682
  H      -2.111471     -1.233120     -0.859860
  H      -2.910248     -1.179609      0.711652
  H      -3.521242     -0.195736     -0.621649
  H      -0.586509     -0.536778      1.821619
  H       1.665055      0.036262      1.075129
  H       0.334846     -0.322530     -1.799876
  H      -1.437667      1.179029     -0.589576
  H      -2.267127      1.204611      0.971826
  H       3.731052      0.669638     -2.028322
17
Coordinates from ORCA-job scan E -27.306578421670
  C      -2.623014     -0.585275     -0.150224
  C      -0.478923      0.083131      0.944862
  C       0.805635      0.313881      0.471085
  C       1.176317     -0.028054     -1.186281
  C      -1.709217      0.570466      0.274913
  O       3.110267      0.097113     -2.487740
  O       1.074473      1.214908     -0.565709
  O       2.364425     -0.570397     -1.392648
  H      -2.113601     -1.233142     -0.859421
  H      -2.909957     -1.180427      0.713322
  H      -3.523321     -0.196325     -0.618709
  H      -0.585545     -0.538034      1.819372
  H       1.665850      0.038644      1.071742
  H       0.332964     -0.323458     -1.799842
  H      -1.440233      1.179322     -0.589239
  H      -2.267131      1.203898      0.973520
  H       3.741227      0.662536     -2.022167
17
Coordinates from ORCA-job scan E -27.306579125850
  C      -2.623984     -0.585546     -0.149148
  C      -0.478929      0.082778      0.944104
  C       0.805391      0.314275      0.469909
  C       1.176084     -0.027437     -1.187501
  C      -1.709612      0.570124      0.274904
  O       3.111661      0.100656     -2.487178
  O       1.073543      1.215589     -0.566901
  O       2.363817     -0.569582     -1.394287
  H      -2.115305     -1.233745     -0.858567
  H      -2.910365     -1.180384      0.714805
  H      -3.524593     -0.196567     -0.617034
  H      -0.585194     -0.538790      1.818360
  H       1.665938      0.039849      1.070471
  H       0.332354     -0.323372     -1.800360
  H      -1.441176      1.178696     -0.589623
  H      -2.266808      1.203909      0.973774
  H       3.747397      0.658335     -2.018890
17
Coordinates from ORCA-job scan E -27.306579600710
  C      -2.625060     -0.585875     -0.147952
  C      -0.478972      0.082331      0.943536
  C       0.805124      0.314231      0.469029
  C       1.175915     -0.026836     -1.188492
  C      -1.709784      0.569625      0.274574
  O       3.112466      0.104895     -2.486864
  O       1.072805      1.216149     -0.567533
  O       2.363410     -0.568500     -1.396294
  H      -2.117204     -1.234883     -0.857220
  H      -2.911179     -1.179896      0.716653
  H      -3.525782     -0.196801     -0.615541
  H      -0.584975     -0.539389      1.817699
  H       1.665736      0.040506      1.069794
  H       0.331931     -0.322601     -1.801136
  H      -1.441572      1.177372     -0.590596
  H      -2.266243      1.204321      0.973239
  H       3.753603      0.654137     -2.016060
17
Coordinates from ORCA-job scan E -27.306035937610
  C      -2.626654     -0.585971     -0.146256
  C      -0.481252      0.082696      0.946299
  C       0.803286      0.313783      0.472588
  C       1.179034     -0.028076     -1.194648
  C      -1.711397      0.569684      0.275888
  O       3.117395      0.107118     -2.489967
  O       1.073693      1.214297     -0.567381
  O       2.366769     -0.569262     -1.402319
  H      -2.118411     -1.235802     -0.854495
  H      -2.913626     -1.179081      0.718692
  H      -3.526897     -0.197100     -0.614937
  H      -0.588122     -0.538158      1.820973
  H       1.662948      0.040215      1.074786
  H       0.336097     -0.322275     -1.809491
  H      -1.442329      1.176524     -0.589653
  H      -2.268238      1.205206      0.973497
  H       3.757927      0.654988     -2.016739
17
Coordinates from ORCA-job scan E -27.306049626220
  C      -2.625219     -0.586139     -0.146726
  C      -0.480263      0.083375      0.945990
  C       0.802944      0.314654      0.473178
  C       1.176969     -0.027678     -1.194349
  C      -1.710438      0.569873      0.275262
  O       3.115791      0.108308     -2.489124
  O       1.072687      1.213221     -0.566894
  O       2.363938     -0.569073     -1.402236
  H      -2.116580     -1.235950     -0.854698
  H      -2.912200     -1.179132      0.718310
  H      -3.525472     -0.197673     -0.615698
  H      -0.586918     -0.537372      1.820756
  H       1.662889      0.038588      1.073426
  H       0.333040     -0.321826     -1.807503
  H      -1.441359      1.176523     -0.590382
  H      -2.267484      1.205401      0.972669
  H       3.757895      0.653686     -2.015145
17
Coordinates from ORCA-job scan E -27.306057092230
  C      -2.624133     -0.586500     -0.146929
  C      -0.479172      0.084218      0.945090
  C       0.802704      0.316693      0.473038
  C       1.174567     -0.026606     -1.194773
  C      -1.710173      0.570106      0.274968
  O       3.115606      0.110544     -2.487742
  O       1.071222      1.212680     -0.567480
  O       2.360360     -0.568675     -1.402407
  H      -2.115189     -1.235725     -0.855236
  H      -2.910358     -1.179937      0.718050
  H      -3.524859     -0.198668     -0.615509
  H      -0.585256     -0.536803      1.819870
  H       1.663645      0.037497      1.070550
  H       0.328918     -0.321875     -1.805047
  H      -1.441888      1.177177     -0.590609
  H      -2.267287      1.205027      0.972843
  H       3.761514      0.649636     -2.011842
17
Coordinates from ORCA-job scan E -27.306058902250
  C      -2.624346     -0.586743     -0.146529
  C      -0.479002      0.084339      0.944389
  C       0.802564      0.317825      0.472213
  C       1.173919     -0.025831     -1.195638
  C      -1.710653      0.570087      0.275215
  O       3.116767      0.112405     -2.487042
  O       1.070337      1.213198     -0.568579
  O       2.359169     -0.568229     -1.402978
  H      -2.115572     -1.235537     -0.855357
  H      -2.909826     -1.180594      0.718412
  H      -3.525511     -0.199137     -0.614453
  H      -0.584678     -0.537124      1.818935
  H       1.664101      0.038282      1.068837
  H       0.327594     -0.322199     -1.804556
  H      -1.443133      1.177620     -0.590284
  H      -2.267496      1.204521      0.973724
  H       3.765987      0.645905     -2.009473
17
Coordinates from ORCA-job scan E -27.306061555700
  C      -2.625518     -0.587391     -0.145071
  C      -0.478908      0.084222      0.942726
  C       0.802086      0.320046      0.469885
  C       1.172888     -0.023887     -1.198033
  C      -1.711949      0.569775      0.275841
  O       3.119906      0.118080     -2.485553
  O       1.068098      1.214965     -0.571347
  O       2.357014     -0.566661     -1.405068
  H      -2.117540     -1.235533     -0.855066
  H      -2.909265     -1.181897      0.719996
  H      -3.527684     -0.200132     -0.611361
  H      -0.583614     -0.538398      1.816585
  H       1.664831      0.041089      1.065220
  H       0.325363     -0.322630     -1.804356
  H      -1.446185      1.178083     -0.589683
  H      -2.267847      1.203451      0.975753
  H       3.778544      0.635606     -2.003632
17
Coordinates from ORCA-job scan E -27.306062585270
  C      -2.626564     -0.587873     -0.143887
  C      -0.478989      0.083904      0.941889
  C       0.801675      0.320848      0.468579
  C       1.172470     -0.022636     -1.199433
  C      -1.712590      0.569337      0.275973
  O       3.121436      0.122708     -2.484912
  O       1.066754      1.216180     -0.572612
  O       2.356082     -0.565202     -1.406937
  H      -2.119297     -1.236166     -0.854251
  H      -2.909529     -1.182230      0.721544
  H      -3.529163     -0.200696     -0.609413
  H      -0.583177     -0.539284      1.815393
  H       1.664875      0.042822      1.063707
  H       0.324490     -0.322124     -1.804855
  H      -1.447597      1.177532     -0.589875
  H      -2.267781      1.203171      0.976310
  H       3.787127      0.628496     -2.000385
17
Coordinates from ORCA-job scan E -27.306063363300
  C      -2.627803     -0.588496     -0.142494
  C      -0.479155      0.083464      0.941253
  C       0.801172      0.321246      0.467561
  C       1.172083     -0.021202     -1.200638
  C      -1.713059      0.568667      0.275777
  O       3.122337      0.128595     -2.484534
  O       1.065474      1.217447     -0.573253
  O       2.355326     -0.563175     -1.409347
  H      -2.121364     -1.237466     -0.852830
  H      -2.910276     -1.182143      0.723589
  H      -3.530652     -0.201346     -0.607559
  H      -0.582881     -0.540075      1.814546
  H       1.664557      0.044167      1.062839
  H       0.323790     -0.320642     -1.805731
  H      -1.448523      1.176146     -0.590706
  H      -2.267510      1.203273      0.976036
  H       3.796703      0.620328     -1.997673
17
Coordinates from ORCA-job scan E -27.306063645330
  C      -2.628395     -0.588903     -0.141806
  C      -0.479292      0.083277      0.941122
  C       0.800900      0.321291      0.467380
  C       1.171846     -0.020344     -1.200977
  C      -1.713197      0.568240      0.275484
  O       3.122181      0.132019     -2.484575
  O       1.064971      1.218051     -0.573037
  O       2.355024     -0.561858     -1.410712
  H      -2.122307     -1.238441     -0.851876
  H      -2.910816     -1.181932      0.724718
  H      -3.531252     -0.201789     -0.606879
  H      -0.582818     -0.540250      1.814441
  H       1.664189      0.044353      1.062853
  H       0.323456     -0.319256     -1.806227
  H      -1.448677      1.175072     -0.591444
  H      -2.267374      1.203515      0.975385
  H       3.801781      0.615740     -1.997014
17
Coordinates from ORCA-job scan E -27.305555749570
  C      -2.629990     -0.588997     -0.140117
  C      -0.481571      0.083629      0.943893
  C       0.799067      0.320834      0.470949
  C       1.174977     -0.021551     -1.207133
  C      -1.714809      0.568294      0.276803
  O       3.127095      0.134247     -2.487613
  O       1.065871      1.216210     -0.572877
  O       2.358396     -0.562581     -1.416760
  H      -2.123510     -1.239352     -0.849160
  H      -2.913269     -1.181119      0.726748
  H      -3.532367     -0.202079     -0.606284
  H      -0.585969     -0.539040      1.817722
  H       1.661411      0.044044      1.067861
  H       0.327617     -0.318902     -1.814598
  H      -1.449425      1.174224     -0.590494
  H      -2.269371      1.204392      0.975650
  H       3.806067      0.616536     -1.997754
17
Coordinates from ORCA-job scan E -27.305569951920
  C      -2.628465     -0.589171     -0.140709
  C      -0.480619      0.084371      0.943615
  C       0.798733      0.321833      0.471575
  C       1.172904     -0.021064     -1.206791
  C      -1.713945      0.568535      0.276295
  O       3.125518      0.135173     -2.486775
  O       1.064836      1.215167     -0.572374
  O       2.355580     -0.562335     -1.416475
  H      -2.121475     -1.239315     -0.849583
  H      -2.911698     -1.181369      0.726128
  H      -3.530891     -0.202702     -0.607130
  H      -0.584781     -0.538181      1.817548
  H       1.661385      0.042508      1.066474
  H       0.324585     -0.318539     -1.812504
  H      -1.448608      1.174477     -0.590985
  H      -2.268804      1.204424      0.975054
  H       3.805966      0.614976     -1.996528
17
Coordinates from ORCA-job scan E -27.305577888930
  C      -2.627144     -0.589575     -0.141165
  C      -0.479575      0.085350      0.942800
  C       0.798448      0.324135      0.471560
  C       1.170409     -0.019747     -1.207095
  C      -1.713810      0.568850      0.276201
  O       3.125261      0.137090     -2.485407
  O       1.063242      1.214750     -0.572862
  O       2.351920     -0.561747     -1.416268
  H      -2.119615     -1.238781     -0.850528
  H      -2.909537     -1.182562      0.725403
  H      -3.530105     -0.203841     -0.607154
  H      -0.583121     -0.537475      1.816755
  H       1.662141      0.041599      1.063590
  H       0.320427     -0.318634     -1.809812
  H      -1.449361      1.175567     -0.590795
  H      -2.268932      1.203742      0.975614
  H       3.809572      0.610066     -1.994002
17
Coordinates from ORCA-job scan E -27.305579783720
  C      -2.627230     -0.589873     -0.140909
  C      -0.479455      0.085536      0.942195
  C       0.798248      0.325401      0.470854
  C       1.169730     -0.018753     -1.207852
  C      -1.714359      0.568845      0.276556
  O       3.126316      0.138906     -2.484746
  O       1.062268      1.215447     -0.573823
  O       2.350701     -0.561089     -1.416632
  H      -2.119731     -1.238469     -0.850855
  H      -2.908855     -1.183448      0.725507
  H      -3.530648     -0.204422     -0.606246
  H      -0.582573     -0.537743      1.815909
  H       1.662541      0.042545      1.061986
  H       0.319139     -0.318824     -1.809241
  H      -1.450704      1.176195     -0.590248
  H      -2.269342      1.203052      0.976674
  H       3.814174      0.605480     -1.992294
17
Coordinates from ORCA-job scan E -27.305583028220
  C      -2.628151     -0.590809     -0.139693
  C      -0.479484      0.085611      0.940643
  C       0.797512      0.328315      0.468677
  C       1.168431     -0.015820     -1.210158
  C      -1.715991      0.568499      0.277519
  O       3.129434      0.145367     -2.483161
  O       1.059487      1.218009     -0.576390
  O       2.348123     -0.558594     -1.418391
  H      -2.121122     -1.238192     -0.851081
  H      -2.907793     -1.185569      0.726560
  H      -3.532731     -0.205931     -0.603255
  H      -0.581457     -0.539000      1.813565
  H       1.663178      0.046092      1.058298
  H       0.316658     -0.318661     -1.808764
  H      -1.454361      1.177149     -0.589018
  H      -2.270314      1.201333      0.979347
  H       3.828801      0.590987     -1.987862
17
Coordinates from ORCA-job scan E -27.305584647630
  C      -2.629187     -0.591652     -0.138486
  C      -0.479690      0.085401      0.939767
  C       0.796807      0.329854      0.467320
  C       1.167706     -0.013451     -1.211690
  C      -1.717023      0.567925      0.277913
  O       3.131195      0.151657     -2.482272
  O       1.057457      1.220138     -0.577611
  O       2.346671     -0.556002     -1.420333
  H      -2.122720     -1.238788     -0.850496
  H      -2.907720     -1.186627      0.727983
  H      -3.534400     -0.207066     -0.601061
  H      -0.580910     -0.540034      1.812179
  H       1.663145      0.048714      1.056504
  H       0.315394     -0.317378     -1.809135
  H      -1.456502      1.176826     -0.588791
  H      -2.270762      1.200483      0.980448
  H       3.840760      0.578787     -1.985404
17
Coordinates from ORCA-job scan E -27.305586351470
  C      -2.630735     -0.593013     -0.136714
  C      -0.480127      0.085007      0.938968
  C       0.795721      0.331452      0.466069
  C       1.166793     -0.009896     -1.213301
  C      -1.718199      0.566843      0.278023
  O       3.132638      0.161757     -2.481347
  O       1.054835      1.223149     -0.578180
  O       2.345032     -0.551600     -1.423436
  H      -2.125060     -1.240445     -0.849017
  H      -2.908206     -1.187598      0.730371
  H      -3.536537     -0.208778     -0.598429
  H      -0.580427     -0.541252      1.810879
  H       1.662582      0.051731      1.055151
  H       0.313992     -0.314123     -1.810076
  H      -1.458707      1.175343     -0.589263
  H      -2.271229      1.199774      0.980816
  H       3.857853      0.560435     -1.983678
17
Coordinates from ORCA-job scan E -27.305587317890
  C      -2.631781     -0.594222     -0.135499
  C      -0.480587      0.084805      0.938729
  C       0.794844      0.332515      0.465763
  C       1.166055     -0.006885     -1.213971
  C      -1.718982      0.565893      0.277855
  O       3.132771      0.170131     -2.480891
  O       1.053037      1.225470     -0.577633
  O       2.343997     -0.547644     -1.425804
  H      -2.126504     -1.242127     -0.847661
  H      -2.908758     -1.188203      0.732159
  H      -3.537848     -0.210317     -0.596960
  H      -0.580240     -0.541818      1.810448
  H       1.661805      0.053363      1.054961
  H       0.313030     -0.310547     -1.810826
  H      -1.459928      1.173743     -0.589999
  H      -2.271725      1.199434      0.980369
  H       3.871035      0.545195     -1.984205
17
Coordinates from ORCA-job scan E -27.305587835900
  C      -2.632253     -0.595209     -0.134914
  C      -0.481026      0.084879      0.938812
  C       0.794190      0.333474      0.465994
  C       1.165409     -0.004442     -1.214038
  C      -1.719611      0.565241      0.277760
  O       3.132158      0.176107     -2.480754
  O       1.051829      1.227229     -0.576677
  O       2.343334     -0.544461     -1.427184
  H      -2.126929     -1.243274     -0.846906
  H      -2.908958     -1.188892      0.733034
  H      -3.538473     -0.211678     -0.596374
  H      -0.580174     -0.541904      1.810480
  H       1.661078      0.054217      1.055265
  H       0.312319     -0.307504     -1.811162
  H      -1.460771      1.172754     -0.590380
  H      -2.272464      1.199063      0.979970
  H       3.880563      0.533187     -1.986089
17
Coordinates from ORCA-job scan E -27.305588081270
  C      -2.632225     -0.595837     -0.134893
  C      -0.481358      0.085141      0.939000
  C       0.793781      0.334374      0.466332
  C       1.164911     -0.002812     -1.213866
  C      -1.720137      0.564979      0.277930
  O       3.131423      0.179090     -2.480813
  O       1.051069      1.228404     -0.575977
  O       2.342942     -0.542489     -1.427532
  H      -2.126550     -1.243576     -0.846937
  H      -2.908692     -1.189746      0.732974
  H      -3.538598     -0.212664     -0.596345
  H      -0.580117     -0.541780      1.810623
  H       1.660615      0.054832      1.055570
  H       0.311870     -0.305775     -1.811116
  H      -1.461501      1.172708     -0.590119
  H      -2.273336      1.198519      0.980131
  H       3.886125      0.525420     -1.988129
17
Coordinates from ORCA-job scan E -27.305588231100
  C      -2.631951     -0.596290     -0.135154
  C      -0.481632      0.085485      0.939210
  C       0.793453      0.335329      0.466615
  C       1.164462     -0.001517     -1.213677
  C      -1.720666      0.564918      0.278334
  O       3.130776      0.180562     -2.480948
  O       1.050391      1.229411     -0.575569
  O       2.342606     -0.541092     -1.427329
  H      -2.125776     -1.243351     -0.847460
  H      -2.908120     -1.190804      0.732392
  H      -3.538525     -0.213473     -0.596511
  H      -0.580023     -0.541645      1.810735
  H       1.660315      0.055643      1.055762
  H       0.311540     -0.304814     -1.810914
  H      -1.462316      1.173259     -0.589378
  H      -2.274321      1.197761      0.980797
  H       3.890009      0.519407     -1.990069
17
Coordinates from ORCA-job scan E -27.305128621160
  C      -2.633550     -0.596378     -0.133477
  C      -0.483917      0.085806      0.942003
  C       0.791625      0.334839      0.470211
  C       1.167611     -0.002675     -1.219819
  C      -1.722274      0.564963      0.279658
  O       3.135678      0.182801     -2.483881
  O       1.051318      1.227574     -0.575386
  O       2.345992     -0.541766     -1.433391
  H      -2.126975     -1.244256     -0.844756
  H      -2.910597     -1.189993      0.734406
  H      -3.539637     -0.213741     -0.595938
  H      -0.583199     -0.540477      1.814036
  H       1.657541      0.055280      1.060812
  H       0.315696     -0.304404     -1.819290
  H      -1.463042      1.172410     -0.588418
  H      -2.276324      1.198629      0.981068
  H       3.894274      0.520172     -1.991001
17
Coordinates from ORCA-job scan E -27.305142520860
  C      -2.631963     -0.596448     -0.134195
  C      -0.482951      0.086522      0.941704
  C       0.791305      0.335864      0.470682
  C       1.165627     -0.002297     -1.219588
  C      -1.721471      0.565298      0.279369
  O       3.134500      0.182995     -2.482966
  O       1.050199      1.226534     -0.575180
  O       2.343221     -0.541735     -1.432780
  H      -2.124847     -1.243864     -0.845506
  H      -2.908875     -1.190423      0.733497
  H      -3.538159     -0.214234     -0.596776
  H      -0.582007     -0.539713      1.813787
  H       1.657645      0.054202      1.059267
  H       0.312848     -0.304558     -1.817209
  H      -1.462397      1.173052     -0.588523
  H      -2.275832      1.198441      0.980948
  H       3.893378      0.519152     -1.989693
17
Coordinates from ORCA-job scan E -27.305151187970
  C      -2.630346     -0.596730     -0.134966
  C      -0.481796      0.087543      0.940894
  C       0.791005      0.338309      0.470593
  C       1.163087     -0.001022     -1.219938
  C      -1.721327      0.565765      0.279550
  O       3.134757      0.183866     -2.481370
  O       1.048426      1.226080     -0.575947
  O       2.339342     -0.541412     -1.431918
  H      -2.122552     -1.242787     -0.847037
  H      -2.906309     -1.191942      0.732180
  H      -3.537147     -0.215265     -0.596977
  H      -0.580270     -0.539009      1.812957
  H       1.658609      0.053771      1.056083
  H       0.308698     -0.305255     -1.814302
  H      -1.463293      1.174741     -0.587784
  H      -2.276048      1.197389      0.982142
  H       3.895385      0.514745     -1.987324
17
Coordinates from ORCA-job scan E -27.305153241580
  C      -2.630298     -0.597025     -0.134874
  C      -0.481676      0.087748      0.940370
  C       0.790790      0.339623      0.469991
  C       1.162458      0.000078     -1.220587
  C      -1.721875      0.565782      0.279987
  O       3.136021      0.185400     -2.480577
  O       1.047449      1.226878     -0.576812
  O       2.338103     -0.540734     -1.431935
  H      -2.122442     -1.242325     -0.847590
  H      -2.905499     -1.192974      0.732010
  H      -3.537553     -0.215857     -0.596237
  H      -0.579779     -0.539244      1.812189
  H       1.659044      0.054847      1.054535
  H       0.307512     -0.305409     -1.813657
  H      -1.464643      1.175532     -0.587051
  H      -2.276541      1.196542      0.983360
  H       3.899148      0.509923     -1.986287
17
Coordinates from ORCA-job scan E -27.305156969760
  C      -2.630864     -0.598088     -0.134094
  C      -0.481780      0.087913      0.939087
  C       0.789951      0.342814      0.468255
  C       1.161291      0.003622     -1.222466
  C      -1.723571      0.565423      0.281122
  O       3.139653      0.191795     -2.478478
  O       1.044612      1.229953     -0.578831
  O       2.335470     -0.537784     -1.432778
  H      -2.123168     -1.241790     -0.848370
  H      -2.904099     -1.195593      0.732348
  H      -3.539276     -0.217588     -0.593739
  H      -0.578867     -0.540417      1.810080
  H       1.659670      0.058755      1.051169
  H       0.305281     -0.304654     -1.812924
  H      -1.468376      1.176819     -0.585385
  H      -2.277875      1.194364      0.986344
  H       3.912169      0.493243     -1.984503
17
Coordinates from ORCA-job scan E -27.305159458270
  C      -2.631731     -0.599318     -0.133095
  C      -0.482149      0.087827      0.938287
  C       0.788966      0.345153      0.467150
  C       1.160496      0.007281     -1.223794
  C      -1.724967      0.564708      0.281764
  O       3.142241      0.199786     -2.476686
  O       1.042040      1.233142     -0.579625
  O       2.333663     -0.533942     -1.434193
  H      -2.124327     -1.242278     -0.848243
  H      -2.903600     -1.197493      0.733321
  H      -3.540936     -0.219336     -0.591607
  H      -0.578391     -0.541588      1.808587
  H       1.659572      0.062301      1.049382
  H       0.303903     -0.302335     -1.812964
  H      -1.471157      1.176809     -0.584664
  H      -2.278927      1.192832      0.987970
  H       3.925524      0.475238     -1.984753
17
Coordinates from ORCA-job scan E -27.305163465800
  C      -2.633441     -0.602021     -0.131206
  C      -0.483145      0.087599      0.937377
  C       0.786874      0.349162      0.466122
  C       1.159181      0.014916     -1.225371
  C      -1.727392      0.562952      0.282427
  O       3.146036      0.217513     -2.473059
  O       1.037310      1.239513     -0.579339
  O       2.330913     -0.525092     -1.437133
  H      -2.126459     -1.244291     -0.847273
  H      -2.903328     -1.200671      0.735512
  H      -3.543792     -0.223038     -0.588274
  H      -0.577898     -0.543592      1.806546
  H       1.658571      0.068481      1.047806
  H       0.301874     -0.295721     -1.813388
  H      -1.475541      1.175526     -0.584233
  H      -2.280965      1.190406      0.989556
  H       3.951423      0.437145     -1.989234
17
Coordinates from ORCA-job scan E -27.305167461750
  C      -2.635107     -0.605580     -0.129467
  C      -0.484649      0.087517      0.937057
  C       0.784253      0.353859      0.466399
  C       1.157846      0.024730     -1.225814
  C      -1.730107      0.560636      0.282770
  O       3.149535      0.240394     -2.467940
  O       1.032042      1.247315     -0.576872
  O       2.328493     -0.513121     -1.439957
  H      -2.128098     -1.247356     -0.845968
  H      -2.903272     -1.204364      0.737699
  H      -3.546462     -0.227933     -0.585629
  H      -0.577771     -0.545471      1.805097
  H       1.656616      0.075041      1.048006
  H       0.300120     -0.285888     -1.813662
  H      -1.479898      1.173296     -0.584282
  H      -2.283824      1.187753      0.990149
  H       3.980501      0.387959     -2.000751
17
Coordinates from ORCA-job scan E -27.305170630380
  C      -2.635982     -0.609181     -0.128695
  C      -0.486374      0.087850      0.937513
  C       0.781736      0.358585      0.468138
  C       1.156786      0.034559     -1.224737
  C      -1.732653      0.558463      0.282954
  O       3.151987      0.262402     -2.462172
  O       1.027475      1.254830     -0.572733
  O       2.327112     -0.500828     -1.441234
  H      -2.128139     -1.250279     -0.845230
  H      -2.902994     -1.208201      0.738663
  H      -3.548041     -0.233049     -0.584684
  H      -0.578022     -0.546580      1.804676
  H       1.654188      0.080616      1.050050
  H       0.299158     -0.275445     -1.813381
  H      -1.483483      1.171303     -0.584245
  H      -2.287315      1.185111      0.990078
  H       4.004781      0.338630     -2.018126
17
Coordinates from ORCA-job scan E -27.305172349800
  C      -2.635636     -0.610856     -0.129156
  C      -0.487334      0.088495      0.938279
  C       0.780641      0.361051      0.469778
  C       1.156195      0.039076     -1.223377
  C      -1.733889      0.557712      0.283252
  O       3.151791      0.271004     -2.459748
  O       1.025679      1.258146     -0.570051
  O       2.327075     -0.495071     -1.440665
  H      -2.126645     -1.251082     -0.845668
  H      -2.902314     -1.210478      0.737885
  H      -3.547934     -0.235662     -0.585430
  H      -0.578195     -0.546375      1.805226
  H       1.652812      0.082732      1.051964
  H       0.299093     -0.270607     -1.812999
  H      -1.484989      1.171141     -0.583604
  H      -2.289709      1.183571      0.990191
  H       4.013580      0.315989     -2.029040
17
Coordinates from ORCA-job scan E -27.305173257670
  C      -2.634709     -0.611378     -0.130128
  C      -0.487743      0.089252      0.938942
  C       0.780307      0.362409      0.470716
  C       1.155648      0.040576     -1.222513
  C      -1.734522      0.557827      0.283909
  O       3.150466      0.271671     -2.459528
  O       1.025069      1.259252     -0.569076
  O       2.327277     -0.493315     -1.439348
  H      -2.124560     -1.250352     -0.846935
  H      -2.901183     -1.212111      0.736203
  H      -3.547171     -0.236778     -0.586560
  H      -0.578082     -0.545698      1.805904
  H       1.652314      0.083562      1.052909
  H       0.299192     -0.269554     -1.812723
  H      -1.485818      1.172382     -0.582218
  H      -2.291422      1.182373      0.991141
  H       4.015157      0.308669     -2.033859
17
Coordinates from ORCA-job scan E -27.305173598840
  C      -2.633993     -0.611609     -0.130850
  C      -0.487905      0.089757      0.939269
  C       0.780092      0.363442      0.470982
  C       1.155191      0.041453     -1.222271
  C      -1.734999      0.558025      0.284630
  O       3.149999      0.271207     -2.459422
  O       1.024473      1.260040     -0.569035
  O       2.327093     -0.492617     -1.438254
  H      -2.123078     -1.249410     -0.848152
  H      -2.900133     -1.213454      0.734814
  H      -3.546684     -0.237393     -0.587146
  H      -0.577873     -0.545390      1.806137
  H       1.652241      0.084653      1.052996
  H       0.299147     -0.269537     -1.812556
  H      -1.486657      1.173700     -0.580817
  H      -2.292580      1.181274      0.992437
  H       4.015886      0.304646     -2.035925
17
Coordinates from ORCA-job scan E -27.304783278160
  C      -2.635611     -0.611682     -0.129197
  C      -0.490223      0.090023      0.942105
  C       0.778260      0.362870      0.474643
  C       1.158386      0.040356     -1.228348
  C      -1.736611      0.558063      0.285956
  O       3.154893      0.273412     -2.462146
  O       1.025462      1.258186     -0.568799
  O       2.330510     -0.493245     -1.444288
  H      -2.124280     -1.250315     -0.845462
  H      -2.902681     -1.212631      0.736805
  H      -3.547795     -0.237611     -0.586626
  H      -0.581131     -0.544287      1.809488
  H       1.649446      0.084166      1.058142
  H       0.303320     -0.269036     -1.820892
  H      -1.487334      1.172848     -0.579857
  H      -2.294603      1.182152      0.992698
  H       4.020213      0.305519     -2.037385
17
Coordinates from ORCA-job scan E -27.304797187030
  C      -2.634046     -0.611698     -0.129892
  C      -0.489230      0.090691      0.941824
  C       0.777974      0.363721      0.475027
  C       1.156407      0.040666     -1.228238
  C      -1.735765      0.558399      0.285686
  O       3.153912      0.273376     -2.461222
  O       1.024372      1.257041     -0.568668
  O       2.327689     -0.493354     -1.443714
  H      -2.122221     -1.249896     -0.846189
  H      -2.901002     -1.212986      0.735921
  H      -3.546318     -0.238008     -0.587441
  H      -0.579951     -0.543465      1.809324
  H       1.649638      0.083069      1.056485
  H       0.300544     -0.269257     -1.818998
  H      -1.486630      1.173454     -0.579957
  H      -2.294031      1.181981      0.992600
  H       4.018879      0.305053     -2.035713
17
Coordinates from ORCA-job scan E -27.304806247860
  C      -2.632302     -0.611869     -0.130746
  C      -0.487975      0.091680      0.941085
  C       0.777746      0.365867      0.474924
  C       1.153847      0.041778     -1.228662
  C      -1.735452      0.558901      0.285864
  O       3.154560      0.273720     -2.459467
  O       1.022731      1.256320     -0.569443
  O       2.323628     -0.493407     -1.442751
  H      -2.119817     -1.248724     -0.847775
  H      -2.898392     -1.214371      0.734491
  H      -3.545115     -0.238876     -0.587781
  H      -0.578236     -0.542573      1.808700
  H       1.650741      0.082419      1.053176
  H       0.296449     -0.270068     -1.816263
  H      -1.487288      1.175129     -0.579209
  H      -2.294063      1.180958      0.993770
  H       4.019159      0.301902     -2.033077
17
Coordinates from ORCA-job scan E -27.304808334700
  C      -2.632107     -0.612097     -0.130803
  C      -0.487818      0.091892      0.940655
  C       0.777593      0.367026      0.474466
  C       1.153325      0.042756     -1.229167
  C      -1.735879      0.558957      0.286272
  O       3.156116      0.274843     -2.458421
  O       1.021963      1.256987     -0.570152
  O       2.322401     -0.493009     -1.442518
  H      -2.119508     -1.248184     -0.848435
  H      -2.897528     -1.215341      0.734123
  H      -3.545313     -0.239381     -0.587276
  H      -0.577826     -0.542699      1.808077
  H       1.651201      0.083303      1.051790
  H       0.295417     -0.270250     -1.815596
  H      -1.488431      1.175956     -0.578464
  H      -2.294486      1.180131      0.994917
  H       4.021101      0.297898     -2.032632
17
Coordinates from ORCA-job scan E -27.304811533940
  C      -2.632199     -0.612886     -0.130589
  C      -0.487871      0.092068      0.939804
  C       0.777018      0.369506      0.473459
  C       1.152742      0.045599     -1.230244
  C      -1.737087      0.558739      0.287178
  O       3.160237      0.279453     -2.455613
  O       1.020082      1.259457     -0.571352
  O       2.320311     -0.491066     -1.442394
  H      -2.119547     -1.247519     -0.849470
  H      -2.896164     -1.217536      0.733805
  H      -3.546256     -0.240718     -0.585812
  H      -0.577321     -0.543520      1.806570
  H       1.651747      0.086346      1.049528
  H       0.294032     -0.269580     -1.814750
  H      -1.491173      1.177220     -0.576961
  H      -2.295562      1.178247      0.997321
  H       4.027231      0.284977     -2.033644
17
Coordinates from ORCA-job scan E -27.304813258630
  C      -2.632545     -0.613733     -0.130248
  C      -0.488166      0.092016      0.939464
  C       0.776393      0.371030      0.473189
  C       1.152643      0.048196     -1.230602
  C      -1.737910      0.558247      0.287518
  O       3.163054      0.284861     -2.453180
  O       1.018676      1.261745     -0.571284
  O       2.319340     -0.488522     -1.442638
  H      -2.119930     -1.247831     -0.849626
  H      -2.895763     -1.218861      0.734043
  H      -3.547038     -0.241923     -0.584894
  H      -0.577273     -0.544299      1.805725
  H       1.651582      0.088789      1.049027
  H       0.293623     -0.267659     -1.814538
  H      -1.492766      1.177236     -0.576482
  H      -2.296315      1.177159      0.998227
  H       4.032615      0.272336     -2.036864
17
Coordinates from ORCA-job scan E -27.304815487830
  C      -2.633189     -0.615382     -0.129699
  C      -0.488873      0.091880      0.939329
  C       0.775228      0.373226      0.473575
  C       1.152713      0.052869     -1.230410
  C      -1.739079      0.557147      0.287601
  O       3.166986      0.295511     -2.448787
  O       1.016520      1.265657     -0.569829
  O       2.318427     -0.483203     -1.443128
  H      -2.120547     -1.249196     -0.849306
  H      -2.895669     -1.220647      0.734724
  H      -3.548116     -0.244156     -0.583952
  H      -0.577507     -0.545438      1.804893
  H       1.650712      0.092406      1.049636
  H       0.293456     -0.262954     -1.814352
  H      -1.494667      1.176284     -0.576494
  H      -2.297564      1.175801      0.998495
  H       4.041390      0.248984     -2.045461
17
Coordinates from ORCA-job scan E -27.304816963490
  C      -2.633611     -0.616880     -0.129427
  C      -0.489607      0.091854      0.939583
  C       0.774239      0.374902      0.474639
  C       1.152878      0.056885     -1.229529
  C      -1.739910      0.556120      0.287344
  O       3.169429      0.305014     -2.444926
  O       1.014978      1.268788     -0.567585
  O       2.318293     -0.478125     -1.443322
  H      -2.120728     -1.250782     -0.848793
  H      -2.895868     -1.221887      0.735244
  H      -3.548676     -0.246183     -0.583825
  H      -0.577893     -0.546062      1.804743
  H       1.649593      0.094783      1.051215
  H       0.293655     -0.258173     -1.814132
  H      -1.495679      1.174987     -0.576980
  H      -2.298730      1.174972      0.997848
  H       4.047859      0.228574     -2.055260
17
Coordinates from ORCA-job scan E -27.304817837480
  C      -2.633683     -0.617898     -0.129502
  C      -0.490186      0.092002      0.939996
  C       0.773620      0.376042      0.475816
  C       1.152969      0.059506     -1.228469
  C      -1.740426      0.555477      0.287087
  O       3.170231      0.311128     -2.442390
  O       1.014147      1.270663     -0.565562
  O       2.318693     -0.474492     -1.443111
  H      -2.120377     -1.251865     -0.848518
  H      -2.895994     -1.222689      0.735301
  H      -3.548729     -0.247622     -0.584270
  H      -0.578194     -0.546135      1.805031
  H       1.648649      0.095850      1.052853
  H       0.293986     -0.254818     -1.813866
  H      -1.496090      1.174117     -0.577360
  H      -2.299735      1.174508      0.997087
  H       4.051338      0.215013     -2.063285
17
Coordinates from ORCA-job scan E -27.304818162920
  C      -2.633485     -0.618224     -0.129769
  C      -0.490423      0.092228      0.940236
  C       0.773434      0.376641      0.476368
  C       1.152887      0.060364     -1.227943
  C      -1.740684      0.555374      0.287139
  O       3.169986      0.312725     -2.441582
  O       1.013873      1.271214     -0.564828
  O       2.319062     -0.473209     -1.442681
  H      -2.119795     -1.251950     -0.848727
  H      -2.895800     -1.223182      0.734914
  H      -3.548541     -0.248181     -0.584706
  H      -0.578215     -0.545946      1.805276
  H       1.648289      0.096099      1.053517
  H       0.294166     -0.253959     -1.813671
  H      -1.496320      1.174187     -0.577178
  H      -2.300369      1.174192      0.997034
  H       4.052155      0.210416     -2.066563
17
Coordinates from ORCA-job scan E -27.304818276290
  C      -2.633256     -0.618282     -0.130021
  C      -0.490491      0.092414      0.940315
  C       0.773378      0.377057      0.476468
  C       1.152739      0.060616     -1.227832
  C      -1.740875      0.555460      0.287384
  O       3.169775      0.312724     -2.441332
  O       1.013679      1.271404     -0.564840
  O       2.319185     -0.472911     -1.442259
  H      -2.119296     -1.251603     -0.849144
  H      -2.895450     -1.223621      0.734432
  H      -3.548392     -0.248379     -0.584913
  H      -0.578105     -0.545827      1.805328
  H       1.648240      0.096374      1.053550
  H       0.294227     -0.254151     -1.813576
  H      -1.496632      1.174666     -0.576694
  H      -2.300790      1.173842      0.997467
  H       4.052286      0.209005     -2.067497
17
Coordinates from ORCA-job scan E -27.304478903840
  C      -2.634889     -0.618347     -0.128374
  C      -0.492829      0.092659      0.943170
  C       0.771540      0.376448      0.480157
  C       1.155965      0.059543     -1.233874
  C      -1.742491      0.555496      0.288707
  O       3.174663      0.314885     -2.443940
  O       1.014696      1.269537     -0.564586
  O       2.322625     -0.473525     -1.448282
  H      -2.120505     -1.252512     -0.846451
  H      -2.898037     -1.222788      0.736419
  H      -3.549505     -0.248574     -0.584416
  H      -0.581408     -0.544746      1.808702
  H       1.645432      0.095831      1.058741
  H       0.298416     -0.253621     -1.821891
  H      -1.497288      1.173809     -0.575739
  H      -2.302825      1.174731      0.997717
  H       4.056659      0.209962     -2.069223
17
Coordinates from ORCA-job scan E -27.304493041840
  C      -2.633479     -0.618331     -0.128935
  C      -0.491851      0.093247      0.942807
  C       0.771299      0.377158      0.480499
  C       1.154074      0.059762     -1.233811
  C      -1.741628      0.555804      0.288332
  O       3.173755      0.315154     -2.442895
  O       1.013694      1.268205     -0.564437
  O       2.319961     -0.473591     -1.447920
  H      -2.118720     -1.252242     -0.846964
  H      -2.896549     -1.222932      0.735781
  H      -3.548157     -0.248892     -0.585110
  H      -0.580253     -0.543941      1.808501
  H       1.645601      0.094479      1.057076
  H       0.295724     -0.253905     -1.820029
  H      -1.496521      1.174223     -0.576048
  H      -2.302122      1.174746      0.997419
  H       4.055392      0.209842     -2.067430
17
Coordinates from ORCA-job scan E -27.304501940680
  C      -2.632063     -0.618398     -0.129518
  C      -0.490628      0.094053      0.941919
  C       0.771166      0.378947      0.480301
  C       1.151752      0.060583     -1.234317
  C      -1.741255      0.556260      0.288305
  O       3.174610      0.315973     -2.440918
  O       1.012295      1.267115     -0.565213
  O       2.316273     -0.473723     -1.447368
  H      -2.116899     -1.251356     -0.848110
  H      -2.894361     -1.223840      0.734843
  H      -3.547208     -0.249539     -0.585220
  H      -0.578621     -0.543136      1.807792
  H       1.646630      0.093335      1.053839
  H       0.291891     -0.254952     -1.817408
  H      -1.497000      1.175505     -0.575716
  H      -2.301845      1.174126      0.998186
  H       4.055482      0.207837     -2.064562
17
Coordinates from ORCA-job scan E -27.304504029520
  C      -2.631980     -0.618539     -0.129471
  C      -0.490438      0.094180      0.941404
  C       0.771076      0.379903      0.479801
  C       1.151330      0.061325     -1.234851
  C      -1.741594      0.556320      0.288595
  O       3.176320      0.317147     -2.439690
  O       1.011688      1.267530     -0.565960
  O       2.315157     -0.473540     -1.447293
  H      -2.116831     -1.250929     -0.848577
  H      -2.893675     -1.224533      0.734686
  H      -3.547474     -0.249891     -0.584644
  H      -0.578224     -0.543305      1.807109
  H       1.647072      0.093909      1.052468
  H       0.290951     -0.255370     -1.816744
  H      -1.497984      1.176159     -0.575191
  H      -2.302049      1.173525      0.999121
  H       4.056874      0.204897     -2.063927
17
Coordinates from ORCA-job scan E -27.304507063400
  C      -2.632290     -0.619062     -0.129059
  C      -0.490375      0.094161      0.940387
  C       0.770696      0.381810      0.478713
  C       1.151024      0.063430     -1.235959
  C      -1.742513      0.556148      0.289199
  O       3.180802      0.321372     -2.436474
  O       1.010308      1.269301     -0.567275
  O       2.313335     -0.472385     -1.447461
  H      -2.117383     -1.250498     -0.849178
  H      -2.892741     -1.226001      0.734817
  H      -3.548498     -0.250778     -0.583095
  H      -0.577761     -0.544205      1.805498
  H       1.647611      0.096147      1.050296
  H       0.289833     -0.255377     -1.815923
  H      -1.500225      1.177033     -0.574232
  H      -2.302544      1.172226      1.000980
  H       4.060941      0.195464     -2.064398
17
Coordinates from ORCA-job scan E -27.304508338060
  C      -2.632715     -0.619603     -0.128656
  C      -0.490547      0.093984      0.940026
  C       0.770310      0.382673      0.478456
  C       1.151170      0.065107     -1.236249
  C      -1.742990      0.555754      0.289271
  O       3.183496      0.325487     -2.434108
  O       1.009497      1.270793     -0.567262
  O       2.312702     -0.470828     -1.447820
  H      -2.118030     -1.250939     -0.849019
  H      -2.892711     -1.226623      0.735303
  H      -3.549183     -0.251482     -0.582305
  H      -0.577781     -0.544921      1.804746
  H       1.647479      0.097742      1.050010
  H       0.289722     -0.254121     -1.815818
  H      -1.501182      1.176762     -0.574213
  H      -2.302785      1.171703      1.001349
  H       4.063767      0.187301     -2.066876
17
Coordinates from ORCA-job scan E -27.304509547910
  C      -2.633308     -0.620501     -0.128150
  C      -0.490931      0.093724      0.939907
  C       0.769720      0.383529      0.478756
  C       1.151536      0.067552     -1.236030
  C      -1.743450      0.555020      0.288994
  O       3.186464      0.331927     -2.430797
  O       1.008583      1.272832     -0.566222
  O       2.312382     -0.468001     -1.448356
  H      -2.118833     -1.252167     -0.848375
  H      -2.893099     -1.227129      0.736146
  H      -3.549890     -0.252584     -0.581733
  H      -0.578053     -0.545711      1.804235
  H       1.646889      0.099535      1.050733
  H       0.289943     -0.251239     -1.815855
  H      -1.501847      1.175655     -0.574806
  H      -2.303104      1.171351      1.000882
  H       4.067218      0.174991     -2.072493
17
Coordinates from ORCA-job scan E -27.304510149180
  C      -2.633600     -0.621208     -0.127948
  C      -0.491283      0.093640      0.940073
  C       0.769309      0.384062      0.479427
  C       1.151801      0.069309     -1.235433
  C      -1.743690      0.554459      0.288625
  O       3.187889      0.336587     -2.428507
  O       1.008092      1.274149     -0.564876
  O       2.312522     -0.465645     -1.448582
  H      -2.119097     -1.253248     -0.847829
  H      -2.893478     -1.227382      0.736639
  H      -3.550133     -0.253473     -0.581773
  H      -0.578343     -0.545985      1.804265
  H       1.646273      0.100376      1.051849
  H       0.290230     -0.248679     -1.815837
  H      -1.501977      1.174635     -0.575462
  H      -2.303453      1.171255      1.000059
  H       4.069158      0.165934     -2.077854
17
Coordinates from ORCA-job scan E -27.304510441010
  C      -2.633617     -0.621674     -0.128005
  C      -0.491554      0.093724      0.940299
  C       0.769064      0.384524      0.480073
  C       1.151904      0.070417     -1.234829
  C      -1.743874      0.554154      0.288415
  O       3.188342      0.339331     -2.427102
  O       1.007825      1.274901     -0.563817
  O       2.312829     -0.464008     -1.448481
  H      -2.118906     -1.253834     -0.847639
  H      -2.893595     -1.227654      0.736686
  H      -3.550097     -0.254125     -0.582080
  H      -0.578516     -0.545934      1.804483
  H       1.645821      0.100708      1.052757
  H       0.290438     -0.247039     -1.815697
  H      -1.502033      1.174134     -0.575771
  H      -2.303885      1.171140      0.999513
  H       4.070075      0.160022     -2.081970
17
Coordinates from ORCA-job scan E -27.304510540180
  C      -2.633487     -0.621845     -0.128173
  C      -0.491679      0.093866      0.940412
  C       0.768971      0.384895      0.480347
  C       1.151868      0.070851     -1.234553
  C      -1.744034      0.554117      0.288469
  O       3.188339      0.340153     -2.426530
  O       1.007667      1.275193     -0.563479
  O       2.313029     -0.463356     -1.448215
  H      -2.118554     -1.253822     -0.847812
  H      -2.893434     -1.227968      0.736426
  H      -3.549991     -0.254434     -0.582311
  H      -0.578518     -0.545815      1.804598
  H       1.645656      0.100890      1.053063
  H       0.290517     -0.246656     -1.815539
  H      -1.502209      1.174246     -0.575618
  H      -2.304255      1.170932      0.999551
  H       4.070335      0.157541     -2.083799
17
Coordinates from ORCA-job scan E -27.304217799920
  C      -2.635128     -0.621907     -0.126530
  C      -0.494028      0.094097      0.943277
  C       0.767127      0.384266      0.484050
  C       1.155118      0.069797     -1.240577
  C      -1.745652      0.554151      0.289792
  O       3.193218      0.342274     -2.429054
  O       1.008700      1.273322     -0.563218
  O       2.316489     -0.463953     -1.454241
  H      -2.119769     -1.254733     -0.845117
  H      -2.896044     -1.227128      0.738410
  H      -3.551107     -0.254617     -0.581825
  H      -0.581845     -0.544746      1.807984
  H       1.642843      0.100318      1.058277
  H       0.294717     -0.246110     -1.823845
  H      -1.502854      1.173384     -0.574665
  H      -2.306295      1.171826      0.999794
  H       4.074731      0.158543     -2.085677
17
Coordinates from ORCA-job scan E -27.304232160010
  C      -2.633773     -0.621877     -0.127065
  C      -0.493077      0.094663      0.942906
  C       0.766905      0.384920      0.484390
  C       1.153278      0.069987     -1.240515
  C      -1.744808      0.554455      0.289400
  O       3.192334      0.342615     -2.428009
  O       1.007720      1.271891     -0.563040
  O       2.313928     -0.463953     -1.453926
  H      -2.118058     -1.254488     -0.845586
  H      -2.894622     -1.227223      0.737817
  H      -3.549803     -0.254910     -0.582502
  H      -0.580726     -0.543901      1.807820
  H       1.642998      0.098881      1.056632
  H       0.292082     -0.246435     -1.821964
  H      -1.502084      1.173762     -0.575009
  H      -2.305591      1.171886      0.999453
  H       4.073518      0.158516     -2.083965
17
Coordinates from ORCA-job scan E -27.304241016280
  C      -2.632441     -0.621907     -0.127615
  C      -0.491911      0.095422      0.942024
  C       0.766799      0.386564      0.484211
  C       1.151072      0.070704     -1.240994
  C      -1.744447      0.554911      0.289339
  O       3.193217      0.343486     -2.426070
  O       1.006399      1.270637     -0.563753
  O       2.310445     -0.464053     -1.453446
  H      -2.116357     -1.253650     -0.846648
  H      -2.892567     -1.228016      0.736951
  H      -3.548908     -0.255490     -0.582614
  H      -0.579183     -0.543037      1.807191
  H       1.643967      0.097566      1.053505
  H       0.288388     -0.247591     -1.819316
  H      -1.502514      1.174969     -0.574747
  H      -2.305294      1.171370      1.000120
  H       4.073554      0.156900     -2.081301
17
Coordinates from ORCA-job scan E -27.304243121830
  C      -2.632358     -0.622015     -0.127579
  C      -0.491724      0.095542      0.941519
  C       0.766724      0.387442      0.483738
  C       1.150688      0.071356     -1.241494
  C      -1.744755      0.554987      0.289601
  O       3.194923      0.344560     -2.424860
  O       1.005854      1.270951     -0.564472
  O       2.309371     -0.463954     -1.453370
  H      -2.116294     -1.253232     -0.847092
  H      -2.891918     -1.228637      0.736798
  H      -3.549150     -0.255795     -0.582080
  H      -0.578815     -0.543167      1.806550
  H       1.644379      0.098008      1.052193
  H       0.287485     -0.248106     -1.818599
  H      -1.503428      1.175602     -0.574264
  H      -2.305460      1.170833      1.000990
  H       4.074698      0.154412     -2.080743
17
Coordinates from ORCA-job scan E -27.304246167200
  C      -2.632638     -0.622445     -0.127206
  C      -0.491634      0.095515      0.940519
  C       0.766396      0.389161      0.482709
  C       1.150464      0.073206     -1.242525
  C      -1.745576      0.554869      0.290135
  O       3.199445      0.348319     -2.421681
  O       1.004662      1.272473     -0.565757
  O       2.307568     -0.463139     -1.453497
  H      -2.116828     -1.252797     -0.847660
  H      -2.891045     -1.229927      0.736916
  H      -3.550089     -0.256552     -0.580646
  H      -0.578400     -0.543984      1.805014
  H       1.644881      0.099926      1.050132
  H       0.286422     -0.248380     -1.817642
  H      -1.505481      1.176451     -0.573403
  H      -2.305839      1.169682      1.002705
  H       4.077910      0.146408     -2.081276
17
Coordinates from ORCA-job scan E -27.304247286670
  C      -2.633019     -0.622882     -0.126849
  C      -0.491770      0.095334      0.940207
  C       0.766087      0.389802      0.482511
  C       1.150675      0.074565     -1.242737
  C      -1.745929      0.554529      0.290136
  O       3.201983      0.351681     -2.419532
  O       1.004072      1.273697     -0.565716
  O       2.306996     -0.461979     -1.453805
  H      -2.117437     -1.253233     -0.847464
  H      -2.891085     -1.230355      0.737384
  H      -3.550664     -0.257102     -0.579994
  H      -0.578458     -0.544615      1.804366
  H       1.644750      0.101222      1.049978
  H       0.286383     -0.247327     -1.817522
  H      -1.506202      1.176144     -0.573486
  H      -2.305958      1.169315      1.002915
  H       4.079798      0.139990     -2.083556
17
Coordinates from ORCA-job scan E -27.304248167600
  C      -2.633502     -0.623543     -0.126441
  C      -0.492051      0.095092      0.940151
  C       0.765678      0.390267      0.482827
  C       1.151076      0.076307     -1.242474
  C      -1.746170      0.553942      0.289794
  O       3.204426      0.356313     -2.416916
  O       1.003555      1.275155     -0.564786
  O       2.306772     -0.460015     -1.454244
  H      -2.118130     -1.254325     -0.846830
  H      -2.891530     -1.230545      0.738136
  H      -3.551166     -0.257869     -0.579630
  H      -0.578738     -0.545220      1.804030
  H       1.644264      0.102452      1.050751
  H       0.286653     -0.244993     -1.817591
  H      -1.506487      1.175103     -0.574156
  H      -2.306064      1.169208      1.002295
  H       4.081635      0.131456     -2.088080
17
Coordinates from ORCA-job scan E -27.304248533120
  C      -2.633718     -0.624021     -0.126289
  C      -0.492287      0.095014      0.940295
  C       0.765433      0.390512      0.483369
  C       1.151324      0.077427     -1.241981
  C      -1.746257      0.553533      0.289437
  O       3.205462      0.359307     -2.415304
  O       1.003347      1.275973     -0.563735
  O       2.306912     -0.458488     -1.454429
  H      -2.118351     -1.255192     -0.846346
  H      -2.891893     -1.230580      0.738552
  H      -3.551297     -0.258442     -0.579722
  H      -0.578980     -0.545381      1.804112
  H       1.643823      0.102900      1.051681
  H       0.286899     -0.243079     -1.817619
  H      -1.506412      1.174250     -0.574777
  H      -2.306217      1.169262      1.001515
  H       4.082431      0.125793     -2.091923
17
Coordinates from ORCA-job scan E -27.304248690680
  C      -2.633736     -0.624324     -0.126321
  C      -0.492460      0.095065      0.940443
  C       0.765301      0.390778      0.483827
  C       1.151419      0.078100     -1.241545
  C      -1.746347      0.553324      0.289248
  O       3.205810      0.360989     -2.414327
  O       1.003238      1.276410     -0.562991
  O       2.307147     -0.457457     -1.454378
  H      -2.118244     -1.255628     -0.846176
  H      -2.892008     -1.230699      0.738618
  H      -3.551261     -0.258855     -0.579947
  H      -0.579105     -0.545325      1.804274
  H       1.643530      0.103044      1.052337
  H       0.287044     -0.241937     -1.817532
  H      -1.506385      1.173859     -0.575060
  H      -2.306463      1.169242      1.001058
  H       4.082736      0.122201     -2.094693
17
Coordinates from ORCA-job scan E -27.304001599110
  C      -2.635385     -0.624382     -0.124679
  C      -0.494815      0.095287      0.943317
  C       0.763453      0.390136      0.487540
  C       1.154690      0.077065     -1.247556
  C      -1.747966      0.553357      0.290570
  O       3.210680      0.363077     -2.416783
  O       1.004283      1.274538     -0.562729
  O       2.310624     -0.458037     -1.460412
  H      -2.119464     -1.256542     -0.843478
  H      -2.894634     -1.229853      0.740602
  H      -3.552380     -0.259030     -0.579470
  H      -0.582449     -0.544265      1.807670
  H       1.640714      0.102452      1.057569
  H       0.291252     -0.241381     -1.825834
  H      -1.507022      1.172994     -0.574109
  H      -2.308507      1.170139      1.001298
  H       4.087147      0.123234     -2.096679
17
Coordinates from ORCA-job scan E -27.304016167940
  C      -2.634092     -0.624361     -0.125180
  C      -0.493899      0.095824      0.942953
  C       0.763248      0.390720      0.487916
  C       1.152905      0.077263     -1.247465
  C      -1.747129      0.553635      0.290129
  O       3.209828      0.363567     -2.415713
  O       1.003332      1.273020     -0.562454
  O       2.308173     -0.457911     -1.460154
  H      -2.117838     -1.256382     -0.843862
  H      -2.893311     -1.229879      0.740086
  H      -3.551117     -0.259318     -0.580144
  H      -0.581386     -0.543372      1.807568
  H       1.640844      0.100912      1.055992
  H       0.288681     -0.241623     -1.823960
  H      -1.506216      1.173268     -0.574545
  H      -2.307794      1.170268      1.000842
  H       4.085990      0.123156     -2.095173
17
Coordinates from ORCA-job scan E -27.304024835520
  C      -2.632873     -0.624394     -0.125678
  C      -0.492820      0.096527      0.942110
  C       0.763161      0.392210      0.487811
  C       1.150842      0.077951     -1.247868
  C      -1.746784      0.554052      0.289998
  O       3.210752      0.364634     -2.413785
  O       1.002094      1.271666     -0.563002
  O       2.304944     -0.457858     -1.459753
  H      -2.116283     -1.255681     -0.844779
  H      -2.891446     -1.230542      0.739339
  H      -3.550286     -0.259870     -0.580273
  H      -0.579977     -0.542449      1.807057
  H       1.641727      0.099445      1.053074
  H       0.285177     -0.242685     -1.821350
  H      -1.506569      1.174307     -0.574419
  H      -2.307489      1.169877      1.001321
  H       4.086051      0.121596     -2.092967
17
Coordinates from ORCA-job scan E -27.304026962230
  C      -2.632792     -0.624489     -0.125648
  C      -0.492645      0.096644      0.941621
  C       0.763089      0.393032      0.487383
  C       1.150487      0.078559     -1.248321
  C      -1.747073      0.554134      0.290229
  O       3.212457      0.365705     -2.412573
  O       1.001586      1.271909     -0.563663
  O       2.303913     -0.457769     -1.459673
  H      -2.116221     -1.255291     -0.845192
  H      -2.890834     -1.231109      0.739198
  H      -3.550509     -0.260158     -0.579782
  H      -0.579643     -0.542537      1.806462
  H       1.642098      0.099775      1.051835
  H       0.284306     -0.243232     -1.820585
  H      -1.507427      1.174904     -0.573987
  H      -2.307636      1.169395      1.002114
  H       4.087066      0.119316     -2.092583
17
Coordinates from ORCA-job scan E -27.304030140880
  C      -2.633045     -0.624877     -0.125303
  C      -0.492548      0.096628      0.940617
  C       0.762772      0.394680      0.486403
  C       1.150298      0.080306     -1.249290
  C      -1.747856      0.554051      0.290719
  O       3.217108      0.369326     -2.409326
  O       1.000468      1.273288     -0.564918
  O       2.302080     -0.457105     -1.459753
  H      -2.116725     -1.254855     -0.845748
  H      -2.889972     -1.232318      0.739302
  H      -3.551400     -0.260871     -0.578416
  H      -0.579260     -0.543282      1.804966
  H       1.642557      0.101477      1.049824
  H       0.283242     -0.243688     -1.819463
  H      -1.509404      1.175756     -0.573183
  H      -2.307969      1.168326      1.003748
  H       4.089874      0.111944     -2.093343
17
Coordinates from ORCA-job scan E -27.304031220640
  C      -2.633403     -0.625261     -0.124970
  C      -0.492664      0.096450      0.940321
  C       0.762496      0.395219      0.486229
  C       1.150538      0.081513     -1.249469
  C      -1.748152      0.553744      0.290689
  O       3.219620      0.372296     -2.407272
  O       0.999983      1.274386     -0.564878
  O       2.301501     -0.456164     -1.460027
  H      -2.117311     -1.255280     -0.845541
  H      -2.890038     -1.232657      0.739757
  H      -3.551923     -0.261348     -0.577825
  H      -0.579334     -0.543873      1.804359
  H       1.642424      0.102629      1.049723
  H       0.283224     -0.242759     -1.819313
  H      -1.510023      1.175446     -0.573307
  H      -2.308032      1.168030      1.003892
  H       4.091312      0.106417     -2.095533
17
Coordinates from ORCA-job scan E -27.304031948040
  C      -2.633825     -0.625797     -0.124611
  C      -0.492887      0.096222      0.940296
  C       0.762179      0.395488      0.486533
  C       1.150936      0.082888     -1.249205
  C      -1.748285      0.553238      0.290332
  O       3.221766      0.375913     -2.405088
  O       0.999664      1.275551     -0.564039
  O       2.301291     -0.454676     -1.460420
  H      -2.117941     -1.256281     -0.844925
  H      -2.890497     -1.232698      0.740453
  H      -3.552320     -0.261940     -0.577559
  H      -0.579601     -0.544388      1.804106
  H       1.642002      0.103593      1.050496
  H       0.283496     -0.240722     -1.819416
  H      -1.510130      1.174463     -0.573990
  H      -2.308034      1.168031      1.003229
  H       4.092406      0.099901     -2.099355
17
Coordinates from ORCA-job scan E -27.304032208660
  C      -2.634000     -0.626159     -0.124485
  C      -0.493060      0.096147      0.940431
  C       0.762018      0.395593      0.486994
  C       1.151156      0.083689     -1.248784
  C      -1.748298      0.552905      0.289996
  O       3.222572      0.378012     -2.403895
  O       0.999590      1.276127     -0.563161
  O       2.301401     -0.453581     -1.460594
  H      -2.118138     -1.257024     -0.844486
  H      -2.890841     -1.232639      0.740822
  H      -3.552397     -0.262352     -0.577666
  H      -0.579808     -0.544497      1.804211
  H       1.641661      0.103872      1.051311
  H       0.283700     -0.239130     -1.819487
  H      -1.509964      1.173708     -0.574569
  H      -2.308093      1.168142      1.002501
  H       4.092722      0.095972     -2.102302
17
Coordinates from ORCA-job scan E -27.303830462100
  C      -2.635655     -0.626216     -0.122844
  C      -0.495421      0.096362      0.943312
  C       0.760166      0.394941      0.490713
  C       1.154444      0.082670     -1.254784
  C      -1.749919      0.552936      0.291318
  O       3.227432      0.380071     -2.406293
  O       1.000644      1.274254     -0.562900
  O       2.304893     -0.454146     -1.466640
  H      -2.119363     -1.257938     -0.841785
  H      -2.893481     -1.231789      0.742805
  H      -3.553519     -0.262520     -0.577194
  H      -0.583165     -0.543443      1.807614
  H       1.638845      0.103263      1.056556
  H       0.287913     -0.238567     -1.827788
  H      -1.510595      1.172840     -0.573620
  H      -2.310141      1.169042      1.002738
  H       4.097142      0.097027     -2.104372
17
Coordinates from ORCA-job scan E -27.303845117280
  C      -2.634442     -0.626231     -0.123288
  C      -0.494541      0.096850      0.942990
  C       0.759973      0.395393      0.491187
  C       1.152728      0.082921     -1.254617
  C      -1.749047      0.553146      0.290763
  O       3.226614      0.380813     -2.405189
  O       0.999742      1.272661     -0.562408
  O       2.302539     -0.453825     -1.466485
  H      -2.117854     -1.257981     -0.841994
  H      -2.892329     -1.231681      0.742437
  H      -3.552281     -0.262818     -0.577899
  H      -0.582187     -0.542499      1.807624
  H       1.638923      0.101600      1.055157
  H       0.285419     -0.238501     -1.825981
  H      -1.509656      1.172871     -0.574264
  H      -2.309376      1.169294      1.002024
  H       4.095995      0.096772     -2.103220
17
Coordinates from ORCA-job scan E -27.303853368210
  C      -2.633377     -0.626316     -0.123697
  C      -0.493576      0.097469      0.942248
  C       0.759897      0.396652      0.491245
  C       1.150856      0.083658     -1.254869
  C      -1.748683      0.553460      0.290481
  O       3.227605      0.382214     -2.403283
  O       0.998635      1.271272     -0.562613
  O       2.299593     -0.453508     -1.466222
  H      -2.116503     -1.257584     -0.842640
  H      -2.890770     -1.232144      0.741909
  H      -3.551513     -0.263377     -0.578081
  H      -0.580981     -0.541519      1.807305
  H       1.639676      0.099986      1.052635
  H       0.282162     -0.239116     -1.823522
  H      -1.509826      1.173549     -0.574424
  H      -2.309038      1.169090      1.002123
  H       4.096065      0.095002     -2.101758
17
Coordinates from ORCA-job scan E -27.303855545130
  C      -2.633293     -0.626425     -0.123673
  C      -0.493422      0.097590      0.941786
  C       0.759821      0.397430      0.490896
  C       1.150522      0.084274     -1.255246
  C      -1.748954      0.553530      0.290658
  O       3.229337      0.383371     -2.402044
  O       0.998155      1.271465     -0.563155
  O       2.298587     -0.453361     -1.466145
  H      -2.116427     -1.257264     -0.843003
  H      -2.890198     -1.232663      0.741790
  H      -3.551709     -0.263682     -0.577648
  H      -0.580692     -0.541546      1.806779
  H       1.639997      0.100197      1.051498
  H       0.281298     -0.239575     -1.822702
  H      -1.510617      1.174073     -0.574075
  H      -2.309178      1.168666      1.002796
  H       4.096994      0.092707     -2.101675
17
Coordinates from ORCA-job scan E -27.303858960010
  C      -2.633500     -0.626824     -0.123371
  C      -0.493339      0.097614      0.940786
  C       0.759494      0.399089      0.490018
  C       1.150346      0.086040     -1.256110
  C      -1.749731      0.553465      0.291096
  O       3.234220      0.387068     -2.398653
  O       0.997064      1.272772     -0.564299
  O       2.296674     -0.452698     -1.466162
  H      -2.116846     -1.256855     -0.843562
  H      -2.889306     -1.233860      0.741863
  H      -3.552542     -0.264440     -0.576367
  H      -0.580353     -0.542184      1.805338
  H       1.640394      0.101712      1.049562
  H       0.280170     -0.240047     -1.821348
  H      -1.512570      1.174926     -0.573330
  H      -2.309528      1.167642      1.004335
  H       4.099574      0.085366     -2.102961
17
Coordinates from ORCA-job scan E -27.303860067950
  C      -2.633830     -0.627185     -0.123065
  C      -0.493450      0.097452      0.940492
  C       0.759227      0.399609      0.489854
  C       1.150606      0.087179     -1.256267
  C      -1.750016      0.553185      0.291069
  O       3.236802      0.389819     -2.396620
  O       0.996625      1.273829     -0.564280
  O       2.296057     -0.451893     -1.466387
  H      -2.117392     -1.257243     -0.843385
  H      -2.889351     -1.234188      0.742278
  H      -3.553036     -0.264894     -0.575811
  H      -0.580432     -0.542756      1.804735
  H       1.640251      0.102823      1.049487
  H       0.280151     -0.239222     -1.821129
  H      -1.513175      1.174663     -0.573438
  H      -2.309587      1.167355      1.004489
  H       4.100770      0.080256     -2.105187
17
Coordinates from ORCA-job scan E -27.303860699130
  C      -2.634200     -0.627628     -0.122754
  C      -0.493635      0.097240      0.940486
  C       0.758969      0.399769      0.490122
  C       1.150990      0.088294     -1.256026
  C      -1.750093      0.552747      0.290739
  O       3.238706      0.392689     -2.394786
  O       0.996421      1.274818     -0.563554
  O       2.295854     -0.450752     -1.466726
  H      -2.117959     -1.258129     -0.842826
  H      -2.889788     -1.234167      0.742895
  H      -3.553365     -0.265363     -0.575601
  H      -0.580674     -0.543222      1.804523
  H       1.639878      0.103667      1.050238
  H       0.280422     -0.237453     -1.821256
  H      -1.513202      1.173779     -0.574064
  H      -2.309545      1.167389      1.003871
  H       4.101441      0.075108     -2.108444
17
Coordinates from ORCA-job scan E -27.303860899240
  C      -2.634356     -0.627915     -0.122638
  C      -0.493765      0.097161      0.940612
  C       0.758859      0.399784      0.490511
  C       1.151188      0.088897     -1.255672
  C      -1.750063      0.552461      0.290430
  O       3.239348      0.394213     -2.393887
  O       0.996424      1.275259     -0.562809
  O       2.295936     -0.449938     -1.466903
  H      -2.118153     -1.258785     -0.842418
  H      -2.890121     -1.234054      0.743236
  H      -3.553417     -0.265668     -0.575705
  H      -0.580850     -0.543318      1.804631
  H       1.639604      0.103875      1.050969
  H       0.280601     -0.236069     -1.821382
  H      -1.512989      1.173094     -0.574600
  H      -2.309545      1.167523      1.003202
  H       4.101518      0.072265     -2.110740
17
Coordinates from ORCA-job scan E -27.303704103130
  C      -2.636017     -0.627969     -0.120997
  C      -0.496132      0.097368      0.943499
  C       0.757003      0.399123      0.494236
  C       1.154494      0.087894     -1.261662
  C      -1.751685      0.552490      0.291752
  O       3.244198      0.396242     -2.396231
  O       0.997488      1.273386     -0.562550
  O       2.299444     -0.450486     -1.472960
  H      -2.119384     -1.259700     -0.839714
  H      -2.892775     -1.233200      0.745220
  H      -3.554542     -0.265830     -0.575236
  H      -0.584219     -0.542270      1.808039
  H       1.636787      0.103251      1.056225
  H       0.284820     -0.235500     -1.829681
  H      -1.513613      1.172221     -0.573651
  H      -2.311594      1.168424      1.003435
  H       4.105949      0.073343     -2.112889
17
Coordinates from ORCA-job scan E -27.303718521130
  C      -2.634885     -0.627961     -0.121388
  C      -0.495273      0.097802      0.943180
  C       0.756834      0.399450      0.494673
  C       1.152841      0.088095     -1.261537
  C      -1.750813      0.552686      0.291184
  O       3.243426      0.396954     -2.395218
  O       0.996617      1.271698     -0.562067
  O       2.297165     -0.450165     -1.472878
  H      -2.118005     -1.259789     -0.839846
  H      -2.891733     -1.233010      0.744937
  H      -3.553368     -0.266069     -0.575895
  H      -0.583296     -0.541325      1.808087
  H       1.636874      0.101572      1.054846
  H       0.282419     -0.235451     -1.827968
  H      -1.512645      1.172178     -0.574343
  H      -2.310789      1.168734      1.002680
  H       4.104851      0.073386     -2.111611
17
Coordinates from ORCA-job scan E -27.303726562990
  C      -2.633921     -0.628006     -0.121730
  C      -0.494346      0.098349      0.942467
  C       0.756787      0.400489      0.494707
  C       1.151060      0.088721     -1.261821
  C      -1.750427      0.552985      0.290870
  O       3.244439      0.398251     -2.393519
  O       0.995580      1.270158     -0.562252
  O       2.294328     -0.449895     -1.472722
  H      -2.116818     -1.259470     -0.840365
  H      -2.890343     -1.233326      0.744530
  H      -3.552660     -0.266532     -0.576047
  H      -0.582196     -0.540315      1.807862
  H       1.637613      0.099862      1.052397
  H       0.279293     -0.236092     -1.825641
  H      -1.512723      1.172731     -0.574594
  H      -2.310378      1.168641      1.002680
  H       4.104933      0.072236     -2.109987
17
Coordinates from ORCA-job scan E -27.303728737040
  C      -2.633846     -0.628090     -0.121696
  C      -0.494193      0.098460      0.942025
  C       0.756724      0.401170      0.494370
  C       1.150737      0.089264     -1.262192
  C      -1.750670      0.553064      0.291023
  O       3.246147      0.399294     -2.392401
  O       0.995142      1.270258     -0.562776
  O       2.293322     -0.449820     -1.472672
  H      -2.116762     -1.259173     -0.840685
  H      -2.889816     -1.233776      0.744441
  H      -3.552842     -0.266796     -0.575634
  H      -0.581944     -0.540292      1.807395
  H       1.637925      0.099953      1.051282
  H       0.278437     -0.236592     -1.824827
  H      -1.513449      1.173216     -0.574293
  H      -2.310481      1.168279      1.003290
  H       4.105789      0.070369     -2.109814
17
Coordinates from ORCA-job scan E -27.303732183220
  C      -2.634033     -0.628426     -0.121398
  C      -0.494101      0.098490      0.941062
  C       0.756427      0.402643      0.493514
  C       1.150563      0.090840     -1.263039
  C      -1.751382      0.553042      0.291418
  O       3.250983      0.402612     -2.389302
  O       0.994157      1.271358     -0.563915
  O       2.291347     -0.449403     -1.472715
  H      -2.117167     -1.258770     -0.841192
  H      -2.888969     -1.234844      0.744536
  H      -3.553618     -0.267468     -0.574413
  H      -0.581664     -0.540806      1.806074
  H       1.638312      0.101170      1.049358
  H       0.277276     -0.237214     -1.823426
  H      -1.515274      1.174044     -0.573621
  H      -2.310759      1.167373      1.004727
  H       4.108122      0.064148     -2.110833
17
Coordinates from ORCA-job scan E -27.303733266310
  C      -2.634334     -0.628744     -0.121114
  C      -0.494199      0.098344      0.940788
  C       0.756184      0.403083      0.493354
  C       1.150820      0.091846     -1.263186
  C      -1.751632      0.552797      0.291384
  O       3.253491      0.405015     -2.387466
  O       0.993789      1.272312     -0.563921
  O       2.290694     -0.448789     -1.472928
  H      -2.117674     -1.259124     -0.841022
  H      -2.889010     -1.235124      0.744926
  H      -3.554066     -0.267869     -0.573898
  H      -0.581752     -0.541323      1.805516
  H       1.638177      0.102152      1.049288
  H       0.277233     -0.236498     -1.823180
  H      -1.515820      1.173809     -0.573732
  H      -2.310791      1.167128      1.004861
  H       4.109110      0.059773     -2.112834
17
Coordinates from ORCA-job scan E -27.303733839160
  C      -2.634658     -0.629132     -0.120839
  C      -0.494357      0.098156      0.940792
  C       0.755965      0.403183      0.493605
  C       1.151183      0.092792     -1.262954
  C      -1.751675      0.552406      0.291070
  O       3.255236      0.407389     -2.385893
  O       0.993663      1.273182     -0.563262
  O       2.290464     -0.447879     -1.473237
  H      -2.118179     -1.259932     -0.840508
  H      -2.889414     -1.235072      0.745484
  H      -3.554343     -0.268271     -0.573730
  H      -0.581973     -0.541744      1.805332
  H       1.637840      0.102897      1.050013
  H       0.277463     -0.234880     -1.823294
  H      -1.515801      1.173000     -0.574320
  H      -2.310729      1.167181      1.004270
  H       4.109538      0.055510     -2.115693
17
Coordinates from ORCA-job scan E -27.303734012080
  C      -2.634792     -0.629386     -0.120738
  C      -0.494464      0.098083      0.940907
  C       0.755880      0.403180      0.493961
  C       1.151361      0.093304     -1.262630
  C      -1.751629      0.552147      0.290779
  O       3.255813      0.408614     -2.385137
  O       0.993700      1.273564     -0.562587
  O       2.290512     -0.447205     -1.473404
  H      -2.118353     -1.260531     -0.840136
  H      -2.889719     -1.234954      0.745793
  H      -3.554377     -0.268533     -0.573833
  H      -0.582122     -0.541833      1.805429
  H       1.637603      0.103089      1.050698
  H       0.277602     -0.233595     -1.823416
  H      -1.515582      1.172371     -0.574819
  H      -2.310710      1.167310      1.003647
  H       4.109497      0.053162     -2.117678
17
Coordinates from ORCA-job scan E -27.303621087860
  C      -2.636459     -0.629439     -0.119097
  C      -0.496836      0.098284      0.943799
  C       0.754021      0.402511      0.497691
  C       1.154683      0.092317     -1.268611
  C      -1.753252      0.552173      0.292101
  O       3.260654      0.410616     -2.387431
  O       0.994772      1.271691     -0.562332
  O       2.294034     -0.447737     -1.479473
  H      -2.119590     -1.261447     -0.837429
  H      -2.892385     -1.234096      0.747777
  H      -3.555506     -0.268691     -0.573367
  H      -0.585502     -0.540790      1.808841
  H       1.634784      0.102451      1.055964
  H       0.281826     -0.233021     -1.831712
  H      -1.516202      1.171494     -0.573871
  H      -2.312761      1.168212      1.003878
  H       4.113937      0.054259     -2.119893
17
Coordinates from ORCA-job scan E -27.303635322470
  C      -2.635400     -0.629411     -0.119449
  C      -0.496002      0.098673      0.943483
  C       0.753872      0.402738      0.498099
  C       1.153095      0.092476     -1.268516
  C      -1.752391      0.552359      0.291531
  O       3.259917      0.411322     -2.386494
  O       0.993924      1.269917     -0.561854
  O       2.291844     -0.447397     -1.479439
  H      -2.118320     -1.261565     -0.837504
  H      -2.891437     -1.233845      0.747555
  H      -3.554391     -0.268881     -0.573992
  H      -0.584631     -0.539842      1.808924
  H       1.634877      0.100774      1.054615
  H       0.279521     -0.233001     -1.830072
  H      -1.515221      1.171400     -0.574588
  H      -2.311937      1.168562      1.003101
  H       4.112899      0.054508     -2.118564
17
Coordinates from ORCA-job scan E -27.303643138270
  C      -2.634527     -0.629422     -0.119740
  C      -0.495126      0.099158      0.942806
  C       0.753846      0.403594      0.498121
  C       1.151408      0.093010     -1.268813
  C      -1.752005      0.552647      0.291202
  O       3.260941      0.412571     -2.384973
  O       0.992941      1.268250     -0.562016
  O       2.289151     -0.447134     -1.479350
  H      -2.117267     -1.261302     -0.837925
  H      -2.890197     -1.234049      0.747235
  H      -3.553739     -0.269266     -0.574129
  H      -0.583637     -0.538803      1.808791
  H       1.635591      0.099011      1.052263
  H       0.276541     -0.233687     -1.827853
  H      -1.515237      1.171860     -0.574895
  H      -2.311493      1.168554      1.003030
  H       4.113027      0.053793     -2.116918
17
Coordinates from ORCA-job scan E -27.303645278820
  C      -2.634460     -0.629486     -0.119704
  C      -0.494984      0.099262      0.942392
  C       0.753789      0.404188      0.497802
  C       1.151101      0.093490     -1.269168
  C      -1.752228      0.552734      0.291337
  O       3.262613      0.413540     -2.383965
  O       0.992535      1.268272     -0.562515
  O       2.288171     -0.447101     -1.479315
  H      -2.117221     -1.261024     -0.838210
  H      -2.889715     -1.234442      0.747165
  H      -3.553908     -0.269498     -0.573744
  H      -0.583425     -0.538733      1.808389
  H       1.635883      0.099007      1.051190
  H       0.275711     -0.234224     -1.827048
  H      -1.515906      1.172314     -0.574629
  H      -2.311576      1.168242      1.003587
  H       4.113839      0.052247     -2.116729
17
Coordinates from ORCA-job scan E -27.303648751610
  C      -2.634628     -0.629773     -0.119417
  C      -0.494898      0.099307      0.941475
  C       0.753506      0.405509      0.496974
  C       1.150928      0.094917     -1.269990
  C      -1.752899      0.552752      0.291707
  O       3.267420      0.416617     -2.381100
  O       0.991619      1.269196     -0.563641
  O       2.286161     -0.446856     -1.479368
  H      -2.117596     -1.260620     -0.838682
  H      -2.888905     -1.235416      0.747262
  H      -3.554632     -0.270108     -0.572588
  H      -0.583207     -0.539121      1.807191
  H       1.636245      0.099972      1.049289
  H       0.274529     -0.234994     -1.825593
  H      -1.517635      1.173130     -0.574002
  H      -2.311821      1.167427      1.004947
  H       4.116033      0.046847     -2.117630
17
Coordinates from ORCA-job scan E -27.303649824710
  C      -2.634901     -0.630059     -0.119151
  C      -0.494987      0.099181      0.941219
  C       0.753278      0.405890      0.496816
  C       1.151172      0.095821     -1.270134
  C      -1.753126      0.552536      0.291674
  O       3.269882      0.418776     -2.379411
  O       0.991298      1.270069     -0.563674
  O       2.285468     -0.446388     -1.479574
  H      -2.118065     -1.260941     -0.838521
  H      -2.888935     -1.235664      0.747628
  H      -3.555044     -0.270472     -0.572107
  H      -0.583300     -0.539585      1.806676
  H       1.636114      0.100848      1.049213
  H       0.274455     -0.234370     -1.825321
  H      -1.518143      1.172926     -0.574108
  H      -2.311841      1.167210      1.005073
  H       4.116893      0.043012     -2.119462
17
Coordinates from ORCA-job scan E -27.303650361680
  C      -2.635186     -0.630405     -0.118904
  C      -0.495122      0.099015      0.941232
  C       0.753086      0.405948      0.497046
  C       1.151506      0.096635     -1.269917
  C      -1.753144      0.552184      0.291378
  O       3.271504      0.420780     -2.378040
  O       0.991221      1.270848     -0.563081
  O       2.285202     -0.445661     -1.479871
  H      -2.118519     -1.261679     -0.838050
  H      -2.889304     -1.235599      0.748137
  H      -3.555279     -0.270823     -0.571963
  H      -0.583496     -0.539967      1.806514
  H       1.635808      0.101525      1.049902
  H       0.274638     -0.232873     -1.825428
  H      -1.518097      1.172183     -0.574656
  H      -2.311767      1.167270      1.004516
  H       4.117169      0.039407     -2.121977
17
Coordinates from ORCA-job scan E -27.303650518780
  C      -2.635306     -0.630640     -0.118809
  C      -0.495210      0.098946      0.941336
  C       0.753020      0.405933      0.497373
  C       1.151665      0.097090     -1.269622
  C      -1.753086      0.551940      0.291099
  O       3.272049      0.421803     -2.377372
  O       0.991284      1.271195     -0.562459
  O       2.285207     -0.445088     -1.480045
  H      -2.118680     -1.262243     -0.837699
  H      -2.889588     -1.235480      0.748429
  H      -3.555303     -0.271060     -0.572060
  H      -0.583620     -0.540056      1.806598
  H       1.635602      0.101714      1.050546
  H       0.274738     -0.231634     -1.825557
  H      -1.517876      1.171590     -0.575132
  H      -2.311733      1.167393      1.003925
  H       4.117058      0.037383     -2.123716
17
Coordinates from ORCA-job scan E -27.303580069720
  C      -2.636978     -0.630691     -0.117167
  C      -0.497585      0.099141      0.944232
  C       0.751157      0.405257      0.501106
  C       1.155002      0.096119     -1.275596
  C      -1.754710      0.551964      0.292422
  O       3.276881      0.423779     -2.379621
  O       0.992363      1.269324     -0.562210
  O       2.288743     -0.445603     -1.486127
  H      -2.119923     -1.263160     -0.834988
  H      -2.892263     -1.234618      0.750414
  H      -3.556435     -0.271214     -0.571595
  H      -0.587009     -0.539017      1.810013
  H       1.632783      0.101065      1.055819
  H       0.278965     -0.231054     -1.833851
  H      -1.518492      1.170708     -0.574183
  H      -2.313784      1.168295      1.004155
  H       4.121504      0.038494     -2.125987
17
Coordinates from ORCA-job scan E -27.303594090270
  C      -2.635991     -0.630644     -0.117480
  C      -0.496780      0.099487      0.943924
  C       0.751029      0.405386      0.501487
  C       1.153479      0.096234     -1.275529
  C      -1.753863      0.552141      0.291850
  O       3.276172      0.424491     -2.378758
  O       0.991539      1.267463     -0.561738
  O       2.286649     -0.445242     -1.486141
  H      -2.118759     -1.263306     -0.835006
  H      -2.891410     -1.234308      0.750251
  H      -3.555379     -0.271358     -0.572187
  H      -0.586192     -0.538065      1.810133
  H       1.632882      0.099391      1.054505
  H       0.276760     -0.231064     -1.832289
  H      -1.517500      1.170566     -0.574923
  H      -2.312948      1.168686      1.003356
  H       4.120532      0.038931     -2.124619
17
Coordinates from ORCA-job scan E -27.303601615260
  C      -2.635212     -0.630624     -0.117722
  C      -0.495961      0.099915      0.943289
  C       0.751023      0.406060      0.501498
  C       1.151891      0.096676     -1.275835
  C      -1.753484      0.552418      0.291511
  O       3.277194      0.425719     -2.377404
  O       0.990610      1.265678     -0.561876
  O       2.284121     -0.444979     -1.486118
  H      -2.117837     -1.263098     -0.835330
  H      -2.890322     -1.234405      0.750016
  H      -3.554785     -0.271670     -0.572311
  H      -0.585307     -0.536998      1.810093
  H       1.633568      0.097586      1.052260
  H       0.273940     -0.231789     -1.830193
  H      -1.517460      1.170938     -0.575279
  H      -2.312483      1.168758      1.003219
  H       4.120723      0.038601     -2.122981
17
Coordinates from ORCA-job scan E -27.303603680840
  C      -2.635155     -0.630669     -0.117681
  C      -0.495836      0.100013      0.942908
  C       0.750970      0.406566      0.501196
  C       1.151603      0.097089     -1.276174
  C      -1.753691      0.552512      0.291634
  O       3.278815      0.426632     -2.376502
  O       0.990233      1.265624     -0.562351
  O       2.283185     -0.444981     -1.486102
  H      -2.117803     -1.262839     -0.835577
  H      -2.889888     -1.234743      0.749964
  H      -3.554943     -0.271869     -0.571955
  H      -0.585138     -0.536882      1.809759
  H       1.633837      0.097495      1.051237
  H       0.273147     -0.232363     -1.829411
  H      -1.518073      1.171358     -0.575043
  H      -2.312551      1.168497      1.003725
  H       4.121507      0.037347     -2.122788
17
Coordinates from ORCA-job scan E -27.303607121870
  C      -2.635308     -0.630905     -0.117404
  C      -0.495764      0.100074      0.942047
  C       0.750695      0.407725      0.500393
  C       1.151428      0.098355     -1.276974
  C      -1.754328      0.552571      0.291987
  O       3.283564      0.429531     -2.373858
  O       0.989372      1.266364     -0.563471
  O       2.281175     -0.444883     -1.486180
  H      -2.118149     -1.262430     -0.836009
  H      -2.889122     -1.235622      0.750066
  H      -3.555620     -0.272417     -0.570864
  H      -0.584985     -0.537136      1.808700
  H       1.634169      0.098213      1.049362
  H       0.271960     -0.233294     -1.827928
  H      -1.519711      1.172167     -0.574452
  H      -2.312777      1.167773      1.005013
  H       4.123620      0.032699     -2.123591
17
Coordinates from ORCA-job scan E -27.303608172760
  C      -2.635554     -0.631159     -0.117154
  C      -0.495844      0.099970      0.941810
  C       0.750478      0.408049      0.500228
  C       1.151654      0.099157     -1.277121
  C      -1.754538      0.552387      0.291960
  O       3.285970      0.431494     -2.372296
  O       0.989085      1.267152     -0.563540
  O       2.280452     -0.444543     -1.486389
  H      -2.118576     -1.262713     -0.835861
  H      -2.889138     -1.235846      0.750407
  H      -3.555997     -0.272747     -0.570411
  H      -0.585080     -0.537543      1.808230
  H       1.634041      0.098987      1.049264
  H       0.271855     -0.232778     -1.827636
  H      -1.520190      1.171999     -0.574544
  H      -2.312793      1.167580      1.005141
  H       4.124394      0.029340     -2.125252
17
Coordinates from ORCA-job scan E -27.303608679970
  C      -2.635809     -0.631472     -0.116925
  C      -0.495959      0.099825      0.941826
  C       0.750306      0.408080      0.500430
  C       1.151956      0.099870     -1.276931
  C      -1.754541      0.552066      0.291684
  O       3.287509      0.433234     -2.371054
  O       0.989040      1.267863     -0.563016
  O       2.280147     -0.443958     -1.486690
  H      -2.118989     -1.263391     -0.835424
  H      -2.889473     -1.235776      0.750877
  H      -3.556204     -0.273061     -0.570279
  H      -0.585247     -0.537895      1.808079
  H       1.633765      0.099613      1.049902
  H       0.271990     -0.231382     -1.827741
  H      -1.520134      1.171316     -0.575053
  H      -2.312714      1.167639      1.004623
  H       4.124577      0.026216     -2.127474
17
Coordinates from ORCA-job scan E -27.303608824480
  C      -2.635914     -0.631688     -0.116838
  C      -0.496029      0.099762      0.941920
  C       0.750255      0.408059      0.500725
  C       1.152092      0.100269     -1.276667
  C      -1.754475      0.551839      0.291423
  O       3.288013      0.434085     -2.370461
  O       0.989118      1.268178     -0.562451
  O       2.280117     -0.443476     -1.486873
  H      -2.119137     -1.263915     -0.835099
  H      -2.889731     -1.235660      0.751149
  H      -3.556219     -0.273275     -0.570367
  H      -0.585344     -0.537981      1.808152
  H       1.633588      0.099803      1.050500
  H       0.272050     -0.230198     -1.827877
  H      -1.519917      1.170763     -0.575497
  H      -2.312669      1.167751      1.004073
  H       4.124421      0.024470     -2.128975
17
Coordinates from ORCA-job scan E -27.303578861230
  C      -2.637591     -0.631738     -0.115194
  C      -0.498407      0.099952      0.944819
  C       0.748389      0.407376      0.504460
  C       1.155444      0.099314     -1.282634
  C      -1.756099      0.551860      0.292746
  O       3.292837      0.436036     -2.372668
  O       0.990204      1.266307     -0.562210
  O       2.283666     -0.443974     -1.492968
  H      -2.120385     -1.264831     -0.832385
  H      -2.892415     -1.234796      0.753134
  H      -3.557354     -0.273425     -0.569902
  H      -0.588739     -0.536947      1.811568
  H       1.630770      0.099143      1.055778
  H       0.276280     -0.229614     -1.836169
  H      -1.520529      1.169878     -0.574547
  H      -2.314721      1.168652      1.004302
  H       4.128872      0.025594     -2.131295
17
Coordinates from ORCA-job scan E -27.303592644500
  C      -2.636676     -0.631673     -0.115469
  C      -0.497634      0.100257      0.944521
  C       0.748281      0.407408      0.504816
  C       1.153987      0.099384     -1.282592
  C      -1.755268      0.552028      0.292175
  O       3.292151      0.436767     -2.371873
  O       0.989405      1.264361     -0.561744
  O       2.281675     -0.443592     -1.493028
  H      -2.119325     -1.265005     -0.832348
  H      -2.891658     -1.234429      0.753029
  H      -3.556357     -0.273524     -0.570464
  H      -0.587979     -0.535990      1.811726
  H       1.630874      0.097477      1.054503
  H       0.274179     -0.229654     -1.834686
  H      -1.519528      1.169687     -0.575308
  H      -2.313876      1.169083      1.003482
  H       4.127968      0.026203     -2.129903
17
Coordinates from ORCA-job scan E -27.303599831850
  C      -2.635991     -0.631623     -0.115663
  C      -0.496875      0.100630      0.943932
  C       0.748292      0.407907      0.504817
  C       1.152503      0.099731     -1.282904
  C      -1.754899      0.552294      0.291830
  O       3.293161      0.437998     -2.370675
  O       0.988528      1.262464     -0.561859
  O       2.279328     -0.443323     -1.493071
  H      -2.118534     -1.264849     -0.832574
  H      -2.890723     -1.234423      0.752876
  H      -3.555823     -0.273765     -0.570576
  H      -0.587203     -0.534898      1.811779
  H       1.631531      0.095643      1.052374
  H       0.271530     -0.230420     -1.832723
  H      -1.519436      1.169973     -0.575707
  H      -2.313397      1.169233      1.003281
  H       4.128230      0.026215     -2.128300
17
Coordinates from ORCA-job scan E -27.303601786670
  C      -2.635949     -0.631648     -0.115616
  C      -0.496770      0.100720      0.943587
  C       0.748242      0.408322      0.504532
  C       1.152238      0.100074     -1.283225
  C      -1.755093      0.552394      0.291941
  O       3.294720      0.438872     -2.369872
  O       0.988179      1.262339     -0.562310
  O       2.278456     -0.443350     -1.493077
  H      -2.118515     -1.264610     -0.832784
  H      -2.890342     -1.234706      0.752843
  H      -3.555974     -0.273931     -0.570247
  H      -0.587079     -0.534739      1.811515
  H       1.631775      0.095474      1.051408
  H       0.270788     -0.231030     -1.831977
  H      -1.519996      1.170360     -0.575500
  H      -2.313457      1.169021      1.003737
  H       4.128997      0.025225     -2.128119
17
Coordinates from ORCA-job scan E -27.303605128960
  C      -2.636097     -0.631832     -0.115343
  C      -0.496722      0.100799      0.942794
  C       0.747972      0.409309      0.503749
  C       1.152068      0.101166     -1.284003
  C      -1.755703      0.552494      0.292283
  O       3.299376      0.441645     -2.367434
  O       0.987366      1.262887     -0.563428
  O       2.276493     -0.443376     -1.493193
  H      -2.118839     -1.264194     -0.833169
  H      -2.889632     -1.235487      0.752955
  H      -3.556610     -0.274411     -0.569220
  H      -0.586997     -0.534855      1.810607
  H       1.632069      0.095951      1.049567
  H       0.269624     -0.232137     -1.830493
  H      -1.521541      1.171155     -0.574941
  H      -2.313672      1.168393      1.004954
  H       4.131063      0.021280     -2.128848
17
Coordinates from ORCA-job scan E -27.303606137030
  C      -2.636318     -0.632053     -0.115108
  C      -0.496797      0.100718      0.942579
  C       0.747763      0.409575      0.503575
  C       1.152274      0.101861     -1.284157
  C      -1.755898      0.552343      0.292267
  O       3.301705      0.443445     -2.365985
  O       0.987103      1.263584     -0.563538
  O       2.275762     -0.443147     -1.493413
  H      -2.119227     -1.264435     -0.833033
  H      -2.889636     -1.235687      0.753270
  H      -3.556955     -0.274706     -0.568794
  H      -0.587092     -0.535203      1.810186
  H       1.631945      0.096620      1.049443
  H       0.269496     -0.231742     -1.830189
  H      -1.521993      1.171026     -0.575013
  H      -2.313689      1.168224      1.005088
  H       4.131779      0.018362     -2.130341
17
Coordinates from ORCA-job scan E -27.303606611630
  C      -2.636545     -0.632335     -0.114896
  C      -0.496892      0.100595      0.942595
  C       0.747607      0.409585      0.503743
  C       1.152544      0.102481     -1.283998
  C      -1.755892      0.552054      0.292016
  O       3.303162      0.444972     -2.364840
  O       0.987077      1.264231     -0.563089
  O       2.275427     -0.442685     -1.493724
  H      -2.119600     -1.265050     -0.832631
  H      -2.889935     -1.235618      0.753704
  H      -3.557139     -0.274988     -0.568666
  H      -0.587227     -0.535526      1.810043
  H       1.631697      0.097200      1.050017
  H       0.269585     -0.230458     -1.830290
  H      -1.521938      1.170406     -0.575477
  H      -2.313611      1.168278      1.004617
  H       4.131901      0.015643     -2.132287
17
Coordinates from ORCA-job scan E -27.303606744770
  C      -2.636638     -0.632534     -0.114813
  C      -0.496945      0.100537      0.942678
  C       0.747569      0.409563      0.504003
  C       1.152656      0.102833     -1.283768
  C      -1.755822      0.551842      0.291774
  O       3.303634      0.445686     -2.364297
  O       0.987163      1.264519     -0.562584
  O       2.275366     -0.442278     -1.493920
  H      -2.119737     -1.265534     -0.832331
  H      -2.890167     -1.235510      0.753957
  H      -3.557149     -0.275181     -0.568743
  H      -0.587296     -0.535612      1.810102
  H       1.631548      0.097395      1.050562
  H       0.269607     -0.229329     -1.830433
  H      -1.521730      1.169894     -0.575888
  H      -2.313560      1.168377      1.004110
  H       4.131721      0.014119     -2.133571
17
Coordinates from ORCA-job scan E -27.303614695360
  C      -2.638318     -0.632583     -0.113169
  C      -0.499326      0.100722      0.945579
  C       0.745699      0.408876      0.507741
  C       1.156022      0.101894     -1.289729
  C      -1.757447      0.551861      0.293098
  O       3.308448      0.447613     -2.366465
  O       0.988255      1.262651     -0.562351
  O       2.278926     -0.442759     -1.500027
  H      -2.120991     -1.266451     -0.829615
  H      -2.892858     -1.234644      0.755942
  H      -3.558287     -0.275329     -0.568277
  H      -0.590697     -0.534581      1.813518
  H       1.628730      0.096727      1.055844
  H       0.273840     -0.228741     -1.838722
  H      -1.522341      1.169005     -0.574936
  H      -2.315611      1.169276      1.004339
  H       4.136175      0.015251     -2.135933
17
Coordinates from ORCA-job scan E -27.303628227040
  C      -2.637477     -0.632499     -0.113406
  C      -0.498585      0.100987      0.945291
  C       0.745611      0.408811      0.508070
  C       1.154633      0.101915     -1.289711
  C      -1.756633      0.552020      0.292528
  O       3.307781      0.448375     -2.365732
  O       0.987481      1.260618     -0.561893
  O       2.277045     -0.442357     -1.500132
  H      -2.120035     -1.266651     -0.829522
  H      -2.892197     -1.234220      0.755893
  H      -3.557349     -0.275383     -0.568807
  H      -0.589992     -0.533622      1.813711
  H       1.628840      0.095071      1.054609
  H       0.271846     -0.228815     -1.837321
  H      -1.521332      1.168768     -0.575716
  H      -2.314759      1.169746      1.003499
  H       4.135341      0.016023     -2.134525
17
Coordinates from ORCA-job scan E -27.303635050510
  C      -2.636888     -0.632419     -0.113550
  C      -0.497890      0.101308      0.944749
  C       0.745636      0.409138      0.508059
  C       1.153255      0.102166     -1.290027
  C      -1.756278      0.552276      0.292179
  O       3.308772      0.449630     -2.364669
  O       0.986655      1.258615     -0.561991
  O       2.274892     -0.442080     -1.500241
  H      -2.119374     -1.266545     -0.829653
  H      -2.891415     -1.234113      0.755822
  H      -3.556879     -0.275553     -0.568905
  H      -0.589326     -0.532510      1.813853
  H       1.629469      0.093213      1.052595
  H       0.269376     -0.229628     -1.835497
  H      -1.521192      1.168970     -0.576155
  H      -2.314271      1.169973      1.003240
  H       4.135678      0.016347     -2.132974
17
Coordinates from ORCA-job scan E -27.303636865190
  C      -2.636865     -0.632425     -0.113495
  C      -0.497807      0.101390      0.944443
  C       0.745588      0.409464      0.507789
  C       1.153020      0.102438     -1.290331
  C      -1.756461      0.552381      0.292281
  O       3.310261      0.450480     -2.363957
  O       0.986334      1.258424     -0.562419
  O       2.274099     -0.442127     -1.500270
  H      -2.119376     -1.266325     -0.829823
  H      -2.891091     -1.234342      0.755811
  H      -3.557026     -0.275685     -0.568601
  H      -0.589248     -0.532312      1.813657
  H       1.629685      0.092976      1.051690
  H       0.268697     -0.230277     -1.834798
  H      -1.521700      1.169322     -0.575973
  H      -2.314325      1.169808      1.003648
  H       4.136434      0.015598     -2.132815
17
Coordinates from ORCA-job scan E -27.303640040510
  C      -2.637019     -0.632552     -0.113220
  C      -0.497790      0.101482      0.943725
  C       0.745319      0.410266      0.507023
  C       1.152868      0.103341     -1.291088
  C      -1.757047      0.552520      0.292616
  O       3.314788      0.453169     -2.361708
  O       0.985562      1.258775     -0.563537
  O       2.272239     -0.442252     -1.500437
  H      -2.119694     -1.265906     -0.830151
  H      -2.890456     -1.235017      0.755941
  H      -3.557631     -0.276090     -0.567634
  H      -0.589241     -0.532297      1.812904
  H       1.629936      0.093216      1.049894
  H       0.267594     -0.231576     -1.833344
  H      -1.523149      1.170097     -0.575446
  H      -2.314533      1.169283      1.004790
  H       4.138475      0.012329     -2.133491
17
Coordinates from ORCA-job scan E -27.303640980280
  C      -2.637220     -0.632737     -0.112999
  C      -0.497861      0.101424      0.943535
  C       0.745118      0.410469      0.506835
  C       1.153057      0.103918     -1.291251
  C      -1.757230      0.552404      0.292614
  O       3.316999      0.454818     -2.360371
  O       0.985319      1.259371     -0.563693
  O       2.271530     -0.442120     -1.500674
  H      -2.120045     -1.266100     -0.830026
  H      -2.890453     -1.235188      0.756231
  H      -3.557947     -0.276343     -0.567233
  H      -0.589333     -0.532583      1.812538
  H       1.629813      0.093778      1.049740
  H       0.267457     -0.231318     -1.833041
  H      -1.523573      1.170006     -0.575496
  H      -2.314554      1.169141      1.004932
  H       4.139144      0.009846     -2.134804
17
Coordinates from ORCA-job scan E -27.303545474950
  C      -2.634790     -0.632666     -0.115375
  C      -0.494422      0.101162      0.939342
  C       0.747821      0.411463      0.501436
  C       1.148181      0.105253     -1.282647
  C      -1.754883      0.552379      0.290699
  O       3.310060      0.452062     -2.357285
  O       0.983735      1.262062     -0.564015
  O       2.266375     -0.441444     -1.491838
  H      -2.118230     -1.264778     -0.833951
  H      -2.886563     -1.236439      0.753364
  H      -3.556302     -0.276130     -0.567908
  H      -0.584419     -0.534069      1.807608
  H       1.633878      0.094750      1.042109
  H       0.261347     -0.232170     -1.821066
  H      -1.522693      1.171291     -0.576874
  H      -2.311592      1.167845      1.004599
  H       4.132716      0.008215     -2.131363
17
Coordinates from ORCA-job scan E -27.303575331100
  C      -2.636004     -0.633013     -0.114997
  C      -0.495503      0.100761      0.939850
  C       0.747913      0.411595      0.501279
  C       1.150213      0.105604     -1.282405
  C      -1.755927      0.551929      0.291248
  O       3.311284      0.451525     -2.357761
  O       0.984963      1.265293     -0.564114
  O       2.268960     -0.441621     -1.491897
  H      -2.119620     -1.264992     -0.833807
  H      -2.887671     -1.236964      0.753635
  H      -3.557562     -0.276294     -0.567294
  H      -0.585436     -0.535515      1.807385
  H       1.633556      0.097337      1.044499
  H       0.264149     -0.230747     -1.823248
  H      -1.523864      1.171111     -0.576183
  H      -2.312743      1.167252      1.005245
  H       4.133513      0.005526     -2.134600
17
Coordinates from ORCA-job scan E -27.303591036230
  C      -2.636904     -0.633499     -0.114741
  C      -0.496580      0.100252      0.940762
  C       0.747868      0.411266      0.501756
  C       1.152328      0.105868     -1.281542
  C      -1.756343      0.551212      0.291393
  O       3.310420      0.450603     -2.358296
  O       0.986353      1.268773     -0.563155
  O       2.272008     -0.441336     -1.492059
  H      -2.120625     -1.265865     -0.833263
  H      -2.889033     -1.237091      0.754005
  H      -3.558184     -0.276447     -0.567340
  H      -0.586423     -0.537250      1.807243
  H       1.632417      0.100509      1.048404
  H       0.267697     -0.227564     -1.826151
  H      -1.523788      1.170103     -0.576112
  H      -2.313448      1.166971      1.004882
  H       4.132457      0.002280     -2.138950
17
Coordinates from ORCA-job scan E -27.303594524700
  C      -2.636950     -0.633638     -0.114816
  C      -0.496721      0.100134      0.941197
  C       0.747945      0.410943      0.502292
  C       1.152678      0.105753     -1.280979
  C      -1.756094      0.550945      0.291137
  O       3.308685      0.449859     -2.358759
  O       0.986829      1.269236     -0.562276
  O       2.273080     -0.440934     -1.492135
  H      -2.120621     -1.266401     -0.832948
  H      -2.889520     -1.236823      0.754083
  H      -3.557978     -0.276442     -0.567818
  H      -0.586509     -0.537531      1.807532
  H       1.632053      0.101041      1.049979
  H       0.268581     -0.225975     -1.827131
  H      -1.523064      1.169410     -0.576531
  H      -2.313418      1.167176      1.004101
  H       4.131244      0.002035     -2.140091
17
Coordinates from ORCA-job scan E -27.303599748180
  C      -2.636771     -0.633737     -0.115182
  C      -0.496798      0.100036      0.942062
  C       0.748291      0.410270      0.503491
  C       1.152873      0.105090     -1.279816
  C      -1.755431      0.550581      0.290569
  O       3.303817      0.447429     -2.360404
  O       0.987758      1.269133     -0.560469
  O       2.275335     -0.440130     -1.492124
  H      -2.120192     -1.267243     -0.832482
  H      -2.890308     -1.236146      0.753967
  H      -3.557246     -0.276275     -0.569097
  H      -0.586451     -0.537520      1.808470
  H       1.631635      0.101125      1.052687
  H       0.269805     -0.223354     -1.828813
  H      -1.521340      1.168202     -0.577385
  H      -2.313285      1.167731      1.002419
  H       4.128525      0.003597     -2.141058
17
Coordinates from ORCA-job scan E -27.303601415690
  C      -2.636529     -0.633529     -0.115473
  C      -0.496738      0.100122      0.942295
  C       0.748535      0.410082      0.503759
  C       1.152631      0.104357     -1.279565
  C      -1.755237      0.550716      0.290573
  O       3.301219      0.445621     -2.361774
  O       0.988032      1.268406     -0.560254
  O       2.276277     -0.440212     -1.491853
  H      -2.119745     -1.267012     -0.832650
  H      -2.890310     -1.235963      0.753587
  H      -3.556865     -0.276001     -0.569614
  H      -0.586335     -0.537137      1.808936
  H       1.631742      0.100496      1.052980
  H       0.269972     -0.223679     -1.829138
  H      -1.520853      1.168326     -0.577311
  H      -2.313305      1.167892      1.002241
  H       4.127730      0.006302     -2.139902
17
Coordinates from ORCA-job scan E -27.303602457540
  C      -2.636248     -0.633087     -0.115770
  C      -0.496642      0.100271      0.942325
  C       0.748752      0.409985      0.503564
  C       1.152286      0.103328     -1.279727
  C      -1.755230      0.551134      0.290922
  O       3.298950      0.443551     -2.363471
  O       0.988088      1.267413     -0.560866
  O       2.276956     -0.440895     -1.491362
  H      -2.119265     -1.266159     -0.833168
  H      -2.889991     -1.235969      0.752993
  H      -3.556610     -0.275534     -0.569841
  H      -0.586219     -0.536685      1.809198
  H       1.632029      0.099638      1.052323
  H       0.270001     -0.225661     -1.829085
  H      -1.520846      1.169157     -0.576682
  H      -2.313397      1.167889      1.002849
  H       4.127605      0.010409     -2.137366
17
Coordinates from ORCA-job scan E -27.303602816470
  C      -2.636132     -0.632727     -0.115881
  C      -0.496575      0.100336      0.942264
  C       0.748823      0.409867      0.503184
  C       1.152149      0.102633     -1.280055
  C      -1.755290      0.551477      0.291277
  O       3.297896      0.442328     -2.364572
  O       0.988021      1.266866     -0.561630
  O       2.277201     -0.441616     -1.491032
  H      -2.119094     -1.265440     -0.833551
  H      -2.889741     -1.236009      0.752648
  H      -3.556575     -0.275144     -0.569770
  H      -0.586180     -0.536547      1.809186
  H       1.632225      0.099205      1.051578
  H       0.270115     -0.227517     -1.829010
  H      -1.521034      1.169877     -0.576103
  H      -2.313429      1.167836      1.003540
  H       4.127840      0.013361     -2.135238
17
Coordinates from ORCA-job scan E -27.303602816460
  C      -2.636132     -0.632727     -0.115881
  C      -0.496575      0.100336      0.942264
  C       0.748823      0.409867      0.503184
  C       1.152149      0.102633     -1.280055
  C      -1.755290      0.551477      0.291277
  O       3.297896      0.442328     -2.364572
  O       0.988021      1.266866     -0.561630
  O       2.277201     -0.441616     -1.491032
  H      -2.119094     -1.265440     -0.833551
  H      -2.889741     -1.236009      0.752648
  H      -3.556575     -0.275144     -0.569770
  H      -0.586180     -0.536547      1.809186
  H       1.632225      0.099205      1.051578
  H       0.270115     -0.227517     -1.829010
  H      -1.521034      1.169877     -0.576103
  H      -2.313429      1.167836      1.003540
  H       4.127840      0.013361     -2.135238
17
Coordinates from ORCA-job scan E -27.303565627370
  C      -2.625804     -0.638669     -0.118985
  C      -0.491010      0.106397      0.937491
  C       0.750271      0.422745      0.491662
  C       1.140196      0.122059     -1.278554
  C      -1.755623      0.551458      0.293790
  O       3.299057      0.419758     -2.349283
  O       0.990880      1.286738     -0.562158
  O       2.253710     -0.446326     -1.487074
  H      -2.104802     -1.260955     -0.842878
  H      -2.870387     -1.250693      0.746009
  H      -3.551332     -0.287196     -0.567271
  H      -0.572060     -0.542844      1.796046
  H       1.632198      0.118095      1.045772
  H       0.257014     -0.194448     -1.833665
  H      -1.530766      1.178582     -0.569806
  H      -2.319079      1.153537      1.014036
  H       4.117757     -0.029452     -2.118295
17
Coordinates from ORCA-job scan E -27.303417602360
  C      -2.618836     -0.645402     -0.123470
  C      -0.488060      0.115328      0.934989
  C       0.756879      0.439973      0.479662
  C       1.130192      0.143657     -1.279626
  C      -1.759838      0.553443      0.298941
  O       3.304575      0.397615     -2.326795
  O       0.998270      1.307099     -0.565329
  O       2.238895     -0.451504     -1.487174
  H      -2.094446     -1.254176     -0.856636
  H      -2.850671     -1.269120      0.736290
  H      -3.551743     -0.301469     -0.562943
  H      -0.558300     -0.542814      1.786456
  H       1.641698      0.139559      1.042733
  H       0.245718     -0.163007     -1.845692
  H      -1.548197      1.191098     -0.558745
  H      -2.334667      1.130438      1.030690
  H       4.108751     -0.081931     -2.106516
17
Coordinates from ORCA-job scan E -27.303079180390
  C      -2.613456     -0.650245     -0.129851
  C      -0.485743      0.122053      0.931079
  C       0.761221      0.454278      0.464142
  C       1.120905      0.155970     -1.283124
  C      -1.760768      0.556769      0.305706
  O       3.304416      0.381823     -2.300539
  O       1.002904      1.322021     -0.573567
  O       2.227213     -0.461049     -1.484610
  H      -2.092605     -1.242451     -0.878991
  H      -2.825724     -1.288495      0.723641
  H      -3.556019     -0.310164     -0.551053
  H      -0.537238     -0.535154      1.781860
  H       1.645631      0.157245      1.038181
  H       0.241224     -0.148228     -1.859801
  H      -1.564900      1.203960     -0.545215
  H      -2.345108      1.109748      1.047676
  H       4.098267     -0.119295     -2.088694
17
Coordinates from ORCA-job scan E -27.302486397470
  C      -2.609647     -0.653047     -0.134304
  C      -0.487155      0.125337      0.928198
  C       0.760040      0.461744      0.445136
  C       1.113393      0.161268     -1.289712
  C      -1.759882      0.559939      0.314263
  O       3.304689      0.374447     -2.274557
  O       1.003429      1.330079     -0.586274
  O       2.221366     -0.471109     -1.481695
  H      -2.097874     -1.229669     -0.899998
  H      -2.797103     -1.300576      0.717093
  H      -3.559937     -0.310875     -0.533912
  H      -0.517092     -0.529362      1.778536
  H       1.644336      0.168500      1.031760
  H       0.243150     -0.142636     -1.876363
  H      -1.577855      1.210947     -0.532778
  H      -2.355574      1.095131      1.059304
  H       4.091935     -0.141330     -2.067861
17
Coordinates from ORCA-job scan E -27.301528006600
  C      -2.608471     -0.655921     -0.134622
  C      -0.488826      0.124074      0.926414
  C       0.756936      0.462906      0.423045
  C       1.107808      0.164006     -1.299960
  C      -1.758776      0.561495      0.324577
  O       3.304075      0.372930     -2.256301
  O       1.004627      1.333378     -0.601256
  O       2.218708     -0.479654     -1.485775
  H      -2.099461     -1.233522     -0.898269
  H      -2.793294     -1.295323      0.722372
  H      -3.551858     -0.299824     -0.534901
  H      -0.497194     -0.530345      1.774220
  H       1.641907      0.172653      1.022321
  H       0.249202     -0.138082     -1.897308
  H      -1.589725      1.213446     -0.522335
  H      -2.363288      1.082149      1.071935
  H       4.087849     -0.145580     -2.037320
17
Coordinates from ORCA-job scan E -27.300374787560
  C      -2.613363     -0.660183     -0.133380
  C      -0.489218      0.121981      0.928980
  C       0.755816      0.463166      0.406291
  C       1.108411      0.169014     -1.303883
  C      -1.758711      0.560813      0.331026
  O       3.303228      0.372689     -2.247784
  O       1.011369      1.337188     -0.608486
  O       2.221582     -0.483799     -1.491571
  H      -2.105411     -1.244984     -0.889997
  H      -2.800507     -1.285161      0.732297
  H      -3.547262     -0.286953     -0.539427
  H      -0.479730     -0.537843      1.770818
  H       1.640661      0.179107      1.018060
  H       0.260577     -0.128774     -1.917457
  H      -1.596754      1.210297     -0.518803
  H      -2.372563      1.071192      1.076693
  H       4.082097     -0.148962     -2.016540
17
Coordinates from ORCA-job scan E -27.298852684570
  C      -2.625178     -0.663782     -0.129960
  C      -0.491258      0.115689      0.929851
  C       0.754448      0.461725      0.393971
  C       1.115930      0.173878     -1.302512
  C      -1.758427      0.557562      0.333995
  O       3.303041      0.376540     -2.248258
  O       1.021768      1.340181     -0.609747
  O       2.232338     -0.484533     -1.496492
  H      -2.118592     -1.259419     -0.876400
  H      -2.817939     -1.267989      0.747031
  H      -3.546401     -0.269629     -0.542274
  H      -0.465130     -0.546370      1.766821
  H       1.638791      0.183867      1.020004
  H       0.278907     -0.120930     -1.934243
  H      -1.600135      1.197230     -0.522913
  H      -2.381497      1.060363      1.075328
  H       4.079554     -0.145596     -2.007368
17
Coordinates from ORCA-job scan E -27.297076848720
  C      -2.647400     -0.667352     -0.122935
  C      -0.492844      0.104838      0.927441
  C       0.753075      0.459364      0.380390
  C       1.127354      0.177242     -1.301676
  C      -1.757453      0.547985      0.335268
  O       3.306941      0.386389     -2.247817
  O       1.031520      1.342045     -0.611946
  O       2.249395     -0.482481     -1.500997
  H      -2.143193     -1.274459     -0.859114
  H      -2.847604     -1.248194      0.766003
  H      -3.552954     -0.247660     -0.540356
  H      -0.448691     -0.557510      1.761160
  H       1.638474      0.189342      1.020075
  H       0.301883     -0.118172     -1.953097
  H      -1.599128      1.175531     -0.529132
  H      -2.381920      1.055377      1.070361
  H       4.082764     -0.133499     -1.996790
17
Coordinates from ORCA-job scan E -27.294991177020
  C      -2.673008     -0.670411     -0.115587
  C      -0.494059      0.093315      0.925519
  C       0.751200      0.457267      0.366254
  C       1.138790      0.178957     -1.300805
  C      -1.755749      0.535028      0.337642
  O       3.310670      0.397859     -2.246971
  O       1.039565      1.343091     -0.615722
  O       2.268034     -0.479780     -1.504045
  H      -2.167827     -1.286277     -0.841649
  H      -2.881954     -1.228473      0.783860
  H      -3.560077     -0.223634     -0.538653
  H      -0.430654     -0.568947      1.756990
  H       1.639475      0.196416      1.017319
  H       0.325852     -0.119488     -1.971550
  H      -1.594197      1.151656     -0.534693
  H      -2.382382      1.051050      1.065440
  H       4.086540     -0.118842     -1.986512
17
Coordinates from ORCA-job scan E -27.292558869170
  C      -2.698099     -0.672990     -0.108219
  C      -0.496961      0.081833      0.923629
  C       0.747929      0.454903      0.352756
  C       1.149800      0.179083     -1.298319
  C      -1.753495      0.521917      0.340057
  O       3.313683      0.414690     -2.242016
  O       1.046361      1.343340     -0.619195
  O       2.289177     -0.475338     -1.502541
  H      -2.191432     -1.298250     -0.823682
  H      -2.915589     -1.207407      0.801856
  H      -3.565247     -0.199540     -0.537749
  H      -0.414819     -0.580259      1.753077
  H       1.637401      0.199920      1.016042
  H       0.352606     -0.125077     -1.987325
  H      -1.587936      1.128360     -0.540127
  H      -2.383993      1.049246      1.058388
  H       4.090835     -0.105643     -1.989795
17
Coordinates from ORCA-job scan E -27.290800593010
  C      -2.729458     -0.672287     -0.095595
  C      -0.499082      0.069661      0.918963
  C       0.747481      0.447906      0.336495
  C       1.164536      0.174340     -1.296593
  C      -1.753938      0.511312      0.341389
  O       3.319901      0.436752     -2.235545
  O       1.053711      1.339568     -0.626384
  O       2.319236     -0.468095     -1.498343
  H      -2.223601     -1.310626     -0.799746
  H      -2.958554     -1.184734      0.823491
  H      -3.579385     -0.177496     -0.532742
  H      -0.399605     -0.593133      1.746348
  H       1.634138      0.191186      1.008473
  H       0.387955     -0.142247     -2.003269
  H      -1.584900      1.108329     -0.546275
  H      -2.384090      1.054433      1.050693
  H       4.105875     -0.076080     -1.994525
17
Coordinates from ORCA-job scan E -27.292750063490
  C      -2.701616     -0.674141     -0.104667
  C      -0.495223      0.083028      0.919824
  C       0.750862      0.457831      0.349197
  C       1.153964      0.185789     -1.299358
  C      -1.755989      0.523099      0.338515
  O       3.320590      0.412850     -2.238985
  O       1.054567      1.349442     -0.617821
  O       2.291820     -0.471567     -1.504238
  H      -2.193117     -1.302467     -0.820791
  H      -2.922806     -1.212834      0.808185
  H      -3.575578     -0.204407     -0.537159
  H      -0.411042     -0.583082      1.749883
  H       1.636722      0.203575      1.012732
  H       0.355902     -0.113767     -1.994985
  H      -1.593148      1.128414     -0.538379
  H      -2.380756      1.046455      1.057957
  H       4.085069     -0.119429     -1.983073
17
Coordinates from ORCA-job scan E -27.290679301780
  C      -2.724194     -0.678050     -0.095158
  C      -0.496342      0.074417      0.913169
  C       0.749387      0.458597      0.332265
  C       1.165478      0.194092     -1.299587
  C      -1.756863      0.513932      0.337613
  O       3.332572      0.412773     -2.233655
  O       1.062174      1.355991     -0.622560
  O       2.305967     -0.469156     -1.506162
  H      -2.227091     -1.302950     -0.821309
  H      -2.928270     -1.211976      0.823912
  H      -3.597582     -0.193043     -0.509338
  H      -0.393162     -0.593594      1.739564
  H       1.631094      0.214924      1.009716
  H       0.381806     -0.101575     -2.014654
  H      -1.595193      1.110015     -0.546703
  H      -2.380442      1.045540      1.052472
  H       4.090881     -0.121151     -1.962748
17
Coordinates from ORCA-job scan E -27.289364035300
  C      -2.747036     -0.681071     -0.083606
  C      -0.500443      0.066703      0.905521
  C       0.747434      0.459842      0.317038
  C       1.180752      0.203107     -1.296077
  C      -1.761475      0.506661      0.335649
  O       3.348628      0.414693     -2.223935
  O       1.071005      1.365847     -0.625405
  O       2.326882     -0.464037     -1.504057
  H      -2.262573     -1.303020     -0.820463
  H      -2.934562     -1.214018      0.839192
  H      -3.623679     -0.187896     -0.479401
  H      -0.379799     -0.604050      1.727232
  H       1.619258      0.223314      1.010064
  H       0.414345     -0.090292     -2.031194
  H      -1.601119      1.094314     -0.555247
  H      -2.381616      1.048173      1.047095
  H       4.104217     -0.129483     -1.965571
17
Coordinates from ORCA-job scan E -27.291537473230
  C      -2.723992     -0.678913     -0.093407
  C      -0.495348      0.074390      0.912464
  C       0.749957      0.459522      0.336561
  C       1.166526      0.197791     -1.298615
  C      -1.757632      0.513188      0.335554
  O       3.335040      0.408049     -2.236623
  O       1.063906      1.359263     -0.618586
  O       2.303206     -0.467302     -1.508119
  H      -2.225603     -1.304821     -0.818506
  H      -2.930623     -1.214441      0.824354
  H      -3.599640     -0.199754     -0.509591
  H      -0.395138     -0.595599      1.738973
  H       1.627717      0.216531      1.012341
  H       0.381998     -0.090747     -2.014375
  H      -1.593672      1.109443     -0.550019
  H      -2.378489      1.049594      1.050643
  H       4.092007     -0.127407     -1.966215
17
Coordinates from ORCA-job scan E -27.293320925230
  C      -2.699235     -0.677348     -0.105377
  C      -0.489626      0.082560      0.920371
  C       0.752346      0.461021      0.356401
  C       1.150271      0.193694     -1.299093
  C      -1.753011      0.518522      0.336431
  O       3.318690      0.398535     -2.250322
  O       1.056090      1.352818     -0.611291
  O       2.276408     -0.471029     -1.511073
  H      -2.184323     -1.305404     -0.817829
  H      -2.926191     -1.215868      0.806255
  H      -3.571942     -0.211272     -0.543169
  H      -0.407535     -0.585131      1.751881
  H       1.635543      0.212579      1.015252
  H       0.348173     -0.089296     -1.995636
  H      -1.585441      1.124937     -0.542347
  H      -2.376356      1.048477      1.054474
  H       4.076358     -0.129007     -1.968091
17
Coordinates from ORCA-job scan E -27.296712396140
  C      -2.673043     -0.674376     -0.114576
  C      -0.482359      0.089909      0.922491
  C       0.756769      0.461084      0.377705
  C       1.133787      0.191177     -1.289976
  C      -1.748544      0.524523      0.330640
  O       3.300797      0.388058     -2.261681
  O       1.047369      1.352639     -0.599715
  O       2.249129     -0.469865     -1.504776
  H      -2.145756     -1.305107     -0.817376
  H      -2.917347     -1.221095      0.788512
  H      -3.549081     -0.230470     -0.570302
  H      -0.425280     -0.579642      1.756918
  H       1.640965      0.204733      1.016269
  H       0.312952     -0.085141     -1.963945
  H      -1.575235      1.139802     -0.543082
  H      -2.367478      1.056544      1.052463
  H       4.062575     -0.133986     -1.982733
17
Coordinates from ORCA-job scan E -27.298294679620
  C      -2.649077     -0.671869     -0.124897
  C      -0.477444      0.096913      0.930239
  C       0.759072      0.461284      0.394389
  C       1.118060      0.186240     -1.291449
  C      -1.746235      0.529139      0.332235
  O       3.289026      0.377046     -2.272942
  O       1.037024      1.348095     -0.595518
  O       2.225787     -0.473053     -1.507118
  H      -2.105275     -1.301072     -0.817522
  H      -2.910847     -1.225815      0.769270
  H      -3.522590     -0.241033     -0.598658
  H      -0.439392     -0.571735      1.768113
  H       1.648712      0.205382      1.014994
  H       0.279026     -0.083932     -1.943977
  H      -1.570357      1.155715     -0.534070
  H      -2.366440      1.055487      1.057631
  H       4.051170     -0.138005     -1.983884
17
Coordinates from ORCA-job scan E -27.299217120030
  C      -2.626155     -0.669996     -0.137009
  C      -0.474187      0.105228      0.941526
  C       0.759690      0.462768      0.412984
  C       1.103943      0.179394     -1.294956
  C      -1.744399      0.533551      0.337120
  O       3.276707      0.366873     -2.286526
  O       1.027327      1.341054     -0.592246
  O       2.204222     -0.478350     -1.511729
  H      -2.063923     -1.297206     -0.817522
  H      -2.907908     -1.230641      0.747263
  H      -3.494034     -0.250286     -0.631515
  H      -0.451857     -0.559239      1.784250
  H       1.654414      0.206782      1.018667
  H       0.250272     -0.085464     -1.928680
  H      -1.565749      1.173453     -0.519867
  H      -2.368573      1.051984      1.065392
  H       4.040432     -0.141118     -1.990316
17
Coordinates from ORCA-job scan E -27.300735166790
  C      -2.602431     -0.667302     -0.146964
  C      -0.470543      0.113480      0.948763
  C       0.761254      0.463568      0.435030
  C       1.090428      0.174231     -1.291504
  C      -1.742604      0.538707      0.336300
  O       3.264085      0.358968     -2.298197
  O       1.017519      1.337156     -0.583658
  O       2.182234     -0.479388     -1.509808
  H      -2.025291     -1.294354     -0.816640
  H      -2.901957     -1.237156      0.726279
  H      -3.469059     -0.266689     -0.660603
  H      -0.469777     -0.548620      1.795288
  H       1.657443      0.202207      1.023719
  H       0.221828     -0.084473     -1.904424
  H      -1.559119      1.190146     -0.512735
  H      -2.365448      1.056091      1.067617
  H       4.031658     -0.147785     -2.011626
17
Coordinates from ORCA-job scan E -27.301812931290
  C      -2.583202     -0.664058     -0.155408
  C      -0.469327      0.120732      0.956884
  C       0.761832      0.463071      0.457356
  C       1.081414      0.166661     -1.288360
  C      -1.742756      0.543067      0.336373
  O       3.254644      0.355405     -2.311431
  O       1.008274      1.331486     -0.575609
  O       2.167719     -0.479774     -1.507989
  H      -1.991731     -1.292311     -0.812920
  H      -2.901618     -1.241268      0.706995
  H      -3.446389     -0.281017     -0.689194
  H      -0.489002     -0.537474      1.807830
  H       1.658748      0.196374      1.031966
  H       0.201170     -0.088577     -1.883660
  H      -1.553858      1.205790     -0.504475
  H      -2.363942      1.061157      1.069902
  H       4.028242     -0.150476     -2.041425
17
Coordinates from ORCA-job scan E -27.302454858930
  C      -2.566040     -0.660639     -0.163738
  C      -0.470093      0.128105      0.966280
  C       0.760932      0.462461      0.479130
  C       1.075036      0.157588     -1.287176
  C      -1.744398      0.547491      0.338173
  O       3.248323      0.354135     -2.325097
  O       0.999018      1.323546     -0.568855
  O       2.157617     -0.480592     -1.507394
  H      -1.961000     -1.288770     -0.810316
  H      -2.901394     -1.245585      0.687669
  H      -3.425127     -0.293304     -0.716062
  H      -0.507710     -0.523566      1.823018
  H       1.658440      0.190418      1.041846
  H       0.185260     -0.096559     -1.866858
  H      -1.550916      1.221916     -0.493793
  H      -2.365046      1.064567      1.073878
  H       4.027316     -0.152426     -2.073868
17
Coordinates from ORCA-job scan E -27.302980915540
  C      -2.555866     -0.656712     -0.167028
  C      -0.472197      0.132460      0.970351
  C       0.760295      0.459004      0.498884
  C       1.074476      0.150151     -1.279606
  C      -1.746743      0.551420      0.334453
  O       3.247050      0.362400     -2.332332
  O       0.990703      1.317964     -0.558933
  O       2.157219     -0.474692     -1.499525
  H      -1.944023     -1.288502     -0.805281
  H      -2.903507     -1.247274      0.676398
  H      -3.414357     -0.307193     -0.733080
  H      -0.529215     -0.514236      1.831368
  H       1.655320      0.177466      1.050791
  H       0.178330     -0.107237     -1.845758
  H      -1.546608      1.232079     -0.492675
  H      -2.361636      1.076064      1.070992
  H       4.030981     -0.154376     -2.122183
17
Coordinates from ORCA-job scan E -27.303068237800
  C      -2.543498     -0.653736     -0.175013
  C      -0.476430      0.140166      0.983503
  C       0.756039      0.459080      0.517115
  C       1.072864      0.139002     -1.287706
  C      -1.751243      0.555620      0.342060
  O       3.248379      0.361764     -2.348579
  O       0.982710      1.304884     -0.557818
  O       2.153756     -0.479058     -1.507234
  H      -1.918815     -1.281161     -0.805759
  H      -2.903265     -1.252327      0.658012
  H      -3.396260     -0.312440     -0.755207
  H      -0.543215     -0.495398      1.852767
  H       1.653185      0.174812      1.062055
  H       0.170485     -0.120416     -1.842899
  H      -1.549336      1.248347     -0.475209
  H      -2.369969      1.072723      1.080940
  H       4.034833     -0.153076     -2.144191
17
Coordinates from ORCA-job scan E -27.303189755160
  C      -2.553783     -0.652084     -0.167583
  C      -0.480174      0.135951      0.977301
  C       0.755739      0.452563      0.519742
  C       1.084232      0.139025     -1.275612
  C      -1.752919      0.555717      0.332491
  O       3.258255      0.384587     -2.336340
  O       0.981854      1.306031     -0.549840
  O       2.173481     -0.465055     -1.492557
  H      -1.937854     -1.288232     -0.798956
  H      -2.911301     -1.245964      0.670121
  H      -3.411351     -0.316923     -0.744824
  H      -0.554197     -0.500954      1.845574
  H       1.647853      0.159740      1.064223
  H       0.186232     -0.130819     -1.831568
  H      -1.544723      1.239667     -0.491323
  H      -2.362939      1.089684      1.067446
  H       4.041817     -0.154149     -2.191461
17
Coordinates from ORCA-job scan E -27.303264696250
  C      -2.556585     -0.649313     -0.167071
  C      -0.487843      0.137409      0.982208
  C       0.750316      0.448212      0.529641
  C       1.095698      0.131734     -1.274745
  C      -1.758001      0.558576      0.332227
  O       3.271189      0.403527     -2.334550
  O       0.976529      1.296821     -0.546208
  O       2.192086     -0.457414     -1.488156
  H      -1.941916     -1.284262     -0.801193
  H      -2.911551     -1.246540      0.669609
  H      -3.417073     -0.318149     -0.742704
  H      -0.567987     -0.492244      1.855493
  H       1.640977      0.150348      1.073103
  H       0.199507     -0.151771     -1.827050
  H      -1.545351      1.241456     -0.491437
  H      -2.366982      1.096595      1.065013
  H       4.047206     -0.156197     -2.237345
17
Coordinates from ORCA-job scan E -27.303326032680
  C      -2.567937     -0.647609     -0.161436
  C      -0.493940      0.134250      0.979232
  C       0.746508      0.443108      0.529679
  C       1.111195      0.129972     -1.267661
  C      -1.761152      0.559238      0.326299
  O       3.286190      0.424759     -2.323165
  O       0.975096      1.294461     -0.542906
  O       2.216743     -0.445230     -1.477412
  H      -1.964497     -1.281380     -0.807410
  H      -2.908159     -1.246394      0.680299
  H      -3.438335     -0.315837     -0.721726
  H      -0.576019     -0.494843      1.852702
  H       1.634328      0.142395      1.075951
  H       0.220706     -0.169012     -1.821451
  H      -1.543810      1.232523     -0.503831
  H      -2.365709      1.107350      1.055146
  H       4.049010     -0.158965     -2.275476
17
Coordinates from ORCA-job scan E -27.303372214710
  C      -2.579840     -0.646388     -0.155523
  C      -0.499092      0.130746      0.975582
  C       0.742938      0.439364      0.529662
  C       1.126539      0.129490     -1.261327
  C      -1.763675      0.558925      0.319463
  O       3.301481      0.442384     -2.313661
  O       0.974644      1.293154     -0.539931
  O       2.239273     -0.433908     -1.468194
  H      -1.989843     -1.276261     -0.817501
  H      -2.900650     -1.249122      0.691001
  H      -3.462693     -0.312962     -0.694955
  H      -0.583692     -0.499296      1.848063
  H       1.628706      0.137777      1.078608
  H       0.240762     -0.182904     -1.815910
  H      -1.541290      1.221588     -0.517691
  H      -2.363087      1.117923      1.044253
  H       4.049740     -0.161723     -2.305104
17
Coordinates from ORCA-job scan E -27.303400652950
  C      -2.589254     -0.646063     -0.150635
  C      -0.501575      0.127541      0.971997
  C       0.741187      0.437964      0.529335
  C       1.136263      0.130085     -1.258193
  C      -1.764693      0.557516      0.313938
  O       3.311822      0.451452     -2.308970
  O       0.975554      1.293247     -0.538511
  O       2.252300     -0.427603     -1.463655
  H      -2.010761     -1.272151     -0.826175
  H      -2.893821     -1.252440      0.699244
  H      -3.482077     -0.310360     -0.671834
  H      -0.588222     -0.504498      1.842793
  H       1.626277      0.137000      1.079968
  H       0.252841     -0.188825     -1.813267
  H      -1.538849      1.212151     -0.528565
  H      -2.359468      1.125520      1.035686
  H       4.052695     -0.161750     -2.316320
17
Coordinates from ORCA-job scan E -27.303428042710
  C      -2.600162     -0.645902     -0.144255
  C      -0.503026      0.123059      0.966188
  C       0.740295      0.437166      0.527963
  C       1.145032      0.131313     -1.256031
  C      -1.764784      0.555166      0.306733
  O       3.321845      0.458362     -2.304743
  O       0.977534      1.294207     -0.537851
  O       2.263096     -0.422678     -1.460069
  H      -2.037386     -1.267195     -0.837196
  H      -2.883627     -1.257083      0.709438
  H      -3.505395     -0.307116     -0.641362
  H      -0.591933     -0.512225      1.834339
  H       1.624911      0.137463      1.080259
  H       0.263329     -0.191749     -1.811810
  H      -1.535886      1.200370     -0.542195
  H      -2.353016      1.134374      1.025157
  H       4.059394     -0.158746     -2.317727
17
Coordinates from ORCA-job scan E -27.303449390600
  C      -2.609745     -0.645744     -0.137989
  C      -0.503212      0.118535      0.960069
  C       0.740581      0.436527      0.525791
  C       1.150434      0.132150     -1.256163
  C      -1.764076      0.552728      0.300311
  O       3.328542      0.461979     -2.302241
  O       0.979827      1.294953     -0.538469
  O       2.269172     -0.420654     -1.458869
  H      -2.061896     -1.263752     -0.845610
  H      -2.875001     -1.260443      0.719004
  H      -3.525136     -0.303898     -0.613852
  H      -0.593525     -0.519682      1.825895
  H       1.624895      0.137829      1.079379
  H       0.269743     -0.191910     -1.813147
  H      -1.533484      1.189919     -0.554225
  H      -2.345803      1.142087      1.016054
  H       4.068905     -0.151839     -2.309102
17
Coordinates from ORCA-job scan E -27.303468984550
  C      -2.620079     -0.645281     -0.130400
  C      -0.502546      0.113074      0.952538
  C       0.741738      0.435168      0.522266
  C       1.154414      0.132617     -1.258165
  C      -1.762655      0.549940      0.293328
  O       3.333718      0.464372     -2.300710
  O       0.982424      1.295249     -0.540220
  O       2.273325     -0.420030     -1.459350
  H      -2.088960     -1.261292     -0.852316
  H      -2.867010     -1.262507      0.730228
  H      -3.545164     -0.299915     -0.584382
  H      -0.593754     -0.528148      1.816030
  H       1.625592      0.137110      1.077075
  H       0.274681     -0.190764     -1.817098
  H      -1.530947      1.178411     -0.567365
  H      -2.336526      1.150530      1.006378
  H       4.081967     -0.139746     -2.291001
17
Coordinates from ORCA-job scan E -27.303483885690
  C      -2.628858     -0.644468     -0.123374
  C      -0.501628      0.108141      0.946037
  C       0.743118      0.432910      0.518563
  C       1.156915      0.132257     -1.261446
  C      -1.761214      0.547644      0.287828
  O       3.336718      0.466032     -2.300932
  O       0.984408      1.294438     -0.542505
  O       2.276085     -0.420225     -1.461370
  H      -2.111186     -1.260798     -0.854701
  H      -2.863196     -1.262053      0.740501
  H      -3.560249     -0.295929     -0.561710
  H      -0.593161     -0.535127      1.807980
  H       1.626455      0.134721      1.074192
  H       0.278162     -0.190040     -1.822461
  H      -1.528788      1.168705     -0.578052
  H      -2.327982      1.157795      0.998690
  H       4.094622     -0.125217     -2.270405
17
Coordinates from ORCA-job scan E -27.303498330950
  C      -2.638738     -0.643040     -0.114911
  C      -0.500466      0.102321      0.938754
  C       0.744802      0.429096      0.513824
  C       1.159475      0.131122     -1.266225
  C      -1.759507      0.545208      0.282017
  O       3.339090      0.467918     -2.302925
  O       0.986392      1.292418     -0.545591
  O       2.279306     -0.420618     -1.464956
  H      -2.135157     -1.261769     -0.854003
  H      -2.862044     -1.259198      0.752889
  H      -3.575365     -0.290744     -0.538805
  H      -0.592259     -0.542879      1.799248
  H       1.627436      0.130050      1.070076
  H       0.282010     -0.190103     -1.829669
  H      -1.526277      1.157687     -0.589749
  H      -2.317848      1.166179      0.990404
  H       4.109371     -0.104860     -2.243541
17
Coordinates from ORCA-job scan E -27.303510568040
  C      -2.647804     -0.641228     -0.106809
  C      -0.499514      0.096823      0.932427
  C       0.746248      0.424405      0.509281
  C       1.162141      0.129284     -1.271297
  C      -1.758031      0.543198      0.277166
  O       3.340698      0.469986     -2.306609
  O       0.988053      1.289398     -0.548678
  O       2.283084     -0.420880     -1.469278
  H      -2.155761     -1.264092     -0.850192
  H      -2.864257     -1.254284      0.764915
  H      -3.587452     -0.285305     -0.520854
  H      -0.591715     -0.549812      1.791827
  H       1.628202      0.123879      1.065757
  H       0.285974     -0.191624     -1.836701
  H      -1.523951      1.147631     -0.599978
  H      -2.308431      1.174058      0.983191
  H       4.122736     -0.082654     -2.217332
17
Coordinates from ORCA-job scan E -27.303522631730
  C      -2.657675     -0.638743     -0.097689
  C      -0.498567      0.090596      0.925794
  C       0.747735      0.418198      0.504184
  C       1.165510      0.126504     -1.277195
  C      -1.756441      0.541205      0.272229
  O       3.341880      0.472376     -2.312477
  O       0.989951      1.285062     -0.552155
  O       2.288062     -0.421166     -1.474824
  H      -2.176863     -1.268079     -0.842976
  H      -2.869812     -1.246531      0.778776
  H      -3.598953     -0.278640     -0.504354
  H      -0.591532     -0.557484      1.784047
  H       1.628947      0.115404      1.060521
  H       0.290711     -0.194743     -1.844230
  H      -1.521392      1.136666     -0.610778
  H      -2.297973      1.182836      0.975532
  H       4.136632     -0.054676     -2.187568
17
Coordinates from ORCA-job scan E -27.303532656970
  C      -2.665976     -0.636186     -0.089833
  C      -0.497832      0.085089      0.920469
  C       0.748939      0.412031      0.499838
  C       1.168816      0.123404     -1.282344
  C      -1.755061      0.539698      0.268401
  O       3.342258      0.474389     -2.319189
  O       0.991807      1.280483     -0.555093
  O       2.293003     -0.421558     -1.480218
  H      -2.193226     -1.272938     -0.833983
  H      -2.877598     -1.237565      0.791173
  H      -3.607029     -0.272348     -0.493699
  H      -0.591774     -0.564204      1.777712
  H       1.629561      0.106736      1.055691
  H       0.294994     -0.198731     -1.850111
  H      -1.519203      1.127521     -0.619502
  H      -2.289018      1.190357      0.969277
  H       4.147559     -0.027389     -2.161751
17
Coordinates from ORCA-job scan E -27.303541846410
  C      -2.673582     -0.633373     -0.082451
  C      -0.497092      0.079665      0.915710
  C       0.750131      0.405459      0.495728
  C       1.172163      0.119775     -1.287209
  C      -1.753606      0.538442      0.265144
  O       3.341742      0.475929     -2.327134
  O       0.993926      1.275419     -0.557799
  O       2.297974     -0.422340     -1.485943
  H      -2.206848     -1.279069     -0.822687
  H      -2.887953     -1.226644      0.803384
  H      -3.612795     -0.265899     -0.487335
  H      -0.592209     -0.570863      1.771888
  H       1.630239      0.097318      1.050789
  H       0.298931     -0.203540     -1.854942
  H      -1.517064      1.119213     -0.627218
  H      -2.280476      1.197386      0.963693
  H       4.156738      0.001909     -2.136781
17
Coordinates from ORCA-job scan E -27.303549138650
  C      -2.678805     -0.630986     -0.077231
  C      -0.496429      0.075523      0.912533
  C       0.751135      0.400037      0.492726
  C       1.174609      0.116449     -1.290743
  C      -1.752326      0.537700      0.263190
  O       3.340272      0.476508     -2.334519
  O       0.995853      1.271083     -0.559717
  O       2.301579     -0.423485     -1.490798
  H      -2.214755     -1.285093     -0.811755
  H      -2.898474     -1.216268      0.812616
  H      -3.615013     -0.260823     -0.486622
  H      -0.592528     -0.576010      1.767829
  H       1.630920      0.089400      1.046908
  H       0.301393     -0.207892     -1.857701
  H      -1.515376      1.113676     -0.632181
  H      -2.274218      1.202332      0.960113
  H       4.162382      0.026635     -2.117812
17
Coordinates from ORCA-job scan E -27.303555412210
  C      -2.682201     -0.628892     -0.073639
  C      -0.495722      0.072316      0.910522
  C       0.752099      0.395403      0.490471
  C       1.176179      0.113226     -1.293428
  C      -1.751085      0.537372      0.262262
  O       3.337768      0.476112     -2.341809
  O       0.997656      1.267197     -0.561156
  O       2.303892     -0.425123     -1.495258
  H      -2.218250     -1.291162     -0.800881
  H      -2.909354     -1.206091      0.819605
  H      -3.614375     -0.256784     -0.490427
  H      -0.592577     -0.580037      1.765093
  H       1.631694      0.082497      1.043688
  H       0.302463     -0.211892     -1.858988
  H      -1.513916      1.110327     -0.635004
  H      -2.269567      1.205735      0.958172
  H       4.165517      0.048583     -2.102387
17
Coordinates from ORCA-job scan E -27.303560316000
  C      -2.683272     -0.627487     -0.072232
  C      -0.495060      0.070619      0.909959
  C       0.752884      0.392383      0.489227
  C       1.176488      0.110671     -1.294941
  C      -1.750104      0.537514      0.262508
  O       3.334630      0.474776     -2.347788
  O       0.998941      1.264453     -0.562020
  O       2.304422     -0.426974     -1.498637
  H      -2.217086     -1.296003     -0.792299
  H      -2.918376     -1.198218      0.823106
  H      -3.611268     -0.254475     -0.497461
  H      -0.592218     -0.582174      1.764145
  H       1.632448      0.077846      1.041592
  H       0.301912     -0.214798     -1.858841
  H      -1.512910      1.109703     -0.635253
  H      -2.267278      1.207077      0.958227
  H       4.166066      0.063873     -2.092459
17
Coordinates from ORCA-job scan E -27.303564633940
  C      -2.682459     -0.626544     -0.072522
  C      -0.494381      0.070129      0.910568
  C       0.753568      0.390476      0.488700
  C       1.175682      0.108414     -1.295770
  C      -1.749293      0.538104      0.263766
  O       3.330708      0.472451     -2.353267
  O       0.999801      1.262368     -0.562610
  O       2.303421     -0.429196     -1.501486
  H      -2.212115     -1.299888     -0.785357
  H      -2.926110     -1.192042      0.823845
  H      -3.606037     -0.253445     -0.507192
  H      -0.591493     -0.582711      1.764711
  H       1.633231      0.074714      1.040219
  H       0.299913     -0.217070     -1.857706
  H      -1.512208      1.111354     -0.633356
  H      -2.266781      1.206849      0.960009
  H       4.164772      0.074824     -2.085716
17
Coordinates from ORCA-job scan E -27.303568346150
  C      -2.679968     -0.626131     -0.074368
  C      -0.493755      0.070885      0.912218
  C       0.754075      0.389819      0.488807
  C       1.173868      0.106622     -1.295933
  C      -1.748758      0.539077      0.265878
  O       3.326413      0.469349     -2.357798
  O       1.000119      1.261094     -0.563007
  O       2.301087     -0.431566     -1.503543
  H      -2.204213     -1.302232     -0.780981
  H      -2.931545     -1.188394      0.821835
  H      -3.599501     -0.253659     -0.518057
  H      -0.590467     -0.581566      1.766697
  H       1.633963      0.073333      1.039569
  H       0.296788     -0.218608     -1.855900
  H      -1.511902      1.114995     -0.629602
  H      -2.268059      1.205164      0.963272
  H       4.162074      0.080605     -2.082251
17
Coordinates from ORCA-job scan E -27.303571967240
  C      -2.675676     -0.626113     -0.077787
  C      -0.493129      0.072893      0.914977
  C       0.754441      0.390188      0.489463
  C       1.170952      0.104984     -1.295612
  C      -1.748452      0.540534      0.268973
  O       3.321323      0.465111     -2.362063
  O       0.999935      1.260325     -0.563372
  O       2.297321     -0.434370     -1.505125
  H      -2.192999     -1.303144     -0.778796
  H      -2.935058     -1.186935      0.817083
  H      -3.591283     -0.254949     -0.530594
  H      -0.589135     -0.578649      1.770225
  H       1.634701      0.073349      1.039428
  H       0.292353     -0.219768     -1.853417
  H      -1.511975      1.120812     -0.623792
  H      -2.271071      1.202012      0.968196
  H       4.157971      0.082505     -2.080950
17
Coordinates from ORCA-job scan E -27.303575408530
  C      -2.669975     -0.626464     -0.082478
  C      -0.492584      0.076019      0.918615
  C       0.754604      0.391553      0.490548
  C       1.167220      0.103590     -1.294826
  C      -1.748438      0.542349      0.272787
  O       3.315858      0.460041     -2.365724
  O       0.999243      1.260107     -0.563750
  O       2.292538     -0.437387     -1.506021
  H      -2.179598     -1.302294     -0.779292
  H      -2.936032     -1.188024      0.809956
  H      -3.582274     -0.257094     -0.543349
  H      -0.587630     -0.574131      1.775027
  H       1.635373      0.074768      1.039738
  H       0.287088     -0.220591     -1.850507
  H      -1.512488      1.128278     -0.616420
  H      -2.275608      1.197638      0.974325
  H       4.152923      0.080428     -2.081792
17
Coordinates from ORCA-job scan E -27.303578919390
  C      -2.662562     -0.627131     -0.088666
  C      -0.492116      0.080416      0.923310
  C       0.754537      0.393917      0.492096
  C       1.162527      0.102262     -1.293551
  C      -1.748730      0.544625      0.277494
  O       3.309668      0.453794     -2.369112
  O       0.997994      1.260328     -0.564205
  O       2.286569     -0.440825     -1.506270
  H      -2.163427     -1.299451     -0.782652
  H      -2.934281     -1.191781      0.800095
  H      -3.572122     -0.260082     -0.556740
  H      -0.585939     -0.567731      1.781374
  H       1.635989      0.077584      1.040454
  H       0.280769     -0.221307     -1.846981
  H      -1.513509      1.137738     -0.607130
  H      -2.281876      1.191815      0.981905
  H       4.146729      0.074616     -2.084585
17
Coordinates from ORCA-job scan E -27.303582255180
  C      -2.654426     -0.627971     -0.095560
  C      -0.491835      0.085521      0.928480
  C       0.754210      0.396939      0.493904
  C       1.157567      0.101079     -1.291917
  C      -1.749323      0.547058      0.282479
  O       3.303519      0.447161     -2.371870
  O       0.996338      1.260886     -0.564707
  O       2.280341     -0.444250     -1.505782
  H      -2.146704     -1.294774     -0.788634
  H      -2.929821     -1.197796      0.788750
  H      -3.562296     -0.263416     -0.568826
  H      -0.584323     -0.560218      1.788502
  H       1.636443      0.081399      1.041472
  H       0.274328     -0.222045     -1.843224
  H      -1.514948      1.147932     -0.597114
  H      -2.289098      1.185271      0.989893
  H       4.140247      0.066011     -2.089009
17
Coordinates from ORCA-job scan E -27.303585460400
  C      -2.645725     -0.628907     -0.103027
  C      -0.491764      0.091203      0.934025
  C       0.753617      0.400486      0.495943
  C       1.152489      0.099980     -1.289936
  C      -1.750202      0.549601      0.287634
  O       3.297445      0.440249     -2.374083
  O       0.994319      1.261689     -0.565236
  O       2.274055     -0.447619     -1.504584
  H      -2.129751     -1.288316     -0.797075
  H      -2.922747     -1.205817      0.776162
  H      -3.552996     -0.266984     -0.579442
  H      -0.582837     -0.551741      1.796288
  H       1.636706      0.086044      1.042769
  H       0.267912     -0.222946     -1.839200
  H      -1.516773      1.158648     -0.586569
  H      -2.297106      1.178130      0.998095
  H       4.133578      0.055087     -2.094927
17
Coordinates from ORCA-job scan E -27.303588271930
  C      -2.637898     -0.629759     -0.109867
  C      -0.491937      0.096523      0.939069
  C       0.752851      0.403928      0.497908
  C       1.148175      0.099074     -1.287922
  C      -1.751224      0.551854      0.292137
  O       3.292392      0.434199     -2.375507
  O       0.992290      1.262533     -0.565690
  O       2.268823     -0.450392     -1.502911
  H      -2.115303     -1.281149     -0.806518
  H      -2.914325     -1.214402      0.764388
  H      -3.545728     -0.270213     -0.587009
  H      -0.581743     -0.543673      1.803508
  H       1.636722      0.090686      1.044162
  H       0.262602     -0.223996     -1.835486
  H      -1.518662      1.168170     -0.577185
  H      -2.304605      1.171571      1.005192
  H       4.127790      0.043833     -2.101433
17
Coordinates from ORCA-job scan E -27.303590768340
  C      -2.630965     -0.630526     -0.116058
  C      -0.492319      0.101432      0.943590
  C       0.751956      0.407212      0.499791
  C       1.144613      0.098355     -1.285879
  C      -1.752347      0.553828      0.295992
  O       3.288301      0.429034     -2.376222
  O       0.990308      1.263406     -0.566036
  O       2.264618     -0.452580     -1.500853
  H      -2.103250     -1.273531     -0.816618
  H      -2.904934     -1.223256      0.753517
  H      -3.540335     -0.273156     -0.591898
  H      -0.581005     -0.536116      1.810098
  H       1.636514      0.095226      1.045649
  H       0.258341     -0.225159     -1.832042
  H      -1.520552      1.176520     -0.568975
  H      -2.311536      1.165644      1.011225
  H       4.122812      0.032455     -2.108445
17
Coordinates from ORCA-job scan E -27.303602816480
  C      -2.636132     -0.632727     -0.115881
  C      -0.496575      0.100336      0.942264
  C       0.748823      0.409867      0.503184
  C       1.152149      0.102633     -1.280055
  C      -1.755290      0.551477      0.291277
  O       3.297896      0.442328     -2.364572
  O       0.988021      1.266866     -0.561630
  O       2.277201     -0.441616     -1.491032
  H      -2.119094     -1.265440     -0.833551
  H      -2.889741     -1.236009      0.752648
  H      -3.556575     -0.275144     -0.569770
  H      -0.586180     -0.536547      1.809186
  H       1.632225      0.099205      1.051578
  H       0.270115     -0.227517     -1.829010
  H      -1.521034      1.169877     -0.576103
  H      -2.313429      1.167836      1.003540
  H       4.127840      0.013361     -2.135238
17
Coordinates from ORCA-job scan E -27.303602988620
  C      -2.636382     -0.632571     -0.115706
  C      -0.496566      0.100254      0.942263
  C       0.748836      0.409390      0.502977
  C       1.152469      0.102577     -1.280200
  C      -1.755264      0.551509      0.291291
  O       3.297270      0.441204     -2.366094
  O       0.988310      1.266830     -0.561730
  O       2.277448     -0.442035     -1.490686
  H      -2.119551     -1.265427     -0.833387
  H      -2.890044     -1.235721      0.752895
  H      -3.556790     -0.274804     -0.569528
  H      -0.586382     -0.536733      1.809079
  H       1.632321      0.098759      1.051222
  H       0.270639     -0.228005     -1.829207
  H      -1.520999      1.169759     -0.576180
  H      -2.313282      1.168015      1.003501
  H       4.128186      0.015788     -2.133674
17
Coordinates from ORCA-job scan E -27.303602992930
  C      -2.636433     -0.632533     -0.115612
  C      -0.496575      0.100165      0.942195
  C       0.748807      0.409331      0.502867
  C       1.152469      0.102525     -1.280291
  C      -1.755264      0.551520      0.291287
  O       3.297372      0.441312     -2.365958
  O       0.988206      1.266781     -0.561851
  O       2.277496     -0.442017     -1.490713
  H      -2.119667     -1.265428     -0.833304
  H      -2.890077     -1.235644      0.753023
  H      -3.556844     -0.274732     -0.569394
  H      -0.586366     -0.536842      1.808996
  H       1.632323      0.098749      1.051087
  H       0.270691     -0.228128     -1.829335
  H      -1.520977      1.169716     -0.576218
  H      -2.313221      1.168083      1.003507
  H       4.128280      0.015927     -2.133449
