15
Coordinates from ORCA-job freq E -271.052790298743
  C           2.27926717606450      0.66490486023562     -0.02514925137388
  C          -0.09194506830921      0.07517494778408      0.54852619973613
  C           1.23344249631936     -0.43875036628586      0.11128298617306
  C          -2.64408845716689      0.09041025675370      0.32664954836407
  C          -1.34073345037898     -0.59325311395118      0.21925168335232
  O          -2.25809740027673     -0.84990896647624      1.29999515618016
  H           2.40988764140337      1.18898194977143      0.92222068264103
  H           3.24577345299349      0.25879505758788     -0.32076835438028
  H           1.97244723738178      1.39749826480503     -0.77166648255462
  H          -0.13412041397627      0.87053800679563      1.28353915033773
  H           1.12488070391873     -0.97351241863244     -0.83624172684714
  H           1.59745598617231     -1.18564377925587      0.83071043400491
  H          -2.66131566037334      1.12322339580641      0.65813129716952
  H          -3.45792006487150     -0.21324602024461     -0.32280944485517
  H          -1.27493717890063     -1.41521207469355     -0.48687887794783
