15
Coordinates from ORCA-job freq E -270.988289214420
  C           2.21551344947695     -0.86750945853588      0.05838147647703
  C          -2.06959257429377     -0.12713303008168     -0.12591776569711
  C           1.06002559726014      0.01438922827754     -0.24775842176557
  C          -1.21363367464897      0.51806170612607      0.92225036662364
  C           0.26140007170239      0.58179187071537      0.84682496848764
  O          -0.54646989899127      1.71792068169814      0.56659061140311
  H           2.27870318749478      0.39839053341418     -0.25254183449293
  H           2.47403602706921     -1.05917389253152      1.08808531514554
  H           2.62079989261189     -1.49594879080762     -0.71689048288179
  H          -3.00890487222983      0.41644068641696     -0.22893461229728
  H          -1.57156824470734     -0.13276599384823     -1.09285058319906
  H          -2.30069329535848     -1.15490871907515      0.15527688896376
  H           0.66003858083497      0.00044885445413     -1.25041143663522
  H          -1.64908676972020      0.54697475375577      1.91835787883312
  H           0.78943052349958      0.64302157002190      1.79632963103513
