15
Coordinates from ORCA-job neb E -19.212249291940
  C          -2.27408658194902      0.23211465507509      0.01900372774655
  C           1.53410474065019     -0.31627580882507      0.12144934172468
  C           2.76088755717391      0.32310029752152     -0.16962626558722
  C          -0.92919909529336     -0.25615063913818      0.54199051770296
  C           0.21374468878781      0.16563686585063     -0.38616779046103
  O           2.93043300941969     -0.71716507132753     -0.93659464138522
  H          -2.28360745737327      1.31698563567583     -0.05793418963556
  H          -3.07488750195209     -0.07071223914753      0.68914252805312
  H          -2.47508568687089     -0.18308617127026     -0.96599865494886
  H           1.53861507928831     -1.29073458970271      0.59862065780894
  H           3.48492586012440      0.98786506400002      0.25281375187662
  H          -0.75332002627015      0.15460133577073      1.53822691685423
  H          -0.94330831727386     -1.34447429239200      0.62631559877545
  H           0.23903216663403      1.25317518334020     -0.49064888244643
  H           0.03175156490429     -0.25488022543074     -1.38059261607822
