15
Coordinates from ORCA-job neb_reactant E -19.239343229030
  C      -2.177179      0.195873      0.232782
  C       1.627169     -0.143121      0.651744
  C       2.856962      0.065082     -0.073814
  C      -0.848377     -0.436226      0.613315
  C       0.333115      0.425712      0.168226
  O       2.201308     -1.146828     -0.179263
  H      -2.293077      1.177973      0.702193
  H      -3.006534     -0.437940      0.561945
  H      -2.255536      0.321557     -0.851824
  H       1.705960     -0.236505      1.725912
  H       2.977253      0.440096     -1.082875
  H      -0.814977     -0.582953      1.699542
  H      -0.776102     -1.430994      0.157614
  H       0.210126      1.445123      0.553511
  H       0.356633      0.502977     -0.926378
15
Coordinates from ORCA-job neb_reactant E -19.243087498100
  C      -2.186606      0.194016      0.228951
  C       1.638292     -0.142336      0.644455
  C       2.869740      0.045755     -0.095843
  C      -0.854237     -0.429557      0.618967
  C       0.327201      0.430712      0.169717
  O       2.209911     -1.164375     -0.162573
  H      -2.303518      1.175556      0.684743
  H      -3.011380     -0.434220      0.559785
  H      -2.259856      0.308564     -0.850770
  H       1.715564     -0.269948      1.719648
  H       2.994428      0.478755     -1.078818
  H      -0.818186     -0.562061      1.703500
  H      -0.771712     -1.422278      0.170161
  H       0.209529      1.445783      0.561959
  H       0.337574      0.505459     -0.921252
15
Coordinates from ORCA-job neb_reactant E -19.245336308460
  C      -2.193647      0.190556      0.224477
  C       1.642018     -0.139460      0.630689
  C       2.871994      0.015828     -0.124551
  C      -0.858979     -0.422907      0.628563
  C       0.319964      0.437356      0.170666
  O       2.212144     -1.182819     -0.149908
  H      -2.310098      1.177287      0.664708
  H      -3.016101     -0.433702      0.560489
  H      -2.258390      0.289014     -0.855566
  H       1.720453     -0.305887      1.702881
  H       3.017942      0.530646     -1.059014
  H      -0.820439     -0.534215      1.713919
  H      -0.763350     -1.416509      0.188298
  H       0.216642      1.446740      0.575405
  H       0.316591      0.507897     -0.918427
15
Coordinates from ORCA-job neb_reactant E -19.245661062560
  C      -2.194401      0.186762      0.220253
  C       1.639838     -0.138326      0.624020
  C       2.867158     -0.000252     -0.137425
  C      -0.860040     -0.419377      0.635994
  C       0.317808      0.441889      0.174973
  O       2.202632     -1.188315     -0.159960
  H      -2.314616      1.177142      0.652943
  H      -3.016948     -0.438103      0.557082
  H      -2.252323      0.276691     -0.861684
  H       1.724825     -0.314892      1.694175
  H       3.033204      0.546779     -1.048906
  H      -0.825284     -0.519265      1.722805
  H      -0.757762     -1.416162      0.203662
  H       0.223864      1.448407      0.588980
  H       0.308789      0.516848     -0.914281
15
Coordinates from ORCA-job neb_reactant E -19.245789304540
  C      -2.193841      0.182456      0.215475
  C       1.637366     -0.136997      0.620477
  C       2.860920     -0.012328     -0.147183
  C      -0.859881     -0.416012      0.642592
  C       0.316788      0.447111      0.181765
  O       2.188377     -1.190865     -0.175025
  H      -2.320439      1.175075      0.642536
  H      -3.016202     -0.444431      0.550995
  H      -2.245435      0.266224     -0.867842
  H       1.730935     -0.316784      1.688977
  H       3.047958      0.549046     -1.045567
  H      -0.831073     -0.508163      1.730534
  H      -0.751401     -1.415729      0.217724
  H       0.228899      1.450986      0.604496
  H       0.303773      0.530238     -0.907325
15
Coordinates from ORCA-job neb_reactant E -19.245840426140
  C      -2.193092      0.178841      0.211581
  C       1.636396     -0.135070      0.619996
  C       2.855598     -0.019553     -0.154072
  C      -0.859037     -0.413418      0.646553
  C       0.316417      0.452403      0.188532
  O       2.175133     -1.192112     -0.185517
  H      -2.325969      1.172123      0.635632
  H      -3.014784     -0.450498      0.544916
  H      -2.240428      0.259598     -0.872321
  H       1.737169     -0.314933      1.687424
  H       3.058898      0.541933     -1.048609
  H      -0.835541     -0.502661      1.735010
  H      -0.745343     -1.414466      0.225797
  H       0.230107      1.454041      0.617753
  H       0.301220      0.543599     -0.900045
15
Coordinates from ORCA-job neb_reactant E -19.245859349330
  C      -2.192628      0.176585      0.209411
  C       1.636711     -0.132780      0.621196
  C       2.851962     -0.023040     -0.158466
  C      -0.858050     -0.412057      0.647602
  C       0.316301      0.456766      0.193210
  O       2.166302     -1.193271     -0.188125
  H      -2.329606      1.169483      0.632933
  H      -3.013453     -0.454821      0.540871
  H      -2.238140      0.257057     -0.874524
  H       1.741787     -0.311325      1.688241
  H       3.064724      0.532184     -1.054269
  H      -0.837604     -0.502198      1.736067
  H      -0.740768     -1.412797      0.227068
  H       0.228598      1.456717      0.626276
  H       0.300609      0.553323     -0.894861
15
Coordinates from ORCA-job neb_reactant E -19.245865852890
  C      -2.192465      0.175601      0.208793
  C       1.637362     -0.130658      0.622696
  C       2.849853     -0.024497     -0.160865
  C      -0.857262     -0.411838      0.646729
  C       0.316266      0.459584      0.195385
  O       2.162014     -1.194571     -0.185185
  H      -2.331099      1.167711      0.633418
  H      -3.012568     -0.457195      0.539087
  H      -2.237873      0.257414     -0.874954
  H       1.744288     -0.306931      1.689914
  H       3.066472      0.524259     -1.059288
  H      -0.837675     -0.504644      1.734954
  H      -0.738112     -1.411407      0.224034
  H       0.226384      1.458416      0.630315
  H       0.301162      0.558584     -0.892404
15
Coordinates from ORCA-job neb_reactant E -19.245867778710
  C      -2.192465      0.175399      0.209003
  C       1.637762     -0.129116      0.623759
  C       2.848876     -0.025201     -0.161871
  C      -0.856795     -0.412255      0.645262
  C       0.316258      0.460915      0.195846
  O       2.160672     -1.195713     -0.180749
  H      -2.331240      1.166742      0.635284
  H      -3.012137     -0.458207      0.538654
  H      -2.238436      0.259015     -0.874548
  H       1.745262     -0.302605      1.691419
  H       3.066105      0.519470     -1.062382
  H      -0.836875     -0.507698      1.733225
  H      -0.737046     -1.410632      0.220000
  H       0.224776      1.459107      0.631585
  H       0.302025      0.560606     -0.891858
15
Coordinates from ORCA-job neb_reactant E -19.245868415780
  C      -2.192482      0.175412      0.209328
  C       1.637903     -0.128040      0.624384
  C       2.848429     -0.025879     -0.162316
  C      -0.856528     -0.412766      0.644015
  C       0.316255      0.461512      0.195789
  O       2.160241     -1.196591     -0.177184
  H      -2.331064      1.166120      0.637145
  H      -3.011911     -0.458762      0.538466
  H      -2.238942      0.260654     -0.874078
  H       1.745735     -0.298753      1.692496
  H       3.065302      0.516557     -1.064179
  H      -0.836093     -0.510170      1.731784
  H      -0.736649     -1.410274      0.216782
  H       0.223873      1.459297      0.632090
  H       0.302676      0.561509     -0.891892
