15
Coordinates from ORCA-job neb_product E -19.279376589430
  C          -1.67564890356429     -0.09994017644072      0.76011144060004
  C           1.30921333200770     -0.11967135444409      0.07227509957078
  C           2.12954877374991      0.99378525146024      0.37261568709018
  C          -1.05503741530213     -0.76991090856290     -0.45914478907616
  C           0.21366318715300     -0.03297951410765     -0.90556406894492
  O           1.99062368983016      2.11599029408230     -0.10598510355398
  H          -1.92483521266114      0.93534851658634      0.53958918449781
  H          -0.97945226088916     -0.11077569977699      1.59593776185151
  H          -2.58497974889275     -0.61727500915012      1.05705719519395
  H           1.49835686342122     -1.06278374089439      0.56287878179834
  H           2.94560581113532      0.79533583929711      1.09197146244486
  H          -0.81066708582748     -1.80839638755502     -0.22565110105704
  H          -1.77282922209880     -0.76997641276268     -1.28129949281418
  H           0.00724140183944      1.02035697191601     -1.11191590129784
  H           0.55375079009899     -0.48631366964744     -1.84757215630335
