15
Coordinates from ORCA-job neb E -19.206145083770
  C      -2.183845      0.394315      0.151607
  C       1.531125     -0.164110      0.323693
  C       2.734564      0.412709     -0.099289
  C      -1.001230     -0.567503      0.264346
  C       0.247560     -0.007923     -0.434761
  O       3.058218     -0.845632     -0.335307
  H      -1.848230      1.422914      0.267879
  H      -2.919171      0.192999      0.926522
  H      -2.671332      0.303474     -0.816254
  H       1.533472     -0.762217      1.225043
  H       3.073962      1.303353     -0.584861
  H      -0.781490     -0.742551      1.319084
  H      -1.273807     -1.529084     -0.173269
  H       0.123424      1.064852     -0.620195
  H       0.376779     -0.475594     -1.414240
15
Coordinates from ORCA-job neb E -19.206524063010
  C      -2.189245      0.390799      0.148353
  C       1.533823     -0.166287      0.319663
  C       2.739485      0.406566     -0.103148
  C      -0.998388     -0.559184      0.273062
  C       0.247652     -0.001933     -0.432675
  O       3.054516     -0.852617     -0.347852
  H      -1.868629      1.421531      0.285507
  H      -2.938980      0.169920      0.903900
  H      -2.654181      0.308164     -0.831198
  H       1.535788     -0.770098      1.216866
  H       3.083508      1.297899     -0.583031
  H      -0.777751     -0.718096      1.330191
  H      -1.263542     -1.529189     -0.149866
  H       0.126467      1.071421     -0.616293
  H       0.369478     -0.468896     -1.413478
15
Coordinates from ORCA-job neb E -19.206881868820
  C      -2.193701      0.386283      0.142553
  C       1.536255     -0.170096      0.315264
  C       2.743990      0.398902     -0.107120
  C      -0.995363     -0.550304      0.284128
  C       0.246661      0.005909     -0.428236
  O       3.050651     -0.859440     -0.366129
  H      -1.887973      1.419714      0.293174
  H      -2.955461      0.150406      0.881287
  H      -2.637768      0.304962     -0.846842
  H       1.539180     -0.784200      1.205322
  H       3.093410      1.293452     -0.576491
  H      -0.775368     -0.689830      1.344316
  H      -1.251465     -1.529541     -0.122960
  H       0.128365      1.080568     -0.605922
  H       0.358585     -0.456784     -1.412343
15
Coordinates from ORCA-job neb E -19.207383903270
  C      -2.200764      0.377937      0.132009
  C       1.541617     -0.179003      0.307377
  C       2.752200      0.387289     -0.111440
  C      -0.989919     -0.535927      0.301772
  C       0.245841      0.020130     -0.419782
  O       3.038390     -0.871101     -0.396519
  H      -1.918865      1.416412      0.294187
  H      -2.976762      0.123466      0.849485
  H      -2.616746      0.291269     -0.869195
  H       1.543806     -0.808422      1.186755
  H       3.109908      1.285450     -0.565927
  H      -0.772488     -0.645059      1.366291
  H      -1.229842     -1.528968     -0.081239
  H       0.132922      1.097722     -0.582836
  H       0.340702     -0.431197     -1.410937
15
Coordinates from ORCA-job neb E -19.208207702580
  C      -2.212477      0.365290      0.115946
  C       1.544426     -0.186999      0.298463
  C       2.761212      0.363459     -0.121914
  C      -0.983555     -0.512987      0.328917
  C       0.243167      0.042160     -0.406235
  O       3.036853     -0.884559     -0.448570
  H      -1.966206      1.411736      0.284437
  H      -3.004071      0.088451      0.807659
  H      -2.591604      0.263350     -0.898404
  H       1.551923     -0.852280      1.150496
  H       3.137932      1.274554     -0.534857
  H      -0.770945     -0.575204      1.398341
  H      -1.198739     -1.525520     -0.016345
  H       0.139816      1.123047     -0.551134
  H       0.312267     -0.394499     -1.406802
15
Coordinates from ORCA-job neb E -19.208463884120
  C      -2.218165      0.354596      0.108039
  C       1.550158     -0.195252      0.289963
  C       2.771617      0.352197     -0.123478
  C      -0.976495     -0.499441      0.340745
  C       0.244060      0.060631     -0.398743
  O       3.013694     -0.901688     -0.463669
  H      -1.996946      1.405132      0.285121
  H      -3.016701      0.057595      0.783324
  H      -2.575666      0.248221     -0.913712
  H       1.547984     -0.859895      1.142977
  H       3.156222      1.255955     -0.540961
  H      -0.767607     -0.541207      1.412067
  H      -1.174449     -1.520364      0.010452
  H       0.143774      1.144319     -0.525818
  H       0.298521     -0.360800     -1.406306
15
Coordinates from ORCA-job neb E -19.208905436600
  C      -2.225053      0.344510      0.096037
  C       1.553083     -0.204666      0.281550
  C       2.778204      0.338001     -0.126841
  C      -0.971591     -0.482009      0.360453
  C       0.243059      0.076165     -0.388585
  O       3.003664     -0.907947     -0.504431
  H      -2.028603      1.400953      0.266751
  H      -3.029870      0.036964      0.759068
  H      -2.560686      0.220261     -0.931122
  H       1.551400     -0.896509      1.112594
  H       3.176374      1.249733     -0.513454
  H      -0.767807     -0.489218      1.433600
  H      -1.150998     -1.515088      0.057977
  H       0.151284      1.162056     -0.501265
  H       0.277540     -0.333205     -1.402331
15
Coordinates from ORCA-job neb E -19.209193664200
  C      -2.229277      0.337077      0.088096
  C       1.554715     -0.211504      0.275391
  C       2.782288      0.328289     -0.129277
  C      -0.968086     -0.470302      0.373101
  C       0.242407      0.087302     -0.381826
  O       2.995314     -0.912480     -0.530260
  H      -2.049484      1.397246      0.253696
  H      -3.037580      0.022517      0.743574
  H      -2.550616      0.200741     -0.942103
  H       1.552127     -0.918970      1.093377
  H       3.189834      1.243666     -0.496602
  H      -0.767891     -0.454833      1.446861
  H      -1.134181     -1.510833      0.088856
  H       0.156960      1.174835     -0.483099
  H       0.263470     -0.312751     -1.399787
15
Coordinates from ORCA-job neb E -19.209602315760
  C      -2.235230      0.325335      0.076249
  C       1.556718     -0.222071      0.265971
  C       2.787794      0.313614     -0.133288
  C      -0.963099     -0.452572      0.391798
  C       0.241484      0.104320     -0.371411
  O       2.982308     -0.918354     -0.568834
  H      -2.079988      1.390769      0.232173
  H      -3.047922      0.001252      0.721601
  H      -2.535699      0.170060     -0.957563
  H       1.552307     -0.952183      1.064096
  H       3.209973      1.233438     -0.471150
  H      -0.768950     -0.403377      1.465685
  H      -1.108701     -1.503288      0.134795
  H       0.166461      1.194130     -0.454743
  H       0.242544     -0.281072     -1.395379
15
Coordinates from ORCA-job neb E -19.209856442790
  C      -2.238971      0.317075      0.068326
  C       1.557881     -0.229315      0.259657
  C       2.791154      0.303733     -0.136223
  C      -0.959977     -0.440597      0.404107
  C       0.241008      0.115976     -0.364058
  O       2.973197     -0.921742     -0.594578
  H      -2.099869      1.385807      0.216475
  H      -3.054108     -0.012721      0.707676
  H      -2.525834      0.148576     -0.967278
  H       1.551977     -0.974011      1.044349
  H       3.223239      1.225766     -0.454491
  H      -0.770540     -0.369216      1.477605
  H      -1.091638     -1.497427      0.165131
  H       0.173535      1.207138     -0.434825
  H       0.228948     -0.259040     -1.391873
15
Coordinates from ORCA-job neb E -19.210094490200
  C      -2.242473      0.308467      0.060329
  C       1.558971     -0.236700      0.253370
  C       2.794307      0.293741     -0.139450
  C      -0.957000     -0.428440      0.416456
  C       0.240683      0.127952     -0.356143
  O       2.963651     -0.924705     -0.620594
  H      -2.119456      1.380302      0.199866
  H      -3.059849     -0.026707      0.693990
  H      -2.515668      0.126405     -0.976672
  H       1.551426     -0.995667      1.024390
  H       3.236358      1.217390     -0.438229
  H      -0.772969     -0.335116      1.489220
  H      -1.074635     -1.490811      0.195261
  H       0.180947      1.220269     -0.414171
  H       0.215707     -0.236379     -1.387623
15
Coordinates from ORCA-job neb E -19.210314633690
  C      -2.245692      0.299619      0.052393
  C       1.559881     -0.244138      0.247031
  C       2.797207      0.283761     -0.142817
  C      -0.954150     -0.416107      0.428776
  C       0.240481      0.140032     -0.347964
  O       2.953731     -0.927107     -0.646709
  H      -2.138767      1.374297      0.182921
  H      -3.065148     -0.040911      0.680475
  H      -2.505060      0.104036     -0.985693
  H       1.550455     -1.017087      1.004122
  H       3.249345      1.208440     -0.422100
  H      -0.776035     -0.301008      1.500417
  H      -1.057808     -1.483499      0.225344
  H       0.188729      1.233282     -0.393349
  H       0.202833     -0.213611     -1.382845
15
Coordinates from ORCA-job neb E -19.210606105700
  C      -2.249951      0.286008      0.040753
  C       1.560771     -0.255267      0.237310
  C       2.801065      0.268923     -0.147905
  C      -0.950095     -0.397285      0.447119
  C       0.240342      0.158101     -0.335588
  O       2.938305     -0.929480     -0.685851
  H      -2.167205      1.364396      0.157429
  H      -3.072210     -0.062802      0.660551
  H      -2.488260      0.070547     -0.998440
  H       1.547987     -1.048762      0.972931
  H       3.268661      1.194064     -0.397696
  H      -0.781582     -0.249717      1.516307
  H      -1.033037     -1.471290      0.270589
  H       0.201088      1.252335     -0.362507
  H       0.184121     -0.179772     -1.375004
15
Coordinates from ORCA-job neb E -19.210941213910
  C      -2.255059      0.264954      0.024082
  C       1.560911     -0.271786      0.222082
  C       2.805795      0.247060     -0.155235
  C      -0.944500     -0.368347      0.474178
  C       0.240434      0.184815     -0.317274
  O       2.914274     -0.930021     -0.744160
  H      -2.208599      1.347601      0.119368
  H      -3.080652     -0.096911      0.631814
  H      -2.461327      0.020675     -1.015584
  H       1.541795     -1.095272      0.924027
  H       3.297349      1.170433     -0.359927
  H      -0.791723     -0.172440      1.537890
  H      -0.997115     -1.450266      0.338874
  H       0.221155      1.279635     -0.317886
  H       0.157261     -0.130130     -1.362250
15
Coordinates from ORCA-job neb E -19.211182587400
  C      -2.260140      0.232481      0.001441
  C       1.558502     -0.296391      0.197365
  C       2.810659      0.215711     -0.164455
  C      -0.937344     -0.323456      0.513365
  C       0.241244      0.222974     -0.291512
  O       2.877747     -0.922682     -0.830259
  H      -2.267706      1.318507      0.063394
  H      -3.088432     -0.150076      0.592571
  H      -2.418292     -0.052703     -1.036231
  H       1.527201     -1.163340      0.844715
  H       3.339398      1.130883     -0.298355
  H      -0.810360     -0.055749      1.564594
  H      -0.947093     -1.412754      0.442440
  H       0.254769      1.316782     -0.256990
  H       0.119847     -0.060187     -1.342084
15
Coordinates from ORCA-job neb E -19.211203550750
  C      -2.261785      0.226275     -0.002422
  C       1.558197     -0.304602      0.189683
  C       2.811145      0.211082     -0.164073
  C      -0.936716     -0.312049      0.522619
  C       0.241892      0.227956     -0.287806
  O       2.872403     -0.913553     -0.853212
  H      -2.281080      1.312616      0.050807
  H      -3.090122     -0.160141      0.586149
  H      -2.410050     -0.068730     -1.038800
  H       1.525112     -1.184386      0.819491
  H       3.347917      1.124659     -0.274040
  H      -0.815070     -0.025466      1.569380
  H      -0.939561     -1.402407      0.470487
  H       0.265387      1.321208     -0.250103
  H       0.112333     -0.052462     -1.338161
15
Coordinates from ORCA-job neb E -19.211218778950
  C      -2.262455      0.224852     -0.003089
  C       1.557594     -0.313071      0.182661
  C       2.809896      0.211970     -0.159490
  C      -0.936365     -0.304459      0.528454
  C       0.241714      0.225779     -0.289225
  O       2.873455     -0.898987     -0.870047
  H      -2.286664      1.311421      0.042820
  H      -3.090299     -0.161194      0.586404
  H      -2.407455     -0.077779     -1.037738
  H       1.524902     -1.205053      0.795238
  H       3.350037      1.126032     -0.244920
  H      -0.815187     -0.003434      1.571179
  H      -0.938241     -1.395431      0.491457
  H       0.272496      1.318825     -0.256102
  H       0.106573     -0.059470     -1.337602
15
Coordinates from ORCA-job neb E -19.211244958150
  C      -2.262649      0.226590     -0.000579
  C       1.555422     -0.330845      0.167713
  C       2.805263      0.219017     -0.143493
  C      -0.934927     -0.292671      0.536811
  C       0.240197      0.214430     -0.299147
  O       2.882853     -0.861990     -0.897084
  H      -2.288925      1.313643      0.028940
  H      -3.088555     -0.152033      0.596459
  H      -2.409360     -0.091970     -1.030196
  H       1.524986     -1.247512      0.743048
  H       3.347373      1.135045     -0.175834
  H      -0.808206      0.033668      1.571254
  H      -0.939932     -1.384271      0.527103
  H       0.282120      1.307231     -0.283691
  H       0.094341     -0.088331     -1.341305
15
Coordinates from ORCA-job neb E -19.211274274920
  C      -2.261862      0.232964      0.006745
  C       1.551814     -0.352423      0.147708
  C       2.797020      0.231982     -0.116471
  C      -0.931878     -0.281878      0.542984
  C       0.237190      0.194347     -0.319396
  O       2.902126     -0.808804     -0.920990
  H      -2.282297      1.320464      0.012803
  H      -3.083780     -0.128188      0.619974
  H      -2.420353     -0.107120     -1.014176
  H       1.525935     -1.297945      0.674721
  H       3.336406      1.149157     -0.079479
  H      -0.791161      0.070886      1.566864
  H      -0.944939     -1.373317      0.562927
  H       0.288101      1.286419     -0.333141
  H       0.077678     -0.136543     -1.351072
15
Coordinates from ORCA-job neb E -19.211302499590
  C      -2.260005      0.242222      0.017465
  C       1.547339     -0.373368      0.124846
  C       2.785714      0.247627     -0.083502
  C      -0.927136     -0.273450      0.545718
  C       0.232997      0.169990     -0.346831
  O       2.927476     -0.748996     -0.936117
  H      -2.268685      1.329627     -0.003991
  H      -3.075646     -0.094151      0.652800
  H      -2.438448     -0.121926     -0.991764
  H       1.528028     -1.345618      0.601301
  H       3.318581      1.162283      0.028301
  H      -0.766341      0.102580      1.558217
  H      -0.950597     -1.363879      0.592959
  H       0.288688      1.260424     -0.394462
  H       0.058037     -0.193367     -1.364940
15
Coordinates from ORCA-job neb E -19.211327481420
  C      -2.257636      0.251077      0.028638
  C       1.542837     -0.390415      0.101744
  C       2.773372      0.261960     -0.051899
  C      -0.921370     -0.266744      0.545930
  C       0.228348      0.147475     -0.375397
  O       2.952626     -0.693953     -0.942429
  H      -2.254234      1.337601     -0.019982
  H      -3.065411     -0.059757      0.686620
  H      -2.458099     -0.135997     -0.967826
  H       1.530388     -1.383455      0.533842
  H       3.299521      1.169029      0.129719
  H      -0.739667      0.128350      1.547491
  H      -0.953915     -1.355677      0.616292
  H       0.285523      1.235647     -0.453251
  H       0.037717     -0.245141     -1.379493
15
Coordinates from ORCA-job neb E -19.211356103410
  C      -2.254385      0.260153      0.042049
  C       1.537364     -0.408995      0.070899
  C       2.756395      0.277431     -0.014099
  C      -0.912702     -0.257109      0.545449
  C       0.222064      0.122456     -0.411029
  O       2.981565     -0.628210     -0.944859
  H      -2.239632      1.344469     -0.040857
  H      -3.050476     -0.020279      0.727356
  H      -2.481447     -0.155465     -0.937045
  H       1.534044     -1.423707      0.450334
  H       3.275733      1.166438      0.254015
  H      -0.705786      0.161935      1.532175
  H      -0.953327     -1.343474      0.644995
  H       0.280124      1.207144     -0.522367
  H       0.010468     -0.302786     -1.397016
15
Coordinates from ORCA-job neb E -19.211398458420
  C      -2.249307      0.269637      0.059516
  C       1.530129     -0.431773      0.024994
  C       2.729066      0.295338      0.036793
  C      -0.898110     -0.239944      0.544767
  C       0.212543      0.091645     -0.459677
  O       3.016425     -0.537103     -0.942636
  H      -2.226276      1.348974     -0.071742
  H      -3.026709      0.028451      0.780307
  H      -2.510085     -0.186075     -0.892955
  H       1.542619     -1.471594      0.330540
  H       3.240753      1.142228      0.426673
  H      -0.658379      0.215524      1.507490
  H      -0.944308     -1.321106      0.688492
  H       0.271626      1.170390     -0.613654
  H      -0.029987     -0.374593     -1.418909
15
Coordinates from ORCA-job neb E -19.211478409510
  C      -2.242478      0.277350      0.078620
  C       1.522145     -0.453940     -0.030663
  C       2.691078      0.312823      0.094378
  C      -0.877884     -0.215098      0.543630
  C       0.200407      0.059543     -0.514798
  O       3.049387     -0.428462     -0.932253
  H      -2.218878      1.348170     -0.109530
  H      -2.995549      0.078889      0.837312
  H      -2.538032     -0.225579     -0.839274
  H       1.559945     -1.515837      0.186532
  H       3.195200      1.083525      0.625895
  H      -0.603059      0.286634      1.473222
  H      -0.923285     -1.287353      0.743239
  H       0.259707      1.129822     -0.716014
  H      -0.078704     -0.450488     -1.440298
15
Coordinates from ORCA-job neb E -19.211573887530
  C      -2.238767      0.279600      0.088808
  C       1.517476     -0.463805     -0.063154
  C       2.665922      0.323271      0.124268
  C      -0.865135     -0.197743      0.543026
  C       0.192698      0.043121     -0.545194
  O       3.064865     -0.364110     -0.923327
  H      -2.219802      1.344075     -0.132768
  H      -2.976989      0.104310      0.867565
  H      -2.551335     -0.251556     -0.807268
  H       1.574752     -1.534403      0.103174
  H       3.169845      1.029119      0.740181
  H      -0.572471      0.333376      1.450453
  H      -0.905803     -1.263068      0.777571
  H       0.251667      1.107892     -0.772901
  H      -0.106923     -0.490077     -1.450433
15
Coordinates from ORCA-job neb E -19.211713590500
  C      -2.236523      0.279787      0.096332
  C       1.513462     -0.469391     -0.088918
  C       2.643482      0.335160      0.144984
  C      -0.854789     -0.181300      0.542939
  C       0.185826      0.030911     -0.568448
  O       3.075117     -0.308743     -0.915375
  H      -2.224389      1.338081     -0.153452
  H      -2.962599      0.122813      0.890293
  H      -2.560538     -0.275721     -0.780692
  H       1.591140     -1.544742      0.035155
  H       3.153773      0.966420      0.833954
  H      -0.549605      0.376158      1.430073
  H      -0.888827     -1.239612      0.808222
  H       0.244040      1.090716     -0.818291
  H      -0.129571     -0.520537     -1.456776
15
Coordinates from ORCA-job neb E -19.211915214140
  C      -2.235543      0.278380      0.103356
  C       1.508326     -0.471033     -0.114249
  C       2.615590      0.359390      0.161928
  C      -0.844516     -0.160641      0.543542
  C       0.177151      0.017541     -0.591788
  O       3.083436     -0.237918     -0.907158
  H      -2.233505      1.328372     -0.179510
  H      -2.948652      0.142198      0.912778
  H      -2.569479     -0.306079     -0.750816
  H       1.617626     -1.548360     -0.038304
  H       3.146927      0.863157      0.938392
  H      -0.527903      0.428899      1.405352
  H      -0.868746     -1.209261      0.845814
  H       0.232792      1.070825     -0.869027
  H      -0.153505     -0.555469     -1.460310
15
Coordinates from ORCA-job neb E -19.211809475750
  C      -2.239656      0.277547      0.099314
  C       1.506668     -0.462840     -0.100819
  C       2.618010      0.377910      0.139595
  C      -0.851311     -0.163507      0.545780
  C       0.176299      0.018573     -0.583039
  O       3.083368     -0.237767     -0.916526
  H      -2.235561      1.328581     -0.179675
  H      -2.957376      0.138735      0.904177
  H      -2.569086     -0.303616     -0.758858
  H       1.625431     -1.538271     -0.017394
  H       3.177367      0.837121      0.927554
  H      -0.539322      0.423084      1.411253
  H      -0.877516     -1.213169      0.844235
  H       0.229505      1.072178     -0.860923
  H      -0.146820     -0.554559     -1.454674
15
Coordinates from ORCA-job neb E -19.211830384910
  C      -2.239400      0.278738      0.096817
  C       1.509390     -0.464192     -0.091541
  C       2.630891      0.361455      0.133116
  C      -0.855218     -0.173318      0.545158
  C       0.180503      0.024444     -0.573214
  O       3.081327     -0.273609     -0.919299
  H      -2.230142      1.333533     -0.167502
  H      -2.962401      0.131283      0.895385
  H      -2.565568     -0.289346     -0.771304
  H       1.611496     -1.539364      0.013756
  H       3.173740      0.896131      0.881920
  H      -0.547721      0.397990      1.422484
  H      -0.886238     -1.227660      0.826141
  H       0.235929      1.081351     -0.837451
  H      -0.136590     -0.537435     -1.454464
15
Coordinates from ORCA-job neb E -19.211833513880
  C      -2.243423      0.276701      0.090762
  C       1.510690     -0.457318     -0.072891
  C       2.645082      0.361300      0.109633
  C      -0.863685     -0.180822      0.547006
  C       0.183470      0.033032     -0.557268
  O       3.077208     -0.305000     -0.928951
  H      -2.232182      1.335126     -0.158575
  H      -2.974634      0.117601      0.879570
  H      -2.560051     -0.279330     -0.788626
  H       1.604967     -1.530617      0.054239
  H       3.199770      0.916253      0.835289
  H      -0.565843      0.378335      1.435513
  H      -0.896996     -1.239031      0.812834
  H       0.239165      1.092706     -0.809865
  H      -0.123538     -0.518935     -1.448671
15
Coordinates from ORCA-job neb E -19.211911084350
  C      -2.250873      0.266499      0.078647
  C       1.513698     -0.445189     -0.045919
  C       2.672151      0.351265      0.074523
  C      -0.874879     -0.185386      0.551333
  C       0.189606      0.056463     -0.529771
  O       3.059536     -0.365778     -0.946664
  H      -2.248064      1.330695     -0.145086
  H      -2.995573      0.079523      0.848517
  H      -2.542926     -0.272024     -0.819967
  H       1.584919     -1.514457      0.122176
  H       3.248986      0.938331      0.755746
  H      -0.598503      0.361564      1.454375
  H      -0.902665     -1.248291      0.798622
  H       0.248577      1.121387     -0.757905
  H      -0.103990     -0.474602     -1.438626
15
Coordinates from ORCA-job neb E -19.211995195580
  C      -2.257494      0.254928      0.065893
  C       1.515836     -0.428964     -0.018750
  C       2.695628      0.344023      0.035566
  C      -0.884915     -0.189354      0.555236
  C       0.195162      0.081312     -0.502302
  O       3.036361     -0.425920     -0.962983
  H      -2.265192      1.323969     -0.133355
  H      -3.014447      0.040195      0.816302
  H      -2.524457     -0.266582     -0.850409
  H       1.566191     -1.491454      0.194083
  H       3.301242      0.945818      0.677960
  H      -0.630713      0.346088      1.471617
  H      -0.905049     -1.256404      0.784933
  H       0.256037      1.151252     -0.705877
  H      -0.084191     -0.428908     -1.427915
15
Coordinates from ORCA-job neb E -19.212100721260
  C      -2.265064      0.241298      0.048328
  C       1.519141     -0.399603      0.023334
  C       2.722774      0.338019     -0.026237
  C      -0.899134     -0.200319      0.558133
  C       0.202139      0.113747     -0.463370
  O       3.000894     -0.510764     -0.977751
  H      -2.282770      1.316012     -0.116993
  H      -3.037675     -0.007224      0.771842
  H      -2.501644     -0.254009     -0.890587
  H       1.547499     -1.447355      0.303779
  H       3.371743      0.950407      0.562769
  H      -0.674429      0.311649      1.495468
  H      -0.911129     -1.273689      0.756832
  H       0.260676      1.189955     -0.633879
  H      -0.053021     -0.368122     -1.411668
15
Coordinates from ORCA-job neb E -19.212182295090
  C      -2.272306      0.227255      0.026761
  C       1.525695     -0.352379      0.081188
  C       2.749680      0.329057     -0.112769
  C      -0.916504     -0.221552      0.556760
  C       0.210166      0.153130     -0.413195
  O       2.950300     -0.623672     -0.978823
  H      -2.297237      1.307777     -0.094104
  H      -3.062640     -0.058705      0.716495
  H      -2.476538     -0.230545     -0.938426
  H       1.534905     -1.370393      0.457626
  H       3.453361      0.950370      0.401501
  H      -0.727588      0.248394      1.523753
  H      -0.920295     -1.303046      0.704965
  H       0.257374      1.236249     -0.542569
  H      -0.008372     -0.291938     -1.389164
15
Coordinates from ORCA-job neb E -19.212200868870
  C      -2.273463      0.227661      0.021783
  C       1.529203     -0.335240      0.101605
  C       2.755515      0.326661     -0.141456
  C      -0.922643     -0.235259      0.552189
  C       0.212281      0.160702     -0.398451
  O       2.938255     -0.663018     -0.967831
  H      -2.292510      1.309990     -0.083355
  H      -3.069002     -0.064381      0.702900
  H      -2.474554     -0.214932     -0.951148
  H       1.536640     -1.338126      0.516792
  H       3.470349      0.961904      0.339951
  H      -0.741712      0.211018      1.531996
  H      -0.929064     -1.319956      0.674469
  H       0.251347      1.245853     -0.516319
  H       0.009357     -0.272879     -1.383125
15
Coordinates from ORCA-job neb E -19.212215629190
  C      -2.274163      0.228010      0.016146
  C       1.534141     -0.316495      0.123668
  C       2.763071      0.318440     -0.171589
  C      -0.928788     -0.251313      0.545680
  C       0.215114      0.170563     -0.381283
  O       2.921791     -0.714080     -0.949147
  H      -2.288047      1.312396     -0.066802
  H      -3.075631     -0.074578      0.685581
  H      -2.470296     -0.193526     -0.967143
  H       1.537258     -1.296459      0.590091
  H       3.485875      0.979930      0.258691
  H      -0.757552      0.165514      1.540253
  H      -0.937658     -1.339205      0.635812
  H       0.244345      1.258120     -0.483468
  H       0.030541     -0.247318     -1.376490
15
Coordinates from ORCA-job neb E -19.212221361360
  C      -2.274224      0.227921      0.016520
  C       1.534019     -0.317656      0.121485
  C       2.762722      0.319195     -0.170814
  C      -0.928370     -0.250543      0.545776
  C       0.214792      0.170170     -0.382624
  O       2.922309     -0.713244     -0.949201
  H      -2.289196      1.312350     -0.065664
  H      -3.075409     -0.075974      0.685703
  H      -2.469950     -0.193067     -0.967087
  H       1.537369     -1.296716      0.589558
  H       3.485965      0.978441      0.261852
  H      -0.756531      0.167654      1.539639
  H      -0.937210     -1.338337      0.637311
  H       0.244138      1.257731     -0.484892
  H       0.029575     -0.247924     -1.377563
15
Coordinates from ORCA-job neb E -19.212226109040
  C      -2.274227      0.228867      0.016872
  C       1.534156     -0.316213      0.122437
  C       2.762292      0.320319     -0.173027
  C      -0.928788     -0.252430      0.544696
  C       0.214597      0.169422     -0.382804
  O       2.923306     -0.716018     -0.946054
  H      -2.287832      1.313480     -0.063125
  H      -3.075576     -0.075337      0.685712
  H      -2.470858     -0.189861     -0.967517
  H       1.538401     -1.293055      0.594934
  H       3.486334      0.979860      0.257989
  H      -0.756377      0.163053      1.539584
  H      -0.938936     -1.340446      0.633471
  H       0.242456      1.257071     -0.485144
  H       0.031050     -0.248712     -1.378025
15
Coordinates from ORCA-job neb E -19.212229517470
  C      -2.274130      0.229986      0.017479
  C       1.534173     -0.315870      0.122657
  C       2.761822      0.321275     -0.173079
  C      -0.928989     -0.253784      0.543852
  C       0.214401      0.168127     -0.383608
  O       2.925249     -0.716600     -0.943539
  H      -2.286193      1.314686     -0.061570
  H      -3.075413     -0.073598      0.686680
  H      -2.472162     -0.187595     -0.967116
  H       1.539039     -1.291956      0.596627
  H       3.485265      0.982293      0.256719
  H      -0.755552      0.159972      1.539275
  H      -0.940504     -1.341918      0.631000
  H       0.241342      1.255748     -0.486732
  H       0.031652     -0.250766     -1.378646
15
Coordinates from ORCA-job neb E -19.212232553340
  C      -2.274028      0.230734      0.018055
  C       1.534102     -0.316484      0.121972
  C       2.761471      0.321884     -0.171668
  C      -0.928912     -0.254169      0.543483
  C       0.214221      0.166995     -0.384687
  O       2.927048     -0.715606     -0.942307
  H      -2.285265      1.315442     -0.060975
  H      -3.075082     -0.072195      0.687830
  H      -2.473118     -0.186680     -0.966397
  H       1.539148     -1.292783      0.595469
  H       3.483911      0.984101      0.257861
  H      -0.754494      0.159332      1.538837
  H      -0.941269     -1.342301      0.630516
  H       0.240940      1.254533     -0.488691
  H       0.031327     -0.252804     -1.379297
15
Coordinates from ORCA-job neb E -19.212235183640
  C      -2.273976      0.231126      0.018432
  C       1.534045     -0.317041      0.121273
  C       2.761267      0.322245     -0.170468
  C      -0.928801     -0.254239      0.543303
  C       0.214085      0.166336     -0.385480
  O       2.928184     -0.714792     -0.941605
  H      -2.284885      1.315832     -0.060635
  H      -3.074840     -0.071502      0.688575
  H      -2.473654     -0.186263     -0.965913
  H       1.539061     -1.293519      0.594379
  H       3.483182      0.985047      0.258917
  H      -0.753751      0.159355      1.538506
  H      -0.941588     -1.342352      0.630516
  H       0.240749      1.253816     -0.490026
  H       0.030923     -0.254049     -1.379775
15
Coordinates from ORCA-job neb E -19.212237502210
  C      -2.273963      0.231372      0.018652
  C       1.534026     -0.317203      0.120944
  C       2.761145      0.322508     -0.169931
  C      -0.928774     -0.254419      0.543112
  C       0.213988      0.165994     -0.385912
  O       2.928855     -0.714643     -0.940894
  H      -2.284637      1.316093     -0.060235
  H      -3.074730     -0.071168      0.688955
  H      -2.474004     -0.185811     -0.965706
  H       1.538997     -1.293557      0.594288
  H       3.483022      0.985599      0.258996
  H      -0.753368      0.158997      1.538325
  H      -0.941855     -1.342539      0.630179
  H       0.240497      1.253452     -0.490701
  H       0.030801     -0.254674     -1.380073
15
Coordinates from ORCA-job neb E -19.212239568260
  C      -2.273963      0.231586      0.018807
  C       1.534024     -0.317166      0.120847
  C       2.761047      0.322731     -0.169704
  C      -0.928803     -0.254695      0.542901
  C       0.213915      0.165759     -0.386165
  O       2.929360     -0.714790     -0.940146
  H      -2.284368      1.316327     -0.059828
  H      -3.074681     -0.070892      0.689197
  H      -2.474314     -0.185319     -0.965607
  H       1.538971     -1.293284      0.594661
  H       3.483062      0.986079      0.258556
  H      -0.753154      0.158357      1.538222
  H      -0.942150     -1.342840      0.629615
  H       0.240210      1.253212     -0.491082
  H       0.030844     -0.255064     -1.380274
15
Coordinates from ORCA-job neb E -19.212241416540
  C      -2.273967      0.231765      0.018919
  C       1.534029     -0.317077      0.120844
  C       2.760977      0.322893     -0.169567
  C      -0.928849     -0.254977      0.542704
  C       0.213861      0.165595     -0.386319
  O       2.929755     -0.715039     -0.939443
  H      -2.284121      1.316526     -0.059458
  H      -3.074661     -0.070671      0.689358
  H      -2.474573     -0.184860     -0.965561
  H       1.538938     -1.292947      0.595155
  H       3.483175      0.986532      0.257900
  H      -0.753031      0.157675      1.538161
  H      -0.942426     -1.343151      0.629022
  H       0.239952      1.253049     -0.491297
  H       0.030942     -0.255313     -1.380417
15
Coordinates from ORCA-job neb E -19.212243078770
  C      -2.273976      0.231896      0.018995
  C       1.534035     -0.316988      0.120866
  C       2.760929      0.323001     -0.169452
  C      -0.928897     -0.255215      0.542542
  C       0.213820      0.165493     -0.386413
  O       2.930051     -0.715299     -0.938839
  H      -2.283939      1.316676     -0.059150
  H      -3.074659     -0.070529      0.689454
  H      -2.474768     -0.184482     -0.965551
  H       1.538886     -1.292635      0.595629
  H       3.483345      0.986904      0.257205
  H      -0.752965      0.157088      1.538124
  H      -0.942644     -1.343415      0.628509
  H       0.239743      1.252952     -0.491402
  H       0.031039     -0.255448     -1.380519
15
Coordinates from ORCA-job neb E -19.212244578940
  C      -2.273992      0.231984      0.019038
  C       1.534044     -0.316882      0.120922
  C       2.760900      0.323066     -0.169390
  C      -0.928947     -0.255423      0.542406
  C       0.213791      0.165453     -0.386445
  O       2.930248     -0.715601     -0.938310
  H      -2.283816      1.316782     -0.058876
  H      -3.074677     -0.070473      0.689481
  H      -2.474902     -0.184159     -0.965584
  H       1.538825     -1.292304      0.596141
  H       3.483584      0.987190      0.256441
  H      -0.752959      0.156559      1.538112
  H      -0.942817     -1.343647      0.628042
  H       0.239568      1.252922     -0.491394
  H       0.031149     -0.255468     -1.380583
15
Coordinates from ORCA-job neb E -19.212245935780
  C      -2.274012      0.232043      0.019056
  C       1.534055     -0.316758      0.121009
  C       2.760883      0.323106     -0.169380
  C      -0.929003     -0.255613      0.542288
  C       0.213769      0.165455     -0.386431
  O       2.930374     -0.715934     -0.937837
  H      -2.283730      1.316859     -0.058628
  H      -3.074711     -0.070472      0.689457
  H      -2.474993     -0.183872     -0.965647
  H       1.538766     -1.291953      0.596688
  H       3.483873      0.987409      0.255626
  H      -0.752998      0.156062      1.538119
  H      -0.942962     -1.343861      0.627603
  H       0.239415      1.252937     -0.491303
  H       0.031273     -0.255408     -1.380618
15
Coordinates from ORCA-job neb E -19.212247165020
  C      -2.274035      0.232081      0.019052
  C       1.534070     -0.316607      0.121135
  C       2.760878      0.323120     -0.169431
  C      -0.929065     -0.255800      0.542179
  C       0.213756      0.165494     -0.386370
  O       2.930434     -0.716325     -0.937392
  H      -2.283671      1.316915     -0.058387
  H      -3.074761     -0.070522      0.689381
  H      -2.475048     -0.183596     -0.965746
  H       1.538712     -1.291558      0.597309
  H       3.484205      0.987590      0.254719
  H      -0.753081      0.155561      1.538144
  H      -0.943091     -1.344074      0.627161
  H       0.239275      1.252994     -0.491130
  H       0.031422     -0.255273     -1.380626
15
Coordinates from ORCA-job neb E -19.212248279930
  C      -2.274060      0.232104      0.019034
  C       1.534087     -0.316445      0.121284
  C       2.760880      0.323117     -0.169516
  C      -0.929131     -0.255979      0.542081
  C       0.213748      0.165557     -0.386280
  O       2.930450     -0.716738     -0.936979
  H      -2.283631      1.316956     -0.058156
  H      -3.074821     -0.070604      0.689274
  H      -2.475077     -0.183334     -0.965865
  H       1.538661     -1.291150      0.597957
  H       3.484559      0.987740      0.253777
  H      -0.753191      0.155073      1.538181
  H      -0.943205     -1.344278      0.626731
  H       0.239148      1.253075     -0.490908
  H       0.031583     -0.255093     -1.380616
15
Coordinates from ORCA-job neb E -19.212249291940
  C      -2.274087      0.232115      0.019004
  C       1.534105     -0.316276      0.121449
  C       2.760888      0.323100     -0.169626
  C      -0.929199     -0.256151      0.541991
  C       0.213745      0.165637     -0.386168
  O       2.930433     -0.717165     -0.936595
  H      -2.283607      1.316986     -0.057934
  H      -3.074888     -0.070712      0.689143
  H      -2.475086     -0.183086     -0.965999
  H       1.538615     -1.290735      0.598621
  H       3.484926      0.987865      0.252814
  H      -0.753320      0.154601      1.538227
  H      -0.943308     -1.344474      0.626316
  H       0.239032      1.253175     -0.490649
  H       0.031752     -0.254880     -1.380593
