15
Coordinates from ORCA-job neb_NEB-CI_converged E -19.206145083760
  C          -2.18384524197740      0.39431472355998      0.15160738203106
  C           1.53112472656749     -0.16411027163242      0.32369320423296
  C           2.73456424255717      0.41270877733193     -0.09928872742166
  C          -1.00122983919809     -0.56750307246650      0.26434644278197
  C           0.24756013781968     -0.00792274814656     -0.43476140201917
  O           3.05821849445790     -0.84563210159678     -0.33530698650145
  H          -1.84822984800110      1.42291429385807      0.26787871103659
  H          -2.91917092859114      0.19299925621823      0.92652218411043
  H          -2.67133207482923      0.30347404958951     -0.81625396153849
  H           1.53347215776696     -0.76221732980922      1.22504339714359
  H           3.07396191490389      1.30335256895964     -0.58486092670318
  H          -0.78148996970101     -0.74255149079717      1.31908397372423
  H          -1.27380734100666     -1.52908443954139     -0.17326903725637
  H           0.12342442612872      1.06485187261738     -0.62019472811971
  H           0.37677914310282     -0.47559408814470     -1.41423952550081
