15
Coordinates from ORCA-job opt E -271.012219525462
  C          -2.28837054294514      0.20485472423527     -0.01422804689799
  C           1.55193143418029     -0.23264853511225      0.19893745790959
  C           2.78588903448864      0.23575572209044     -0.30847159399882
  C          -0.95321088867585     -0.29586671705557      0.51924916169623
  C           0.22439039641345      0.24096434894511     -0.28719612339420
  O           2.82593111508318     -0.93568845663457     -0.85127255604652
  H          -2.33784106928050      1.29410516088821      0.02103740315478
  H          -3.12191423713861     -0.18717698430867      0.56699793543251
  H          -2.42938524530926     -0.09970543433766     -1.05222346608466
  H           1.56968816458970     -1.04721888212912      0.91710260799501
  H           3.58235838995497      0.94463344818288     -0.13571358570432
  H          -0.83830721294261     -0.00290304673493      1.56554807781842
  H          -0.92852235971563     -1.38783521740498      0.49729230877962
  H           0.22900099719887      1.33648839385849     -0.30268617383547
  H           0.12836202409851     -0.06775852448263     -1.33437340682417
