15
Coordinates from ORCA-job opt E -271.010998237988
  C      -2.274087      0.232115      0.019004
  C       1.534105     -0.316276      0.121449
  C       2.760888      0.323100     -0.169626
  C      -0.929199     -0.256151      0.541991
  C       0.213745      0.165637     -0.386168
  O       2.930433     -0.717165     -0.936595
  H      -2.283607      1.316986     -0.057934
  H      -3.074888     -0.070712      0.689143
  H      -2.475086     -0.183086     -0.965999
  H       1.538615     -1.290735      0.598621
  H       3.484926      0.987865      0.252814
  H      -0.753320      0.154601      1.538227
  H      -0.943308     -1.344474      0.626316
  H       0.239032      1.253175     -0.490649
  H       0.031752     -0.254880     -1.380593
15
Coordinates from ORCA-job opt E -271.011958863908
  C      -2.282151      0.226068      0.005313
  C       1.544068     -0.300279      0.146598
  C       2.772899      0.297707     -0.216637
  C      -0.945767     -0.270317      0.541287
  C       0.217848      0.181463     -0.338751
  O       2.892097     -0.774158     -0.933137
  H      -2.303590      1.315435     -0.031809
  H      -3.107551     -0.105338      0.633127
  H      -2.454743     -0.145362     -1.004983
  H       1.563360     -1.223969      0.716060
  H       3.529735      0.991883      0.109490
  H      -0.794944      0.098589      1.558033
  H      -0.950200     -1.361250      0.597205
  H       0.244809      1.271379     -0.426520
  H       0.074129     -0.201850     -1.355276
15
Coordinates from ORCA-job opt E -271.012154841231
  C      -2.285338      0.215882     -0.006077
  C       1.548892     -0.269981      0.174645
  C       2.779831      0.269847     -0.264600
  C      -0.951421     -0.282958      0.533006
  C       0.221974      0.209942     -0.308490
  O       2.856277     -0.852918     -0.901603
  H      -2.319971      1.305977     -0.008421
  H      -3.117516     -0.144881      0.596598
  H      -2.439126     -0.123369     -1.031105
  H       1.568025     -1.143591      0.818734
  H       3.557839      0.974901     -0.015742
  H      -0.821151      0.049396      1.565346
  H      -0.942509     -1.375231      0.551586
  H       0.240358      1.303155     -0.361990
  H       0.103836     -0.136171     -1.341886
15
Coordinates from ORCA-job opt E -271.012223364124
  C      -2.287955      0.205346     -0.015007
  C       1.552330     -0.235725      0.199115
  C       2.784610      0.237639     -0.307687
  C      -0.953738     -0.295173      0.521050
  C       0.224765      0.239348     -0.285317
  O       2.824841     -0.931123     -0.856309
  H      -2.336811      1.294698      0.018111
  H      -3.122549     -0.185107      0.565784
  H      -2.427703     -0.101031     -1.052640
  H       1.571768     -1.053223      0.913687
  H       3.580262      0.947182     -0.133875
  H      -0.839785     -0.000218      1.566863
  H      -0.929881     -1.387231      0.501325
  H       0.231128      1.334784     -0.302669
  H       0.128719     -0.070167     -1.332431
15
Coordinates from ORCA-job opt E -271.012227151146
  C      -2.288361      0.204962     -0.014190
  C       1.551953     -0.232669      0.198980
  C       2.785849      0.235802     -0.308484
  C      -0.953230     -0.295953      0.519185
  C       0.224395      0.240808     -0.287265
  O       2.826043     -0.935759     -0.851037
  H      -2.337810      1.294201      0.021401
  H      -3.121917     -0.187230      0.566908
  H      -2.429366     -0.099278     -1.052277
  H       1.569768     -1.047060      0.917341
  H       3.582186      0.944873     -0.135942
  H      -0.838263     -0.003083      1.565502
  H      -0.928669     -1.387918      0.497159
  H       0.228990      1.336328     -0.302864
  H       0.128432     -0.068025     -1.334416
15
Coordinates from ORCA-job opt E -271.012219525462
  C      -2.288371      0.204855     -0.014228
  C       1.551931     -0.232649      0.198937
  C       2.785889      0.235756     -0.308472
  C      -0.953211     -0.295867      0.519249
  C       0.224390      0.240964     -0.287196
  O       2.825931     -0.935688     -0.851273
  H      -2.337841      1.294105      0.021037
  H      -3.121914     -0.187177      0.566998
  H      -2.429385     -0.099705     -1.052223
  H       1.569688     -1.047219      0.917103
  H       3.582358      0.944633     -0.135714
  H      -0.838307     -0.002903      1.565548
  H      -0.928522     -1.387835      0.497292
  H       0.229001      1.336488     -0.302686
  H       0.128362     -0.067759     -1.334373
