 15

C   -1.625652  -0.009018   0.749252
C    1.390159  -0.114456  -0.040742
C    2.018044   0.968423   0.452475
C   -1.022176  -0.764554  -0.426490
C    0.230166  -0.092746  -0.996616
O    1.888044   2.197863   0.227542
H   -1.863382   1.022854   0.471734
H   -0.944695   0.011500   1.605520
H   -2.552239  -0.494561   1.071899
H    1.747828  -1.094303   0.260813
H    2.773769   0.701071   1.195216
H   -0.793753  -1.792164  -0.118794
H   -1.774543  -0.832422  -1.221439
H   -0.160940   0.908119  -1.213192
H    0.533924  -0.632812  -1.901874