 15

C   -2.177179   0.195873   0.232782
C    1.627169  -0.143121   0.651744
C    2.856962   0.065082  -0.073814
C   -0.848377  -0.436226   0.613315
C    0.333115   0.425712   0.168226
O    2.201308  -1.146828  -0.179263
H   -2.293077   1.177973   0.702193
H   -3.006534  -0.437940   0.561945
H   -2.255536   0.321557  -0.851824
H    1.705960  -0.236505   1.725912
H    2.977253   0.440096  -1.082875
H   -0.814977  -0.582953   1.699542
H   -0.776102  -1.430994   0.157614
H    0.210126   1.445123   0.553511
H    0.356633   0.502977  -0.926378