 15

C    3.932414  -1.499594   3.482602
C    1.912756  -0.235333   0.481192
C    2.434986   0.358298  -0.706924
C    2.745148  -0.783081   2.890157
C    2.894531  -0.826501   1.393004
O    1.595688   1.050367   0.155419
H    3.968204  -2.528259   3.132313
H    3.902037  -1.507887   4.565318
H    4.856215  -1.016729   3.169193
H    1.045977  -0.879272   0.369821
H    3.365591   0.924628  -0.754880
H    1.825648  -1.272027   3.199873
H    2.714214   0.242843   3.248087
H    2.984909  -1.908404   1.132480
H    3.906390  -0.436333   1.160221