17
Coordinates from ORCA-job freq E -421.391958875279
  C          -2.30506174627165     -0.34991454120884      0.69005471916843
  C          -0.15362434100530     -0.31701190768464     -0.65139830290051
  C           2.52029311878881     -0.31399945767100     -0.92922151912481
  C           1.21521972189298      0.29191888478558     -0.70657487302957
  C          -0.83179831766755     -0.01182813653995      0.68861380816832
  O           0.59192829821392      1.69346661463672      1.18516887972187
  O           1.85940621614704      0.52527902934757     -1.89377270754554
  O          -0.72968990052607      1.38938093660849      0.91029997381199
  H           1.13322379974215      1.26224663914167      0.20782247952293
  H          -2.82209204132651      0.22404096527583     -0.07881230986173
  H          -2.44550185426006     -1.41057674484707      0.48515144393526
  H          -2.74720585401693     -0.11748956597055      1.65666573132487
  H          -0.75447514404389      0.11258146010203     -1.45526552125022
  H          -0.09345073191512     -1.39864198951778     -0.80106023130048
  H           3.40102386940560      0.12070023544282     -0.47495494855398
  H           2.58836381379892     -1.35595824312603     -1.22046482734014
  H          -0.30653590695635     -0.52048717877485      1.50197520525330
