17
Coordinates from ORCA-job freq E -421.411207835877
  C           2.17278246429108     -0.99720111925279     -0.15576125467017
  C           1.40589398821315      0.10485187958592      0.47737714841114
  C          -2.02714201350977     -0.65556458077023     -0.87760507824488
  C           0.13580143526500      0.57340358694248     -0.13580063851460
  C          -0.99870635913292     -0.39819861297588      0.12683210037248
  O          -1.30932038772287      2.35389059767305     -0.18428161547905
  O          -0.96083027355248     -1.56917551447559     -0.66729843578092
  O          -0.14764399599835      1.83575432951626      0.44931075519890
  H           1.66759772681243     -1.96275263721254     -0.03208252275788
  H           3.16849470129161     -1.08579156258928      0.27530846495739
  H           2.27081900771540     -0.84109222647669     -1.23231813071147
  H           1.58475958044856      0.38151962463460      1.50777124559914
  H          -1.98923582163379     -0.10783139190043     -1.81176830336017
  H          -3.00267730985056     -1.00754136730149     -0.56593423190738
  H           0.24871112219987      0.67754025727900     -1.22327435919304
  H          -1.22919690352831     -0.55646568818264      1.17652437930553
  H          -0.94706796130805      3.12658842550628     -0.63199052322504
