17
* (null), Energy   -1000.0000000
C     3.369787    0.077957   -0.129410   -0.048522   -0.018420   -0.011279
C     0.973785   -0.401833    0.407842    0.055415   -0.136685    0.097611
C     1.997536   -0.326033   -0.669532   -0.080091   -0.019864    0.009331
C    -1.298314   -0.087493    1.400917   -0.092301    0.401940    0.426682
C    -0.304759    0.102515    0.327270   -0.809166   -0.828192    0.004329
O    -1.590251   -1.203413    0.629641    0.919467    0.579660   -0.555749
O    -2.015248    0.995831   -0.913042   -0.035548    0.037102   -0.059764
O    -0.632367    0.738751   -0.830360   -0.098173   -0.184169    0.158131
H     4.110957    0.085139   -0.926930   -0.073105   -0.002917   -0.034099
H     3.334356    1.073309    0.312362   -0.045543   -0.026632    0.008039
H     3.706055   -0.619593    0.638261   -0.026767   -0.032643   -0.034109
H     1.224974   -0.913369    1.328041    0.187290   -0.025495    0.109375
H     2.073980   -1.315193   -1.135619   -0.029234    0.041345   -0.140035
H     1.672628    0.360266   -1.449577   -0.135811    0.048048    0.088997
H    -0.863537   -0.299620    2.379155   -0.255805    0.120614    0.414943
H    -2.077827    0.671269    1.453125   -0.350924    0.095711    0.386017
H    -2.374961    0.092160   -0.853466   -0.127698    0.079774    0.184783
17
* Frequency(6) -429.4558
C     3.364272    0.075864   -0.130692   -0.048522   -0.018420   -0.011279
C     0.980083   -0.417367    0.418934    0.055415   -0.136685    0.097611
C     1.988434   -0.328290   -0.668471   -0.080091   -0.019864    0.009331
C    -1.308804   -0.041815    1.449407   -0.092301    0.401940    0.426682
C    -0.396716    0.008396    0.327762   -0.809166   -0.828192    0.004329
O    -1.485758   -1.137538    0.566483    0.919467    0.579660   -0.555749
O    -2.019288    1.000047   -0.919834   -0.035548    0.037102   -0.059764
O    -0.643524    0.717821   -0.812389   -0.098173   -0.184169    0.158131
H     4.102648    0.084808   -0.930805   -0.073105   -0.002917   -0.034099
H     3.329180    1.070282    0.313275   -0.045543   -0.026632    0.008039
H     3.703013   -0.623303    0.634385   -0.026767   -0.032643   -0.034109
H     1.246258   -0.916266    1.340471    0.187290   -0.025495    0.109375
H     2.070658   -1.310494   -1.151534   -0.029234    0.041345   -0.140035
H     1.657194    0.365726   -1.439463   -0.135811    0.048048    0.088997
H    -0.892608   -0.285913    2.426311   -0.255805    0.120614    0.414943
H    -2.117707    0.682146    1.496994   -0.350924    0.095711    0.386017
H    -2.389473    0.101226   -0.832466   -0.127698    0.079774    0.184783
17
* Frequency(6) -429.4558
C     3.359356    0.073997   -0.131835   -0.048522   -0.018420   -0.011279
C     0.985698   -0.431217    0.428825    0.055415   -0.136685    0.097611
C     1.980318   -0.330303   -0.667526   -0.080091   -0.019864    0.009331
C    -1.318157   -0.001086    1.492643   -0.092301    0.401940    0.426682
C    -0.478709   -0.075525    0.328201   -0.809166   -0.828192    0.004329
O    -1.392589   -1.078801    0.510169    0.919467    0.579660   -0.555749
O    -2.022890    1.003807   -0.925890   -0.035548    0.037102   -0.059764
O    -0.653471    0.699160   -0.796365   -0.098173   -0.184169    0.158131
H     4.095241    0.084512   -0.934260   -0.073105   -0.002917   -0.034099
H     3.324565    1.067583    0.314090   -0.045543   -0.026632    0.008039
H     3.700300   -0.626610    0.630929   -0.026767   -0.032643   -0.034109
H     1.265236   -0.918849    1.351553    0.187290   -0.025495    0.109375
H     2.067696   -1.306305   -1.165723   -0.029234    0.041345   -0.140035
H     1.643432    0.370595   -1.430445   -0.135811    0.048048    0.088997
H    -0.918528   -0.273691    2.468358   -0.255805    0.120614    0.414943
H    -2.153266    0.691845    1.536109   -0.350924    0.095711    0.386017
H    -2.402413    0.109309   -0.813743   -0.127698    0.079774    0.184783
17
* Frequency(6) -429.4558
C     3.355569    0.072560   -0.132715   -0.048522   -0.018420   -0.011279
C     0.990022   -0.441883    0.436442    0.055415   -0.136685    0.097611
C     1.974068   -0.331853   -0.666798   -0.080091   -0.019864    0.009331
C    -1.325359    0.030279    1.525938   -0.092301    0.401940    0.426682
C    -0.541851   -0.140152    0.328539   -0.809166   -0.828192    0.004329
O    -1.320840   -1.033568    0.466802    0.919467    0.579660   -0.555749
O    -2.025664    1.006702   -0.930553   -0.035548    0.037102   -0.059764
O    -0.661132    0.684788   -0.784026   -0.098173   -0.184169    0.158131
H     4.089536    0.084284   -0.936921   -0.073105   -0.002917   -0.034099
H     3.321011    1.065505    0.314717   -0.045543   -0.026632    0.008039
H     3.698212   -0.629158    0.628267   -0.026767   -0.032643   -0.034109
H     1.279851   -0.920839    1.360088    0.187290   -0.025495    0.109375
H     2.065414   -1.303078   -1.176651   -0.029234    0.041345   -0.140035
H     1.632835    0.374344   -1.423500   -0.135811    0.048048    0.088997
H    -0.938490   -0.264279    2.500737   -0.255805    0.120614    0.414943
H    -2.180650    0.699313    1.566231   -0.350924    0.095711    0.386017
H    -2.412378    0.115534   -0.799323   -0.127698    0.079774    0.184783
17
* Frequency(6) -429.4558
C     3.353324    0.071708   -0.133237   -0.048522   -0.018420   -0.011279
C     0.992587   -0.448209    0.440960    0.055415   -0.136685    0.097611
C     1.970362   -0.332772   -0.666366   -0.080091   -0.019864    0.009331
C    -1.329631    0.048881    1.545686   -0.092301    0.401940    0.426682
C    -0.579301   -0.178482    0.328739   -0.809166   -0.828192    0.004329
O    -1.278285   -1.006740    0.441081    0.919467    0.579660   -0.555749
O    -2.027309    1.008419   -0.933319   -0.035548    0.037102   -0.059764
O    -0.665676    0.676265   -0.776707   -0.098173   -0.184169    0.158131
H     4.086153    0.084149   -0.938500   -0.073105   -0.002917   -0.034099
H     3.318904    1.064273    0.315089   -0.045543   -0.026632    0.008039
H     3.696973   -0.630668    0.626688   -0.026767   -0.032643   -0.034109
H     1.288519   -0.922019    1.365151    0.187290   -0.025495    0.109375
H     2.064061   -1.301165   -1.183132   -0.029234    0.041345   -0.140035
H     1.626549    0.376568   -1.419381   -0.135811    0.048048    0.088997
H    -0.950329   -0.258697    2.519942   -0.255805    0.120614    0.414943
H    -2.196892    0.703743    1.584097   -0.350924    0.095711    0.386017
H    -2.418288    0.119226   -0.790771   -0.127698    0.079774    0.184783
17
* Frequency(6) -429.4558
C     3.352862    0.071532   -0.133345   -0.048522   -0.018420   -0.011279
C     0.993114   -0.449509    0.441889    0.055415   -0.136685    0.097611
C     1.969600   -0.332961   -0.666277   -0.080091   -0.019864    0.009331
C    -1.330509    0.052705    1.549746   -0.092301    0.401940    0.426682
C    -0.586999   -0.186362    0.328780   -0.809166   -0.828192    0.004329
O    -1.269537   -1.001225    0.435793    0.919467    0.579660   -0.555749
O    -2.027647    1.008772   -0.933888   -0.035548    0.037102   -0.059764
O    -0.666610    0.674512   -0.775203   -0.098173   -0.184169    0.158131
H     4.085457    0.084122   -0.938824   -0.073105   -0.002917   -0.034099
H     3.318470    1.064019    0.315166   -0.045543   -0.026632    0.008039
H     3.696718   -0.630979    0.626364   -0.026767   -0.032643   -0.034109
H     1.290301   -0.922261    1.366191    0.187290   -0.025495    0.109375
H     2.063783   -1.300772   -1.184464   -0.029234    0.041345   -0.140035
H     1.625257    0.377025   -1.418535   -0.135811    0.048048    0.088997
H    -0.952763   -0.257550    2.523889   -0.255805    0.120614    0.414943
H    -2.200230    0.704654    1.587770   -0.350924    0.095711    0.386017
H    -2.419503    0.119985   -0.789013   -0.127698    0.079774    0.184783
17
* Frequency(6) -429.4558
C     3.354235    0.072053   -0.133026   -0.048522   -0.018420   -0.011279
C     0.991547   -0.445644    0.439128    0.055415   -0.136685    0.097611
C     1.971865   -0.332399   -0.666541   -0.080091   -0.019864    0.009331
C    -1.327899    0.041337    1.537677   -0.092301    0.401940    0.426682
C    -0.564113   -0.162937    0.328658   -0.809166   -0.828192    0.004329
O    -1.295543   -1.017620    0.451512    0.919467    0.579660   -0.555749
O    -2.026642    1.007723   -0.932198   -0.035548    0.037102   -0.059764
O    -0.663833    0.679721   -0.779675   -0.098173   -0.184169    0.158131
H     4.087525    0.084204   -0.937859   -0.073105   -0.002917   -0.034099
H     3.319758    1.064772    0.314938   -0.045543   -0.026632    0.008039
H     3.697475   -0.630056    0.627329   -0.026767   -0.032643   -0.034109
H     1.285004   -0.921540    1.363098    0.187290   -0.025495    0.109375
H     2.064610   -1.301941   -1.180503   -0.029234    0.041345   -0.140035
H     1.629098    0.375666   -1.421052   -0.135811    0.048048    0.088997
H    -0.945527   -0.260961    2.512153   -0.255805    0.120614    0.414943
H    -2.190305    0.701947    1.576851   -0.350924    0.095711    0.386017
H    -2.415891    0.117729   -0.794239   -0.127698    0.079774    0.184783
17
* Frequency(6) -429.4558
C     3.357292    0.073214   -0.132315   -0.048522   -0.018420   -0.011279
C     0.988055   -0.437030    0.432977    0.055415   -0.136685    0.097611
C     1.976912   -0.331147   -0.667129   -0.080091   -0.019864    0.009331
C    -1.322082    0.016008    1.510789   -0.092301    0.401940    0.426682
C    -0.513122   -0.110747    0.328385   -0.809166   -0.828192    0.004329
O    -1.353485   -1.054148    0.486533    0.919467    0.579660   -0.555749
O    -2.024402    1.005385   -0.928431   -0.035548    0.037102   -0.059764
O    -0.657647    0.691327   -0.789640   -0.098173   -0.184169    0.158131
H     4.092132    0.084388   -0.935711   -0.073105   -0.002917   -0.034099
H     3.322628    1.066451    0.314432   -0.045543   -0.026632    0.008039
H     3.699162   -0.627999    0.629478   -0.026767   -0.032643   -0.034109
H     1.273201   -0.919934    1.356205    0.187290   -0.025495    0.109375
H     2.066452   -1.304546   -1.171679   -0.029234    0.041345   -0.140035
H     1.637657    0.372638   -1.426660   -0.135811    0.048048    0.088997
H    -0.929407   -0.268562    2.486005   -0.255805    0.120614    0.414943
H    -2.168191    0.695915    1.552526   -0.350924    0.095711    0.386017
H    -2.407844    0.112702   -0.805884   -0.127698    0.079774    0.184783
17
* Frequency(6) -429.4558
C     3.361704    0.074889   -0.131289   -0.048522   -0.018420   -0.011279
C     0.983017   -0.424602    0.424102    0.055415   -0.136685    0.097611
C     1.984194   -0.329341   -0.667978   -0.080091   -0.019864    0.009331
C    -1.313690   -0.020537    1.471994   -0.092301    0.401940    0.426682
C    -0.439551   -0.035446    0.327991   -0.809166   -0.828192    0.004329
O    -1.437085   -1.106852    0.537063    0.919467    0.579660   -0.555749
O    -2.021170    1.002011   -0.922998   -0.035548    0.037102   -0.059764
O    -0.648720    0.708072   -0.804018   -0.098173   -0.184169    0.158131
H     4.098779    0.084653   -0.932610   -0.073105   -0.002917   -0.034099
H     3.326769    1.068872    0.313701   -0.045543   -0.026632    0.008039
H     3.701596   -0.625031    0.632579   -0.026767   -0.032643   -0.034109
H     1.256173   -0.917616    1.346261    0.187290   -0.025495    0.109375
H     2.069110   -1.308306   -1.158947   -0.029234    0.041345   -0.140035
H     1.650005    0.368269   -1.434752   -0.135811    0.048048    0.088997
H    -0.906149   -0.279528    2.448277   -0.255805    0.120614    0.414943
H    -2.136284    0.687213    1.517428   -0.350924    0.095711    0.386017
H    -2.396233    0.105449   -0.822685   -0.127698    0.079774    0.184783
17
* Frequency(6) -429.4558
C     3.366991    0.076896   -0.130060   -0.048522   -0.018420   -0.011279
C     0.976978   -0.409707    0.413465    0.055415   -0.136685    0.097611
C     1.992922   -0.327177   -0.668994   -0.080091   -0.019864    0.009331
C    -1.303632   -0.064338    1.425497   -0.092301    0.401940    0.426682
C    -0.351373    0.054805    0.327520   -0.809166   -0.828192    0.004329
O    -1.537282   -1.170020    0.597625    0.919467    0.579660   -0.555749
O    -2.017296    0.997968   -0.916485   -0.035548    0.037102   -0.059764
O    -0.638022    0.728142   -0.821250   -0.098173   -0.184169    0.158131
H     4.106745    0.084971   -0.928894   -0.073105   -0.002917   -0.034099
H     3.331732    1.071774    0.312825   -0.045543   -0.026632    0.008039
H     3.704513   -0.621474    0.636296   -0.026767   -0.032643   -0.034109
H     1.235763   -0.914837    1.334342    0.187290   -0.025495    0.109375
H     2.072296   -1.312811   -1.143686   -0.029234    0.041345   -0.140035
H     1.664805    0.363034   -1.444450   -0.135811    0.048048    0.088997
H    -0.878273   -0.292672    2.403059   -0.255805    0.120614    0.414943
H    -2.098043    0.676783    1.475363   -0.350924    0.095711    0.386017
H    -2.382318    0.096756   -0.842821   -0.127698    0.079774    0.184783
17
* Frequency(6) -429.4558
C     3.372582    0.079018   -0.128761   -0.048522   -0.018420   -0.011279
C     0.970593   -0.393959    0.402218    0.055415   -0.136685    0.097611
C     2.002150   -0.324888   -0.670069   -0.080091   -0.019864    0.009331
C    -1.292997   -0.110648    1.376336   -0.092301    0.401940    0.426682
C    -0.258144    0.150226    0.327021   -0.809166   -0.828192    0.004329
O    -1.643220   -1.236806    0.661656    0.919467    0.579660   -0.555749
O    -2.013200    0.993694   -0.909599   -0.035548    0.037102   -0.059764
O    -0.626711    0.749361   -0.839469   -0.098173   -0.184169    0.158131
H     4.115168    0.085307   -0.924966   -0.073105   -0.002917   -0.034099
H     3.336980    1.074843    0.311899   -0.045543   -0.026632    0.008039
H     3.707597   -0.617713    0.640226   -0.026767   -0.032643   -0.034109
H     1.214184   -0.911900    1.321740    0.187290   -0.025495    0.109375
H     2.075664   -1.317575   -1.127552   -0.029234    0.041345   -0.140035
H     1.680452    0.357498   -1.454704   -0.135811    0.048048    0.088997
H    -0.848800   -0.306569    2.355251   -0.255805    0.120614    0.414943
H    -2.057611    0.665756    1.430887   -0.350924    0.095711    0.386017
H    -2.367605    0.087564   -0.864111   -0.127698    0.079774    0.184783
17
* Frequency(6) -429.4558
C     3.377870    0.081026   -0.127532   -0.048522   -0.018420   -0.011279
C     0.964554   -0.379064    0.391581    0.055415   -0.136685    0.097611
C     2.010878   -0.322724   -0.671086   -0.080091   -0.019864    0.009331
C    -1.282939   -0.154449    1.329839   -0.092301    0.401940    0.426682
C    -0.169967    0.240477    0.326549   -0.809166   -0.828192    0.004329
O    -1.743417   -1.299974    0.722218    0.919467    0.579660   -0.555749
O    -2.009326    0.989651   -0.903086   -0.035548    0.037102   -0.059764
O    -0.616013    0.769430   -0.856701   -0.098173   -0.184169    0.158131
H     4.123134    0.085625   -0.921250   -0.073105   -0.002917   -0.034099
H     3.341943    1.077745    0.311023   -0.045543   -0.026632    0.008039
H     3.710514   -0.614155    0.643943   -0.026767   -0.032643   -0.034109
H     1.193775   -0.909122    1.309821    0.187290   -0.025495    0.109375
H     2.078850   -1.322080   -1.112292   -0.029234    0.041345   -0.140035
H     1.695252    0.352262   -1.464402   -0.135811    0.048048    0.088997
H    -0.820924   -0.319712    2.310033   -0.255805    0.120614    0.414943
H    -2.019369    0.655326    1.388822   -0.350924    0.095711    0.386017
H    -2.353689    0.078871   -0.884247   -0.127698    0.079774    0.184783
17
* Frequency(6) -429.4558
C     3.382281    0.082700   -0.126506   -0.048522   -0.018420   -0.011279
C     0.959516   -0.366637    0.382706    0.055415   -0.136685    0.097611
C     2.018160   -0.320918   -0.671934   -0.080091   -0.019864    0.009331
C    -1.274546   -0.190994    1.291045   -0.092301    0.401940    0.426682
C    -0.096396    0.315778    0.326156   -0.809166   -0.828192    0.004329
O    -1.827017   -1.352677    0.772748    0.919467    0.579660   -0.555749
O    -2.006094    0.986277   -0.897653   -0.035548    0.037102   -0.059764
O    -0.607087    0.786175   -0.871079   -0.098173   -0.184169    0.158131
H     4.129781    0.085890   -0.918149   -0.073105   -0.002917   -0.034099
H     3.346083    1.080167    0.310292   -0.045543   -0.026632    0.008039
H     3.712947   -0.611188    0.647045   -0.026767   -0.032643   -0.034109
H     1.176746   -0.906804    1.299876    0.187290   -0.025495    0.109375
H     2.081508   -1.325840   -1.099560   -0.029234    0.041345   -0.140035
H     1.707600    0.347893   -1.472494   -0.135811    0.048048    0.088997
H    -0.797666   -0.330679    2.272306   -0.255805    0.120614    0.414943
H    -1.987463    0.646624    1.353724   -0.350924    0.095711    0.386017
H    -2.342079    0.071618   -0.901048   -0.127698    0.079774    0.184783
17
* Frequency(6) -429.4558
C     3.385339    0.083861   -0.125795   -0.048522   -0.018420   -0.011279
C     0.956024   -0.358023    0.376555    0.055415   -0.136685    0.097611
C     2.023207   -0.319666   -0.672522   -0.080091   -0.019864    0.009331
C    -1.268730   -0.216323    1.264156   -0.092301    0.401940    0.426682
C    -0.045404    0.367968    0.325883   -0.809166   -0.828192    0.004329
O    -1.884959   -1.389206    0.807770    0.919467    0.579660   -0.555749
O    -2.003854    0.983939   -0.893886   -0.035548    0.037102   -0.059764
O    -0.600900    0.797781   -0.881044   -0.098173   -0.184169    0.158131
H     4.134388    0.086074   -0.916000   -0.073105   -0.002917   -0.034099
H     3.348953    1.081845    0.309785   -0.045543   -0.026632    0.008039
H     3.714634   -0.609130    0.649194   -0.026767   -0.032643   -0.034109
H     1.164943   -0.905197    1.292984    0.187290   -0.025495    0.109375
H     2.083350   -1.328445   -1.090735   -0.029234    0.041345   -0.140035
H     1.716159    0.344865   -1.478102   -0.135811    0.048048    0.088997
H    -0.781546   -0.338279    2.246157   -0.255805    0.120614    0.414943
H    -1.965348    0.640592    1.329399   -0.350924    0.095711    0.386017
H    -2.334032    0.066591   -0.912693   -0.127698    0.079774    0.184783
17
* Frequency(6) -429.4558
C     3.386711    0.084382   -0.125476   -0.048522   -0.018420   -0.011279
C     0.954456   -0.354157    0.373795    0.055415   -0.136685    0.097611
C     2.025472   -0.319104   -0.672786   -0.080091   -0.019864    0.009331
C    -1.266119   -0.227692    1.252088   -0.092301    0.401940    0.426682
C    -0.022518    0.391393    0.325761   -0.809166   -0.828192    0.004329
O    -1.910965   -1.405601    0.823489    0.919467    0.579660   -0.555749
O    -2.002849    0.982890   -0.892196   -0.035548    0.037102   -0.059764
O    -0.598124    0.802990   -0.885517   -0.098173   -0.184169    0.158131
H     4.136456    0.086157   -0.915036   -0.073105   -0.002917   -0.034099
H     3.350242    1.082598    0.309558   -0.045543   -0.026632    0.008039
H     3.715391   -0.608207    0.650159   -0.026767   -0.032643   -0.034109
H     1.159646   -0.904476    1.289890    0.187290   -0.025495    0.109375
H     2.084177   -1.329614   -1.086775   -0.029234    0.041345   -0.140035
H     1.720000    0.343506   -1.480619   -0.135811    0.048048    0.088997
H    -0.774311   -0.341691    2.234421   -0.255805    0.120614    0.414943
H    -1.955423    0.637885    1.318481   -0.350924    0.095711    0.386017
H    -2.330420    0.064335   -0.917919   -0.127698    0.079774    0.184783
17
* Frequency(6) -429.4558
C     3.386250    0.084207   -0.125584   -0.048522   -0.018420   -0.011279
C     0.954984   -0.355458    0.374723    0.055415   -0.136685    0.097611
C     2.024710   -0.319293   -0.672698   -0.080091   -0.019864    0.009331
C    -1.266997   -0.223868    1.256148   -0.092301    0.401940    0.426682
C    -0.030217    0.383513    0.325802   -0.809166   -0.828192    0.004329
O    -1.902217   -1.400086    0.818201    0.919467    0.579660   -0.555749
O    -2.003187    0.983243   -0.892765   -0.035548    0.037102   -0.059764
O    -0.599058    0.801238   -0.884012   -0.098173   -0.184169    0.158131
H     4.135760    0.086129   -0.915360   -0.073105   -0.002917   -0.034099
H     3.349808    1.082345    0.309634   -0.045543   -0.026632    0.008039
H     3.715137   -0.608518    0.649834   -0.026767   -0.032643   -0.034109
H     1.161428   -0.904719    1.290931    0.187290   -0.025495    0.109375
H     2.083899   -1.329221   -1.088107   -0.029234    0.041345   -0.140035
H     1.718708    0.343963   -1.479773   -0.135811    0.048048    0.088997
H    -0.776745   -0.340543    2.238369   -0.255805    0.120614    0.414943
H    -1.958762    0.638796    1.322153   -0.350924    0.095711    0.386017
H    -2.331635    0.065094   -0.916161   -0.127698    0.079774    0.184783
17
* Frequency(6) -429.4558
C     3.384004    0.083354   -0.126106   -0.048522   -0.018420   -0.011279
C     0.957548   -0.361784    0.379241    0.055415   -0.136685    0.097611
C     2.021003   -0.320212   -0.672266   -0.080091   -0.019864    0.009331
C    -1.271269   -0.205265    1.275895   -0.092301    0.401940    0.426682
C    -0.067666    0.345183    0.326002   -0.809166   -0.828192    0.004329
O    -1.859663   -1.373258    0.792480    0.919467    0.579660   -0.555749
O    -2.004832    0.984960   -0.895531   -0.035548    0.037102   -0.059764
O    -0.603601    0.792714   -0.876693   -0.098173   -0.184169    0.158131
H     4.132377    0.085994   -0.916939   -0.073105   -0.002917   -0.034099
H     3.347700    1.081112    0.310006   -0.045543   -0.026632    0.008039
H     3.713898   -0.610029    0.648256   -0.026767   -0.032643   -0.034109
H     1.170096   -0.905899    1.295993    0.187290   -0.025495    0.109375
H     2.082546   -1.327308   -1.094588   -0.029234    0.041345   -0.140035
H     1.712422    0.346187   -1.475654   -0.135811    0.048048    0.088997
H    -0.788584   -0.334961    2.257573   -0.255805    0.120614    0.414943
H    -1.975003    0.643226    1.340019   -0.350924    0.095711    0.386017
H    -2.337545    0.068786   -0.907609   -0.127698    0.079774    0.184783
17
* Frequency(6) -429.4558
C     3.380218    0.081917   -0.126986   -0.048522   -0.018420   -0.011279
C     0.961873   -0.372450    0.386858    0.055415   -0.136685    0.097611
C     2.014753   -0.321762   -0.671538   -0.080091   -0.019864    0.009331
C    -1.278472   -0.173900    1.309191   -0.092301    0.401940    0.426682
C    -0.130809    0.280556    0.326340   -0.809166   -0.828192    0.004329
O    -1.787913   -1.328025    0.749113    0.919467    0.579660   -0.555749
O    -2.007606    0.987855   -0.900194   -0.035548    0.037102   -0.059764
O    -0.611262    0.778343   -0.864354   -0.098173   -0.184169    0.158131
H     4.126672    0.085766   -0.919599   -0.073105   -0.002917   -0.034099
H     3.344147    1.079034    0.310633   -0.045543   -0.026632    0.008039
H     3.711809   -0.612576    0.645594   -0.026767   -0.032643   -0.034109
H     1.184711   -0.907888    1.304528    0.187290   -0.025495    0.109375
H     2.080265   -1.324081   -1.105515   -0.029234    0.041345   -0.140035
H     1.701824    0.349937   -1.468709   -0.135811    0.048048    0.088997
H    -0.808545   -0.325549    2.289953   -0.255805    0.120614    0.414943
H    -2.002387    0.650694    1.370141   -0.350924    0.095711    0.386017
H    -2.347510    0.075011   -0.893190   -0.127698    0.079774    0.184783
17
* Frequency(6) -429.4558
C     3.375301    0.080051   -0.128129   -0.048522   -0.018420   -0.011279
C     0.967488   -0.386300    0.396749    0.055415   -0.136685    0.097611
C     2.006638   -0.323775   -0.670592   -0.080091   -0.019864    0.009331
C    -1.287825   -0.133172    1.352427   -0.092301    0.401940    0.426682
C    -0.212801    0.196635    0.326778   -0.809166   -0.828192    0.004329
O    -1.694744   -1.269288    0.692799    0.919467    0.579660   -0.555749
O    -2.011208    0.991615   -0.906250   -0.035548    0.037102   -0.059764
O    -0.621210    0.759681   -0.848330   -0.098173   -0.184169    0.158131
H     4.119265    0.085471   -0.923055   -0.073105   -0.002917   -0.034099
H     3.339532    1.076335    0.311448   -0.045543   -0.026632    0.008039
H     3.709097   -0.615883    0.642138   -0.026767   -0.032643   -0.034109
H     1.203689   -0.910471    1.315611    0.187290   -0.025495    0.109375
H     2.077302   -1.319892   -1.119705   -0.029234    0.041345   -0.140035
H     1.688063    0.354805   -1.459691   -0.135811    0.048048    0.088997
H    -0.834466   -0.313327    2.331999   -0.255805    0.120614    0.414943
H    -2.037946    0.660392    1.409256   -0.350924    0.095711    0.386017
H    -2.360449    0.083094   -0.874466   -0.127698    0.079774    0.184783
17
* Frequency(6) -429.4558
C     3.369787    0.077957   -0.129410   -0.048522   -0.018420   -0.011279
C     0.973785   -0.401833    0.407842    0.055415   -0.136685    0.097611
C     1.997536   -0.326033   -0.669532   -0.080091   -0.019864    0.009331
C    -1.298314   -0.087493    1.400917   -0.092301    0.401940    0.426682
C    -0.304759    0.102515    0.327270   -0.809166   -0.828192    0.004329
O    -1.590251   -1.203413    0.629641    0.919467    0.579660   -0.555749
O    -2.015248    0.995831   -0.913042   -0.035548    0.037102   -0.059764
O    -0.632367    0.738751   -0.830360   -0.098173   -0.184169    0.158131
H     4.110957    0.085139   -0.926930   -0.073105   -0.002917   -0.034099
H     3.334356    1.073309    0.312362   -0.045543   -0.026632    0.008039
H     3.706055   -0.619593    0.638261   -0.026767   -0.032643   -0.034109
H     1.224974   -0.913369    1.328041    0.187290   -0.025495    0.109375
H     2.073980   -1.315193   -1.135619   -0.029234    0.041345   -0.140035
H     1.672628    0.360266   -1.449577   -0.135811    0.048048    0.088997
H    -0.863537   -0.299620    2.379155   -0.255805    0.120614    0.414943
H    -2.077827    0.671269    1.453125   -0.350924    0.095711    0.386017
H    -2.374961    0.092160   -0.853466   -0.127698    0.079774    0.184783
